
     Program PWSCF v.7.3.1 starts on  1Aug2026 at 18:41:36 

     This program is part of the open-source Quantum ESPRESSO suite
     for quantum simulation of materials; please cite
         "P. Giannozzi et al., J. Phys.:Condens. Matter 21 395502 (2009);
         "P. Giannozzi et al., J. Phys.:Condens. Matter 29 465901 (2017);
         "P. Giannozzi et al., J. Chem. Phys. 152 154105 (2020);
          URL http://www.quantum-espresso.org", 
     in publications or presentations arising from this work. More details at
     http://www.quantum-espresso.org/quote

     Parallel version (MPI), running on     8 processors

     MPI processes distributed on     1 nodes
     170960 MiB available memory on the printing compute node when the environment starts

     Reading input from pw.in

     Current dimensions of program PWSCF are:
     Max number of different atomic species (ntypx) = 10
     Max number of k-points (npk) =  40000
     Max angular momentum in pseudopotentials (lmaxx) =  4
     file C.pbe-n-kjpaw_psl.1.0.0.UPF: wavefunction(s)  2S 2P renormalized
     Message from routine volume:
     axis vectors are left-handed
     Message from routine setup:
     using ibrav=0 with symmetry is DISCOURAGED, use correct ibrav instead

     R & G space division:  proc/nbgrp/npool/nimage =       8
     Subspace diagonalization in iterative solution of the eigenvalue problem:
     a serial algorithm will be used


     Parallelization info
     --------------------
     sticks:   dense  smooth     PW     G-vecs:    dense   smooth      PW
     Min         230     115     32                71394    25245    3888
     Max         231     116     33                71427    25280    3921
     Sum        1845     921    263               571319   202059   31279

     Using Slab Decomposition



     bravais-lattice index     =            0
     lattice parameter (alat)  =       4.7752  a.u.
     unit-cell volume          =    1750.9355 (a.u.)^3
     number of atoms/cell      =           36
     number of atomic types    =            2
     number of electrons       =       132.00
     number of Kohn-Sham states=           79
     kinetic-energy cutoff     =      90.0000  Ry
     charge density cutoff     =     720.0000  Ry
     scf convergence threshold =      1.0E-08
     mixing beta               =       0.3000
     number of iterations used =            8  plain     mixing
     Exchange-correlation= PBE
                           (   1   4   3   4   0   0   0)

     celldm(1)=   4.775235  celldm(2)=   0.000000  celldm(3)=   0.000000
     celldm(4)=   0.000000  celldm(5)=   0.000000  celldm(6)=   0.000000

     crystal axes: (cart. coord. in units of alat)
               a(1) = (   1.000000   0.000000   0.000000 )  
               a(2) = (   0.000000  -1.414214   0.000000 )  
               a(3) = (   0.000000   0.000000  11.370270 )  

     reciprocal axes: (cart. coord. in units 2 pi/alat)
               b(1) = (  1.000000 -0.000000 -0.000000 )  
               b(2) = ( -0.000000 -0.707107 -0.000000 )  
               b(3) = ( -0.000000 -0.000000  0.087949 )  


     PseudoPot. # 1 for C  read from file:
     ./C.pbe-n-kjpaw_psl.1.0.0.UPF
     MD5 check sum: 5d2aebdfa2cae82b50a7e79e9516da0f
     Pseudo is Projector augmented-wave + core cor, Zval =  4.0
     Generated using "atomic" code by A. Dal Corso  v.5.1
     Shape of augmentation charge: PSQ
     Using radial grid of 1073 points,  4 beta functions with: 
                l(1) =   0
                l(2) =   0
                l(3) =   1
                l(4) =   1
     Q(r) pseudized with 0 coefficients 


     PseudoPot. # 2 for H  read from file:
     ./H_ONCV_PBE-1.0.oncvpsp.upf
     MD5 check sum: 1790becc920ee074925cf490c71280fe
     Pseudo is Norm-conserving, Zval =  1.0
     Generated using ONCVPSP code by D. R. Hamann
     Using radial grid of 1166 points,  2 beta functions with: 
                l(1) =   0
                l(2) =   0

     atomic species   valence    mass     pseudopotential
     C                 4.00    12.01100     C ( 1.00)
     H                 1.00     1.00800     H ( 1.00)

      8 Sym. Ops., with inversion, found ( 6 have fractional translation)



   Cartesian axes

     site n.     atom                  positions (alat units)
         1        C      tau(   1) = (   0.0000000  -0.3611312   9.4242284  )
         2        C      tau(   2) = (   0.5000000  -0.6995290   9.4242284  )
         3        C      tau(   3) = (   0.5000000  -1.0618077   8.9354812  )
         4        C      tau(   4) = (  -0.0000000   0.0011475   8.9354812  )
         5        C      tau(   5) = (  -0.0000000  -0.3533263   8.4344664  )
         6        C      tau(   6) = (   0.5000000  -0.7073339   8.4344664  )
         7        C      tau(   7) = (   0.5000000  -1.0606569   7.9346882  )
         8        C      tau(   8) = (   0.0000000  -0.0000033   7.9346882  )
         9        C      tau(   9) = (   0.0000000  -0.3535624   7.4347969  )
        10        C      tau(  10) = (   0.5000000  -0.7070978   7.4347969  )
        11        C      tau(  11) = (   0.5000000  -1.0606573   6.9348761  )
        12        C      tau(  12) = (  -0.0000000  -0.0000028   6.9348761  )
        13        C      tau(  13) = (   0.0000000  -0.3535561   6.4349478  )
        14        C      tau(  14) = (   0.5000000  -0.7071041   6.4349478  )
        15        C      tau(  15) = (   0.5000000  -1.0606695   5.9350642  )
        16        C      tau(  16) = (  -0.0000000   0.0000093   5.9350642  )
        17        C      tau(  17) = (   0.5000000  -0.7070975   5.4352059  )
        18        C      tau(  18) = (  -0.0000000  -0.3535627   5.4352059  )
        19        C      tau(  19) = (   0.0000000   0.0000027   4.9353223  )
        20        C      tau(  20) = (   0.5000000  -1.0606629   4.9353223  )
        21        C      tau(  21) = (   0.5000000  -0.7071096   4.4353940  )
        22        C      tau(  22) = (  -0.0000000  -0.3535506   4.4353940  )
        23        C      tau(  23) = (  -0.0000000   0.0000090   3.9354731  )
        24        C      tau(  24) = (   0.5000000  -1.0606692   3.9354731  )
        25        C      tau(  25) = (   0.5000000  -0.7071101   3.4355819  )
        26        C      tau(  26) = (   0.0000000  -0.3535501   3.4355819  )
        27        C      tau(  27) = (   0.0000000  -0.0002271   2.9358037  )
        28        C      tau(  28) = (   0.5000000  -1.0604331   2.9358037  )
        29        C      tau(  29) = (  -0.0000000  -0.3547009   2.4347889  )
        30        C      tau(  30) = (   0.5000000  -0.7059592   2.4347889  )
        31        C      tau(  31) = (   0.0000000   0.0075778   1.9460416  )
        32        C      tau(  32) = (   0.5000000  -1.0682380   1.9460416  )
        33        H      tau(  33) = (   0.0000000  -0.1238383   9.7887764  )
        34        H      tau(  34) = (   0.5000000  -0.9368219   9.7887764  )
        35        H      tau(  35) = (  -0.0000000  -0.2297151   1.5814937  )
        36        H      tau(  36) = (   0.5000000  -0.8309451   1.5814937  )

     number of k points=    20  Marzari-Vanderbilt smearing, width (Ry)=  0.0100
                       cart. coord. in units 2pi/alat
        k(    1) = (   0.0000000  -0.0000000   0.0000000), wk =   0.0317460
        k(    2) = (   0.0000000  -0.1010153   0.0000000), wk =   0.0634921
        k(    3) = (   0.0000000  -0.2020305   0.0000000), wk =   0.0634921
        k(    4) = (   0.0000000  -0.3030458   0.0000000), wk =   0.0634921
        k(    5) = (   0.1111111  -0.0000000   0.0000000), wk =   0.0634921
        k(    6) = (   0.1111111  -0.1010153   0.0000000), wk =   0.1269841
        k(    7) = (   0.1111111  -0.2020305   0.0000000), wk =   0.1269841
        k(    8) = (   0.1111111  -0.3030458   0.0000000), wk =   0.1269841
        k(    9) = (   0.2222222  -0.0000000   0.0000000), wk =   0.0634921
        k(   10) = (   0.2222222  -0.1010153   0.0000000), wk =   0.1269841
        k(   11) = (   0.2222222  -0.2020305   0.0000000), wk =   0.1269841
        k(   12) = (   0.2222222  -0.3030458   0.0000000), wk =   0.1269841
        k(   13) = (   0.3333333  -0.0000000   0.0000000), wk =   0.0634921
        k(   14) = (   0.3333333  -0.1010153   0.0000000), wk =   0.1269841
        k(   15) = (   0.3333333  -0.2020305   0.0000000), wk =   0.1269841
        k(   16) = (   0.3333333  -0.3030458   0.0000000), wk =   0.1269841
        k(   17) = (   0.4444444  -0.0000000   0.0000000), wk =   0.0634921
        k(   18) = (   0.4444444  -0.1010153   0.0000000), wk =   0.1269841
        k(   19) = (   0.4444444  -0.2020305   0.0000000), wk =   0.1269841
        k(   20) = (   0.4444444  -0.3030458   0.0000000), wk =   0.1269841

     Dense  grid:   571319 G-vectors     FFT dimensions: (  48,  60, 480)

     Smooth grid:   202059 G-vectors     FFT dimensions: (  30,  48, 360)

     Estimated max dynamical RAM per process >     287.00 MB

     Estimated total dynamical RAM >       2.24 GB

     Check: negative core charge=   -0.000001

     Initial potential from superposition of free atoms

     starting charge     131.9986, renormalised to     132.0000
     Starting wfcs are  132 randomized atomic wfcs
     Checking if some PAW data can be deallocated... 

     total cpu time spent up to now is      298.0 secs

     Self-consistent Calculation

     iteration #  1     ecut=    90.00 Ry     beta= 0.30
     Davidson diagonalization with overlap
     ethr =  1.00E-02,  avg # of iterations =  2.6

     total cpu time spent up to now is      808.7 secs

     total energy              =    -594.84344517 Ry
     estimated scf accuracy    <       2.28873674 Ry

     iteration #  2     ecut=    90.00 Ry     beta= 0.30
     Davidson diagonalization with overlap
     ethr =  1.73E-03,  avg # of iterations =  5.0

     negative rho (up, down):  5.146E-07 0.000E+00

     total cpu time spent up to now is     1229.3 secs

     total energy              =    -594.56961959 Ry
     estimated scf accuracy    <       0.84344570 Ry

     iteration #  3     ecut=    90.00 Ry     beta= 0.30
     Davidson diagonalization with overlap
     ethr =  6.39E-04,  avg # of iterations =  6.0

     negative rho (up, down):  1.161E-06 0.000E+00

     total cpu time spent up to now is     1670.6 secs

     total energy              =    -594.61610812 Ry
     estimated scf accuracy    <       0.06673974 Ry

     iteration #  4     ecut=    90.00 Ry     beta= 0.30
     Davidson diagonalization with overlap
     c_bands:  1 eigenvalues not converged
     ethr =  5.06E-05,  avg # of iterations = 10.8

     negative rho (up, down):  1.482E-06 0.000E+00

     total cpu time spent up to now is     2261.0 secs

     total energy              =    -594.62368348 Ry
     estimated scf accuracy    <       0.00801849 Ry

     iteration #  5     ecut=    90.00 Ry     beta= 0.30
     Davidson diagonalization with overlap
     c_bands:  2 eigenvalues not converged
     ethr =  6.07E-06,  avg # of iterations =  9.9

     negative rho (up, down):  1.856E-06 0.000E+00

     total cpu time spent up to now is     2828.5 secs

     total energy              =    -594.62463004 Ry
     estimated scf accuracy    <       0.00167405 Ry

     iteration #  6     ecut=    90.00 Ry     beta= 0.30
     Davidson diagonalization with overlap
     c_bands:  1 eigenvalues not converged
     ethr =  1.27E-06,  avg # of iterations =  8.1

     negative rho (up, down):  2.072E-06 0.000E+00

     total cpu time spent up to now is     3330.3 secs

     total energy              =    -594.62473308 Ry
     estimated scf accuracy    <       0.00043101 Ry

     iteration #  7     ecut=    90.00 Ry     beta= 0.30
     Davidson diagonalization with overlap
     ethr =  3.27E-07,  avg # of iterations =  2.5

     negative rho (up, down):  2.232E-06 0.000E+00

     total cpu time spent up to now is     3722.4 secs

     total energy              =    -594.62477669 Ry
     estimated scf accuracy    <       0.00005680 Ry

     iteration #  8     ecut=    90.00 Ry     beta= 0.30
     Davidson diagonalization with overlap
     ethr =  4.30E-08,  avg # of iterations =  2.2

     negative rho (up, down):  2.215E-06 0.000E+00

     total cpu time spent up to now is     4166.2 secs

     total energy              =    -594.62478549 Ry
     estimated scf accuracy    <       0.00000563 Ry

     iteration #  9     ecut=    90.00 Ry     beta= 0.30
     Davidson diagonalization with overlap
     ethr =  4.27E-09,  avg # of iterations =  2.9

     negative rho (up, down):  2.221E-06 0.000E+00

     total cpu time spent up to now is     4639.2 secs

     total energy              =    -594.62478689 Ry
     estimated scf accuracy    <       0.00000100 Ry

     iteration # 10     ecut=    90.00 Ry     beta= 0.30
     Davidson diagonalization with overlap
     ethr =  7.60E-10,  avg # of iterations =  3.0

     negative rho (up, down):  2.219E-06 0.000E+00

     total cpu time spent up to now is     5116.2 secs

     total energy              =    -594.62478712 Ry
     estimated scf accuracy    <       0.00000031 Ry

     iteration # 11     ecut=    90.00 Ry     beta= 0.30
     Davidson diagonalization with overlap
     ethr =  2.36E-10,  avg # of iterations =  2.1

     negative rho (up, down):  2.227E-06 0.000E+00

     total cpu time spent up to now is     5529.9 secs

     total energy              =    -594.62478718 Ry
     estimated scf accuracy    <       0.00000003 Ry

     iteration # 12     ecut=    90.00 Ry     beta= 0.30
     Davidson diagonalization with overlap
     ethr =  2.61E-11,  avg # of iterations =  3.8

     negative rho (up, down):  2.233E-06 0.000E+00

     total cpu time spent up to now is     6018.2 secs

     total energy              =    -594.62478719 Ry
     estimated scf accuracy    <       0.00000001 Ry

     iteration # 13     ecut=    90.00 Ry     beta= 0.30
     Davidson diagonalization with overlap
     ethr =  1.13E-11,  avg # of iterations =  2.7

     negative rho (up, down):  2.255E-06 0.000E+00

     total cpu time spent up to now is     6437.0 secs

     End of self-consistent calculation

          k = 0.0000-0.0000 0.0000 ( 25317 PWs)   bands (ev):

   -12.6593 -12.4709 -12.1596 -11.7246 -11.1685 -10.4938  -9.7085  -8.8273
    -7.8722  -6.8738  -5.8772  -4.9694  -4.3116  -4.0366  -4.0071  -3.9927
    -3.9819  -3.8260  -3.5504  -3.1641  -2.6680  -2.0604  -1.3445  -0.8506
    -0.8064  -0.5300  -0.4481  -0.2125   0.1452   0.3681   0.6396   0.9104
     1.3353   1.5129   1.7992   2.1686   2.3640   2.4620   2.6135   2.7760
     2.8609   3.2016   3.4520   3.6291   3.8094   4.1355   4.5894   4.7048
     4.8685   5.3135   5.7436   5.9186   5.9329   6.5326   6.8494   6.9140
     7.0859   7.5725   7.7898   7.8003   7.9781   8.2927   8.4322   8.4520
     8.5127   8.6402  10.4699  10.9315  13.1151  13.4943  13.6455  13.8507
    13.8930  14.2275  14.3355  14.3537  14.5021  14.5407  14.6280

          k = 0.0000-0.1010 0.0000 ( 25281 PWs)   bands (ev):

   -12.4719 -12.2841 -11.9737 -11.5403 -10.9866 -10.3156  -9.5365  -8.6666
    -7.7351  -6.7949  -6.1702  -6.0521  -5.9307  -5.8006  -5.5239  -5.4702
    -3.1692  -3.1561  -2.6711  -2.5901  -1.9899  -1.9226  -1.7268  -1.6912
    -1.0451  -0.1783   0.1555   0.2970   0.6518   0.9299   1.0956   1.1379
     1.6996   1.7904   2.1255   2.3740   2.5455   2.6438   2.7918   3.0330
     3.1065   3.3641   3.5610   3.7776   4.0341   4.2641   4.6990   4.8052
     4.9636   5.3742   5.8320   5.8834   5.9390   6.4660   6.7615   6.8512
     6.9271   7.3046   7.5430   7.5907   7.6389   7.7876   7.9075   7.9679
     8.0958   8.2434  10.6905  11.1438  13.1817  13.2336  13.7415  13.9529
    14.3139  14.3776  14.6022  14.7208  14.8961  15.1527  15.1599

          k = 0.0000-0.2020 0.0000 ( 25224 PWs)   bands (ev):

   -11.9117 -11.7258 -11.4187 -10.9907 -10.4454  -9.7882  -9.0343  -8.2238
    -8.0815  -7.9224  -7.6390  -7.4404  -7.2126  -6.9187  -6.6359  -6.5371
    -3.9915  -3.8167  -3.4809  -3.0286  -2.6268  -2.0074  -1.6011  -0.9222
    -0.5103   0.0607   0.5580   0.6003   1.5073   1.8175   2.1080   2.4613
     2.5351   2.8034   2.9153   3.0627   3.1831   3.2981   3.3200   3.5411
     3.7254   3.8414   4.2102   4.2783   4.3459   4.6330   5.0013   5.0846
     5.2847   5.5304   5.6887   5.9314   6.0562   6.2537   6.3564   6.4793
     6.6039   6.6250   6.6441   6.6648   6.6834   6.6836   7.0711   7.1345
     7.3766   7.3941  11.3321  11.7314  13.0987  13.4308  13.9141  14.1724
    14.2232  14.3753  14.8113  15.0153  15.1638  15.5414  15.6903

          k = 0.0000-0.3030 0.0000 ( 25204 PWs)   bands (ev):

   -10.9851 -10.8033 -10.5042 -10.0905  -9.7031  -9.5961  -9.4964  -9.2498
    -8.9260  -8.8396  -8.3286  -8.2370  -7.7449  -7.5555  -7.1835  -7.0632
    -4.4450  -4.2273  -3.8926  -3.4068  -2.9667  -2.3661  -1.8580  -1.2047
    -0.6601   0.0258   0.5680   1.2650   1.7602   2.3936   2.8432   3.4301
     3.6105   3.9785   4.0602   4.1262   4.1752   4.2941   4.3575   4.5265
     4.5978   4.7668   4.8602   4.8791   5.0871   5.1710   5.2391   5.3068
     5.3941   5.4381   5.4612   5.4803   5.6103   5.6809   5.6829   5.7968
     5.8454   5.8899   5.9290   5.9349   5.9489   6.0974   6.1317   6.2000
     6.2881   6.2976  12.3350  12.5782  13.3294  13.4070  13.6214  13.8001
    14.0951  14.4650  14.6095  14.9355  15.2272  15.5454  15.7004

          k = 0.1111-0.0000 0.0000 ( 25271 PWs)   bands (ev):

   -12.4326 -12.2446 -11.9339 -11.4998 -10.9449 -10.2717  -9.4882  -8.6091
    -7.6567  -6.6615  -5.6688  -4.7657  -4.1120  -3.9244  -3.8350  -3.8065
    -3.7808  -3.7593  -3.4865  -3.1042  -2.6131  -2.0116  -1.3030  -0.6554
    -0.6041  -0.4969  -0.2658  -0.0087   0.3105   0.3916   0.8411   1.0537
     1.3475   1.4302   1.5881   1.7096   1.8459   1.9128   2.2007   2.3600
     2.3629   2.6452   2.8488   3.1699   3.4352   3.7576   3.8245   4.3821
     4.5515   4.8015   5.0120   5.5982   5.6905   5.7346   6.1485   6.5673
     6.6106   6.7295   6.9918   7.2340   7.2359   7.4352   7.4509   7.6657
     7.7558   8.3281  10.7008  11.1332  13.2912  13.9770  13.9935  14.0429
    14.2636  14.3943  14.6332  14.7012  15.0254  15.1596  15.2674

          k = 0.1111-0.1010 0.0000 ( 25229 PWs)   bands (ev):

   -12.2457 -12.0583 -11.7486 -11.3161 -10.7637 -10.0943  -9.3171  -8.4496
    -7.5211  -6.5850  -5.9870  -5.8645  -5.7332  -5.6180  -5.3400  -5.2794
    -3.0205  -3.0023  -2.5293  -2.4508  -1.9022  -1.7902  -1.6892  -1.6743
    -0.9232  -0.0783   0.2396   0.3543   0.6714   0.9916   1.1679   1.1686
     1.6508   1.7122   1.8732   1.9248   2.1689   2.1789   2.4618   2.5437
     2.5698   2.8973   3.0858   3.3898   3.5657   3.9320   3.9702   4.4942
     4.6767   4.8403   5.0412   5.5403   5.6196   5.7079   5.9789   6.1448
     6.2545   6.3342   6.4129   6.4286   6.9303   6.9521   7.5956   7.6205
     8.0729   8.1886  10.9362  11.3674  13.5424  13.9203  14.6360  14.6612
    14.7355  14.8173  14.9154  15.1693  15.2674  15.2898  15.4176

          k = 0.1111-0.2020 0.0000 ( 25228 PWs)   bands (ev):

   -11.6870 -11.5015 -11.1953 -10.7684 -10.2247  -9.5694  -8.8179  -8.0108
    -7.8763  -7.7183  -7.4366  -7.2336  -7.0106  -6.7192  -6.4353  -6.3399
    -3.8014  -3.6218  -3.3000  -2.8390  -2.4559  -1.8316  -1.4453  -0.7809
    -0.3875   0.0474   0.3284   0.6327   1.3650   1.5676   1.9103   1.9171
     2.2357   2.2930   2.6400   2.7681   2.7726   3.1783   3.2185   3.2301
     3.2938   3.5036   3.8215   3.9345   4.1964   4.2154   4.5049   4.7106
     4.8094   4.8543   5.0645   5.1066   5.1501   5.2629   5.2684   5.2853
     5.3439   5.3564   5.7047   5.9962   6.3917   6.6768   7.1920   7.4881
     7.6784   7.7176  11.5955  11.9920  13.9113  14.0531  14.6950  14.9220
    15.0128  15.3222  15.5484  15.7816  15.9525  16.0274  16.0331

          k = 0.1111-0.3030 0.0000 ( 25213 PWs)   bands (ev):

   -10.7636 -10.5824 -10.2843  -9.8720  -9.4873  -9.3798  -9.2811  -9.0359
    -8.7121  -8.6277  -8.1194  -8.0263  -7.5390  -7.3491  -6.9812  -6.8613
    -4.2412  -4.0237  -3.6961  -3.2091  -2.7795  -2.1766  -1.6830  -1.0267
    -0.5037   0.1822   0.6859   1.3414   1.7535   1.9071   2.5257   2.6000
     2.8495   2.9794   3.1510   3.3279   3.3347   3.7287   3.7392   3.7812
     3.9176   4.0723   4.2161   4.2804   4.3449   4.3699   4.6239   4.6376
     4.7518   4.8783   4.9065   4.9575   5.0373   5.1562   5.3053   5.4113
     5.4415   5.4739   5.6198   5.8965   6.1546   6.2054   6.4373   6.4594
     6.6084   6.6113  12.6238  12.9116  14.0029  14.0586  14.1709  14.5972
    14.6642  15.1495  15.5785  15.6083  15.9616  16.3542  16.4580

          k = 0.2222-0.0000 0.0000 ( 25248 PWs)   bands (ev):

   -11.7556 -11.5688 -11.2601 -10.8288 -10.2777  -9.6091  -8.8311  -7.9586
    -7.0139  -6.0280  -5.0468  -4.1571  -4.0333  -3.8707  -3.6019  -3.5148
    -3.2337  -3.2250  -3.2048  -3.1794  -2.7409  -2.1479  -1.4493  -0.6545
    -0.2731  -0.1091  -0.0896  -0.0164   0.1583   0.2215   0.2590   0.5252
     0.5834   0.7796   0.9825   1.1636   1.4178   1.4571   1.5181   2.1087
     2.1650   2.2008   2.2841   2.7268   2.9183   2.9944   3.2183   3.3304
     3.7706   3.8805   4.3098   4.3483   4.4769   4.7071   4.9684   5.0626
     5.1274   5.2310   5.2790   5.4249   5.4945   5.7713   5.9164   6.4541
     7.3181   7.8928  11.4212  11.7733  13.3499  13.3672  13.5944  13.7281
    14.1069  14.2907  14.3501  14.6033  15.0499  15.1035  15.3954

          k = 0.2222-0.1010 0.0000 ( 25206 PWs)   bands (ev):

   -11.5703 -11.3842 -11.0766 -10.6471 -10.0986  -9.4341  -8.6629  -7.8026
    -6.8832  -5.9600  -5.5099  -5.3731  -5.1505  -5.1345  -4.8387  -4.7361
    -2.7253  -2.7111  -2.2915  -2.2441  -2.1849  -2.0950  -2.0588  -1.5203
    -0.6908  -0.2393  -0.0834   0.1777   0.2459   0.4561   0.4972   0.5032
     0.9886   1.2323   1.4415   1.5035   1.7333   1.9273   2.0140   2.3627
     2.4671   2.5244   2.5419   2.8865   3.0983   3.2502   3.3894   3.4602
     3.6763   3.9398   3.9828   3.9926   4.0050   4.0921   4.2301   4.2869
     4.4294   4.7535   5.2129   5.5830   6.0179   6.2813   6.6734   6.7852
     7.1434   7.5098  11.6673  12.0272  14.0169  14.0618  14.1412  14.2635
    14.3564  14.6559  14.7046  14.7519  15.0586  15.3217  15.4558

          k = 0.2222-0.2020 0.0000 ( 25191 PWs)   bands (ev):

   -11.0171 -10.8330 -10.5293 -10.1059  -9.5668  -8.9175  -8.1734  -7.3785
    -7.2823  -7.1289  -6.8516  -6.6249  -6.4193  -6.1378  -5.8420  -5.7614
    -3.2837  -3.0882  -2.8138  -2.3373  -2.0122  -1.4728  -1.2907  -1.1722
    -1.1003  -1.0836  -0.1867   0.0827   0.3875   0.5756   0.7938   1.0415
     1.4540   1.4663   1.9917   2.1545   2.1810   2.3812   2.4548   2.5100
     2.7732   2.8719   2.9599   3.2339   3.2681   3.3392   3.4044   3.5044
     3.5554   3.6755   3.7339   3.7666   3.9468   4.0797   4.1633   4.2395
     4.5067   4.6212   5.1326   5.4904   5.9096   6.2309   6.5576   6.8768
     7.2112   7.2422  12.3386  12.6792  14.8464  14.9931  15.2041  15.2160
    15.4243  15.4828  15.6801  15.6863  15.7818  15.8084  15.9292

          k = 0.2222-0.3030 0.0000 ( 25237 PWs)   bands (ev):

   -10.1047  -9.9253  -9.6303  -9.2224  -8.8501  -8.7382  -8.6442  -8.4043
    -8.0770  -8.0023  -7.5017  -7.4008  -6.9305  -6.7359  -6.3816  -6.2609
    -3.6604  -3.4404  -3.1409  -2.6464  -2.2604  -1.6492  -1.2274  -0.5909
    -0.3092  -0.2399  -0.1737  -0.0742   0.6012   0.8428   0.9208   1.0268
     1.1314   1.1590   1.3396   1.5852   1.9592   2.0397   2.1027   2.2535
     2.4782   2.5211   2.7182   2.8382   2.9085   3.2553   3.6443   4.1688
     4.4629   4.4847   4.5293   4.6747   4.8221   4.8276   5.0461   5.0843
     5.1152   5.2200   5.2344   5.2530   5.4622   5.8364   6.2251   6.3278
     6.5302   6.5508  13.3327  13.5723  14.7978  14.8628  15.4738  15.8268
    15.9389  16.0666  16.0849  16.3242  16.3676  16.5109  16.6569

          k = 0.3333-0.0000 0.0000 ( 25210 PWs)   bands (ev):

   -10.6400 -10.4553 -10.1501  -9.7239  -9.1793  -8.5186  -7.7502  -6.8887
    -5.9569  -5.2807  -5.1116  -4.9860  -4.8322  -4.4414  -4.0222  -3.9409
    -3.3308  -3.1520  -2.6164  -2.5255  -2.2419  -2.2042  -2.1835  -1.8091
    -0.9268  -0.5962  -0.4432  -0.1951   0.0087   0.1429   0.5582   0.7786
     0.8847   0.9708   1.0364   1.0571   1.4181   1.5422   1.5503   1.8941
     1.9512   2.0630   2.3567   2.4947   2.5318   2.5896   2.8904   2.9308
     2.9823   2.9977   3.0011   3.1835   3.2435   3.4069   3.5379   3.6863
     3.7944   3.8441   3.8954   3.9244   3.9247   4.0149   4.8274   5.7539
     6.5686   7.1194  12.5487  12.7119  13.0070  13.0506  13.3850  13.5024
    14.0279  14.2073  14.5742  15.1336  15.3625  15.4109  15.6452

          k = 0.3333-0.1010 0.0000 ( 25216 PWs)   bands (ev):

   -10.4584 -10.2744  -9.9706  -9.5464  -9.0049  -8.3490  -7.5880  -6.7399
    -5.8361  -5.4871  -5.3237  -5.0719  -4.9183  -4.7030  -4.2824  -4.2076
    -3.1945  -3.1677  -3.0338  -3.0223  -2.8472  -2.7789  -2.6694  -1.9293
    -1.0891  -0.4255  -0.3027  -0.1528  -0.0867   0.2523   0.4601   0.7155
     0.7982   0.8649   0.9004   1.4357   1.5726   1.5933   1.6600   1.7519
     1.7597   1.9569   2.0414   2.3433   2.3971   2.5597   2.7186   2.7572
     2.8226   2.9806   3.0428   3.0864   3.2147   3.3796   3.4363   3.7051
     3.9304   3.9509   4.4165   4.5888   4.7959   5.0117   5.1473   5.5645
     6.3790   6.9280  12.8260  13.0545  13.6740  13.6928  13.8553  13.9075
    14.1740  14.3289  14.6659  14.7293  15.2059  15.3836  15.5799

          k = 0.3333-0.2020 0.0000 ( 25267 PWs)   bands (ev):

    -9.9177  -9.7362  -9.4369  -9.0198  -8.4890  -7.8499  -7.1185  -6.4938
    -6.3331  -6.3297  -6.0520  -5.7473  -5.4911  -5.3095  -4.9002  -4.8973
    -3.3932  -3.2394  -3.0094  -2.8327  -2.7732  -2.6187  -2.4890  -2.4165
    -1.7017  -0.9310  -0.6218  -0.6106  -0.2870  -0.0916   0.0048   0.0566
     0.1456   0.1844   0.3758   0.4125   0.5434   1.0465   1.2115   1.5823
     1.7510   1.9417   2.2419   2.7384   2.8928   3.0525   3.0751   3.3368
     3.3691   3.4589   3.6049   3.7029   3.7584   3.8312   3.8733   3.9446
     4.1092   4.4013   4.4079   4.7450   5.1549   5.4775   5.8571   5.9852
     6.2713   6.4446  13.4595  13.6721  14.6855  14.7072  14.9514  15.0361
    15.3656  15.3882  15.5273  15.5912  15.7082  15.7778  15.8336

          k = 0.3333-0.3030 0.0000 ( 25305 PWs)   bands (ev):

    -9.0337  -8.8577  -8.5682  -8.1683  -7.8464  -7.7123  -7.6268  -7.4089
    -7.0494  -7.0178  -6.5290  -6.3879  -5.9679  -5.7414  -5.4207  -5.2850
    -2.8934  -2.7100  -2.6521  -2.5520  -2.4801  -2.2870  -2.0550  -1.9322
    -1.7570  -1.7216  -1.5570  -1.4174  -1.1860  -1.0787  -0.8620  -0.7151
    -0.2747  -0.0705   0.1176   0.5840   0.6196   0.6531   0.8250   0.9215
     1.1684   1.6840   2.1599   2.7857   2.9104   3.0026   3.2154   3.3497
     3.5337   3.8037   3.9715   4.1039   4.2014   4.5725   4.6204   4.7263
     5.0037   5.0615   5.0731   5.2632   5.3240   5.3371   5.6568   5.8433
     6.1809   6.2409  14.2360  14.3380  15.6599  15.7160  15.8385  15.8458
    16.0983  16.1740  16.4398  16.5729  16.5791  16.8425  16.9135

          k = 0.4444-0.0000 0.0000 ( 25216 PWs)   bands (ev):

    -9.1137  -8.9322  -8.6325  -8.2140  -7.6792  -7.2483  -7.0717  -7.0305
    -6.7802  -6.3729  -6.2757  -5.8523  -5.4298  -5.2201  -4.5152  -4.4836
    -3.6568  -3.5629  -2.7610  -2.6186  -1.8251  -1.7675  -1.1559  -0.8913
    -0.8719  -0.8162  -0.8051  -0.0425   0.4045   0.5334   0.5692   0.7389
     0.8553   0.9327   0.9345   1.0111   1.3317   1.6765   1.8039   1.8641
     1.9932   2.0102   2.0667   2.0750   2.1110   2.2126   2.2922   2.3466
     2.3624   2.4934   2.5098   2.5230   2.6153   2.6609   2.6777   2.7032
     2.7194   2.7930   3.1630   3.5119   3.8608   4.3153   4.7177   4.8937
     5.5111   6.0650  13.0890  13.1423  13.3925  13.5939  13.8183  13.9677
    13.9850  14.2848  14.3184  14.3871  14.3993  14.6904  14.8703

          k = 0.4444-0.1010 0.0000 ( 25268 PWs)   bands (ev):

    -8.9414  -8.7610  -8.4630  -8.0471  -7.5162  -7.1152  -6.9403  -6.8730
    -6.6515  -6.2490  -6.1261  -5.7342  -5.2945  -5.1106  -4.4097  -4.3906
    -3.5581  -3.4834  -2.6957  -2.6605  -2.2823  -2.1655  -2.1063  -1.9735
    -1.9023  -1.8115  -0.9954  -0.5518  -0.4514  -0.4352  -0.2962  -0.2373
     0.5623   0.5739   0.9284   1.0112   1.4316   1.6005   1.8462   1.9084
     1.9515   1.9654   1.9846   2.0347   2.3445   2.4754   2.4836   2.6087
     2.7580   2.8024   2.8306   2.9196   3.0280   3.0962   3.1515   3.3490
     3.3864   3.4714   3.5995   3.7214   3.9825   4.4357   4.7213   4.9838
     5.4961   6.0454  13.7240  13.7506  13.7969  13.8188  13.9270  13.9634
    14.1047  14.3319  14.5797  14.7513  14.9017  15.0593  15.1644

          k = 0.4444-0.2020 0.0000 ( 25281 PWs)   bands (ev):

    -8.4371  -8.2599  -7.9677  -7.5606  -7.0426  -6.8126  -6.6432  -6.4226
    -6.3596  -5.9777  -5.6986  -5.4831  -4.9200  -4.8907  -4.2349  -4.1660
    -3.8431  -3.6878  -3.4785  -3.3210  -3.2374  -3.1476  -2.8432  -2.8143
    -2.5870  -2.2698  -2.1255  -1.9732  -1.8185  -1.6621  -1.3906  -1.3888
    -0.1058  -0.0372   0.4084   0.4567   1.0589   1.0909   1.1612   1.3254
     1.6695   1.7150   2.0292   2.2088   2.2800   2.5175   2.7573   2.8267
     3.1263   3.3076   3.4998   3.5827   3.6418   3.8483   3.9830   4.0541
     4.1984   4.3733   4.5362   4.5902   4.7802   4.9322   5.0461   5.2291
     5.4205   5.9627  14.4656  14.5098  14.7258  14.7682  14.8813  15.0523
    15.1797  15.1918  15.2371  15.4582  15.5629  15.6969  15.7581

          k = 0.4444-0.3030 0.0000 ( 25310 PWs)   bands (ev):

    -7.6608  -7.4902  -7.2097  -6.8873  -6.8192  -6.7223  -6.4501  -6.3303
    -6.0685  -5.7551  -5.5778  -5.1327  -4.9779  -4.5196  -4.4320  -4.3248
    -4.2663  -4.0444  -3.9891  -3.6803  -3.6386  -3.5187  -3.2725  -3.2504
    -3.0020  -2.9454  -2.7861  -2.7549  -2.5984  -2.5294  -2.1750  -2.1748
    -0.2879  -0.1006   0.0343   0.2433   0.3295   0.5518   0.9226   1.3003
     1.3237   1.5228   1.7986   1.9777   2.1610   2.3749   2.6664   2.9711
     2.9751   3.3768   3.5481   3.7582   3.9494   4.2874   4.4312   4.4669
     4.7508   4.9942   5.0719   5.2393   5.2644   5.4825   5.5391   5.5676
     5.7926   5.8378  14.9926  15.0108  15.6608  15.6610  16.1360  16.1851
    16.4549  16.5799  16.7475  16.7706  16.8603  16.8967  16.9858

     the Fermi energy is     9.2527 ev

!    total energy              =    -594.62478720 Ry
     estimated scf accuracy    <          1.9E-09 Ry
     smearing contrib. (-TS)   =       0.00000000 Ry
     internal energy E=F+TS    =    -594.62478720 Ry

     The total energy is F=E-TS. E is the sum of the following terms:
     one-electron contribution =   -4499.30605980 Ry
     hartree contribution      =    2328.64134833 Ry
     xc contribution           =    -152.81187938 Ry
     ewald contribution        =    1926.06517253 Ry
     one-center paw contrib.   =    -197.21336887 Ry

     convergence has been achieved in  13 iterations

     negative rho (up, down):  2.255E-06 0.000E+00

     Forces acting on atoms (cartesian axes, Ry/au):

     atom    1 type  1   force =     0.00000000   -0.00004479   -0.00001785
     atom    2 type  1   force =     0.00000000    0.00004479   -0.00001785
     atom    3 type  1   force =     0.00000000   -0.00001114    0.00005467
     atom    4 type  1   force =     0.00000000    0.00001114    0.00005467
     atom    5 type  1   force =     0.00000000    0.00000569    0.00004237
     atom    6 type  1   force =    -0.00000000   -0.00000569    0.00004237
     atom    7 type  1   force =     0.00000000    0.00001175   -0.00004694
     atom    8 type  1   force =    -0.00000000   -0.00001175   -0.00004694
     atom    9 type  1   force =     0.00000000   -0.00000524   -0.00006941
     atom   10 type  1   force =     0.00000000    0.00000524   -0.00006941
     atom   11 type  1   force =     0.00000000   -0.00001462    0.00001411
     atom   12 type  1   force =     0.00000000    0.00001462    0.00001411
     atom   13 type  1   force =     0.00000000   -0.00000160    0.00008943
     atom   14 type  1   force =     0.00000000    0.00000160    0.00008943
     atom   15 type  1   force =     0.00000000    0.00001584    0.00005218
     atom   16 type  1   force =     0.00000000   -0.00001584    0.00005218
     atom   17 type  1   force =     0.00000000   -0.00001584   -0.00005218
     atom   18 type  1   force =     0.00000000    0.00001584   -0.00005218
     atom   19 type  1   force =     0.00000000    0.00000160   -0.00008943
     atom   20 type  1   force =     0.00000000   -0.00000160   -0.00008943
     atom   21 type  1   force =     0.00000000    0.00001462   -0.00001411
     atom   22 type  1   force =     0.00000000   -0.00001462   -0.00001411
     atom   23 type  1   force =     0.00000000    0.00000524    0.00006941
     atom   24 type  1   force =     0.00000000   -0.00000524    0.00006941
     atom   25 type  1   force =     0.00000000   -0.00001175    0.00004694
     atom   26 type  1   force =     0.00000000    0.00001175    0.00004694
     atom   27 type  1   force =     0.00000000   -0.00000569   -0.00004237
     atom   28 type  1   force =     0.00000000    0.00000569   -0.00004237
     atom   29 type  1   force =     0.00000000   -0.00001114   -0.00005467
     atom   30 type  1   force =     0.00000000    0.00001114   -0.00005467
     atom   31 type  1   force =     0.00000000    0.00004479    0.00001785
     atom   32 type  1   force =     0.00000000   -0.00004479    0.00001785
     atom   33 type  2   force =     0.00000000   -0.00001488   -0.00001525
     atom   34 type  2   force =     0.00000000    0.00001488   -0.00001525
     atom   35 type  2   force =     0.00000000    0.00001488    0.00001525
     atom   36 type  2   force =     0.00000000   -0.00001488    0.00001525

     Total force =     0.000324     Total SCF correction =     0.000119
     SCF correction compared to forces is large: reduce conv_thr to get better values


     Computing stress (Cartesian axis) and pressure


     negative rho (up, down):  2.255E-06 0.000E+00
          total   stress  (Ry/bohr**3)                   (kbar)     P=       13.97
   0.00008946   0.00000000   0.00000000           13.16        0.00        0.00
   0.00000000   0.00019670   0.00000000            0.00       28.94        0.00
   0.00000000   0.00000000  -0.00000135            0.00        0.00       -0.20


     Writing all to output data dir /tmp/qe/slab.save/ :
     XML data file, charge density, pseudopotentials, collected wavefunctions

     init_run     :      4.54s CPU      4.91s WALL (       1 calls)
     electrons    :    114.32s CPU    116.87s WALL (       1 calls)
     forces       :      1.34s CPU      1.41s WALL (       1 calls)
     stress       :     33.55s CPU     33.86s WALL (       1 calls)

     Called by init_run:
     wfcinit      :      4.04s CPU      4.28s WALL (       1 calls)
     potinit      :      0.25s CPU      0.30s WALL (       1 calls)
     hinit0       :      0.07s CPU      0.11s WALL (       1 calls)

     Called by electrons:
     c_bands      :     94.55s CPU     96.42s WALL (      13 calls)
     sum_band     :     15.69s CPU     16.03s WALL (      13 calls)
     v_of_rho     :      1.20s CPU      1.32s WALL (      14 calls)
     newd         :      0.80s CPU      1.03s WALL (      14 calls)
     PAW_pot      :      2.15s CPU      2.17s WALL (      14 calls)
     mix_rho      :      0.12s CPU      0.13s WALL (      13 calls)

     Called by c_bands:
     init_us_2    :      2.31s CPU      2.34s WALL (     580 calls)
     cegterg      :     90.81s CPU     92.55s WALL (     260 calls)

     Called by *egterg:
     cdiaghg      :      7.44s CPU      7.64s WALL (    1495 calls)
     h_psi        :     62.68s CPU     63.73s WALL (    1515 calls)
     s_psi        :      6.50s CPU      6.57s WALL (    1515 calls)
     g_psi        :      0.36s CPU      0.36s WALL (    1235 calls)

     Called by h_psi:
     h_psi:calbec :      6.08s CPU      6.15s WALL (    1515 calls)
     vloc_psi     :     49.56s CPU     50.11s WALL (    1515 calls)
     add_vuspsi   :      6.65s CPU      6.68s WALL (    1515 calls)

     General routines
     calbec       :      9.34s CPU      9.42s WALL (    1875 calls)
     fft          :      0.52s CPU      0.64s WALL (     205 calls)
     ffts         :      0.02s CPU      0.05s WALL (      27 calls)
     fftw         :     43.72s CPU     44.15s WALL (  132228 calls)
     interpolate  :      0.05s CPU      0.07s WALL (      14 calls)

     Parallel routines

     PWSCF        :   2m34.14s CPU   2m37.77s WALL


   This run was terminated on:  18:42:24   1Aug2026            

=------------------------------------------------------------------------------=
   JOB DONE.
=------------------------------------------------------------------------------=
Note: The following floating-point exceptions are signalling: IEEE_UNDERFLOW_FLAG IEEE_DENORMAL
Note: The following floating-point exceptions are signalling: IEEE_UNDERFLOW_FLAG IEEE_DENORMAL
Note: The following floating-point exceptions are signalling: IEEE_UNDERFLOW_FLAG IEEE_DENORMAL
Note: The following floating-point exceptions are signalling: IEEE_UNDERFLOW_FLAG IEEE_DENORMAL
Note: The following floating-point exceptions are signalling: IEEE_UNDERFLOW_FLAG IEEE_DENORMAL
Note: The following floating-point exceptions are signalling: IEEE_UNDERFLOW_FLAG IEEE_DENORMAL
Note: The following floating-point exceptions are signalling: IEEE_UNDERFLOW_FLAG IEEE_DENORMAL
Note: The following floating-point exceptions are signalling: IEEE_UNDERFLOW_FLAG IEEE_DENORMAL
