
     Program PWSCF v.7.5 starts on  7Jul2026 at 13:37: 9 

     This program is part of the open-source Quantum ESPRESSO suite
     for quantum simulation of materials; please cite
         "P. Giannozzi et al., J. Phys.:Condens. Matter 21 395502 (2009);
         "P. Giannozzi et al., J. Phys.:Condens. Matter 29 465901 (2017);
         "P. Giannozzi et al., J. Chem. Phys. 152 154105 (2020);
          URL http://www.quantum-espresso.org", 
     in publications or presentations arising from this work. More details at
     http://www.quantum-espresso.org/quote

     Serial version
     0 MiB available memory on the printing compute node when the environment starts

     Waiting for input...
     Reading input from standard input

     Current dimensions of program PWSCF are:
     Max number of different atomic species (ntypx) = 10
     Max number of k-points (npk) =  40000
     Max angular momentum in pseudopotentials (lmaxx) =  4
     file C.pbe-n-kjpaw_psl.1.0.0.UPF: wavefunction(s)  2S 2P renormalized
     Message from routine setup:
     using ibrav=0 with symmetry is DISCOURAGED, use correct ibrav instead


     G-vector sticks info
     --------------------
     sticks:   dense  smooth     PW     G-vecs:    dense   smooth      PW
     Sum         745     367    121                97395    34333    6041

     Using Slab Decomposition



     bravais-lattice index     =            0
     lattice parameter (alat)  =       4.7514  a.u.
     unit-cell volume          =     547.6218 (a.u.)^3
     number of atoms/cell      =            8
     number of atomic types    =            2
     number of electrons       =        26.00
     number of Kohn-Sham states=           17
     kinetic-energy cutoff     =      60.0000  Ry
     charge density cutoff     =     480.0000  Ry
     scf convergence threshold =      1.0E-08
     mixing beta               =       0.3000
     number of iterations used =            8  plain     mixing
     Exchange-correlation= PBE
                           (   1   4   3   4   0   0   0)

     celldm(1)=   4.751359  celldm(2)=   0.000000  celldm(3)=   0.000000
     celldm(4)=   0.000000  celldm(5)=   0.000000  celldm(6)=   0.000000

     crystal axes: (cart. coord. in units of alat)
               a(1) = (   1.000000   0.000000   0.000000 )  
               a(2) = (   0.500000   0.866025   0.000000 )  
               a(3) = (   0.000000   0.000000   5.895172 )  

     reciprocal axes: (cart. coord. in units 2 pi/alat)
               b(1) = (  1.000000 -0.577350  0.000000 )  
               b(2) = (  0.000000  1.154701  0.000000 )  
               b(3) = (  0.000000  0.000000  0.169630 )  


     PseudoPot. # 1 for C  read from file:
     ./C.pbe-n-kjpaw_psl.1.0.0.UPF
     MD5 check sum: 5d2aebdfa2cae82b50a7e79e9516da0f
     Pseudo is Projector augmented-wave + core cor, Zval =  4.0
     Generated using "atomic" code by A. Dal Corso  v.5.1
     Shape of augmentation charge: PSQ
     Using radial grid of 1073 points,  4 beta functions with: 
                l(1) =   0
                l(2) =   0
                l(3) =   1
                l(4) =   1
     Q(r) pseudized with 0 coefficients 


     PseudoPot. # 2 for H  read from file:
     ./H_ONCV_PBE-1.0.oncvpsp.upf
     MD5 check sum: 1790becc920ee074925cf490c71280fe
     Pseudo is Norm-conserving, Zval =  1.0
     Generated using ONCVPSP code by D. R. Hamann
     Using radial grid of 1166 points,  2 beta functions with: 
                l(1) =   0
                l(2) =   0

     atomic species   valence    mass     pseudopotential
     C                 4.00    12.01100     C ( 1.00)
     H                 1.00     1.00800     H ( 1.00)

     12 Sym. Ops., with inversion, found ( 6 have fractional translation)



   Cartesian axes

     site n.     atom                  positions (alat units)
         1        C      tau(   1) = (   0.5000000   0.2886751   3.8619058  )
         2        C      tau(   2) = (   1.0000000   0.5773503   3.6678789  )
         3        C      tau(   3) = (   1.0000000   0.5773503   3.0497482  )
         4        C      tau(   4) = (   0.0000000   0.0000000   2.8454237  )
         5        C      tau(   5) = (   0.0000000   0.0000000   2.2272930  )
         6        C      tau(   6) = (   0.5000000   0.2886751   2.0332661  )
         7        H      tau(   7) = (   0.5000000   0.2886751   4.3029579  )
         8        H      tau(   8) = (   0.5000000   0.2886751   1.5922140  )

     number of k points=    12  Marzari-Vanderbilt smearing, width (Ry)=  0.0100
                       cart. coord. in units 2pi/alat
        k(    1) = (   0.0000000   0.0000000   0.0000000), wk =   0.0246914
        k(    2) = (   0.0000000   0.1283001   0.0000000), wk =   0.1481481
        k(    3) = (   0.0000000   0.2566001   0.0000000), wk =   0.1481481
        k(    4) = (   0.0000000   0.3849002   0.0000000), wk =   0.1481481
        k(    5) = (   0.0000000   0.5132002   0.0000000), wk =   0.1481481
        k(    6) = (   0.1111111   0.1924501   0.0000000), wk =   0.1481481
        k(    7) = (   0.1111111   0.3207501   0.0000000), wk =   0.2962963
        k(    8) = (   0.1111111   0.4490502   0.0000000), wk =   0.2962963
        k(    9) = (   0.1111111  -0.5773503   0.0000000), wk =   0.1481481
        k(   10) = (   0.2222222   0.3849002   0.0000000), wk =   0.1481481
        k(   11) = (   0.2222222  -0.6415003   0.0000000), wk =   0.2962963
        k(   12) = (   0.3333333  -0.5773503   0.0000000), wk =   0.0493827

     Dense  grid:    97395 G-vectors     FFT dimensions: (  36,  36, 200)

     Smooth grid:    34333 G-vectors     FFT dimensions: (  24,  24, 144)

     Estimated max dynamical RAM per process >     168.12 MB

     Check: negative core charge=   -0.000002

     Initial potential from superposition of free atoms

     starting charge      25.9997, renormalised to      26.0000

     negative rho (up, down):  2.244E-07 0.000E+00
     Starting wfcs are   26 randomized atomic wfcs

     total cpu time spent up to now is        0.6 secs

     Self-consistent Calculation

     iteration #  1     ecut=    60.00 Ry     beta= 0.30
     Davidson diagonalization with overlap
     ethr =  1.00E-02,  avg # of iterations =  2.8

     negative rho (up, down):  1.268E-06 0.000E+00

     total cpu time spent up to now is        1.4 secs

     total energy              =    -113.01461038 Ry
     estimated scf accuracy    <       0.62287901 Ry

     iteration #  2     ecut=    60.00 Ry     beta= 0.30
     Davidson diagonalization with overlap
     ethr =  2.40E-03,  avg # of iterations =  3.2

     negative rho (up, down):  4.356E-06 0.000E+00

     total cpu time spent up to now is        2.1 secs

     total energy              =    -112.97674808 Ry
     estimated scf accuracy    <       0.18719221 Ry

     iteration #  3     ecut=    60.00 Ry     beta= 0.30
     Davidson diagonalization with overlap
     ethr =  7.20E-04,  avg # of iterations =  4.7

     negative rho (up, down):  4.476E-06 0.000E+00

     total cpu time spent up to now is        2.9 secs

     total energy              =    -112.98223832 Ry
     estimated scf accuracy    <       0.02758553 Ry

     iteration #  4     ecut=    60.00 Ry     beta= 0.30
     Davidson diagonalization with overlap
     ethr =  1.06E-04,  avg # of iterations =  4.4

     negative rho (up, down):  3.206E-06 0.000E+00

     total cpu time spent up to now is        3.6 secs

     total energy              =    -112.98318580 Ry
     estimated scf accuracy    <       0.00332210 Ry

     iteration #  5     ecut=    60.00 Ry     beta= 0.30
     Davidson diagonalization with overlap
     ethr =  1.28E-05,  avg # of iterations =  5.3

     negative rho (up, down):  2.008E-06 0.000E+00

     total cpu time spent up to now is        4.5 secs

     total energy              =    -112.98360011 Ry
     estimated scf accuracy    <       0.00022347 Ry

     iteration #  6     ecut=    60.00 Ry     beta= 0.30
     Davidson diagonalization with overlap
     ethr =  8.59E-07,  avg # of iterations =  4.1

     negative rho (up, down):  1.787E-06 0.000E+00

     total cpu time spent up to now is        5.3 secs

     total energy              =    -112.98363131 Ry
     estimated scf accuracy    <       0.00007393 Ry

     iteration #  7     ecut=    60.00 Ry     beta= 0.30
     Davidson diagonalization with overlap
     ethr =  2.84E-07,  avg # of iterations =  2.0

     negative rho (up, down):  1.571E-06 0.000E+00

     total cpu time spent up to now is        6.0 secs

     total energy              =    -112.98364689 Ry
     estimated scf accuracy    <       0.00002578 Ry

     iteration #  8     ecut=    60.00 Ry     beta= 0.30
     Davidson diagonalization with overlap
     ethr =  9.91E-08,  avg # of iterations =  1.7

     negative rho (up, down):  1.517E-06 0.000E+00

     total cpu time spent up to now is        6.6 secs

     total energy              =    -112.98364925 Ry
     estimated scf accuracy    <       0.00000236 Ry

     iteration #  9     ecut=    60.00 Ry     beta= 0.30
     Davidson diagonalization with overlap
     ethr =  9.07E-09,  avg # of iterations =  2.3

     negative rho (up, down):  1.513E-06 0.000E+00

     total cpu time spent up to now is        7.3 secs

     total energy              =    -112.98364975 Ry
     estimated scf accuracy    <       0.00000016 Ry

     iteration # 10     ecut=    60.00 Ry     beta= 0.30
     Davidson diagonalization with overlap
     ethr =  6.18E-10,  avg # of iterations =  2.9

     negative rho (up, down):  1.520E-06 0.000E+00

     total cpu time spent up to now is        8.1 secs

     total energy              =    -112.98364975 Ry
     estimated scf accuracy    <       0.00000008 Ry

     iteration # 11     ecut=    60.00 Ry     beta= 0.30
     Davidson diagonalization with overlap
     ethr =  3.27E-10,  avg # of iterations =  2.0

     negative rho (up, down):  1.585E-06 0.000E+00

     total cpu time spent up to now is        8.8 secs

     End of self-consistent calculation

          k = 0.0000 0.0000 0.0000 (  4263 PWs)   bands (ev):

   -16.9394 -15.4505 -13.2232  -8.3616  -5.2802  -1.3699   1.6336   1.6336
     2.1493   2.4869   2.4869   3.5637   3.5637   6.4707   6.6800   9.2749
    10.5326

          k = 0.0000 0.1283 0.0000 (  4260 PWs)   bands (ev):

   -16.6355 -15.1528 -12.9383  -8.0865  -5.0489  -1.2385   0.2117   1.0026
     1.1286   1.9500   2.0511   2.4075   3.1141   6.7263   7.0145   9.2931
    10.5367

          k = 0.0000 0.2566 0.0000 (  4276 PWs)   bands (ev):

   -15.7301 -14.2673 -12.0931  -7.3175  -4.4441  -2.7876  -1.6777  -0.8799
    -0.2677  -0.1838   0.8551   1.8606   2.1208   7.4942   7.9170   9.4531
    10.4037

          k = 0.0000 0.3849 0.0000 (  4316 PWs)   bands (ev):

   -14.2476 -12.8267 -10.7374  -6.7670  -5.7306  -4.4947  -3.8256  -2.6370
    -1.1906  -0.7927  -0.1115   1.1654   1.2026   8.6328   9.0114   9.7443
    10.6027

          k = 0.0000 0.5132 0.0000 (  4310 PWs)   bands (ev):

   -12.2852 -11.0604  -9.6685  -8.2271  -7.9901  -6.1596  -3.8461  -2.5666
    -1.7388  -1.3766  -0.6448   0.6212   0.6880   9.0710   9.7670  10.4685
    10.9011

          k = 0.1111 0.1925 0.0000 (  4260 PWs)   bands (ev):

   -16.0308 -14.5611 -12.3729  -7.5607  -4.6223  -1.5762  -0.9822  -0.9394
     0.0115   0.3118   1.4098   1.4169   2.3871   7.2740   7.6373   9.7303
    10.6456

          k = 0.1111 0.3208 0.0000 (  4300 PWs)   bands (ev):

   -14.8357 -13.3956 -11.2660  -6.7097  -4.4332  -3.9020  -3.0516  -2.2777
    -1.1584  -0.7490  -0.5007   0.4656   1.7690   8.3889   8.6924  10.3131
    11.0553

          k = 0.1111 0.4491 0.0000 (  4318 PWs)   bands (ev):

   -13.0967 -11.7282  -9.7650  -7.5812  -6.6701  -4.8829  -4.3175  -2.6120
    -2.4199  -1.6128  -0.9146  -0.1149   0.8948   9.4374  10.0449  10.8288
    11.6282

          k = 0.1111-0.5774 0.0000 (  4304 PWs)   bands (ev):

   -11.2839 -10.7562  -9.5472  -8.6280  -7.4826  -6.9487  -3.2822  -3.0028
    -2.5801  -1.6346  -1.5621  -0.1616   0.3925   9.6992  10.6832  11.4708
    11.8056

          k = 0.2222 0.3849 0.0000 (  4310 PWs)   bands (ev):

   -13.3780 -11.9868  -9.9519  -6.7371  -5.5560  -4.8030  -3.9600  -3.3778
    -2.7053  -1.8929  -1.6806  -0.5946   0.9884   9.6255   9.9192  11.2830
    11.8517

          k = 0.2222-0.6415 0.0000 (  4301 PWs)   bands (ev):

   -11.4675 -10.2890  -8.9175  -7.9394  -7.4116  -6.1138  -4.4407  -4.0601
    -3.0035  -2.6186  -1.7037  -0.8747  -0.0055  10.2416  10.9160  12.1144
    12.2597

          k = 0.3333-0.5774 0.0000 (  4278 PWs)   bands (ev):

    -9.8295  -9.8295  -8.7414  -8.4292  -7.0325  -7.0325  -4.9170  -4.6338
    -4.6338  -1.8258  -1.2691  -1.2691  -0.9569  10.8497  10.8497  11.5050
    13.2185

     the Fermi energy is     4.3044 ev

!    total energy              =    -112.98364977 Ry
     estimated scf accuracy    <          7.8E-09 Ry
     smearing contrib. (-TS)   =       0.00000000 Ry
     internal energy E=F+TS    =    -112.98364977 Ry

     The total energy is F=E-TS. E is the sum of the following terms:
     one-electron contribution =    -594.36620595 Ry
     hartree contribution      =     308.24542774 Ry
     xc contribution           =     -29.55995281 Ry
     ewald contribution        =     239.67640452 Ry
     one-center paw contrib.   =     -36.97932327 Ry

     convergence has been achieved in  11 iterations

     negative rho (up, down):  1.585E-06 0.000E+00

     Forces acting on atoms (cartesian axes, Ry/au):

     atom    1 type  1   force =     0.00000000    0.00000000    0.00117588
     atom    2 type  1   force =     0.00000000    0.00000000   -0.00090258
     atom    3 type  1   force =     0.00000000    0.00000000    0.00048405
     atom    4 type  1   force =     0.00000000   -0.00000000   -0.00048405
     atom    5 type  1   force =     0.00000000    0.00000000    0.00090258
     atom    6 type  1   force =     0.00000000    0.00000000   -0.00117588
     atom    7 type  2   force =     0.00000000    0.00000000    0.00041228
     atom    8 type  2   force =     0.00000000    0.00000000   -0.00041228

     Total force =     0.002281     Total SCF correction =     0.000095


     Computing stress (Cartesian axis) and pressure


     negative rho (up, down):  1.585E-06 0.000E+00
          total   stress  (Ry/bohr**3)                   (kbar)     P=       20.37
   0.00020748   0.00000000   0.00000000           30.52        0.00        0.00
   0.00000000   0.00020748  -0.00000000            0.00       30.52       -0.00
   0.00000000  -0.00000000   0.00000044            0.00       -0.00        0.06


     Writing all to output data dir ./tmp/slab.save/ :
     XML data file, charge density, pseudopotentials, collected wavefunctions

     init_run     :      0.53s CPU      0.57s WALL (       1 calls)
     electrons    :      7.53s CPU      8.16s WALL (       1 calls)
     forces       :      0.13s CPU      0.15s WALL (       1 calls)
     stress       :      0.35s CPU      0.40s WALL (       1 calls)

     Called by init_run:
     wfcinit      :      0.25s CPU      0.27s WALL (       1 calls)
     potinit      :      0.13s CPU      0.14s WALL (       1 calls)
     hinit0       :      0.12s CPU      0.12s WALL (       1 calls)

     Called by electrons:
     c_bands      :      4.95s CPU      5.40s WALL (      11 calls)
     sum_band     :      1.05s CPU      1.12s WALL (      11 calls)
     v_of_rho     :      0.45s CPU      0.48s WALL (      12 calls)
     newd         :      0.21s CPU      0.25s WALL (      12 calls)
     PAW_pot      :      0.92s CPU      0.97s WALL (      12 calls)
     mix_rho      :      0.05s CPU      0.05s WALL (      11 calls)

     Called by c_bands:
     init_us_2    :      0.11s CPU      0.12s WALL (     300 calls)
     cegterg      :      4.78s CPU      5.21s WALL (     132 calls)

     Called by *egterg:
     cdiaghg      :      0.09s CPU      0.09s WALL (     557 calls)
     h_psi        :      3.94s CPU      4.11s WALL (     569 calls)
     s_psi        :      0.21s CPU      0.27s WALL (     569 calls)
     g_psi        :      0.02s CPU      0.02s WALL (     425 calls)

     Called by h_psi:
     h_psi:calbec :      0.25s CPU      0.30s WALL (     569 calls)
     vloc_psi     :      3.45s CPU      3.49s WALL (     569 calls)
                                        0.00s GPU  (     569 calls)
     add_vuspsi   :      0.23s CPU      0.30s WALL (     569 calls)

     General routines
     calbec       :      0.42s CPU      0.53s WALL (     905 calls)
     fft          :      0.25s CPU      0.25s WALL (     179 calls)
     ffts         :      0.01s CPU      0.01s WALL (      23 calls)
     fftw         :      3.66s CPU      3.67s WALL (   14518 calls)
     interpolate  :      0.02s CPU      0.03s WALL (      12 calls)


     PWSCF        :      8.57s CPU      9.32s WALL


   This run was terminated on:  13:37:19   7Jul2026            

=------------------------------------------------------------------------------=
   JOB DONE.
=------------------------------------------------------------------------------=
Note: The following floating-point exceptions are signalling: IEEE_INVALID_FLAG IEEE_DIVIDE_BY_ZERO IEEE_OVERFLOW_FLAG IEEE_UNDERFLOW_FLAG
