
     Program PWSCF v.7.5 starts on  7Jul2026 at 14:36:56 

     This program is part of the open-source Quantum ESPRESSO suite
     for quantum simulation of materials; please cite
         "P. Giannozzi et al., J. Phys.:Condens. Matter 21 395502 (2009);
         "P. Giannozzi et al., J. Phys.:Condens. Matter 29 465901 (2017);
         "P. Giannozzi et al., J. Chem. Phys. 152 154105 (2020);
          URL http://www.quantum-espresso.org", 
     in publications or presentations arising from this work. More details at
     http://www.quantum-espresso.org/quote

     Serial version
     0 MiB available memory on the printing compute node when the environment starts

     Waiting for input...
     Reading input from standard input

     Current dimensions of program PWSCF are:
     Max number of different atomic species (ntypx) = 10
     Max number of k-points (npk) =  40000
     Max angular momentum in pseudopotentials (lmaxx) =  4
     file C.pbe-n-kjpaw_psl.1.0.0.UPF: wavefunction(s)  2S 2P renormalized
     Message from routine volume:
     axis vectors are left-handed
     Message from routine setup:
     using ibrav=0 with symmetry is DISCOURAGED, use correct ibrav instead


     G-vector sticks info
     --------------------
     sticks:   dense  smooth     PW     G-vecs:    dense   smooth      PW
     Sum        1219     615    187               172663    61081    9883

     Using Slab Decomposition



     bravais-lattice index     =            0
     lattice parameter (alat)  =       4.7275  a.u.
     unit-cell volume          =     971.1636 (a.u.)^3
     number of atoms/cell      =           16
     number of atomic types    =            2
     number of electrons       =        52.00
     number of Kohn-Sham states=           31
     kinetic-energy cutoff     =      60.0000  Ry
     charge density cutoff     =     480.0000  Ry
     scf convergence threshold =      1.0E-08
     mixing beta               =       0.3000
     number of iterations used =            8  plain     mixing
     Exchange-correlation= PBE
                           (   1   4   3   4   0   0   0)

     celldm(1)=   4.727483  celldm(2)=   0.000000  celldm(3)=   0.000000
     celldm(4)=   0.000000  celldm(5)=   0.000000  celldm(6)=   0.000000

     crystal axes: (cart. coord. in units of alat)
               a(1) = (   1.000000   0.000000   0.000000 )  
               a(2) = (   0.000000  -1.428499   0.000000 )  
               a(3) = (   0.000000   0.000000   6.434616 )  

     reciprocal axes: (cart. coord. in units 2 pi/alat)
               b(1) = (  1.000000 -0.000000 -0.000000 )  
               b(2) = ( -0.000000 -0.700036 -0.000000 )  
               b(3) = ( -0.000000 -0.000000  0.155409 )  


     PseudoPot. # 1 for C  read from file:
     ./C.pbe-n-kjpaw_psl.1.0.0.UPF
     MD5 check sum: 5d2aebdfa2cae82b50a7e79e9516da0f
     Pseudo is Projector augmented-wave + core cor, Zval =  4.0
     Generated using "atomic" code by A. Dal Corso  v.5.1
     Shape of augmentation charge: PSQ
     Using radial grid of 1073 points,  4 beta functions with: 
                l(1) =   0
                l(2) =   0
                l(3) =   1
                l(4) =   1
     Q(r) pseudized with 0 coefficients 


     PseudoPot. # 2 for H  read from file:
     ./H_ONCV_PBE-1.0.oncvpsp.upf
     MD5 check sum: 1790becc920ee074925cf490c71280fe
     Pseudo is Norm-conserving, Zval =  1.0
     Generated using ONCVPSP code by D. R. Hamann
     Using radial grid of 1166 points,  2 beta functions with: 
                l(1) =   0
                l(2) =   0

     atomic species   valence    mass     pseudopotential
     C                 4.00    12.01100     C ( 1.00)
     H                 1.00     1.00800     H ( 1.00)

      8 Sym. Ops., with inversion, found ( 6 have fractional translation)



   Cartesian axes

     site n.     atom                  positions (alat units)
         1        C      tau(   1) = (   0.0000000  -0.3647883   4.4694555  )
         2        C      tau(   2) = (   0.5000000  -0.7065856   4.4694555  )
         3        C      tau(   3) = (   0.0000000   0.0011617   3.9757985  )
         4        C      tau(   4) = (   0.5000000  -1.0725356   3.9757985  )
         5        C      tau(   5) = (   0.0000000  -0.3568700   3.4697037  )
         6        C      tau(   6) = (   0.5000000  -0.7145039   3.4697037  )
         7        C      tau(   7) = (   0.0000000  -0.0002546   2.9649125  )
         8        C      tau(   8) = (   0.5000000  -1.0711193   2.9649125  )
         9        C      tau(   9) = (   0.0000000  -0.3582863   2.4588177  )
        10        C      tau(  10) = (   0.5000000  -0.7130876   2.4588177  )
        11        C      tau(  11) = (   0.0000000   0.0076637   1.9651607  )
        12        C      tau(  12) = (   0.5000000  -1.0790376   1.9651607  )
        13        H      tau(  13) = (   0.0000000  -0.1251374   4.8377398  )
        14        H      tau(  14) = (   0.5000000  -0.9462365   4.8377398  )
        15        H      tau(  15) = (   0.0000000  -0.2319872   1.5968764  )
        16        H      tau(  16) = (   0.5000000  -0.8393867   1.5968764  )

     number of k points=    20  Marzari-Vanderbilt smearing, width (Ry)=  0.0100
                       cart. coord. in units 2pi/alat
        k(    1) = (   0.0000000  -0.0000000   0.0000000), wk =   0.0317460
        k(    2) = (   0.0000000  -0.1000051   0.0000000), wk =   0.0634921
        k(    3) = (   0.0000000  -0.2000102   0.0000000), wk =   0.0634921
        k(    4) = (   0.0000000  -0.3000153   0.0000000), wk =   0.0634921
        k(    5) = (   0.1111111  -0.0000000   0.0000000), wk =   0.0634921
        k(    6) = (   0.1111111  -0.1000051   0.0000000), wk =   0.1269841
        k(    7) = (   0.1111111  -0.2000102   0.0000000), wk =   0.1269841
        k(    8) = (   0.1111111  -0.3000153   0.0000000), wk =   0.1269841
        k(    9) = (   0.2222222  -0.0000000   0.0000000), wk =   0.0634921
        k(   10) = (   0.2222222  -0.1000051   0.0000000), wk =   0.1269841
        k(   11) = (   0.2222222  -0.2000102   0.0000000), wk =   0.1269841
        k(   12) = (   0.2222222  -0.3000153   0.0000000), wk =   0.1269841
        k(   13) = (   0.3333333  -0.0000000   0.0000000), wk =   0.0634921
        k(   14) = (   0.3333333  -0.1000051   0.0000000), wk =   0.1269841
        k(   15) = (   0.3333333  -0.2000102   0.0000000), wk =   0.1269841
        k(   16) = (   0.3333333  -0.3000153   0.0000000), wk =   0.1269841
        k(   17) = (   0.4444444  -0.0000000   0.0000000), wk =   0.0634921
        k(   18) = (   0.4444444  -0.1000051   0.0000000), wk =   0.1269841
        k(   19) = (   0.4444444  -0.2000102   0.0000000), wk =   0.1269841
        k(   20) = (   0.4444444  -0.3000153   0.0000000), wk =   0.1269841

     Dense  grid:   172663 G-vectors     FFT dimensions: (  36,  48, 216)

     Smooth grid:    61081 G-vectors     FFT dimensions: (  24,  36, 160)

     Estimated max dynamical RAM per process >     394.85 MB

     Check: negative core charge=   -0.000002

     Initial potential from superposition of free atoms

     starting charge      51.9995, renormalised to      52.0000

     negative rho (up, down):  9.257E-08 0.000E+00
     Starting wfcs are   52 randomized atomic wfcs

     total cpu time spent up to now is        1.9 secs

     Self-consistent Calculation

     iteration #  1     ecut=    60.00 Ry     beta= 0.30
     Davidson diagonalization with overlap
     ethr =  1.00E-02,  avg # of iterations =  2.7

     negative rho (up, down):  1.102E-06 0.000E+00

     total cpu time spent up to now is        5.4 secs

     total energy              =    -226.00536933 Ry
     estimated scf accuracy    <       1.22945815 Ry

     iteration #  2     ecut=    60.00 Ry     beta= 0.30
     Davidson diagonalization with overlap
     ethr =  2.36E-03,  avg # of iterations =  3.6

     negative rho (up, down):  8.324E-06 0.000E+00

     total cpu time spent up to now is        8.4 secs

     total energy              =    -225.91899417 Ry
     estimated scf accuracy    <       0.37961218 Ry

     iteration #  3     ecut=    60.00 Ry     beta= 0.30
     Davidson diagonalization with overlap
     ethr =  7.30E-04,  avg # of iterations =  5.5

     negative rho (up, down):  1.780E-05 0.000E+00

     total cpu time spent up to now is       11.9 secs

     total energy              =    -225.93139044 Ry
     estimated scf accuracy    <       0.05353782 Ry

     iteration #  4     ecut=    60.00 Ry     beta= 0.30
     Davidson diagonalization with overlap
     ethr =  1.03E-04,  avg # of iterations =  4.2

     negative rho (up, down):  2.284E-05 0.000E+00

     total cpu time spent up to now is       15.0 secs

     total energy              =    -225.93411914 Ry
     estimated scf accuracy    <       0.00537337 Ry

     iteration #  5     ecut=    60.00 Ry     beta= 0.30
     Davidson diagonalization with overlap
     c_bands:  1 eigenvalues not converged
     c_bands:  1 eigenvalues not converged
     ethr =  1.03E-05,  avg # of iterations =  8.0

     negative rho (up, down):  2.188E-05 0.000E+00

     total cpu time spent up to now is       19.2 secs

     total energy              =    -225.93467816 Ry
     estimated scf accuracy    <       0.00054936 Ry

     iteration #  6     ecut=    60.00 Ry     beta= 0.30
     Davidson diagonalization with overlap
     ethr =  1.06E-06,  avg # of iterations =  5.3

     negative rho (up, down):  2.180E-05 0.000E+00

     total cpu time spent up to now is       22.9 secs

     total energy              =    -225.93478508 Ry
     estimated scf accuracy    <       0.00006760 Ry

     iteration #  7     ecut=    60.00 Ry     beta= 0.30
     Davidson diagonalization with overlap
     ethr =  1.30E-07,  avg # of iterations =  2.5

     negative rho (up, down):  2.139E-05 0.000E+00

     total cpu time spent up to now is       25.9 secs

     total energy              =    -225.93479079 Ry
     estimated scf accuracy    <       0.00001746 Ry

     iteration #  8     ecut=    60.00 Ry     beta= 0.30
     Davidson diagonalization with overlap
     ethr =  3.36E-08,  avg # of iterations =  2.0

     negative rho (up, down):  2.129E-05 0.000E+00

     total cpu time spent up to now is       29.0 secs

     total energy              =    -225.93479304 Ry
     estimated scf accuracy    <       0.00000249 Ry

     iteration #  9     ecut=    60.00 Ry     beta= 0.30
     Davidson diagonalization with overlap
     ethr =  4.79E-09,  avg # of iterations =  3.1

     negative rho (up, down):  2.125E-05 0.000E+00

     total cpu time spent up to now is       32.4 secs

     total energy              =    -225.93479356 Ry
     estimated scf accuracy    <       0.00000330 Ry

     iteration # 10     ecut=    60.00 Ry     beta= 0.30
     Davidson diagonalization with overlap
     ethr =  4.79E-09,  avg # of iterations =  2.0

     negative rho (up, down):  2.129E-05 0.000E+00

     total cpu time spent up to now is       35.4 secs

     total energy              =    -225.93479383 Ry
     estimated scf accuracy    <       0.00000022 Ry

     iteration # 11     ecut=    60.00 Ry     beta= 0.30
     Davidson diagonalization with overlap
     ethr =  4.30E-10,  avg # of iterations =  3.8

     negative rho (up, down):  2.135E-05 0.000E+00

     total cpu time spent up to now is       39.2 secs

     total energy              =    -225.93479393 Ry
     estimated scf accuracy    <       0.00000025 Ry

     iteration # 12     ecut=    60.00 Ry     beta= 0.30
     Davidson diagonalization with overlap
     ethr =  4.30E-10,  avg # of iterations =  2.0

     negative rho (up, down):  2.140E-05 0.000E+00

     total cpu time spent up to now is       42.3 secs

     total energy              =    -225.93479396 Ry
     estimated scf accuracy    <       0.00000002 Ry

     iteration # 13     ecut=    60.00 Ry     beta= 0.30
     Davidson diagonalization with overlap
     ethr =  2.98E-11,  avg # of iterations =  4.2

     negative rho (up, down):  2.145E-05 0.000E+00

     total cpu time spent up to now is       46.2 secs

     total energy              =    -225.93479396 Ry
     estimated scf accuracy    <       0.00000001 Ry

     iteration # 14     ecut=    60.00 Ry     beta= 0.30
     Davidson diagonalization with overlap
     ethr =  2.27E-11,  avg # of iterations =  2.0

     negative rho (up, down):  2.157E-05 0.000E+00

     total cpu time spent up to now is       49.2 secs

     End of self-consistent calculation

          k = 0.0000-0.0000 0.0000 (  7629 PWs)   bands (ev):

   -15.9663 -14.8951 -13.1449 -10.9543  -8.7853  -7.7030  -7.2707  -6.3330
    -4.7431  -4.4766  -4.0207  -2.9829  -2.6569  -2.1129  -0.7324  -0.6922
    -0.3188   0.1032   1.3800   1.7449   2.2441   2.8616   3.9940   4.1283
     4.4306   4.9641   7.0193   7.2783   9.7824  10.5589  10.8607

          k = 0.0000-0.1000 0.0000 (  7599 PWs)   bands (ev):

   -15.7802 -14.7148 -12.9820 -10.8703  -9.5387  -9.2915  -6.8085  -5.9727
    -5.5542  -4.0319  -3.5669  -2.9890  -1.8688  -1.8374  -0.9833  -0.5174
     0.2427   0.2519   1.4670   1.5898   2.3871   2.8142   3.8468   3.8492
     4.1769   4.4143   7.2238   7.5234   9.9775  10.4566  11.3424

          k = 0.0000-0.2000 0.0000 (  7607 PWs)   bands (ev):

   -15.2244 -14.1796 -12.5173 -11.4536 -10.6760 -10.6039  -7.3235  -6.7400
    -5.4243  -4.4074  -3.0249  -1.7238  -1.7003  -0.7285  -0.1238  -0.0003
     0.4848   0.6853   1.7051   2.1043   2.1100   2.6558   3.1433   3.2368
     3.4042   3.6853   7.8730   8.1204  10.4733  10.5433  11.0417

          k = 0.0000-0.3000 0.0000 (  7626 PWs)   bands (ev):

   -14.3083 -13.3483 -12.9838 -12.2122 -11.5948 -10.9584  -7.7151  -7.0722
    -5.6615  -4.7069  -2.9560  -1.9267  -0.3665   0.2088   0.8192   0.8328
     1.2693   1.3523   1.9442   1.9811   2.1024   2.2590   2.3192   2.4308
     2.7368   2.8244   8.9215   8.9868  10.0464  10.4024  10.9578

          k = 0.1111-0.0000 0.0000 (  7615 PWs)   bands (ev):

   -15.7355 -14.6669 -12.9208 -10.7359  -8.5755  -7.4987  -7.1870  -6.2580
    -4.6840  -4.2784  -3.8070  -2.8244  -2.6235  -1.9086  -1.7550  -0.9207
    -0.6537  -0.3245   0.4037   1.6501   1.8894   2.2020   3.1262   3.5366
     3.8673   4.3298   7.2393   7.5182   9.8472  11.0303  11.1424

          k = 0.1111-0.1000 0.0000 (  7617 PWs)   bands (ev):

   -15.5499 -14.4872 -12.7589 -10.6538  -9.3482  -9.0918  -6.6454  -5.8280
    -5.4598  -3.9191  -3.4387  -2.9489  -1.8088  -1.6934  -1.4944  -0.9585
    -0.6760   0.2087   0.5517   1.5579   1.8725   2.1315   2.8741   2.8849
     3.8143   4.2126   7.4705   7.7609  10.1580  11.3706  11.5995

          k = 0.1111-0.2000 0.0000 (  7606 PWs)   bands (ev):

   -14.9957 -13.9540 -12.2972 -11.2438 -10.4660 -10.3997  -7.1323  -6.5409
    -5.2621  -4.2587  -2.9821  -2.0005  -1.6986  -1.0519  -0.5562  -0.1207
     0.0466   0.2377   1.1024   1.6055   1.7253   1.7783   1.8929   2.2084
     3.3946   3.9867   8.1352   8.3894  10.7870  11.4477  11.6479

          k = 0.1111-0.3000 0.0000 (  7599 PWs)   bands (ev):

   -14.0827 -13.1265 -12.7642 -11.9963 -11.3819 -10.7505  -7.5079  -6.8707
    -5.4761  -4.5280  -2.8371  -1.8108  -0.9437  -0.2896  -0.1386   0.3446
     0.6876   0.6983   1.0553   1.2400   1.3699   1.7372   2.0489   2.4152
     2.8523   2.9921   9.1882   9.3125  10.5175  10.6818  11.7812

          k = 0.2222-0.0000 0.0000 (  7604 PWs)   bands (ev):

   -15.0461 -13.9857 -12.2523 -10.0843  -7.9491  -7.2359  -6.8873  -6.3188
    -4.7698  -3.7044  -3.5528  -3.1829  -2.7509  -2.6813  -2.3832  -1.3306
    -1.3116  -0.5061  -0.4922   0.1269   1.1766   1.2288   1.6770   1.9265
     2.2179   3.9275   7.9674   8.1965  10.2196  10.2830  10.8894

          k = 0.2222-0.1000 0.0000 (  7612 PWs)   bands (ev):

   -14.8622 -13.8081 -12.0935 -10.0090  -8.8354  -8.5150  -6.3197  -5.6620
    -5.5085  -3.8653  -3.5132  -3.3302  -2.3968  -2.2772  -1.7897  -1.1335
    -1.0514  -0.5297  -0.3525   0.3602   0.5621   0.6935   1.5058   1.6743
     3.0431   3.5406   8.2162   8.4472  10.6986  10.8690  11.0795

          k = 0.2222-0.2000 0.0000 (  7617 PWs)   bands (ev):

   -14.3135 -13.2817 -11.6415 -10.6341  -9.8419  -9.8039  -6.6157  -6.0103
    -4.8698  -4.6470  -3.3111  -3.1871  -2.4157  -1.7284  -1.0629  -0.8902
    -0.5753  -0.3619  -0.2540   0.1917   0.3316   0.6419   1.1814   1.9202
     2.8122   3.3917   8.8920   9.1009  11.4260  12.0068  12.1121

          k = 0.2222-0.3000 0.0000 (  7620 PWs)   bands (ev):

   -13.4115 -12.4672 -12.1147 -11.3566 -10.7502 -10.1329  -6.9208  -6.2989
    -4.9943  -4.0611  -3.6195  -2.5927  -2.3022  -2.1185  -1.4077  -1.2086
    -1.0911  -0.7409   0.2714   1.0885   1.2640   1.2822   1.4350   1.7423
     2.4797   2.8062   9.8927  10.0086  11.2940  11.3817  12.6707

          k = 0.3333-0.0000 0.0000 (  7622 PWs)   bands (ev):

   -13.9100 -12.8636 -11.1521  -9.0125  -8.4500  -7.4977  -6.9157  -5.9132
    -5.8747  -3.9496  -3.8867  -3.1415  -2.8250  -2.2082  -1.9363  -1.7747
    -1.7719  -0.7768  -0.6147  -0.4740  -0.3690  -0.0575   0.2942   0.4321
     1.3027   3.1551   9.1606   9.1763  10.0332  10.3552  11.4354

          k = 0.3333-0.1000 0.0000 (  7650 PWs)   bands (ev):

   -13.7297 -12.6904 -10.9993  -8.9626  -8.6700  -7.9191  -6.6905  -6.5907
    -5.9732  -4.1939  -3.9228  -3.1222  -3.0576  -2.2054  -1.8364  -1.6581
    -1.6372  -1.1539  -0.6422  -0.5311  -0.2931  -0.1466   0.5694   1.0906
     1.4107   2.9601   9.4044   9.5060  10.4995  10.7372  11.3965

          k = 0.3333-0.2000 0.0000 (  7628 PWs)   bands (ev):

   -13.1934 -12.1788 -10.5670  -9.7775  -8.9431  -8.8316  -6.6888  -6.2015
    -6.1651  -4.7999  -4.0785  -3.6737  -3.4116  -3.1210  -2.4157  -2.0884
    -1.4177  -0.3744  -0.2157  -0.1289   0.1024   0.4907   0.6239   0.9109
     2.2602   2.4507  10.0373  10.1302  11.4850  11.7023  12.1542

          k = 0.3333-0.3000 0.0000 (  7618 PWs)   bands (ev):

   -12.3188 -11.3970 -11.0841 -10.3329  -9.7325  -9.1337  -6.2209  -5.9388
    -5.5888  -5.3908  -4.8115  -4.3911  -3.6480  -3.2950  -2.7655  -2.6696
    -1.3324  -0.6592  -0.1115   0.0317   0.6699   1.0182   1.3321   1.5108
     1.8581   2.3534  10.7724  10.8489  12.1784  12.2693  12.5533

          k = 0.4444-0.0000 0.0000 (  7654 PWs)   bands (ev):

   -12.3548 -11.3297 -10.4528  -9.6501  -9.4579  -7.8211  -7.5491  -5.7634
    -5.4951  -4.4728  -3.7310  -2.9607  -2.7045  -2.3084  -1.7952  -1.4606
    -1.3970  -1.2908  -1.0161  -0.9181  -0.9050  -0.7903  -0.7882   0.2775
     0.8052   2.0529   9.8132  10.4118  10.6133  10.8505  11.0084

          k = 0.4444-0.1000 0.0000 (  7665 PWs)   bands (ev):

   -12.1837 -11.1670 -10.3203  -9.5119  -9.3353  -7.7640  -7.4369  -5.8134
    -5.7426  -5.7073  -4.1089  -3.9632  -3.0438  -2.3940  -1.9256  -1.6346
    -1.3631  -1.1209  -0.7915  -0.6946  -0.5822  -0.3267  -0.1457   0.3888
     0.9243   2.0347  10.4280  10.4366  10.5732  11.0668  11.4589

          k = 0.4444-0.2000 0.0000 (  7629 PWs)   bands (ev):

   -11.6824 -10.6944 -10.0196  -9.1658  -9.0254  -7.7245  -7.2773  -6.9890
    -6.6131  -5.8323  -5.5155  -5.0969  -3.3362  -3.2353  -2.2233  -1.9841
    -1.5417  -1.2635  -0.7349  -0.0825   0.0687   0.1938   0.6141   1.0918
     1.3132   1.9578  10.9775  11.1253  11.4087  11.5692  12.1043

          k = 0.4444-0.3000 0.0000 (  7623 PWs)   bands (ev):

   -10.9090 -10.1446  -9.9411  -9.2453  -8.4922  -7.9532  -7.7582  -7.0444
    -6.8752  -6.5842  -6.1391  -5.9769  -3.6647  -3.3219  -2.6618  -2.2988
    -1.7095  -1.4230  -0.5677  -0.2166   0.2382   0.3567   1.4672   1.5269
     1.8064   1.8134  11.5242  11.5284  12.1356  12.2590  13.2978

     the Fermi energy is     5.6625 ev

!    total energy              =    -225.93479397 Ry
     estimated scf accuracy    <          4.9E-10 Ry
     smearing contrib. (-TS)   =       0.00000000 Ry
     internal energy E=F+TS    =    -225.93479397 Ry

     The total energy is F=E-TS. E is the sum of the following terms:
     one-electron contribution =   -1244.20472202 Ry
     hartree contribution      =     646.35278199 Ry
     xc contribution           =     -59.24418882 Ry
     ewald contribution        =     505.12032329 Ry
     one-center paw contrib.   =     -73.95898841 Ry

     convergence has been achieved in  14 iterations

     negative rho (up, down):  2.157E-05 0.000E+00

     Forces acting on atoms (cartesian axes, Ry/au):

     atom    1 type  1   force =     0.00000000    0.00285373    0.00025304
     atom    2 type  1   force =    -0.00000000   -0.00285373    0.00025304
     atom    3 type  1   force =     0.00000000   -0.00129943    0.00000106
     atom    4 type  1   force =     0.00000000    0.00129943    0.00000106
     atom    5 type  1   force =    -0.00000000    0.00109138   -0.00001001
     atom    6 type  1   force =     0.00000000   -0.00109138   -0.00001001
     atom    7 type  1   force =    -0.00000000   -0.00109138    0.00001001
     atom    8 type  1   force =     0.00000000    0.00109138    0.00001001
     atom    9 type  1   force =     0.00000000    0.00129943   -0.00000106
     atom   10 type  1   force =     0.00000000   -0.00129943   -0.00000106
     atom   11 type  1   force =    -0.00000000   -0.00285373   -0.00025304
     atom   12 type  1   force =     0.00000000    0.00285373   -0.00025304
     atom   13 type  2   force =     0.00000000    0.00005105    0.00001517
     atom   14 type  2   force =     0.00000000   -0.00005105    0.00001517
     atom   15 type  2   force =     0.00000000   -0.00005105   -0.00001517
     atom   16 type  2   force =    -0.00000000    0.00005105   -0.00001517

     Total force =     0.006660     Total SCF correction =     0.000058


     Computing stress (Cartesian axis) and pressure


     negative rho (up, down):  2.157E-05 0.000E+00
          total   stress  (Ry/bohr**3)                   (kbar)     P=       45.89
   0.00054766   0.00000000   0.00000000           80.56        0.00        0.00
   0.00000000   0.00040050   0.00000000            0.00       58.92        0.00
   0.00000000   0.00000000  -0.00001231            0.00        0.00       -1.81


     Writing all to output data dir ./tmp/slab.save/ :
     XML data file, charge density, pseudopotentials, collected wavefunctions

     init_run     :      1.77s CPU      1.89s WALL (       1 calls)
     electrons    :     42.89s CPU     47.28s WALL (       1 calls)
     forces       :      0.43s CPU      0.49s WALL (       1 calls)
     stress       :      1.30s CPU      1.54s WALL (       1 calls)

     Called by init_run:
     wfcinit      :      1.38s CPU      1.48s WALL (       1 calls)
     potinit      :      0.21s CPU      0.23s WALL (       1 calls)
     hinit0       :      0.11s CPU      0.12s WALL (       1 calls)

     Called by electrons:
     c_bands      :     34.06s CPU     37.82s WALL (      14 calls)
     sum_band     :      5.51s CPU      5.85s WALL (      14 calls)
     v_of_rho     :      0.79s CPU      0.85s WALL (      15 calls)
     newd         :      0.46s CPU      0.57s WALL (      15 calls)
     PAW_pot      :      2.12s CPU      2.25s WALL (      15 calls)
     mix_rho      :      0.10s CPU      0.12s WALL (      14 calls)

     Called by c_bands:
     init_us_2    :      0.58s CPU      0.64s WALL (     620 calls)
     cegterg      :     32.95s CPU     36.68s WALL (     280 calls)

     Called by *egterg:
     cdiaghg      :      0.77s CPU      0.82s WALL (    1300 calls)
     h_psi        :     25.66s CPU     27.24s WALL (    1320 calls)
     s_psi        :      1.96s CPU      2.45s WALL (    1320 calls)
     g_psi        :      0.13s CPU      0.13s WALL (    1020 calls)

     Called by h_psi:
     h_psi:calbec :      2.53s CPU      3.22s WALL (    1320 calls)
     vloc_psi     :     20.80s CPU     21.05s WALL (    1320 calls)
                                        0.00s GPU  (    1320 calls)
     add_vuspsi   :      2.21s CPU      2.81s WALL (    1320 calls)

     General routines
     calbec       :      3.98s CPU      5.02s WALL (    1940 calls)
     fft          :      0.48s CPU      0.49s WALL (     218 calls)
     ffts         :      0.02s CPU      0.02s WALL (      29 calls)
     fftw         :     21.88s CPU     21.98s WALL (   57488 calls)
     interpolate  :      0.05s CPU      0.05s WALL (      15 calls)


     PWSCF        :     46.43s CPU     51.28s WALL


   This run was terminated on:  14:37:47   7Jul2026            

=------------------------------------------------------------------------------=
   JOB DONE.
=------------------------------------------------------------------------------=
Note: The following floating-point exceptions are signalling: IEEE_INVALID_FLAG IEEE_DIVIDE_BY_ZERO IEEE_OVERFLOW_FLAG IEEE_UNDERFLOW_FLAG
