
     Program PWSCF v.7.3.1 starts on  1Aug2026 at 11:41:16 

     This program is part of the open-source Quantum ESPRESSO suite
     for quantum simulation of materials; please cite
         "P. Giannozzi et al., J. Phys.:Condens. Matter 21 395502 (2009);
         "P. Giannozzi et al., J. Phys.:Condens. Matter 29 465901 (2017);
         "P. Giannozzi et al., J. Chem. Phys. 152 154105 (2020);
          URL http://www.quantum-espresso.org", 
     in publications or presentations arising from this work. More details at
     http://www.quantum-espresso.org/quote

     Parallel version (MPI), running on     4 processors

     MPI processes distributed on     1 nodes
     180371 MiB available memory on the printing compute node when the environment starts

     Reading input from pw.in

     Current dimensions of program PWSCF are:
     Max number of different atomic species (ntypx) = 10
     Max number of k-points (npk) =  40000
     Max angular momentum in pseudopotentials (lmaxx) =  4
     file C.pbe-n-kjpaw_psl.1.0.0.UPF: wavefunction(s)  2S 2P renormalized
     Message from routine setup:
     using ibrav=0 with symmetry is DISCOURAGED, use correct ibrav instead

     R & G space division:  proc/nbgrp/npool/nimage =       4
     Subspace diagonalization in iterative solution of the eigenvalue problem:
     a serial algorithm will be used


     Parallelization info
     --------------------
     sticks:   dense  smooth     PW     G-vecs:    dense   smooth      PW
     Min         283     139     40                45141    15921    2584
     Max         284     140     41                45162    15950    2607
     Sum        1135     559    163               180617    63763   10395

     Using Slab Decomposition



     bravais-lattice index     =            0
     lattice parameter (alat)  =       4.7752  a.u.
     unit-cell volume          =     553.1394 (a.u.)^3
     number of atoms/cell      =            8
     number of atomic types    =            2
     number of electrons       =        26.00
     number of Kohn-Sham states=           17
     kinetic-energy cutoff     =      90.0000  Ry
     charge density cutoff     =     720.0000  Ry
     scf convergence threshold =      1.0E-08
     mixing beta               =       0.3000
     number of iterations used =            8  plain     mixing
     Exchange-correlation= PBE
                           (   1   4   3   4   0   0   0)

     celldm(1)=   4.775235  celldm(2)=   0.000000  celldm(3)=   0.000000
     celldm(4)=   0.000000  celldm(5)=   0.000000  celldm(6)=   0.000000

     crystal axes: (cart. coord. in units of alat)
               a(1) = (   1.000000   0.000000   0.000000 )  
               a(2) = (   0.500000   0.866025   0.000000 )  
               a(3) = (   0.000000   0.000000   5.865696 )  

     reciprocal axes: (cart. coord. in units 2 pi/alat)
               b(1) = (  1.000000 -0.577350  0.000000 )  
               b(2) = (  0.000000  1.154701  0.000000 )  
               b(3) = (  0.000000  0.000000  0.170483 )  


     PseudoPot. # 1 for C  read from file:
     ./C.pbe-n-kjpaw_psl.1.0.0.UPF
     MD5 check sum: 5d2aebdfa2cae82b50a7e79e9516da0f
     Pseudo is Projector augmented-wave + core cor, Zval =  4.0
     Generated using "atomic" code by A. Dal Corso  v.5.1
     Shape of augmentation charge: PSQ
     Using radial grid of 1073 points,  4 beta functions with: 
                l(1) =   0
                l(2) =   0
                l(3) =   1
                l(4) =   1
     Q(r) pseudized with 0 coefficients 


     PseudoPot. # 2 for H  read from file:
     ./H_ONCV_PBE-1.0.oncvpsp.upf
     MD5 check sum: 1790becc920ee074925cf490c71280fe
     Pseudo is Norm-conserving, Zval =  1.0
     Generated using ONCVPSP code by D. R. Hamann
     Using radial grid of 1166 points,  2 beta functions with: 
                l(1) =   0
                l(2) =   0

     atomic species   valence    mass     pseudopotential
     C                 4.00    12.01100     C ( 1.00)
     H                 1.00     1.00800     H ( 1.00)

     12 Sym. Ops., with inversion, found ( 6 have fractional translation)



   Cartesian axes

     site n.     atom                  positions (alat units)
         1        C      tau(   1) = (   0.5000000   0.2886751   3.8425963  )
         2        C      tau(   2) = (   1.0000000   0.5773503   3.6495395  )
         3        C      tau(   3) = (   1.0000000   0.5773503   3.0344995  )
         4        C      tau(   4) = (  -0.0000000   0.0000000   2.8311966  )
         5        C      tau(   5) = (   0.0000000   0.0000000   2.2161565  )
         6        C      tau(   6) = (   0.5000000   0.2886751   2.0230997  )
         7        H      tau(   7) = (   0.5000000   0.2886751   4.2814431  )
         8        H      tau(   8) = (   0.5000000   0.2886751   1.5842529  )

     number of k points=    12  Marzari-Vanderbilt smearing, width (Ry)=  0.0100
                       cart. coord. in units 2pi/alat
        k(    1) = (   0.0000000   0.0000000   0.0000000), wk =   0.0246914
        k(    2) = (   0.0000000   0.1283001   0.0000000), wk =   0.1481481
        k(    3) = (   0.0000000   0.2566001   0.0000000), wk =   0.1481481
        k(    4) = (   0.0000000   0.3849002   0.0000000), wk =   0.1481481
        k(    5) = (   0.0000000   0.5132002   0.0000000), wk =   0.1481481
        k(    6) = (   0.1111111   0.1924501   0.0000000), wk =   0.1481481
        k(    7) = (   0.1111111   0.3207501   0.0000000), wk =   0.2962963
        k(    8) = (   0.1111111   0.4490502   0.0000000), wk =   0.2962963
        k(    9) = (   0.1111111  -0.5773503   0.0000000), wk =   0.1481481
        k(   10) = (   0.2222222   0.3849002   0.0000000), wk =   0.1481481
        k(   11) = (   0.2222222  -0.6415003   0.0000000), wk =   0.2962963
        k(   12) = (   0.3333333  -0.5773503   0.0000000), wk =   0.0493827

     Dense  grid:   180617 G-vectors     FFT dimensions: (  45,  45, 240)

     Smooth grid:    63763 G-vectors     FFT dimensions: (  30,  30, 180)

     Estimated max dynamical RAM per process >      78.79 MB

     Estimated total dynamical RAM >     315.15 MB

     Initial potential from superposition of free atoms

     starting charge      25.9997, renormalised to      26.0000
     Starting wfcs are   26 randomized atomic wfcs
     Checking if some PAW data can be deallocated... 

     total cpu time spent up to now is       33.1 secs

     Self-consistent Calculation

     iteration #  1     ecut=    90.00 Ry     beta= 0.30
     Davidson diagonalization with overlap
     ethr =  1.00E-02,  avg # of iterations =  2.9

     total cpu time spent up to now is       89.0 secs

     total energy              =    -113.01820235 Ry
     estimated scf accuracy    <       0.60575559 Ry

     iteration #  2     ecut=    90.00 Ry     beta= 0.30
     Davidson diagonalization with overlap
     ethr =  2.33E-03,  avg # of iterations =  3.3

     negative rho (up, down):  1.263E-07 0.000E+00

     total cpu time spent up to now is      140.7 secs

     total energy              =    -112.97924044 Ry
     estimated scf accuracy    <       0.18513982 Ry

     iteration #  3     ecut=    90.00 Ry     beta= 0.30
     Davidson diagonalization with overlap
     ethr =  7.12E-04,  avg # of iterations =  4.6

     negative rho (up, down):  6.062E-08 0.000E+00

     total cpu time spent up to now is      193.0 secs

     total energy              =    -112.98521619 Ry
     estimated scf accuracy    <       0.02655788 Ry

     iteration #  4     ecut=    90.00 Ry     beta= 0.30
     Davidson diagonalization with overlap
     ethr =  1.02E-04,  avg # of iterations =  4.9

     negative rho (up, down):  2.738E-08 0.000E+00

     total cpu time spent up to now is      248.2 secs

     total energy              =    -112.98632320 Ry
     estimated scf accuracy    <       0.00318506 Ry

     iteration #  5     ecut=    90.00 Ry     beta= 0.30
     Davidson diagonalization with overlap
     ethr =  1.23E-05,  avg # of iterations =  5.5

     negative rho (up, down):  1.163E-08 0.000E+00

     total cpu time spent up to now is      303.7 secs

     total energy              =    -112.98675963 Ry
     estimated scf accuracy    <       0.00023436 Ry

     iteration #  6     ecut=    90.00 Ry     beta= 0.30
     Davidson diagonalization with overlap
     ethr =  9.01E-07,  avg # of iterations =  3.4

     total cpu time spent up to now is      348.2 secs

     total energy              =    -112.98678739 Ry
     estimated scf accuracy    <       0.00007385 Ry

     iteration #  7     ecut=    90.00 Ry     beta= 0.30
     Davidson diagonalization with overlap
     ethr =  2.84E-07,  avg # of iterations =  2.2

     total cpu time spent up to now is      396.5 secs

     total energy              =    -112.98680090 Ry
     estimated scf accuracy    <       0.00002571 Ry

     iteration #  8     ecut=    90.00 Ry     beta= 0.30
     Davidson diagonalization with overlap
     ethr =  9.89E-08,  avg # of iterations =  1.8

     total cpu time spent up to now is      439.5 secs

     total energy              =    -112.98680325 Ry
     estimated scf accuracy    <       0.00000270 Ry

     iteration #  9     ecut=    90.00 Ry     beta= 0.30
     Davidson diagonalization with overlap
     ethr =  1.04E-08,  avg # of iterations =  2.3

     total cpu time spent up to now is      478.5 secs

     total energy              =    -112.98680356 Ry
     estimated scf accuracy    <       0.00000060 Ry

     iteration # 10     ecut=    90.00 Ry     beta= 0.30
     Davidson diagonalization with overlap
     ethr =  2.31E-09,  avg # of iterations =  2.1

     total cpu time spent up to now is      518.0 secs

     total energy              =    -112.98680364 Ry
     estimated scf accuracy    <       0.00000003 Ry

     iteration # 11     ecut=    90.00 Ry     beta= 0.30
     Davidson diagonalization with overlap
     ethr =  1.33E-10,  avg # of iterations =  3.1

     total cpu time spent up to now is      563.6 secs

     total energy              =    -112.98680365 Ry
     estimated scf accuracy    <       0.00000001 Ry

     iteration # 12     ecut=    90.00 Ry     beta= 0.30
     Davidson diagonalization with overlap
     ethr =  4.30E-11,  avg # of iterations =  2.0

     total cpu time spent up to now is      589.6 secs

     End of self-consistent calculation

          k = 0.0000 0.0000 0.0000 (  7951 PWs)   bands (ev):

   -16.9009 -15.4129 -13.1816  -8.3583  -5.2790  -1.3853   1.5190   1.5190
     2.1010   2.3766   2.3766   3.4618   3.4618   6.4013   6.6361   9.2023
    10.3599

          k = 0.0000 0.1283 0.0000 (  7977 PWs)   bands (ev):

   -16.6003 -15.1184 -12.8997  -8.0885  -5.0530  -1.2615   0.1107   0.8974
     1.0282   1.8492   1.9919   2.3209   3.0215   6.6529   6.9639   9.2054
    10.4091

          k = 0.0000 0.2566 0.0000 (  7959 PWs)   bands (ev):

   -15.7045 -14.2425 -12.0636  -7.3376  -4.4687  -2.8592  -1.7460  -0.9224
    -0.3220  -0.2727   0.7710   1.7867   2.0455   7.4130   7.8488   9.3349
    10.2786

          k = 0.0000 0.3849 0.0000 (  7984 PWs)   bands (ev):

   -14.2387 -12.8188 -10.7252  -6.8334  -5.7727  -4.5154  -3.8749  -2.6489
    -1.2665  -0.8487  -0.1821   1.0900   1.1412   8.5256   8.9150   9.6269
    10.4385

          k = 0.0000 0.5132 0.0000 (  7990 PWs)   bands (ev):

   -12.3029 -11.0855  -9.6926  -8.2224  -8.0219  -6.1792  -3.8789  -2.5974
    -1.8078  -1.4403  -0.7083   0.5559   0.6338   8.9331   9.6571  10.3034
    10.8048

          k = 0.1111 0.1925 0.0000 (  7975 PWs)   bands (ev):

   -16.0020 -14.5330 -12.3404  -7.5742  -4.6385  -1.6637  -1.0677  -0.9765
    -0.0623   0.2263   1.3318   1.3481   2.3144   7.1957   7.5751   9.6431
    10.4940

          k = 0.1111 0.3208 0.0000 (  7952 PWs)   bands (ev):

   -14.8200 -13.3806 -11.2462  -6.7560  -4.4954  -3.9457  -3.0908  -2.3386
    -1.2155  -0.7945  -0.5578   0.4066   1.6948   8.3041   8.6066  10.1903
    10.9549

          k = 0.1111 0.4491 0.0000 (  7968 PWs)   bands (ev):

   -13.1018 -11.7355  -9.7710  -7.6249  -6.7182  -4.9230  -4.3384  -2.6638
    -2.4463  -1.6691  -0.9775  -0.1591   0.8280   9.3405   9.9477  10.6991
    11.4620

          k = 0.1111-0.5774 0.0000 (  7994 PWs)   bands (ev):

   -11.3246 -10.7885  -9.5697  -8.6364  -7.5066  -6.9495  -3.3417  -3.0464
    -2.6112  -1.6828  -1.6253  -0.2014   0.3305   9.6309  10.5065  11.3693
    11.6401

          k = 0.2222 0.3849 0.0000 (  7965 PWs)   bands (ev):

   -13.3792 -11.9894  -9.9501  -6.8205  -5.6172  -4.8445  -3.9822  -3.4211
    -2.7432  -1.9239  -1.7011  -0.6499   0.9185   9.5294   9.8246  11.1743
    11.7596

          k = 0.2222-0.6415 0.0000 (  7997 PWs)   bands (ev):

   -11.4955 -10.3249  -8.9521  -7.9886  -7.4282  -6.1483  -4.4610  -4.0865
    -3.0415  -2.6469  -1.7424  -0.9224  -0.0648  10.1620  10.8189  12.0191
    12.1523

          k = 0.3333-0.5774 0.0000 (  8007 PWs)   bands (ev):

    -9.8893  -9.8893  -8.7800  -8.4760  -7.0509  -7.0509  -4.9314  -4.6334
    -4.6334  -1.8911  -1.3109  -1.3109  -1.0025  10.7658  10.7658  11.4175
    13.1182

     the Fermi energy is     4.2474 ev

!    total energy              =    -112.98680365 Ry
     estimated scf accuracy    <          1.9E-09 Ry
     smearing contrib. (-TS)   =       0.00000000 Ry
     internal energy E=F+TS    =    -112.98680365 Ry

     The total energy is F=E-TS. E is the sum of the following terms:
     one-electron contribution =    -588.52496849 Ry
     hartree contribution      =     305.25436700 Ry
     xc contribution           =     -29.50867023 Ry
     ewald contribution        =     236.77085212 Ry
     one-center paw contrib.   =     -36.97838404 Ry

     convergence has been achieved in  12 iterations

     Forces acting on atoms (cartesian axes, Ry/au):

     atom    1 type  1   force =     0.00000000    0.00000000   -0.00004375
     atom    2 type  1   force =     0.00000000    0.00000000    0.00000713
     atom    3 type  1   force =    -0.00000000   -0.00000000   -0.00001926
     atom    4 type  1   force =     0.00000000    0.00000000    0.00001926
     atom    5 type  1   force =    -0.00000000   -0.00000000   -0.00000713
     atom    6 type  1   force =     0.00000000    0.00000000    0.00004375
     atom    7 type  2   force =     0.00000000    0.00000000   -0.00000247
     atom    8 type  2   force =     0.00000000    0.00000000    0.00000247

     Total force =     0.000068     Total SCF correction =     0.000058
     SCF correction compared to forces is large: reduce conv_thr to get better values


     Computing stress (Cartesian axis) and pressure

          total   stress  (Ry/bohr**3)                   (kbar)     P=        3.66
   0.00003836  -0.00000000   0.00000000            5.64       -0.00        0.00
  -0.00000000   0.00003836   0.00000000           -0.00        5.64        0.00
   0.00000000   0.00000000  -0.00000201            0.00        0.00       -0.30


     Writing all to output data dir ./tmp/slab.save/ :
     XML data file, charge density, pseudopotentials, collected wavefunctions

     init_run     :      5.56s CPU     22.65s WALL (       1 calls)
     electrons    :    141.11s CPU    556.99s WALL (       1 calls)
     forces       :      0.43s CPU      0.84s WALL (       1 calls)
     stress       :      1.29s CPU      2.59s WALL (       1 calls)

     Called by init_run:
     wfcinit      :      4.48s CPU     18.20s WALL (       1 calls)
     potinit      :      0.43s CPU      1.82s WALL (       1 calls)
     hinit0       :      0.26s CPU      1.09s WALL (       1 calls)

     Called by electrons:
     c_bands      :    113.65s CPU    449.55s WALL (      12 calls)
     sum_band     :     17.95s CPU     70.53s WALL (      12 calls)
     v_of_rho     :      2.21s CPU      8.48s WALL (      13 calls)
     newd         :      0.61s CPU      2.32s WALL (      13 calls)
     PAW_pot      :      1.58s CPU      6.01s WALL (      13 calls)
     mix_rho      :      4.21s CPU     16.85s WALL (      12 calls)

     Called by c_bands:
     init_us_2    :      0.23s CPU      0.29s WALL (     324 calls)
     cegterg      :    110.86s CPU    438.11s WALL (     144 calls)

     Called by *egterg:
     cdiaghg      :      2.92s CPU     12.06s WALL (     602 calls)
     h_psi        :     89.64s CPU    353.65s WALL (     614 calls)
     s_psi        :      0.18s CPU      0.45s WALL (     614 calls)
     g_psi        :      0.03s CPU      0.07s WALL (     458 calls)

     Called by h_psi:
     h_psi:calbec :     10.16s CPU     40.27s WALL (     614 calls)
     vloc_psi     :     79.17s CPU    312.92s WALL (     614 calls)
     add_vuspsi   :      0.28s CPU      0.42s WALL (     614 calls)

     General routines
     calbec       :     13.05s CPU     51.31s WALL (     818 calls)
     fft          :      1.24s CPU      4.98s WALL (     192 calls)
     ffts         :      0.20s CPU      0.85s WALL (      25 calls)
     fftw         :     91.43s CPU    365.68s WALL (   15754 calls)
     interpolate  :      0.23s CPU      0.97s WALL (      13 calls)

     Parallel routines

     PWSCF        :   2m33.30s CPU   9m58.23s WALL


   This run was terminated on:  11:51:15   1Aug2026            

=------------------------------------------------------------------------------=
   JOB DONE.
=------------------------------------------------------------------------------=
Note: The following floating-point exceptions are signalling: IEEE_UNDERFLOW_FLAG IEEE_DENORMAL
Note: The following floating-point exceptions are signalling: IEEE_UNDERFLOW_FLAG IEEE_DENORMAL
Note: The following floating-point exceptions are signalling: IEEE_UNDERFLOW_FLAG IEEE_DENORMAL
Note: The following floating-point exceptions are signalling: IEEE_UNDERFLOW_FLAG IEEE_DENORMAL
