
     Program PWSCF v.7.5 starts on 23Jun2026 at 15:48:24 

     This program is part of the open-source Quantum ESPRESSO suite
     for quantum simulation of materials; please cite
         "P. Giannozzi et al., J. Phys.:Condens. Matter 21 395502 (2009);
         "P. Giannozzi et al., J. Phys.:Condens. Matter 29 465901 (2017);
         "P. Giannozzi et al., J. Chem. Phys. 152 154105 (2020);
          URL http://www.quantum-espresso.org", 
     in publications or presentations arising from this work. More details at
     http://www.quantum-espresso.org/quote

     Serial version
     0 MiB available memory on the printing compute node when the environment starts

     Waiting for input...
     Reading input from standard input

     Current dimensions of program PWSCF are:
     Max number of different atomic species (ntypx) = 10
     Max number of k-points (npk) =  40000
     Max angular momentum in pseudopotentials (lmaxx) =  4
     file C.pbe-n-kjpaw_psl.1.0.0.UPF: wavefunction(s)  2S 2P renormalized
     Message from routine volume:
     axis vectors are left-handed
     Message from routine setup:
     using ibrav=0 with symmetry is DISCOURAGED, use correct ibrav instead


     G-vector sticks info
     --------------------
     sticks:   dense  smooth     PW     G-vecs:    dense   smooth      PW
     Sum        1623     813    239               366135   129531   20395

     Using Slab Decomposition



     bravais-lattice index     =            0
     lattice parameter (alat)  =       4.7752  a.u.
     unit-cell volume          =    1339.7856 (a.u.)^3
     number of atoms/cell      =           14
     number of atomic types    =            2
     number of electrons       =        50.00
     number of Kohn-Sham states=           30
     kinetic-energy cutoff     =      80.0000  Ry
     charge density cutoff     =     640.0000  Ry
     scf convergence threshold =      1.0E-08
     mixing beta               =       0.3000
     number of iterations used =            8  plain     mixing
     Exchange-correlation= PBE
                           (   1   4   3   4   0   0   0)

     celldm(1)=   4.775235  celldm(2)=   0.000000  celldm(3)=   0.000000
     celldm(4)=   0.000000  celldm(5)=   0.000000  celldm(6)=   0.000000

     crystal axes: (cart. coord. in units of alat)
               a(1) = (   1.000000   0.000000   0.000000 )  
               a(2) = (   0.000000  -1.400071   0.000000 )  
               a(3) = (   0.000000   0.000000   8.788216 )  

     reciprocal axes: (cart. coord. in units 2 pi/alat)
               b(1) = (  1.000000 -0.000000 -0.000000 )  
               b(2) = ( -0.000000 -0.714249 -0.000000 )  
               b(3) = ( -0.000000 -0.000000  0.113789 )  


     PseudoPot. # 1 for C  read from file:
     ./C.pbe-n-kjpaw_psl.1.0.0.UPF
     MD5 check sum: 5d2aebdfa2cae82b50a7e79e9516da0f
     Pseudo is Projector augmented-wave + core cor, Zval =  4.0
     Generated using "atomic" code by A. Dal Corso  v.5.1
     Shape of augmentation charge: PSQ
     Using radial grid of 1073 points,  4 beta functions with: 
                l(1) =   0
                l(2) =   0
                l(3) =   1
                l(4) =   1
     Q(r) pseudized with 0 coefficients 


     PseudoPot. # 2 for H  read from file:
     ./H_ONCV_PBE-1.0.oncvpsp.upf
     MD5 check sum: 1790becc920ee074925cf490c71280fe
     Pseudo is Norm-conserving, Zval =  1.0
     Generated using ONCVPSP code by D. R. Hamann
     Using radial grid of 1166 points,  2 beta functions with: 
                l(1) =   0
                l(2) =   0

     atomic species   valence    mass     pseudopotential
     C                 4.00    12.01100     C ( 1.00)
     H                 1.00     1.00800     H ( 1.00)

      4 Sym. Ops. (no inversion) found ( 2 have fractional translation)



   Cartesian axes

     site n.     atom                  positions (alat units)
         1        C      tau(   1) = (   0.0000000  -0.3575269   5.4554133  )
         2        C      tau(   2) = (   0.5000000  -0.6925267   5.4554133  )
         3        C      tau(   3) = (   0.0000000   0.0012526   4.9666635  )
         4        C      tau(   4) = (   0.5000000  -1.0513062   4.9666635  )
         5        C      tau(   5) = (   0.0000000  -0.3504011   4.4654712  )
         6        C      tau(   6) = (   0.5000000  -0.6996525   4.4654712  )
         7        C      tau(   7) = (   0.0000000   0.0024837   3.9666200  )
         8        C      tau(   8) = (   0.5000000  -1.0525373   3.9666200  )
         9        C      tau(   9) = (   0.0000000  -0.3500179   3.4680099  )
        10        C      tau(  10) = (   0.5000000  -0.7000357   3.4680099  )
        11        C      tau(  11) = (   0.0000000   0.0000000   2.9680099  )
        12        C      tau(  12) = (   0.5000000  -1.0500536   2.9680099  )
        13        H      tau(  13) = (   0.0000000  -0.1229163   5.8198994  )
        14        H      tau(  14) = (   0.5000000  -0.9271372   5.8198994  )

     number of k points=    20  Marzari-Vanderbilt smearing, width (Ry)=  0.0100
                       cart. coord. in units 2pi/alat
        k(    1) = (   0.0000000  -0.0000000   0.0000000), wk =   0.0317460
        k(    2) = (   0.0000000  -0.1020356   0.0000000), wk =   0.0634921
        k(    3) = (   0.0000000  -0.2040712   0.0000000), wk =   0.0634921
        k(    4) = (   0.0000000  -0.3061068   0.0000000), wk =   0.0634921
        k(    5) = (   0.1111111  -0.0000000   0.0000000), wk =   0.0634921
        k(    6) = (   0.1111111  -0.1020356   0.0000000), wk =   0.1269841
        k(    7) = (   0.1111111  -0.2040712   0.0000000), wk =   0.1269841
        k(    8) = (   0.1111111  -0.3061068   0.0000000), wk =   0.1269841
        k(    9) = (   0.2222222  -0.0000000   0.0000000), wk =   0.0634921
        k(   10) = (   0.2222222  -0.1020356   0.0000000), wk =   0.1269841
        k(   11) = (   0.2222222  -0.2040712   0.0000000), wk =   0.1269841
        k(   12) = (   0.2222222  -0.3061068   0.0000000), wk =   0.1269841
        k(   13) = (   0.3333333  -0.0000000   0.0000000), wk =   0.0634921
        k(   14) = (   0.3333333  -0.1020356   0.0000000), wk =   0.1269841
        k(   15) = (   0.3333333  -0.2040712   0.0000000), wk =   0.1269841
        k(   16) = (   0.3333333  -0.3061068   0.0000000), wk =   0.1269841
        k(   17) = (   0.4444444  -0.0000000   0.0000000), wk =   0.0634921
        k(   18) = (   0.4444444  -0.1020356   0.0000000), wk =   0.1269841
        k(   19) = (   0.4444444  -0.2040712   0.0000000), wk =   0.1269841
        k(   20) = (   0.4444444  -0.3061068   0.0000000), wk =   0.1269841

     Dense  grid:   366135 G-vectors     FFT dimensions: (  40,  60, 360)

     Smooth grid:   129531 G-vectors     FFT dimensions: (  30,  40, 240)

     Estimated max dynamical RAM per process >     835.41 MB

     Initial potential from superposition of free atoms

     starting charge      49.9995, renormalised to      50.0000

     negative rho (up, down):  5.917E-05 0.000E+00
     Starting wfcs are   50 randomized atomic wfcs

     total cpu time spent up to now is        4.2 secs

     Self-consistent Calculation

     iteration #  1     ecut=    80.00 Ry     beta= 0.30
     Davidson diagonalization with overlap
     ethr =  1.00E-02,  avg # of iterations =  2.6

     negative rho (up, down):  5.658E-05 0.000E+00

     total cpu time spent up to now is       12.4 secs

     total energy              =    -223.36313029 Ry
     estimated scf accuracy    <       0.92422323 Ry

     iteration #  2     ecut=    80.00 Ry     beta= 0.30
     Davidson diagonalization with overlap
     ethr =  1.85E-03,  avg # of iterations =  3.9

     negative rho (up, down):  6.565E-05 0.000E+00

     total cpu time spent up to now is       19.2 secs

     total energy              =    -223.27874822 Ry
     estimated scf accuracy    <       0.31745985 Ry

     iteration #  3     ecut=    80.00 Ry     beta= 0.30
     Davidson diagonalization with overlap
     ethr =  6.35E-04,  avg # of iterations =  7.2

     negative rho (up, down):  6.839E-05 0.000E+00

     total cpu time spent up to now is       27.5 secs

     total energy              =    -223.29240608 Ry
     estimated scf accuracy    <       0.04554177 Ry

     iteration #  4     ecut=    80.00 Ry     beta= 0.30
     Davidson diagonalization with overlap
     ethr =  9.11E-05,  avg # of iterations =  7.5

     negative rho (up, down):  7.001E-05 0.000E+00

     total cpu time spent up to now is       36.1 secs

     total energy              =    -223.29487376 Ry
     estimated scf accuracy    <       0.00802103 Ry

     iteration #  5     ecut=    80.00 Ry     beta= 0.30
     Davidson diagonalization with overlap
     ethr =  1.60E-05,  avg # of iterations =  7.4

     negative rho (up, down):  7.088E-05 0.000E+00

     total cpu time spent up to now is       45.2 secs

     total energy              =    -223.29599249 Ry
     estimated scf accuracy    <       0.00087734 Ry

     iteration #  6     ecut=    80.00 Ry     beta= 0.30
     Davidson diagonalization with overlap
     ethr =  1.75E-06,  avg # of iterations =  8.1

     negative rho (up, down):  7.044E-05 0.000E+00

     total cpu time spent up to now is       55.3 secs

     total energy              =    -223.29607107 Ry
     estimated scf accuracy    <       0.00019802 Ry

     iteration #  7     ecut=    80.00 Ry     beta= 0.30
     Davidson diagonalization with overlap
     ethr =  3.96E-07,  avg # of iterations =  3.4

     negative rho (up, down):  7.051E-05 0.000E+00

     total cpu time spent up to now is       63.1 secs

     total energy              =    -223.29610395 Ry
     estimated scf accuracy    <       0.00003241 Ry

     iteration #  8     ecut=    80.00 Ry     beta= 0.30
     Davidson diagonalization with overlap
     ethr =  6.48E-08,  avg # of iterations =  2.4

     negative rho (up, down):  7.008E-05 0.000E+00

     total cpu time spent up to now is       70.3 secs

     total energy              =    -223.29610767 Ry
     estimated scf accuracy    <       0.00000935 Ry

     iteration #  9     ecut=    80.00 Ry     beta= 0.30
     Davidson diagonalization with overlap
     ethr =  1.87E-08,  avg # of iterations =  2.0

     negative rho (up, down):  6.991E-05 0.000E+00

     total cpu time spent up to now is       77.5 secs

     total energy              =    -223.29610989 Ry
     estimated scf accuracy    <       0.00000073 Ry

     iteration # 10     ecut=    80.00 Ry     beta= 0.30
     Davidson diagonalization with overlap
     ethr =  1.45E-09,  avg # of iterations =  3.1

     negative rho (up, down):  6.983E-05 0.000E+00

     total cpu time spent up to now is       85.1 secs

     total energy              =    -223.29611002 Ry
     estimated scf accuracy    <       0.00000017 Ry

     iteration # 11     ecut=    80.00 Ry     beta= 0.30
     Davidson diagonalization with overlap
     ethr =  3.48E-10,  avg # of iterations =  3.0

     negative rho (up, down):  6.977E-05 0.000E+00

     total cpu time spent up to now is       93.1 secs

     total energy              =    -223.29611006 Ry
     estimated scf accuracy    <       0.00000009 Ry

     iteration # 12     ecut=    80.00 Ry     beta= 0.30
     Davidson diagonalization with overlap
     ethr =  1.76E-10,  avg # of iterations =  2.0

     negative rho (up, down):  6.973E-05 0.000E+00

     total cpu time spent up to now is       99.9 secs

     End of self-consistent calculation

          k = 0.0000-0.0000 0.0000 ( 16253 PWs)   bands (ev):

   -19.5179 -18.2041 -16.2518 -13.9038 -11.6901 -10.8778 -10.7238  -9.5453
    -7.7990  -7.7028  -6.7308  -5.9232  -5.3706  -4.6069  -4.5189  -3.4869
    -2.8463  -2.6814  -2.0672  -0.5754  -0.4965   0.0963   0.7096   1.4061
     1.7101   3.9249   4.1088   6.0268   6.5639   6.8732

          k = 0.0000-0.1020 0.0000 ( 16215 PWs)   bands (ev):

   -19.3280 -18.0195 -16.0842 -13.8308 -13.0049 -12.1800  -9.9847  -9.1144
    -8.5533  -6.9387  -6.6016  -5.7816  -4.7832  -4.3944  -4.3405  -3.3366
    -3.0312  -2.2279  -1.9815  -0.6357  -0.5349   0.0099   0.3828   0.9026
     1.7772   3.6689   4.1385   6.2215   6.6145   7.1038

          k = 0.0000-0.2041 0.0000 ( 16201 PWs)   bands (ev):

   -18.7605 -17.4712 -15.6068 -14.8909 -14.0196 -13.3273 -10.5574  -9.7331
    -8.1832  -7.1438  -5.6645  -5.0281  -4.0486  -3.8129  -3.6712  -2.9007
    -2.4014  -2.0412  -1.7549  -0.8678  -0.6645  -0.5916  -0.0698   0.0510
     1.6857   2.9427   4.7478   6.5904   7.1417   7.5823

          k = 0.0000-0.3061 0.0000 ( 16129 PWs)   bands (ev):

   -17.8247 -16.6535 -16.4443 -15.3718 -14.8343 -13.7726 -10.8946 -10.1938
    -8.2994  -7.4236  -5.3624  -4.4200  -3.2065  -2.9638  -2.5319  -2.2440
    -1.9574  -1.8298  -1.5311  -1.3962  -1.3942  -1.1039  -0.7115  -0.4859
     1.6768   2.4061   5.6544   6.7972   7.1188   7.9705

          k = 0.1111-0.0000 0.0000 ( 16219 PWs)   bands (ev):

   -19.2921 -17.9809 -16.0328 -13.6912 -11.4877 -10.6789 -10.6645  -9.4965
    -7.6699  -7.6035  -6.5467  -5.7527  -5.5270  -5.3607  -4.4729  -4.4558
    -2.9988  -2.7960  -2.7047  -1.4940  -0.6738  -0.2729   0.0018   0.3646
     1.3050   4.1269   4.1517   6.2871   7.0680   7.5251

          k = 0.1111-0.1020 0.0000 ( 16195 PWs)   bands (ev):

   -19.1026 -17.7970 -15.8662 -13.6208 -12.8230 -11.9907  -9.8390  -8.9901
    -8.5028  -6.8595  -6.5147  -5.7473  -5.2372  -4.7825  -4.3151  -4.1790
    -3.0387  -2.8134  -2.3144  -1.5617  -0.9442  -0.5700  -0.2862   0.1404
     1.5950   3.7547   4.3655   6.5309   7.3587   7.5982

          k = 0.1111-0.2041 0.0000 ( 16161 PWs)   bands (ev):

   -18.5368 -17.2508 -15.3920 -14.6880 -13.8198 -13.1240 -10.3739  -9.5465
    -8.0345  -7.0762  -5.9258  -5.0606  -4.6553  -4.3172  -3.6798  -3.1680
    -2.9212  -2.3240  -2.0664  -2.0064  -1.8709  -1.2444  -0.4966   0.1498
     1.6619   3.0793   5.0115   7.1790   7.7999   8.0498

          k = 0.1111-0.3061 0.0000 ( 16145 PWs)   bands (ev):

   -17.6043 -16.4376 -16.2299 -15.1623 -14.6270 -13.5678 -10.6957  -9.9989
    -8.1268  -7.2568  -5.3894  -4.5500  -4.2779  -3.6875  -3.3741  -2.7447
    -2.7004  -2.5200  -2.1300  -1.9132  -1.6579  -1.1198  -0.8020  -0.6029
     1.8347   2.4576   5.9762   7.2833   7.8977   8.5007

          k = 0.2222-0.0000 0.0000 ( 16184 PWs)   bands (ev):

   -18.6176 -17.3146 -15.3792 -13.0568 -10.8826 -10.8204 -10.0841  -9.6656
    -7.8651  -7.1679  -7.0371  -6.0667  -6.0243  -5.5948  -5.2696  -4.5938
    -4.1294  -3.1989  -2.9800  -2.7941  -2.1676  -1.7138  -1.5309  -0.3231
     0.6625   3.9326   4.7890   6.7723   7.1304   7.4389

          k = 0.2222-0.1020 0.0000 ( 16170 PWs)   bands (ev):

   -18.4299 -17.1329 -15.2157 -12.9950 -12.3454 -11.4606  -9.6179  -9.0887
    -8.5522  -7.2088  -6.6645  -6.2019  -5.7561  -5.3764  -4.7886  -4.1715
    -3.8844  -3.4617  -3.1381  -3.0198  -2.6905  -1.9972  -0.8129  -0.6608
     1.0198   3.6211   5.0459   7.2844   7.5326   7.7227

          k = 0.2222-0.2041 0.0000 ( 16184 PWs)   bands (ev):

   -17.8698 -16.5939 -14.7521 -14.1019 -13.2342 -12.5253  -9.8863  -9.0693
    -8.2510  -7.5814  -6.7417  -6.0167  -5.2935  -4.8150  -4.4910  -4.2072
    -3.8012  -3.4848  -3.2052  -3.0675  -2.5484  -2.0459  -1.1043  -0.4065
     1.4930   3.0239   5.7154   8.0506   8.5831   8.7395

          k = 0.2222-0.3061 0.0000 ( 16155 PWs)   bands (ev):

   -16.9490 -15.7971 -15.5953 -14.5431 -14.0112 -12.9597 -10.1351  -9.4462
    -7.7582  -7.2182  -6.7698  -6.0036  -5.8796  -5.0088  -4.7745  -4.3223
    -3.9115  -3.6092  -2.4693  -2.1313  -2.0651  -1.9079  -1.1089  -0.8636
     1.9184   2.4555   6.6491   8.0508   9.1452   9.3848

          k = 0.3333-0.0000 0.0000 ( 16182 PWs)   bands (ev):

   -17.5061 -16.2174 -14.3033 -12.1386 -12.0121 -10.9458  -9.8821  -9.1343
    -9.0997  -7.4228  -6.9262  -6.3991  -6.1718  -5.2769  -5.0956  -4.7614
    -4.5990  -4.0766  -3.9074  -3.8036  -3.1991  -3.0941  -2.8739  -0.9992
     0.6262   3.2783   5.8165   6.7123   6.9134   8.4568

          k = 0.3333-0.1020 0.0000 ( 16239 PWs)   bands (ev):

   -17.3221 -16.0403 -14.1462 -12.3324 -11.9754 -11.1531 -10.1828  -9.7124
    -9.1454  -7.4243  -6.9952  -6.4656  -6.0071  -5.5051  -5.0949  -4.9370
    -4.6290  -4.3099  -3.9466  -3.6994  -3.0585  -2.9068  -2.1258  -1.1993
     0.8631   3.1287   6.1083   7.1622   7.3665   8.1967

          k = 0.3333-0.2041 0.0000 ( 16194 PWs)   bands (ev):

   -16.7751 -15.5169 -13.7056 -13.3089 -12.3712 -11.6022 -10.3180  -9.6993
    -9.1589  -7.9409  -7.1346  -7.0376  -6.8387  -6.2191  -5.2986  -5.1810
    -4.1664  -3.7381  -3.5568  -3.3202  -2.8339  -2.6164  -1.6438  -1.3019
     1.3920   2.7732   6.7354   8.1355   8.3796   9.0139

          k = 0.3333-0.3061 0.0000 ( 16173 PWs)   bands (ev):

   -15.8835 -14.7701 -14.5827 -13.5640 -13.0115 -11.9801  -9.6339  -9.4900
    -8.8501  -8.5220  -8.3832  -7.4888  -6.7094  -6.4962  -5.9229  -5.5809
    -3.8752  -3.6218  -3.3548  -3.0484  -2.1369  -2.0593  -1.8143  -1.2243
     1.8875   2.4108   7.4202   8.8619   9.2487   9.6378

          k = 0.4444-0.0000 0.0000 ( 16258 PWs)   bands (ev):

   -15.9846 -14.7174 -14.1215 -12.8853 -12.8335 -11.0383 -10.5821  -8.8250
    -8.5009  -7.7386  -6.7716  -6.4330  -6.0278  -5.6084  -5.1882  -4.9191
    -4.7473  -4.6664  -4.3918  -4.3479  -4.0566  -3.5002  -2.9129  -1.9568
     1.2586   2.2757   6.5419   7.1362   7.4950   7.6676

          k = 0.4444-0.1020 0.0000 ( 16236 PWs)   bands (ev):

   -15.8101 -14.5512 -13.9850 -12.7626 -12.6876 -10.9506 -10.5020  -9.2613
    -8.8100  -8.6966  -7.5616  -7.0280  -6.3324  -5.6584  -5.0344  -5.0237
    -4.5998  -4.3518  -4.1208  -3.8942  -3.6033  -3.3728  -2.7439  -1.9751
     1.3999   2.2936   7.0438   7.1837   7.6190   7.9671

          k = 0.4444-0.2041 0.0000 ( 16204 PWs)   bands (ev):

   -15.2995 -14.0691 -13.6696 -12.4962 -12.2773 -10.8117 -10.7360 -10.3353
    -9.5806  -9.1733  -8.9208  -8.0834  -6.7667  -6.2200  -5.5934  -4.9324
    -4.7344  -4.0553  -3.8063  -3.2151  -3.0437  -2.5676  -2.2200  -2.0061
     1.7216   2.3021   7.6182   7.9973   8.4876   8.8090

          k = 0.4444-0.3061 0.0000 ( 16202 PWs)   bands (ev):

   -14.5149 -13.7378 -13.3279 -12.5975 -11.7324 -11.3175 -10.9130 -10.5758
   -10.3322  -9.7008  -9.5079  -8.7234  -7.0022  -6.6040  -5.7712  -5.2348
    -4.8722  -4.3052  -3.5559  -3.0733  -2.5732  -2.2358  -1.8517  -1.6311
     2.0043   2.2521   8.0663   8.7099   9.7044   9.9449

     the Fermi energy is     2.0698 ev

!    total energy              =    -223.29611007 Ry
     estimated scf accuracy    <          6.8E-09 Ry
     smearing contrib. (-TS)   =       0.00053392 Ry
     internal energy E=F+TS    =    -223.29664399 Ry

     The total energy is F=E-TS. E is the sum of the following terms:
     one-electron contribution =   -2809.06115266 Ry
     hartree contribution      =    1421.77262569 Ry
     xc contribution           =     -57.33749951 Ry
     ewald contribution        =    1295.29384869 Ry
     one-center paw contrib.   =     -73.96446619 Ry

     convergence has been achieved in  12 iterations

     negative rho (up, down):  6.973E-05 0.000E+00

     Forces acting on atoms (cartesian axes, Ry/au):

     atom    1 type  1   force =    -0.00000000    0.00219888    0.00003149
     atom    2 type  1   force =     0.00000000   -0.00219888    0.00003149
     atom    3 type  1   force =     0.00000000   -0.00054426   -0.00051449
     atom    4 type  1   force =     0.00000000    0.00054426   -0.00051449
     atom    5 type  1   force =     0.00000000    0.00047631    0.00026658
     atom    6 type  1   force =     0.00000000   -0.00047631    0.00026658
     atom    7 type  1   force =    -0.00000000   -0.00132366    0.00094279
     atom    8 type  1   force =     0.00000000    0.00132366    0.00094279
     atom    9 type  1   force =    -0.00000000   -0.04385910   -0.04476979
     atom   10 type  1   force =     0.00000000    0.04385910   -0.04476979
     atom   11 type  1   force =     0.00000000    0.16115063    0.04197495
     atom   12 type  1   force =     0.00000000   -0.16115063    0.04197495
     atom   13 type  2   force =    -0.00000000    0.00390454    0.00206846
     atom   14 type  2   force =     0.00000000   -0.00390454    0.00206846

     Total force =     0.007465     Total SCF correction =     0.000139


     Computing stress (Cartesian axis) and pressure


     negative rho (up, down):  6.973E-05 0.000E+00
          total   stress  (Ry/bohr**3)                   (kbar)     P=        0.37
  -0.00011891   0.00000000   0.00000000          -17.49        0.00        0.00
   0.00000000   0.00024511   0.00000000            0.00       36.06        0.00
   0.00000000   0.00000000  -0.00011864            0.00        0.00      -17.45


     Writing all to output data dir ./tmp/slab.save/ :
     XML data file, charge density, pseudopotentials, collected wavefunctions

     init_run     :      3.85s CPU      4.12s WALL (       1 calls)
     electrons    :     86.35s CPU     95.73s WALL (       1 calls)
     forces       :      0.93s CPU      1.10s WALL (       1 calls)
     stress       :      2.74s CPU      3.18s WALL (       1 calls)

     Called by init_run:
     wfcinit      :      3.26s CPU      3.49s WALL (       1 calls)
     potinit      :      0.30s CPU      0.32s WALL (       1 calls)
     hinit0       :      0.14s CPU      0.15s WALL (       1 calls)

     Called by electrons:
     c_bands      :     71.04s CPU     79.10s WALL (      12 calls)
     sum_band     :     10.95s CPU     11.66s WALL (      12 calls)
     v_of_rho     :      1.63s CPU      1.76s WALL (      13 calls)
     newd         :      0.88s CPU      1.17s WALL (      13 calls)
     PAW_pot      :      1.82s CPU      1.98s WALL (      13 calls)
     mix_rho      :      0.21s CPU      0.25s WALL (      12 calls)

     Called by c_bands:
     init_us_2    :      1.02s CPU      1.11s WALL (     540 calls)
     cegterg      :     69.06s CPU     77.05s WALL (     240 calls)

     Called by *egterg:
     cdiaghg      :      0.74s CPU      0.75s WALL (    1291 calls)
     h_psi        :     53.86s CPU     57.35s WALL (    1311 calls)
     s_psi        :      5.10s CPU      6.10s WALL (    1311 calls)
     g_psi        :      0.22s CPU      0.22s WALL (    1051 calls)

     Called by h_psi:
     h_psi:calbec :      4.73s CPU      6.03s WALL (    1311 calls)
     vloc_psi     :     43.04s CPU     43.73s WALL (    1311 calls)
                                        0.00s GPU  (    1311 calls)
     add_vuspsi   :      5.91s CPU      7.26s WALL (    1311 calls)

     General routines
     calbec       :      7.68s CPU      9.69s WALL (    1891 calls)
     fft          :      1.21s CPU      1.22s WALL (     192 calls)
     ffts         :      0.04s CPU      0.04s WALL (      25 calls)
     fftw         :     45.94s CPU     46.21s WALL (   47070 calls)
     interpolate  :      0.12s CPU      0.13s WALL (      13 calls)


     PWSCF        :   1m33.92s CPU   1m44.21s WALL


   This run was terminated on:  15:50: 8  23Jun2026            

=------------------------------------------------------------------------------=
   JOB DONE.
=------------------------------------------------------------------------------=
Note: The following floating-point exceptions are signalling: IEEE_INVALID_FLAG IEEE_DIVIDE_BY_ZERO IEEE_OVERFLOW_FLAG IEEE_UNDERFLOW_FLAG
