
     Program PWSCF v.7.3.1 starts on  2Aug2026 at 16:11: 4 

     This program is part of the open-source Quantum ESPRESSO suite
     for quantum simulation of materials; please cite
         "P. Giannozzi et al., J. Phys.:Condens. Matter 21 395502 (2009);
         "P. Giannozzi et al., J. Phys.:Condens. Matter 29 465901 (2017);
         "P. Giannozzi et al., J. Chem. Phys. 152 154105 (2020);
          URL http://www.quantum-espresso.org", 
     in publications or presentations arising from this work. More details at
     http://www.quantum-espresso.org/quote

     Parallel version (MPI), running on     8 processors

     MPI processes distributed on     1 nodes
     184710 MiB available memory on the printing compute node when the environment starts

     Reading input from pw.in

     Current dimensions of program PWSCF are:
     Max number of different atomic species (ntypx) = 10
     Max number of k-points (npk) =  40000
     Max angular momentum in pseudopotentials (lmaxx) =  4
     file C.pbe-n-kjpaw_psl.1.0.0.UPF: wavefunction(s)  2S 2P renormalized
     Message from routine volume:
     axis vectors are left-handed
     Message from routine setup:
     using ibrav=0 with symmetry is DISCOURAGED, use correct ibrav instead

     R & G space division:  proc/nbgrp/npool/nimage =       8
     Subspace diagonalization in iterative solution of the eigenvalue problem:
     a serial algorithm will be used


     Parallelization info
     --------------------
     sticks:   dense  smooth     PW     G-vecs:    dense   smooth      PW
     Min         230     115     32                52538    18571    2868
     Max         231     116     33                52565    18596    2893
     Sum        1845     921    263               420433   148637   23071

     Using Slab Decomposition



     bravais-lattice index     =            0
     lattice parameter (alat)  =       4.7744  a.u.
     unit-cell volume          =    1288.3689 (a.u.)^3
     number of atoms/cell      =           24
     number of atomic types    =            2
     number of electrons       =        84.00
     number of Kohn-Sham states=           50
     kinetic-energy cutoff     =      90.0000  Ry
     charge density cutoff     =     720.0000  Ry
     scf convergence threshold =      1.0E-08
     mixing beta               =       0.3000
     number of iterations used =            8  plain     mixing
     Exchange-correlation= PBE
                           (   1   4   3   4   0   0   0)

     celldm(1)=   4.774375  celldm(2)=   0.000000  celldm(3)=   0.000000
     celldm(4)=   0.000000  celldm(5)=   0.000000  celldm(6)=   0.000000

     crystal axes: (cart. coord. in units of alat)
               a(1) = (   1.000000   0.000000   0.000000 )  
               a(2) = (   0.000000  -1.414214   0.000000 )  
               a(3) = (   0.000000   0.000000   8.370968 )  

     reciprocal axes: (cart. coord. in units 2 pi/alat)
               b(1) = (  1.000000 -0.000000 -0.000000 )  
               b(2) = ( -0.000000 -0.707107 -0.000000 )  
               b(3) = ( -0.000000 -0.000000  0.119461 )  


     PseudoPot. # 1 for C  read from file:
     ./C.pbe-n-kjpaw_psl.1.0.0.UPF
     MD5 check sum: 5d2aebdfa2cae82b50a7e79e9516da0f
     Pseudo is Projector augmented-wave + core cor, Zval =  4.0
     Generated using "atomic" code by A. Dal Corso  v.5.1
     Shape of augmentation charge: PSQ
     Using radial grid of 1073 points,  4 beta functions with: 
                l(1) =   0
                l(2) =   0
                l(3) =   1
                l(4) =   1
     Q(r) pseudized with 0 coefficients 


     PseudoPot. # 2 for H  read from file:
     ./H_ONCV_PBE-1.0.oncvpsp.upf
     MD5 check sum: 1790becc920ee074925cf490c71280fe
     Pseudo is Norm-conserving, Zval =  1.0
     Generated using ONCVPSP code by D. R. Hamann
     Using radial grid of 1166 points,  2 beta functions with: 
                l(1) =   0
                l(2) =   0

     atomic species   valence    mass     pseudopotential
     C                 4.00    12.01100     C ( 1.00)
     H                 1.00     1.00800     H ( 1.00)

      8 Sym. Ops., with inversion, found ( 6 have fractional translation)



   Cartesian axes

     site n.     atom                  positions (alat units)
         1        C      tau(   1) = (   0.5000000  -0.6995308   6.4253260  )
         2        C      tau(   2) = (  -0.0000000  -0.3611294   6.4253260  )
         3        C      tau(   3) = (   0.0000000   0.0011483   5.9365134  )
         4        C      tau(   4) = (   0.5000000  -1.0618085   5.9365134  )
         5        C      tau(   5) = (   0.0000000  -0.3533170   5.4353873  )
         6        C      tau(   6) = (   0.5000000  -0.7073432   5.4353873  )
         7        C      tau(   7) = (  -0.0000000  -0.0000128   4.9354531  )
         8        C      tau(   8) = (   0.5000000  -1.0606473   4.9354531  )
         9        C      tau(   9) = (  -0.0000000  -0.3535651   4.4354603  )
        10        C      tau(  10) = (   0.5000000  -0.7070951   4.4354603  )
        11        C      tau(  11) = (   0.0000000   0.0000117   3.9355073  )
        12        C      tau(  12) = (   0.5000000  -1.0606718   3.9355073  )
        13        C      tau(  13) = (   0.5000000  -0.7071196   3.4355145  )
        14        C      tau(  14) = (  -0.0000000  -0.3535406   3.4355145  )
        15        C      tau(  15) = (   0.5000000  -1.0604237   2.9355803  )
        16        C      tau(  16) = (   0.0000000  -0.0002364   2.9355803  )
        17        C      tau(  17) = (   0.0000000  -0.3547017   2.4344542  )
        18        C      tau(  18) = (   0.5000000  -0.7059585   2.4344542  )
        19        C      tau(  19) = (  -0.0000000   0.0075760   1.9456416  )
        20        C      tau(  20) = (   0.5000000  -1.0682362   1.9456416  )
        21        H      tau(  21) = (   0.5000000  -0.9368763   6.7899113  )
        22        H      tau(  22) = (  -0.0000000  -0.1237838   6.7899113  )
        23        H      tau(  23) = (  -0.0000000  -0.2297695   1.5810563  )
        24        H      tau(  24) = (   0.5000000  -0.8308906   1.5810563  )

     number of k points=    20  Marzari-Vanderbilt smearing, width (Ry)=  0.0100
                       cart. coord. in units 2pi/alat
        k(    1) = (   0.0000000  -0.0000000   0.0000000), wk =   0.0317460
        k(    2) = (   0.0000000  -0.1010153   0.0000000), wk =   0.0634921
        k(    3) = (   0.0000000  -0.2020305   0.0000000), wk =   0.0634921
        k(    4) = (   0.0000000  -0.3030458   0.0000000), wk =   0.0634921
        k(    5) = (   0.1111111  -0.0000000   0.0000000), wk =   0.0634921
        k(    6) = (   0.1111111  -0.1010153   0.0000000), wk =   0.1269841
        k(    7) = (   0.1111111  -0.2020305   0.0000000), wk =   0.1269841
        k(    8) = (   0.1111111  -0.3030458   0.0000000), wk =   0.1269841
        k(    9) = (   0.2222222  -0.0000000   0.0000000), wk =   0.0634921
        k(   10) = (   0.2222222  -0.1010153   0.0000000), wk =   0.1269841
        k(   11) = (   0.2222222  -0.2020305   0.0000000), wk =   0.1269841
        k(   12) = (   0.2222222  -0.3030458   0.0000000), wk =   0.1269841
        k(   13) = (   0.3333333  -0.0000000   0.0000000), wk =   0.0634921
        k(   14) = (   0.3333333  -0.1010153   0.0000000), wk =   0.1269841
        k(   15) = (   0.3333333  -0.2020305   0.0000000), wk =   0.1269841
        k(   16) = (   0.3333333  -0.3030458   0.0000000), wk =   0.1269841
        k(   17) = (   0.4444444  -0.0000000   0.0000000), wk =   0.0634921
        k(   18) = (   0.4444444  -0.1010153   0.0000000), wk =   0.1269841
        k(   19) = (   0.4444444  -0.2020305   0.0000000), wk =   0.1269841
        k(   20) = (   0.4444444  -0.3030458   0.0000000), wk =   0.1269841

     Dense  grid:   420433 G-vectors     FFT dimensions: (  48,  60, 360)

     Smooth grid:   148637 G-vectors     FFT dimensions: (  30,  48, 243)

     Estimated max dynamical RAM per process >     157.91 MB

     Estimated total dynamical RAM >       1.23 GB

     Check: negative core charge=   -0.000001

     Initial potential from superposition of free atoms

     starting charge      83.9991, renormalised to      84.0000
     Starting wfcs are   84 randomized atomic wfcs
     Checking if some PAW data can be deallocated... 

     total cpu time spent up to now is        2.3 secs

     Self-consistent Calculation

     iteration #  1     ecut=    90.00 Ry     beta= 0.30
     Davidson diagonalization with overlap
     ethr =  1.00E-02,  avg # of iterations =  2.6

     total cpu time spent up to now is        6.3 secs

     total energy              =    -373.54554808 Ry
     estimated scf accuracy    <       1.63398602 Ry

     iteration #  2     ecut=    90.00 Ry     beta= 0.30
     Davidson diagonalization with overlap
     ethr =  1.95E-03,  avg # of iterations =  4.8

     negative rho (up, down):  2.375E-07 0.000E+00

     total cpu time spent up to now is        9.7 secs

     total energy              =    -373.38531733 Ry
     estimated scf accuracy    <       0.56268514 Ry

     iteration #  3     ecut=    90.00 Ry     beta= 0.30
     Davidson diagonalization with overlap
     ethr =  6.70E-04,  avg # of iterations =  6.1

     negative rho (up, down):  1.067E-06 0.000E+00

     total cpu time spent up to now is       13.4 secs

     total energy              =    -373.40985220 Ry
     estimated scf accuracy    <       0.06167974 Ry

     iteration #  4     ecut=    90.00 Ry     beta= 0.30
     Davidson diagonalization with overlap
     ethr =  7.34E-05,  avg # of iterations =  7.2

     negative rho (up, down):  1.730E-06 0.000E+00

     total cpu time spent up to now is       17.6 secs

     total energy              =    -373.41492931 Ry
     estimated scf accuracy    <       0.00658763 Ry

     iteration #  5     ecut=    90.00 Ry     beta= 0.30
     Davidson diagonalization with overlap
     c_bands:  1 eigenvalues not converged
     ethr =  7.84E-06,  avg # of iterations =  7.2

     negative rho (up, down):  2.143E-06 0.000E+00

     total cpu time spent up to now is       21.8 secs

     total energy              =    -373.41567359 Ry
     estimated scf accuracy    <       0.00104003 Ry

     iteration #  6     ecut=    90.00 Ry     beta= 0.30
     Davidson diagonalization with overlap
     ethr =  1.24E-06,  avg # of iterations =  7.2

     negative rho (up, down):  2.259E-06 0.000E+00

     total cpu time spent up to now is       25.9 secs

     total energy              =    -373.41574432 Ry
     estimated scf accuracy    <       0.00024439 Ry

     iteration #  7     ecut=    90.00 Ry     beta= 0.30
     Davidson diagonalization with overlap
     ethr =  2.91E-07,  avg # of iterations =  2.0

     negative rho (up, down):  2.419E-06 0.000E+00

     total cpu time spent up to now is       29.4 secs

     total energy              =    -373.41577376 Ry
     estimated scf accuracy    <       0.00005354 Ry

     iteration #  8     ecut=    90.00 Ry     beta= 0.30
     Davidson diagonalization with overlap
     ethr =  6.37E-08,  avg # of iterations =  2.4

     negative rho (up, down):  2.367E-06 0.000E+00

     total cpu time spent up to now is       32.8 secs

     total energy              =    -373.41578558 Ry
     estimated scf accuracy    <       0.00001894 Ry

     iteration #  9     ecut=    90.00 Ry     beta= 0.30
     Davidson diagonalization with overlap
     ethr =  2.25E-08,  avg # of iterations =  2.0

     negative rho (up, down):  2.390E-06 0.000E+00

     total cpu time spent up to now is       36.2 secs

     total energy              =    -373.41578977 Ry
     estimated scf accuracy    <       0.00000093 Ry

     iteration # 10     ecut=    90.00 Ry     beta= 0.30
     Davidson diagonalization with overlap
     ethr =  1.10E-09,  avg # of iterations =  3.2

     negative rho (up, down):  2.400E-06 0.000E+00

     total cpu time spent up to now is       40.0 secs

     total energy              =    -373.41578995 Ry
     estimated scf accuracy    <       0.00000042 Ry

     iteration # 11     ecut=    90.00 Ry     beta= 0.30
     Davidson diagonalization with overlap
     ethr =  5.03E-10,  avg # of iterations =  1.9

     negative rho (up, down):  2.410E-06 0.000E+00

     total cpu time spent up to now is       43.0 secs

     total energy              =    -373.41578996 Ry
     estimated scf accuracy    <       0.00000009 Ry

     iteration # 12     ecut=    90.00 Ry     beta= 0.30
     Davidson diagonalization with overlap
     ethr =  1.09E-10,  avg # of iterations =  3.4

     negative rho (up, down):  2.421E-06 0.000E+00

     total cpu time spent up to now is       46.8 secs

     total energy              =    -373.41578998 Ry
     estimated scf accuracy    <       0.00000004 Ry

     iteration # 13     ecut=    90.00 Ry     beta= 0.30
     Davidson diagonalization with overlap
     ethr =  4.36E-11,  avg # of iterations =  2.1

     negative rho (up, down):  2.454E-06 0.000E+00

     total cpu time spent up to now is       50.2 secs

     End of self-consistent calculation

          k = 0.0000-0.0000 0.0000 ( 18619 PWs)   bands (ev):

   -14.2079 -13.7646 -13.0317 -12.0133 -10.7431  -9.2978  -7.7924  -6.4402
    -5.7129  -5.6385  -5.5480  -5.1588  -4.5122  -3.5989  -2.5513  -2.4326
    -2.2070  -1.8948  -1.0707  -0.9212  -0.8210   0.2843   0.4254   0.5682
     0.8982   1.2449   1.8070   2.0462   2.1306   2.5698   3.4794   3.7389
     3.7621   4.4362   5.2655   5.3274   5.4011   6.0722   6.5083   6.6149
     6.6223   6.9474   8.8507   9.2762  11.5412  11.9362  12.2840  12.5949
    12.7965  12.8112

          k = 0.0000-0.1010 0.0000 ( 18587 PWs)   bands (ev):

   -14.0207 -13.5791 -12.8494 -11.8374 -10.5816  -9.1776  -7.8456  -7.7360
    -7.3824  -7.1529  -4.7254  -4.7087  -3.7649  -3.7539  -3.3443  -2.4484
    -1.4920  -1.4833  -0.7381  -0.5100  -0.4365   0.4795   0.6732   0.9048
     1.0784   1.4161   1.9609   2.0005   2.5619   2.6934   3.4649   3.5513
     4.1552   4.4231   4.9406   5.1858   5.4931   5.7621   6.1292   6.1300
     6.3077   6.4587   9.0669   9.4938  11.7206  11.7655  12.4260  12.8944
    12.9483  13.2373

          k = 0.0000-0.2020 0.0000 ( 18570 PWs)   bands (ev):

   -13.4614 -13.0252 -12.3070 -11.3193 -10.1286  -9.6473  -9.2463  -8.9627
    -8.5709  -8.2404  -5.5174  -5.2868  -4.3498  -4.0474  -2.7264  -2.4784
    -1.3229  -0.8105   0.0603   0.3234   0.9884   1.1308   1.2851   1.6127
     1.7107   1.9215   2.4105   2.6276   2.8734   3.0462   3.6718   3.7418
     4.1977   4.3595   4.6875   4.7801   4.9749   5.0185   5.0413   5.1726
     5.6358   5.6658   9.7135  10.0742  11.7678  12.0979  12.4861  12.9677
    13.1116  13.3949

          k = 0.0000-0.3030 0.0000 ( 18540 PWs)   bands (ev):

   -12.5369 -12.1142 -11.4317 -11.2595 -10.8346 -10.5344 -10.1120  -9.5585
    -9.1545  -8.7786  -5.9902  -5.5498  -4.9189  -4.1310  -3.2748  -2.4066
    -1.4534  -0.5372   0.2946   1.2744   1.9192   2.0163   2.4795   2.6738
     2.7316   2.9574   3.1066   3.1111   3.5394   3.5431   3.6558   3.7804
     3.9736   4.0087   4.0249   4.0255   4.2561   4.2724   4.4086   4.4598
     4.6523   4.6703  10.7328  10.9118  11.8224  12.0267  12.1991  12.6956
    12.9513  13.4304

          k = 0.1111-0.0000 0.0000 ( 18597 PWs)   bands (ev):

   -13.9812 -13.5390 -12.8077 -11.7916 -10.5244  -9.0828  -7.5825  -6.2369
    -5.5134  -5.4801  -5.4363  -5.0945  -4.4541  -3.5497  -2.3952  -2.3539
    -2.0048  -1.7135  -1.0483  -0.7305  -0.6622  -0.1311   0.2309   0.4285
     0.4784   0.6677   0.8170   1.6078   2.0245   2.1507   2.5432   3.5138
     3.6246   3.7032   4.3970   4.9267   5.0685   5.3150   5.5713   5.8494
     5.8497   6.4999   9.0776   9.4843  11.6917  12.4239  12.6157  12.7926
    13.0597  13.1150

          k = 0.1111-0.1010 0.0000 ( 18595 PWs)   bands (ev):

   -13.7946 -13.3540 -12.6261 -11.6165 -10.3639  -8.9643  -7.6408  -7.5529
    -7.1992  -6.9639  -4.5797  -4.5554  -3.6606  -3.6210  -3.3163  -2.3325
    -1.4287  -1.4028  -0.6794  -0.4470  -0.3983   0.1647   0.4564   0.6386
     0.7030   0.9581   1.0837   1.8090   1.9606   2.5461   2.6762   3.3607
     3.5156   3.9708   4.2424   4.5229   4.6167   4.8026   5.0615   5.5777
     6.1079   6.4308   9.3125   9.7187  11.9672  12.6362  13.0923  13.1490
    13.4397  13.6626

          k = 0.1111-0.2020 0.0000 ( 18564 PWs)   bands (ev):

   -13.2368 -12.8019 -12.0857 -11.1009  -9.9143  -9.4426  -9.0440  -8.7562
    -8.3710  -8.0417  -5.3239  -5.1032  -4.1643  -3.8790  -2.5836  -2.3324
    -1.4385  -0.7521  -0.1227  -0.0255   0.4681   1.0686   1.0819   1.1923
     1.3362   1.6597   2.0056   2.2365   2.5807   2.7743   3.1304   3.2845
     3.4370   3.4928   3.5916   3.7041   3.7313   4.1514   4.6631   5.2265
     5.8812   6.0051   9.9747  10.3395  12.5521  12.6323  13.2252  13.6373
    13.8845  14.3476

          k = 0.1111-0.3030 0.0000 ( 18551 PWs)   bands (ev):

   -12.3156 -11.8943 -11.2143 -11.0439 -10.6210 -10.3208  -9.9019  -9.3503
    -8.9494  -8.5762  -5.7874  -5.3498  -4.7276  -3.9424  -3.1023  -2.2357
    -1.3239  -0.4122   0.1402   0.9537   0.9860   1.4153   1.5519   1.9018
     2.1590   2.2228   2.2668   2.6265   2.7748   2.8464   3.0620   3.2112
     3.2373   3.3529   3.6181   3.7773   3.8746   4.1053   4.5678   4.5939
     4.9173   4.9307  11.0103  11.2533  12.4029  12.4434  12.9131  13.3652
    13.5186  14.1554

          k = 0.2222-0.0000 0.0000 ( 18590 PWs)   bands (ev):

   -13.3046 -12.8653 -12.1391 -11.1301  -9.8718  -8.4416  -6.9561  -5.6296
    -5.5895  -5.2086  -4.9165  -4.8316  -4.5761  -3.6836  -2.5453  -1.8324
    -1.7807  -1.4560  -1.4226  -1.2186  -1.1867  -0.8499  -0.2875  -0.1093
    -0.0414   0.2338   0.8943   0.9058   1.0459   1.7897   1.8355   2.1142
     2.6083   3.1525   3.1609   3.4108   3.5144   3.6247   3.8680   4.2307
     4.9784   6.0744   9.7984  10.1266  11.7667  11.9683  12.3912  12.4593
    13.0459  13.3669

          k = 0.2222-0.1010 0.0000 ( 18542 PWs)   bands (ev):

   -13.1196 -12.6821 -11.9595 -10.9575  -9.7148  -8.3285  -7.0749  -7.0384
    -6.7080  -6.4335  -4.2947  -4.2809  -3.7772  -3.7450  -3.3560  -2.1309
    -1.8381  -1.6422  -1.1537  -1.0759  -0.6564  -0.2952  -0.1396   0.1147
     0.4252   0.8063   0.8406   1.2577   1.4197   1.5418   2.1411   2.1616
     2.3615   2.4024   2.6088   2.6251   3.1303   3.6316   4.4951   4.6253
     5.2492   5.7006  10.0448  10.3796  12.3984  12.5438  12.7422  12.9631
    13.1228  13.4986

          k = 0.2222-0.2020 0.0000 ( 18541 PWs)   bands (ev):

   -12.5673 -12.1360 -11.4261 -10.4502  -9.2764  -8.8514  -8.4594  -8.1459
    -7.7873  -7.4569  -4.7990  -4.6069  -3.7075  -3.4353  -2.8665  -2.7693
    -2.0245  -1.4084  -1.3613  -0.7167  -0.2327  -0.0393   0.2995   0.7809
     0.8458   1.1741   1.2244   1.4598   1.6023   1.7542   1.8872   1.9586
     2.0733   2.3482   2.5484   2.6724   3.3038   3.3339   4.4017   4.5358
     5.2682   5.5386  10.7170  11.0309  13.2561  13.6731  13.6796  13.7494
    14.0406  14.1911

          k = 0.2222-0.3030 0.0000 ( 18563 PWs)   bands (ev):

   -11.6572 -11.2405 -10.5681 -10.4074  -9.9906  -9.6865  -9.2815  -8.7328
    -8.3424  -7.9749  -5.2115  -4.7794  -4.1962  -3.4151  -2.6834  -1.8833
    -1.8547  -1.6600  -0.7695  -0.6658  -0.4901  -0.4754   0.0301   0.3973
     0.4006   0.7119   0.9801   1.2067   1.2399   1.9797   2.4957   2.9548
     2.9660   3.1613   3.3140   3.4087   3.5513   3.5686   3.8164   4.3305
     4.8079   4.8091  11.7126  11.9259  13.1827  13.2092  14.2350  14.3312
    14.5954  14.6063

          k = 0.3333-0.0000 0.0000 ( 18530 PWs)   bands (ev):

   -12.1896 -11.7556 -11.0382 -10.0415  -8.7986  -7.3873  -6.8348  -6.4383
    -5.9250  -5.7819  -4.8626  -4.6260  -3.9274  -3.8305  -3.7024  -2.3659
    -2.1596  -1.8091  -1.2527  -0.9375  -0.8975  -0.5727  -0.5268  -0.3444
     0.2557   0.2750   0.4380   0.8135   1.0052   1.0984   1.2111   1.3597
     1.5417   1.7804   1.9317   1.9760   2.1672   2.2910   2.2961   2.9018
     4.2563   5.3031  10.9325  11.0689  11.6275  11.6284  12.2444  12.7213
    13.3583  13.6092

          k = 0.3333-0.1010 0.0000 ( 18560 PWs)   bands (ev):

   -12.0083 -11.5764 -10.8632  -9.8743  -8.6484  -7.2874  -7.0399  -6.6728
    -6.0855  -6.0238  -4.7963  -4.7577  -4.5706  -4.5011  -3.8004  -2.5363
    -2.0692  -1.7734  -1.3341  -1.1972  -0.8577  -0.8030  -0.1281   0.0064
     0.0889   0.1068   0.4245   0.4504   1.0079   1.0190   1.1907   1.3420
     1.4576   1.5680   1.8042   2.1043   2.5287   2.6641   3.1350   3.4587
     4.0690   5.1127  11.2023  11.4132  12.1392  12.1937  12.6382  12.6455
    13.4275  13.5010

          k = 0.3333-0.2020 0.0000 ( 18597 PWs)   bands (ev):

   -11.4687 -11.0439 -10.3450  -9.3848  -8.2344  -8.0501  -7.6617  -7.2160
    -6.9083  -6.5661  -4.9563  -4.6459  -4.3894  -4.2587  -4.1582  -3.1488
    -2.2309  -2.2085  -1.8487  -1.6697  -1.4091  -1.2921  -1.2241  -0.8096
    -0.3204   0.0453   0.5992   0.7221   1.4658   1.6146   1.7375   1.8368
     1.8915   2.1397   2.2433   2.3243   2.6214   2.8678   3.5464   3.8523
     4.4940   4.6294  11.8373  12.0295  13.1768  13.2076  13.6327  13.8322
    14.0052  14.0483

          k = 0.3333-0.3030 0.0000 ( 18623 PWs)   bands (ev):

   -10.5873 -10.1786  -9.5198  -9.4047  -8.9982  -8.6609  -8.3028  -7.7386
    -7.3719  -6.9998  -4.4793  -4.2636  -4.0277  -3.9589  -3.6640  -3.4702
    -3.1242  -2.9338  -2.7322  -2.4453  -1.8614  -1.5545  -1.1353  -0.9322
    -0.7569  -0.6341   0.2319   0.9191   1.3779   1.5020   1.8326   2.2430
     2.3539   2.4985   2.9849   3.1040   3.3735   3.5465   3.6249   3.7056
     4.2489   4.5299  12.6125  12.6989  14.0322  14.0874  14.3330  14.3339
    14.8019  14.9242

          k = 0.4444-0.0000 0.0000 ( 18564 PWs)   bands (ev):

   -10.6642 -10.2382  -9.5344  -8.8002  -8.5558  -8.3862  -7.7018  -7.3351
    -6.7486  -5.9491  -5.5562  -4.5147  -4.1985  -3.2428  -2.7850  -2.5571
    -2.4454  -1.5159  -1.1682  -0.8756  -0.8280  -0.6998  -0.4313   0.1003
     0.1548   0.2911   0.4071   0.5868   0.5966   0.7090   0.7527   0.8400
     0.9242   1.0364   1.0613   1.0729   1.1904   1.9486   1.9777   3.0513
     3.1977   4.2390  11.5605  11.6865  12.1895  12.3832  12.4817  12.4959
    13.1216  13.1253

          k = 0.4444-0.1010 0.0000 ( 18572 PWs)   bands (ev):

   -10.4924 -10.0691  -9.3703  -8.6678  -8.4009  -8.2580  -7.5813  -7.1983
    -6.6417  -5.8714  -5.4411  -4.5278  -4.1482  -3.8713  -3.6584  -3.6397
    -2.8599  -2.1486  -1.9940  -1.9513  -1.0228  -0.9931  -0.3050  -0.1844
     0.2407   0.3166   0.3802   0.4879   0.6971   1.0480   1.1110   1.1911
     1.2464   1.3572   1.4707   1.7472   1.8508   2.1008   2.2311   3.1437
     3.1996   4.2206  12.1387  12.2342  12.2401  12.3775  12.5026  12.9784
    13.2822  13.2939

          k = 0.4444-0.2020 0.0000 ( 18599 PWs)   bands (ev):

    -9.9894  -9.5749  -8.8933  -8.3677  -7.9720  -7.9551  -7.3205  -6.8212
    -6.4249  -5.7398  -5.4042  -5.1240  -5.0860  -4.6010  -4.5800  -4.0987
    -3.8229  -3.5549  -3.1573  -3.1314  -1.7518  -1.3217  -1.0054  -0.5148
    -0.4420   0.0807   0.2003   0.4490   0.7143   1.0489   1.5661   1.5880
     1.7734   2.0868   2.2275   2.4733   2.7125   2.9524   3.0435   3.3503
     3.4470   4.1407  12.8399  12.8888  13.1419  13.3706  13.4042  13.6398
    13.7218  14.0797

          k = 0.4444-0.3030 0.0000 ( 18611 PWs)   bands (ev):

    -9.2160  -8.8198  -8.4420  -8.1907  -8.0376  -7.4758  -7.2411  -6.6344
    -6.2301  -5.9928  -5.7988  -5.6012  -5.2352  -5.1032  -4.8557  -4.5755
    -4.5561  -4.3510  -4.0774  -3.8545  -1.7589  -1.7333  -1.2599  -1.1892
    -0.5373  -0.1848  -0.0681   0.1421   0.8931   0.9510   1.3562   1.4282
     2.2366   2.2411   2.6649   2.8930   3.2199   3.3449   3.7367   3.7661
     3.9737   4.0683  13.3630  13.3788  14.0196  14.0426  14.7137  14.7406
    15.2209  15.2348

     the Fermi energy is     7.5587 ev

!    total energy              =    -373.41578999 Ry
     estimated scf accuracy    <          3.8E-09 Ry
     smearing contrib. (-TS)   =       0.00000000 Ry
     internal energy E=F+TS    =    -373.41578999 Ry

     The total energy is F=E-TS. E is the sum of the following terms:
     one-electron contribution =   -2463.71719884 Ry
     hartree contribution      =    1276.97370837 Ry
     xc contribution           =     -96.61449551 Ry
     ewald contribution        =    1033.20191496 Ry
     one-center paw contrib.   =    -123.25971897 Ry

     convergence has been achieved in  13 iterations

     negative rho (up, down):  2.454E-06 0.000E+00

     Forces acting on atoms (cartesian axes, Ry/au):

     atom    1 type  1   force =    -0.00000000   -0.00002863    0.00001392
     atom    2 type  1   force =     0.00000000    0.00002863    0.00001392
     atom    3 type  1   force =     0.00000000   -0.00001186   -0.00004081
     atom    4 type  1   force =     0.00000000    0.00001186   -0.00004081
     atom    5 type  1   force =     0.00000000   -0.00000506   -0.00002296
     atom    6 type  1   force =     0.00000000    0.00000506   -0.00002296
     atom    7 type  1   force =     0.00000000    0.00000200    0.00003750
     atom    8 type  1   force =     0.00000000   -0.00000200    0.00003750
     atom    9 type  1   force =     0.00000000    0.00001462    0.00002932
     atom   10 type  1   force =     0.00000000   -0.00001462    0.00002932
     atom   11 type  1   force =     0.00000000   -0.00001462   -0.00002932
     atom   12 type  1   force =     0.00000000    0.00001462   -0.00002932
     atom   13 type  1   force =     0.00000000    0.00000200   -0.00003750
     atom   14 type  1   force =     0.00000000   -0.00000200   -0.00003750
     atom   15 type  1   force =     0.00000000   -0.00000506    0.00002296
     atom   16 type  1   force =     0.00000000    0.00000506    0.00002296
     atom   17 type  1   force =     0.00000000    0.00001186    0.00004081
     atom   18 type  1   force =     0.00000000   -0.00001186    0.00004081
     atom   19 type  1   force =     0.00000000   -0.00002863   -0.00001392
     atom   20 type  1   force =    -0.00000000    0.00002863   -0.00001392
     atom   21 type  2   force =     0.00000000   -0.00001504    0.00002790
     atom   22 type  2   force =     0.00000000    0.00001504    0.00002790
     atom   23 type  2   force =     0.00000000   -0.00001504   -0.00002790
     atom   24 type  2   force =     0.00000000    0.00001504   -0.00002790

     Total force =     0.000166     Total SCF correction =     0.000203
     SCF correction compared to forces is large: reduce conv_thr to get better values


     Computing stress (Cartesian axis) and pressure


     negative rho (up, down):  2.454E-06 0.000E+00
          total   stress  (Ry/bohr**3)                   (kbar)     P=       20.49
   0.00013712   0.00000000   0.00000000           20.17        0.00        0.00
   0.00000000   0.00028138   0.00000000            0.00       41.39        0.00
   0.00000000   0.00000000  -0.00000059            0.00        0.00       -0.09


     Writing all to output data dir /tmp/qe/slab.save/ :
     XML data file, charge density, pseudopotentials, collected wavefunctions

     init_run     :      2.10s CPU      2.18s WALL (       1 calls)
     electrons    :     47.50s CPU     47.95s WALL (       1 calls)
     forces       :      0.60s CPU      0.62s WALL (       1 calls)
     stress       :     10.41s CPU     10.44s WALL (       1 calls)

     Called by init_run:
     wfcinit      :      1.73s CPU      1.77s WALL (       1 calls)
     potinit      :      0.18s CPU      0.19s WALL (       1 calls)
     hinit0       :      0.07s CPU      0.08s WALL (       1 calls)

     Called by electrons:
     c_bands      :     37.72s CPU     38.05s WALL (      13 calls)
     sum_band     :      7.09s CPU      7.17s WALL (      13 calls)
     v_of_rho     :      0.89s CPU      0.92s WALL (      14 calls)
     newd         :      0.54s CPU      0.55s WALL (      14 calls)
     PAW_pot      :      1.29s CPU      1.29s WALL (      14 calls)
     mix_rho      :      0.09s CPU      0.09s WALL (      13 calls)

     Called by c_bands:
     init_us_2    :      1.15s CPU      1.17s WALL (     580 calls)
     cegterg      :     35.94s CPU     36.25s WALL (     260 calls)

     Called by *egterg:
     cdiaghg      :      2.66s CPU      2.69s WALL (    1303 calls)
     h_psi        :     26.83s CPU     27.10s WALL (    1323 calls)
     s_psi        :      2.07s CPU      2.08s WALL (    1323 calls)
     g_psi        :      0.17s CPU      0.17s WALL (    1043 calls)

     Called by h_psi:
     h_psi:calbec :      2.03s CPU      2.06s WALL (    1323 calls)
     vloc_psi     :     22.36s CPU     22.58s WALL (    1323 calls)
     add_vuspsi   :      2.25s CPU      2.26s WALL (    1323 calls)

     General routines
     calbec       :      2.91s CPU      2.94s WALL (    1683 calls)
     fft          :      0.41s CPU      0.44s WALL (     205 calls)
     ffts         :      0.02s CPU      0.02s WALL (      27 calls)
     fftw         :     19.73s CPU     19.89s WALL (   82818 calls)
     interpolate  :      0.04s CPU      0.04s WALL (      14 calls)

     Parallel routines

     PWSCF        :   1m 0.81s CPU   1m 1.55s WALL


   This run was terminated on:  16:12: 6   2Aug2026            

=------------------------------------------------------------------------------=
   JOB DONE.
=------------------------------------------------------------------------------=
Note: The following floating-point exceptions are signalling: IEEE_UNDERFLOW_FLAG IEEE_DENORMAL
Note: The following floating-point exceptions are signalling: IEEE_UNDERFLOW_FLAG IEEE_DENORMAL
Note: The following floating-point exceptions are signalling: IEEE_UNDERFLOW_FLAG IEEE_DENORMAL
Note: The following floating-point exceptions are signalling: IEEE_UNDERFLOW_FLAG IEEE_DENORMAL
Note: The following floating-point exceptions are signalling: IEEE_UNDERFLOW_FLAG IEEE_DENORMAL
Note: The following floating-point exceptions are signalling: IEEE_UNDERFLOW_FLAG IEEE_DENORMAL
Note: The following floating-point exceptions are signalling: IEEE_UNDERFLOW_FLAG IEEE_DENORMAL
Note: The following floating-point exceptions are signalling: IEEE_UNDERFLOW_FLAG IEEE_DENORMAL
