
     Program PWSCF v.7.5 starts on 23Jun2026 at 13:44:35 

     This program is part of the open-source Quantum ESPRESSO suite
     for quantum simulation of materials; please cite
         "P. Giannozzi et al., J. Phys.:Condens. Matter 21 395502 (2009);
         "P. Giannozzi et al., J. Phys.:Condens. Matter 29 465901 (2017);
         "P. Giannozzi et al., J. Chem. Phys. 152 154105 (2020);
          URL http://www.quantum-espresso.org", 
     in publications or presentations arising from this work. More details at
     http://www.quantum-espresso.org/quote

     Serial version
     0 MiB available memory on the printing compute node when the environment starts

     Waiting for input...
     Reading input from standard input

     Current dimensions of program PWSCF are:
     Max number of different atomic species (ntypx) = 10
     Max number of k-points (npk) =  40000
     Max angular momentum in pseudopotentials (lmaxx) =  4
     file C.pbe-n-kjpaw_psl.1.0.0.UPF: wavefunction(s)  2S 2P renormalized
     Message from routine volume:
     axis vectors are left-handed
     Message from routine setup:
     using ibrav=0 with symmetry is DISCOURAGED, use correct ibrav instead


     G-vector sticks info
     --------------------
     sticks:   dense  smooth     PW     G-vecs:    dense   smooth      PW
     Sum        2323    1157    343               482649   170709   26353

     Using Slab Decomposition



     bravais-lattice index     =            0
     lattice parameter (alat)  =       4.7752  a.u.
     unit-cell volume          =    1765.3749 (a.u.)^3
     number of atoms/cell      =           14
     number of atomic types    =            2
     number of electrons       =        50.00
     number of Kohn-Sham states=           30
     kinetic-energy cutoff     =      80.0000  Ry
     charge density cutoff     =     640.0000  Ry
     scf convergence threshold =      1.0E-08
     mixing beta               =       0.3000
     number of iterations used =            8  plain     mixing
     Exchange-correlation= PBE
                           (   1   4   3   4   0   0   0)

     celldm(1)=   4.775235  celldm(2)=   0.000000  celldm(3)=   0.000000
     celldm(4)=   0.000000  celldm(5)=   0.000000  celldm(6)=   0.000000

     crystal axes: (cart. coord. in units of alat)
               a(1) = (   1.000000   0.000000   0.000000 )  
               a(2) = (   0.000000  -2.000000   0.000000 )  
               a(3) = (   0.000000   0.000000   8.106298 )  

     reciprocal axes: (cart. coord. in units 2 pi/alat)
               b(1) = (  1.000000 -0.000000 -0.000000 )  
               b(2) = ( -0.000000 -0.500000 -0.000000 )  
               b(3) = ( -0.000000 -0.000000  0.123361 )  


     PseudoPot. # 1 for C  read from file:
     ./C.pbe-n-kjpaw_psl.1.0.0.UPF
     MD5 check sum: 5d2aebdfa2cae82b50a7e79e9516da0f
     Pseudo is Projector augmented-wave + core cor, Zval =  4.0
     Generated using "atomic" code by A. Dal Corso  v.5.1
     Shape of augmentation charge: PSQ
     Using radial grid of 1073 points,  4 beta functions with: 
                l(1) =   0
                l(2) =   0
                l(3) =   1
                l(4) =   1
     Q(r) pseudized with 0 coefficients 


     PseudoPot. # 2 for H  read from file:
     ./H_ONCV_PBE-1.0.oncvpsp.upf
     MD5 check sum: 1790becc920ee074925cf490c71280fe
     Pseudo is Norm-conserving, Zval =  1.0
     Generated using ONCVPSP code by D. R. Hamann
     Using radial grid of 1166 points,  2 beta functions with: 
                l(1) =   0
                l(2) =   0

     atomic species   valence    mass     pseudopotential
     C                 4.00    12.01100     C ( 1.00)
     H                 1.00     1.00800     H ( 1.00)

      4 Sym. Ops. (no inversion) found



   Cartesian axes

     site n.     atom                  positions (alat units)
         1        C      tau(   1) = (   0.0000000  -0.3212366   4.7085576  )
         2        C      tau(   2) = (   0.5000000  -0.4642664   4.3876684  )
         3        C      tau(   3) = (   0.5000000   0.0000000   3.9931738  )
         4        C      tau(   4) = (   0.0000000   0.0000000   3.6576303  )
         5        C      tau(   5) = (   0.0000000  -0.5000000   3.3215633  )
         6        C      tau(   6) = (   0.5000000  -0.5000000   2.9680099  )
         7        C      tau(   7) = (   0.0000000  -1.6787634   4.7085576  )
         8        C      tau(   8) = (   0.5000000  -1.5357336   4.3876684  )
         9        C      tau(   9) = (   0.5000000  -1.0000000   4.0662130  )
        10        C      tau(  10) = (   0.0000000  -1.0000000   3.6998598  )
        11        C      tau(  11) = (   0.0000000  -1.5000000   3.3215633  )
        12        C      tau(  12) = (   0.5000000  -1.5000000   2.9680099  )
        13        H      tau(  13) = (   0.0000000  -0.4902796   5.1093667  )
        14        H      tau(  14) = (   0.0000000  -1.5097204   5.1093667  )

     number of k points=    15  Marzari-Vanderbilt smearing, width (Ry)=  0.0100
                       cart. coord. in units 2pi/alat
        k(    1) = (   0.0000000  -0.0000000   0.0000000), wk =   0.0444444
        k(    2) = (   0.0000000  -0.1000000   0.0000000), wk =   0.0888889
        k(    3) = (   0.0000000  -0.2000000   0.0000000), wk =   0.0888889
        k(    4) = (   0.1111111  -0.0000000   0.0000000), wk =   0.0888889
        k(    5) = (   0.1111111  -0.1000000   0.0000000), wk =   0.1777778
        k(    6) = (   0.1111111  -0.2000000   0.0000000), wk =   0.1777778
        k(    7) = (   0.2222222  -0.0000000   0.0000000), wk =   0.0888889
        k(    8) = (   0.2222222  -0.1000000   0.0000000), wk =   0.1777778
        k(    9) = (   0.2222222  -0.2000000   0.0000000), wk =   0.1777778
        k(   10) = (   0.3333333  -0.0000000   0.0000000), wk =   0.0888889
        k(   11) = (   0.3333333  -0.1000000   0.0000000), wk =   0.1777778
        k(   12) = (   0.3333333  -0.2000000   0.0000000), wk =   0.1777778
        k(   13) = (   0.4444444  -0.0000000   0.0000000), wk =   0.0888889
        k(   14) = (   0.4444444  -0.1000000   0.0000000), wk =   0.1777778
        k(   15) = (   0.4444444  -0.2000000   0.0000000), wk =   0.1777778

     Dense  grid:   482649 G-vectors     FFT dimensions: (  40,  80, 320)

     Smooth grid:   170709 G-vectors     FFT dimensions: (  27,  60, 225)

     Estimated max dynamical RAM per process >       1.02 GB

     Initial potential from superposition of free atoms

     starting charge      49.9995, renormalised to      50.0000

     negative rho (up, down):  7.352E-05 0.000E+00
     Starting wfcs are   50 randomized atomic wfcs

     total cpu time spent up to now is        4.1 secs

     Self-consistent Calculation

     iteration #  1     ecut=    80.00 Ry     beta= 0.30
     Davidson diagonalization with overlap
     ethr =  1.00E-02,  avg # of iterations =  2.5

     negative rho (up, down):  7.067E-05 0.000E+00

     total cpu time spent up to now is       12.0 secs

     total energy              =    -223.06902560 Ry
     estimated scf accuracy    <       0.89568728 Ry

     iteration #  2     ecut=    80.00 Ry     beta= 0.30
     Davidson diagonalization with overlap
     ethr =  1.79E-03,  avg # of iterations =  3.6

     negative rho (up, down):  7.656E-05 0.000E+00

     total cpu time spent up to now is       18.6 secs

     total energy              =    -223.01769909 Ry
     estimated scf accuracy    <       0.29170577 Ry

     iteration #  3     ecut=    80.00 Ry     beta= 0.30
     Davidson diagonalization with overlap
     ethr =  5.83E-04,  avg # of iterations =  5.5

     negative rho (up, down):  8.350E-05 0.000E+00

     total cpu time spent up to now is       26.1 secs

     total energy              =    -223.02171381 Ry
     estimated scf accuracy    <       0.06626537 Ry

     iteration #  4     ecut=    80.00 Ry     beta= 0.30
     Davidson diagonalization with overlap
     ethr =  1.33E-04,  avg # of iterations =  5.2

     negative rho (up, down):  8.800E-05 0.000E+00

     total cpu time spent up to now is       33.6 secs

     total energy              =    -223.02620754 Ry
     estimated scf accuracy    <       0.01037424 Ry

     iteration #  5     ecut=    80.00 Ry     beta= 0.30
     Davidson diagonalization with overlap
     ethr =  2.07E-05,  avg # of iterations =  5.2

     negative rho (up, down):  9.033E-05 0.000E+00

     total cpu time spent up to now is       41.8 secs

     total energy              =    -223.02750388 Ry
     estimated scf accuracy    <       0.00125811 Ry

     iteration #  6     ecut=    80.00 Ry     beta= 0.30
     Davidson diagonalization with overlap
     c_bands:  1 eigenvalues not converged
     ethr =  2.52E-06,  avg # of iterations =  6.9

     negative rho (up, down):  8.774E-05 0.000E+00

     total cpu time spent up to now is       51.4 secs

     total energy              =    -223.02765514 Ry
     estimated scf accuracy    <       0.00022598 Ry

     iteration #  7     ecut=    80.00 Ry     beta= 0.30
     Davidson diagonalization with overlap
     ethr =  4.52E-07,  avg # of iterations =  3.2

     negative rho (up, down):  8.797E-05 0.000E+00

     total cpu time spent up to now is       59.1 secs

     total energy              =    -223.02769098 Ry
     estimated scf accuracy    <       0.00005990 Ry

     iteration #  8     ecut=    80.00 Ry     beta= 0.30
     Davidson diagonalization with overlap
     ethr =  1.20E-07,  avg # of iterations =  2.0

     negative rho (up, down):  8.749E-05 0.000E+00

     total cpu time spent up to now is       66.1 secs

     total energy              =    -223.02769833 Ry
     estimated scf accuracy    <       0.00000773 Ry

     iteration #  9     ecut=    80.00 Ry     beta= 0.30
     Davidson diagonalization with overlap
     ethr =  1.55E-08,  avg # of iterations =  2.9

     negative rho (up, down):  8.719E-05 0.000E+00

     total cpu time spent up to now is       74.3 secs

     total energy              =    -223.02769976 Ry
     estimated scf accuracy    <       0.00000103 Ry

     iteration # 10     ecut=    80.00 Ry     beta= 0.30
     Davidson diagonalization with overlap
     ethr =  2.05E-09,  avg # of iterations =  3.6

     negative rho (up, down):  8.695E-05 0.000E+00

     total cpu time spent up to now is       83.5 secs

     total energy              =    -223.02770002 Ry
     estimated scf accuracy    <       0.00000047 Ry

     iteration # 11     ecut=    80.00 Ry     beta= 0.30
     Davidson diagonalization with overlap
     ethr =  9.47E-10,  avg # of iterations =  2.0

     negative rho (up, down):  8.687E-05 0.000E+00

     total cpu time spent up to now is       90.4 secs

     total energy              =    -223.02770007 Ry
     estimated scf accuracy    <       0.00000005 Ry

     iteration # 12     ecut=    80.00 Ry     beta= 0.30
     Davidson diagonalization with overlap
     ethr =  1.00E-10,  avg # of iterations =  4.1

     negative rho (up, down):  8.681E-05 0.000E+00

     total cpu time spent up to now is      102.8 secs

     total energy              =    -223.02770009 Ry
     estimated scf accuracy    <       0.00000002 Ry

     iteration # 13     ecut=    80.00 Ry     beta= 0.30
     Davidson diagonalization with overlap
     ethr =  3.53E-11,  avg # of iterations =  2.2

     negative rho (up, down):  8.675E-05 0.000E+00

     total cpu time spent up to now is      110.0 secs

     End of self-consistent calculation

          k = 0.0000-0.0000 0.0000 ( 21317 PWs)   bands (ev):

   -21.1142 -18.8508 -16.7015 -16.3139 -15.2802 -15.1801 -12.0684 -11.3434
   -10.9954  -8.0962  -7.9809  -7.1964  -6.1178  -5.6958  -4.2742  -4.1206
    -4.1009  -3.2885  -3.2600  -2.8152  -2.6256  -2.4859  -1.6059  -0.9072
    -0.4889  -0.0288   2.6276   3.1381   4.2377   4.3034

          k = 0.0000-0.1000 0.0000 ( 21357 PWs)   bands (ev):

   -20.9640 -18.7890 -17.8754 -15.8922 -15.0214 -14.9190 -11.5995 -11.2567
   -10.9215  -8.2688  -7.6606  -7.3325  -6.2464  -6.0060  -4.5962  -4.1627
    -4.0596  -3.7859  -3.5900  -2.8755  -2.6293  -2.1967  -1.5533  -1.0085
    -0.6617   0.2952   2.7849   2.8473   4.5870   5.0051

          k = 0.0000-0.2000 0.0000 ( 21307 PWs)   bands (ev):

   -20.5998 -19.1502 -18.2710 -16.6030 -14.7260 -14.0787 -11.3946 -10.5070
   -10.2065  -9.0410  -8.0543  -7.0903  -6.8102  -5.7540  -5.3289  -4.4536
    -4.3694  -3.8572  -3.4279  -3.2296  -2.8570  -1.8521  -1.4669  -1.0414
    -0.9456   1.0193   1.9803   3.4257   4.3485   4.9623

          k = 0.1111-0.0000 0.0000 ( 21313 PWs)   bands (ev):

   -20.8891 -18.6329 -16.4918 -16.0998 -15.0764 -14.9803 -11.8830 -11.2580
   -10.8153  -7.9835  -7.9190  -7.5054  -6.9371  -5.5433  -5.2641  -4.4726
    -4.2195  -3.9427  -3.5070  -3.4336  -3.4083  -2.7352  -2.4507  -1.0378
    -0.5186  -0.0169   2.8429   3.2554   4.7577   4.9530

          k = 0.1111-0.1000 0.0000 ( 21328 PWs)   bands (ev):

   -20.7393 -18.5706 -17.6600 -15.6883 -14.8158 -14.7176 -11.4572 -11.0956
   -10.7767  -8.2023  -7.6344  -7.4471  -6.8846  -6.1538  -5.2099  -4.9181
    -4.4297  -4.2281  -3.5649  -3.4335  -3.1436  -3.0435  -2.3119  -1.0732
    -0.6462   0.2928   2.8660   3.0561   5.0608   5.4873

          k = 0.1111-0.2000 0.0000 ( 21318 PWs)   bands (ev):

   -20.3759 -18.9291 -18.0561 -16.3960 -14.5283 -13.8769 -11.2718 -10.3410
   -10.0880  -8.8785  -7.9296  -7.3523  -6.7352  -6.5447  -5.6105  -5.3209
    -4.9969  -4.3575  -3.8783  -3.3535  -3.0832  -2.7056  -2.4104  -1.0508
    -0.8804   1.0230   2.0009   3.6207   4.5108   5.1301

          k = 0.2222-0.0000 0.0000 ( 21324 PWs)   bands (ev):

   -20.2177 -17.9872 -15.8678 -15.4626 -14.4863 -14.3864 -11.4633 -11.3554
   -10.3181  -9.1430  -8.3621  -7.9709  -7.4612  -6.3615  -6.0804  -5.4842
    -5.3512  -5.2094  -5.0806  -4.1787  -4.1228  -3.1104  -2.5976  -1.3808
    -0.9379  -0.1435   3.3893   3.5333   5.4576   5.7501

          k = 0.2222-0.1000 0.0000 ( 21309 PWs)   bands (ev):

   -20.0689 -17.9229 -17.0198 -15.0878 -14.2134 -14.1230 -11.4130 -10.7570
   -10.3724  -9.0264  -8.4681  -8.0481  -7.2559  -6.5461  -6.2211  -5.7437
    -5.6828  -5.1084  -4.8823  -4.4250  -4.1200  -3.3409  -2.8851  -1.3168
    -0.9198   0.1163   2.9591   3.6111   5.5646   5.7900

          k = 0.2222-0.2000 0.0000 ( 21298 PWs)   bands (ev):

   -19.7079 -18.2707 -17.4192 -15.7871 -13.9605 -13.2749 -11.2331 -10.1675
    -9.8008  -8.8587  -8.5470  -7.9081  -7.6385  -7.1940  -6.5724  -6.1524
    -5.8721  -5.2145  -4.6459  -4.4726  -4.2539  -3.4137  -3.1773  -1.1928
    -1.0001   0.8319   1.8702   4.1029   4.7518   5.2548

          k = 0.3333-0.0000 0.0000 ( 21360 PWs)   bands (ev):

   -19.1147 -16.9603 -14.8591 -14.4209 -13.8669 -13.4243 -12.7209 -11.0704
   -10.6720  -9.8594  -9.0356  -8.9897  -8.1740  -7.6268  -7.2722  -6.8611
    -6.0698  -5.6589  -5.1396  -4.6820  -4.1123  -4.0432  -2.5578  -1.6576
    -1.3365  -0.3838   3.7891   4.2693   5.8308   6.4519

          k = 0.3333-0.1000 0.0000 ( 21350 PWs)   bands (ev):

   -18.9674 -16.8868 -15.9821 -14.1904 -13.5763 -13.1472 -12.5606 -11.0221
   -10.5183  -9.8092  -9.1712  -8.8098  -8.0803  -7.7018  -7.3817  -6.2413
    -6.1631  -5.6145  -5.3941  -4.8924  -4.4691  -3.9379  -3.2406  -1.5629
    -1.3133  -0.1575   3.1489   4.4392   5.4332   6.1090

          k = 0.3333-0.2000 0.0000 ( 21325 PWs)   bands (ev):

   -18.6100 -17.1942 -16.4035 -14.8534 -13.4510 -12.2931 -12.2468 -11.3356
   -10.4046  -9.4704  -8.8612  -8.4558  -7.9086  -7.4059  -7.2386  -7.1798
    -6.2678  -5.6359  -5.5027  -4.9823  -4.7276  -4.1558  -3.8396  -1.4290
    -1.3289   0.5879   1.8256   4.5869   4.9040   5.6600

          k = 0.4444-0.0000 0.0000 ( 21398 PWs)   bands (ev):

   -17.6288 -16.1561 -14.9589 -13.4474 -13.0375 -13.0028 -12.2815 -12.0203
   -11.5105 -10.9922 -10.2059  -9.9345  -8.2406  -7.8760  -7.4315  -7.1045
    -6.4311  -5.7904  -5.6301  -5.3326  -4.5153  -3.4253  -2.8222  -1.8242
    -1.5620  -0.5861   3.9224   5.3650   5.7543   6.3661

          k = 0.4444-0.1000 0.0000 ( 21359 PWs)   bands (ev):

   -17.4835 -16.0162 -14.9817 -14.5006 -13.3939 -12.8566 -11.9105 -11.6937
   -11.4783 -10.6680 -10.1085  -9.7564  -8.2268  -7.8259  -7.6474  -6.4510
    -6.3637  -5.8326  -5.5781  -5.1607  -4.7173  -4.0494  -3.5839  -1.7082
    -1.5686  -0.3646   3.2730   5.2128   5.7734   6.1268

          k = 0.4444-0.2000 0.0000 ( 21333 PWs)   bands (ev):

   -17.1291 -15.7987 -15.5378 -14.6303 -14.3392 -12.6063 -12.2935 -11.2439
   -11.2289 -10.7341  -9.5561  -9.1543  -8.0541  -7.4882  -7.2027  -6.4698
    -6.0333  -5.8703  -5.5002  -5.3236  -5.1195  -4.9625  -4.6281  -1.6357
    -1.5710   0.4957   1.8720   4.8388   5.6092   6.2429

     the Fermi energy is    -0.5155 ev

!    total energy              =    -223.02770009 Ry
     estimated scf accuracy    <          2.1E-09 Ry
     smearing contrib. (-TS)   =      -0.00004136 Ry
     internal energy E=F+TS    =    -223.02765873 Ry

     The total energy is F=E-TS. E is the sum of the following terms:
     one-electron contribution =   -2273.10863313 Ry
     hartree contribution      =    1150.33163944 Ry
     xc contribution           =     -56.71069402 Ry
     ewald contribution        =    1030.43917307 Ry
     one-center paw contrib.   =     -73.97914408 Ry

     convergence has been achieved in  13 iterations

     negative rho (up, down):  8.675E-05 0.000E+00

     Forces acting on atoms (cartesian axes, Ry/au):

     atom    1 type  1   force =     0.00000000   -0.00004424   -0.00002002
     atom    2 type  1   force =     0.00000000   -0.00004336    0.00002589
     atom    3 type  1   force =     0.00000000   -0.00000000    0.00007150
     atom    4 type  1   force =     0.00000000   -0.00000000    0.00005231
     atom    5 type  1   force =     0.00000000   -0.03098561   -0.08930927
     atom    6 type  1   force =     0.00000000   -0.00716881    0.08927619
     atom    7 type  1   force =     0.00000000    0.00004424   -0.00002002
     atom    8 type  1   force =    -0.00000000    0.00004336    0.00002589
     atom    9 type  1   force =     0.00000000   -0.00000000    0.00001216
     atom   10 type  1   force =     0.00000000   -0.00000000    0.00001300
     atom   11 type  1   force =     0.00000000    0.03098561   -0.08930927
     atom   12 type  1   force =     0.00000000    0.00716881    0.08927619
     atom   13 type  2   force =     0.00000000    0.00000221   -0.00004728
     atom   14 type  2   force =     0.00000000   -0.00000221   -0.00004728

     Total force =     0.000150     Total SCF correction =     0.000072
     SCF correction compared to forces is large: reduce conv_thr to get better values


     Computing stress (Cartesian axis) and pressure


     negative rho (up, down):  8.675E-05 0.000E+00
          total   stress  (Ry/bohr**3)                   (kbar)     P=      -34.63
  -0.00004179   0.00000000   0.00000000           -6.15        0.00        0.00
   0.00000000  -0.00048959   0.00000000            0.00      -72.02        0.00
   0.00000000   0.00000000  -0.00017490            0.00        0.00      -25.73


     Writing all to output data dir ./tmp/slab.save/ :
     XML data file, charge density, pseudopotentials, collected wavefunctions

     init_run     :      3.78s CPU      4.07s WALL (       1 calls)
     electrons    :     96.11s CPU    105.96s WALL (       1 calls)
     forces       :      1.12s CPU      1.33s WALL (       1 calls)
     stress       :      3.33s CPU      3.90s WALL (       1 calls)

     Called by init_run:
     wfcinit      :      3.11s CPU      3.35s WALL (       1 calls)
     potinit      :      0.34s CPU      0.36s WALL (       1 calls)
     hinit0       :      0.16s CPU      0.16s WALL (       1 calls)

     Called by electrons:
     c_bands      :     78.22s CPU     86.47s WALL (      13 calls)
     sum_band     :     12.09s CPU     12.90s WALL (      13 calls)
     v_of_rho     :      2.31s CPU      2.48s WALL (      14 calls)
     newd         :      1.27s CPU      1.62s WALL (      14 calls)
     PAW_pot      :      2.04s CPU      2.27s WALL (      14 calls)
     mix_rho      :      0.34s CPU      0.40s WALL (      13 calls)

     Called by c_bands:
     init_us_2    :      1.14s CPU      1.33s WALL (     435 calls)
     cegterg      :     75.96s CPU     84.09s WALL (     195 calls)

     Called by *egterg:
     cdiaghg      :      0.54s CPU      0.54s WALL (     930 calls)
     h_psi        :     58.62s CPU     62.34s WALL (     945 calls)
     s_psi        :      5.70s CPU      6.79s WALL (     945 calls)
     g_psi        :      0.25s CPU      0.25s WALL (     735 calls)

     Called by h_psi:
     h_psi:calbec :      5.07s CPU      6.41s WALL (     945 calls)
     vloc_psi     :     47.03s CPU     47.91s WALL (     945 calls)
                                        0.00s GPU  (     945 calls)
     add_vuspsi   :      6.31s CPU      7.65s WALL (     945 calls)

     General routines
     calbec       :      8.32s CPU     10.45s WALL (    1395 calls)
     fft          :      1.91s CPU      1.91s WALL (     205 calls)
     ffts         :      0.06s CPU      0.06s WALL (      27 calls)
     fftw         :     49.87s CPU     50.20s WALL (   38000 calls)
     interpolate  :      0.18s CPU      0.20s WALL (      14 calls)


     PWSCF        :   1m44.41s CPU   1m55.38s WALL


   This run was terminated on:  13:46:30  23Jun2026            

=------------------------------------------------------------------------------=
   JOB DONE.
=------------------------------------------------------------------------------=
Note: The following floating-point exceptions are signalling: IEEE_INVALID_FLAG IEEE_DIVIDE_BY_ZERO IEEE_OVERFLOW_FLAG IEEE_UNDERFLOW_FLAG
