
     Program PWSCF v.7.3.1 starts on  1Aug2026 at 12:41:25 

     This program is part of the open-source Quantum ESPRESSO suite
     for quantum simulation of materials; please cite
         "P. Giannozzi et al., J. Phys.:Condens. Matter 21 395502 (2009);
         "P. Giannozzi et al., J. Phys.:Condens. Matter 29 465901 (2017);
         "P. Giannozzi et al., J. Chem. Phys. 152 154105 (2020);
          URL http://www.quantum-espresso.org", 
     in publications or presentations arising from this work. More details at
     http://www.quantum-espresso.org/quote

     Parallel version (MPI), running on     8 processors

     MPI processes distributed on     1 nodes
     187680 MiB available memory on the printing compute node when the environment starts

     Reading input from pw.in

     Current dimensions of program PWSCF are:
     Max number of different atomic species (ntypx) = 10
     Max number of k-points (npk) =  40000
     Max angular momentum in pseudopotentials (lmaxx) =  4
     file C.pbe-n-kjpaw_psl.1.0.0.UPF: wavefunction(s)  2S 2P renormalized
     Message from routine volume:
     axis vectors are left-handed
     Found identity + (  0.5000  0.0000  0.0000) symmetry
     This is a supercell, fractional translations are disabled
     Message from routine setup:
     using ibrav=0 with symmetry is DISCOURAGED, use correct ibrav instead

     R & G space division:  proc/nbgrp/npool/nimage =       8
     Subspace diagonalization in iterative solution of the eigenvalue problem:
     a serial algorithm will be used


     Parallelization info
     --------------------
     sticks:   dense  smooth     PW     G-vecs:    dense   smooth      PW
     Min         651     325     87               101891    36013    4951
     Max         652     326     88               101904    36021    4955
     Sum        5209    2601    697               815155   288125   39621

     Using Slab Decomposition



     bravais-lattice index     =            0
     lattice parameter (alat)  =       9.5505  a.u.
     unit-cell volume          =    2499.5129 (a.u.)^3
     number of atoms/cell      =           32
     number of atomic types    =            2
     number of electrons       =       104.00
     number of Kohn-Sham states=           62
     kinetic-energy cutoff     =      90.0000  Ry
     charge density cutoff     =     720.0000  Ry
     scf convergence threshold =      1.0E-08
     mixing beta               =       0.3000
     number of iterations used =            8  plain     mixing
     Exchange-correlation= PBE
                           (   1   4   3   4   0   0   0)

     celldm(1)=   9.550471  celldm(2)=   0.000000  celldm(3)=   0.000000
     celldm(4)=   0.000000  celldm(5)=   0.000000  celldm(6)=   0.000000

     crystal axes: (cart. coord. in units of alat)
               a(1) = (   1.000000   0.000000   0.000000 )  
               a(2) = (   0.000000  -1.000000   0.000000 )  
               a(3) = (   0.000000   0.000000   2.869333 )  

     reciprocal axes: (cart. coord. in units 2 pi/alat)
               b(1) = (  1.000000 -0.000000 -0.000000 )  
               b(2) = ( -0.000000 -1.000000 -0.000000 )  
               b(3) = ( -0.000000 -0.000000  0.348513 )  


     PseudoPot. # 1 for C  read from file:
     ./C.pbe-n-kjpaw_psl.1.0.0.UPF
     MD5 check sum: 5d2aebdfa2cae82b50a7e79e9516da0f
     Pseudo is Projector augmented-wave + core cor, Zval =  4.0
     Generated using "atomic" code by A. Dal Corso  v.5.1
     Shape of augmentation charge: PSQ
     Using radial grid of 1073 points,  4 beta functions with: 
                l(1) =   0
                l(2) =   0
                l(3) =   1
                l(4) =   1
     Q(r) pseudized with 0 coefficients 


     PseudoPot. # 2 for H  read from file:
     ./H_ONCV_PBE-1.0.oncvpsp.upf
     MD5 check sum: 1790becc920ee074925cf490c71280fe
     Pseudo is Norm-conserving, Zval =  1.0
     Generated using ONCVPSP code by D. R. Hamann
     Using radial grid of 1166 points,  2 beta functions with: 
                l(1) =   0
                l(2) =   0

     atomic species   valence    mass     pseudopotential
     C                 4.00    12.01100     C ( 1.00)
     H                 1.00     1.00800     H ( 1.00)

      4 Sym. Ops. (no inversion) found



   Cartesian axes

     site n.     atom                  positions (alat units)
         1        C      tau(   1) = (   0.0000000  -0.1582087   1.8592812  )
         2        C      tau(   2) = (   0.2500000  -0.2299149   1.6998931  )
         3        C      tau(   3) = (   0.2500000   0.0000000   1.4936626  )
         4        C      tau(   4) = (   0.0000000   0.0000000   1.3178300  )
         5        C      tau(   5) = (   0.0000000  -0.2700851   1.1694404  )
         6        C      tau(   6) = (   0.2500000  -0.3417913   1.0100523  )
         7        C      tau(   7) = (   0.0000000  -0.8417913   1.8592812  )
         8        C      tau(   8) = (   0.2500000  -0.7700851   1.6998931  )
         9        C      tau(   9) = (   0.2500000  -0.5000000   1.5515034  )
        10        C      tau(  10) = (   0.0000000  -0.5000000   1.3756708  )
        11        C      tau(  11) = (   0.0000000  -0.7299149   1.1694404  )
        12        C      tau(  12) = (   0.2500000  -0.6582087   1.0100523  )
        13        H      tau(  13) = (   0.0000000  -0.2449080   2.0590044  )
        14        H      tau(  14) = (   0.0000000  -0.7550920   2.0590044  )
        15        H      tau(  15) = (   0.2500000  -0.2550919   0.8103291  )
        16        H      tau(  16) = (   0.2500000  -0.7449081   0.8103291  )
        17        C      tau(  17) = (   0.5000000  -0.1582087   1.8592812  )
        18        C      tau(  18) = (   0.7500000  -0.2299149   1.6998931  )
        19        C      tau(  19) = (   0.7500000   0.0000000   1.4936626  )
        20        C      tau(  20) = (   0.5000000   0.0000000   1.3178300  )
        21        C      tau(  21) = (   0.5000000  -0.2700851   1.1694404  )
        22        C      tau(  22) = (   0.7500000  -0.3417913   1.0100523  )
        23        C      tau(  23) = (   0.5000000  -0.8417913   1.8592812  )
        24        C      tau(  24) = (   0.7500000  -0.7700851   1.6998931  )
        25        C      tau(  25) = (   0.7500000  -0.5000000   1.5515034  )
        26        C      tau(  26) = (   0.5000000  -0.5000000   1.3756708  )
        27        C      tau(  27) = (   0.5000000  -0.7299149   1.1694404  )
        28        C      tau(  28) = (   0.7500000  -0.6582087   1.0100523  )
        29        H      tau(  29) = (   0.5000000  -0.2449080   2.0590044  )
        30        H      tau(  30) = (   0.5000000  -0.7550920   2.0590044  )
        31        H      tau(  31) = (   0.7500000  -0.2550919   0.8103291  )
        32        H      tau(  32) = (   0.7500000  -0.7449081   0.8103291  )

     number of k points=     4  Marzari-Vanderbilt smearing, width (Ry)=  0.0100
                       cart. coord. in units 2pi/alat
        k(    1) = (   0.0000000  -0.0000000   0.0000000), wk =   0.2222222
        k(    2) = (   0.0000000  -0.3333333   0.0000000), wk =   0.4444444
        k(    3) = (   0.3333333  -0.3333333   0.0000000), wk =   0.8888889
        k(    4) = (  -0.3333333   0.0000000   0.0000000), wk =   0.4444444

     Dense  grid:   815155 G-vectors     FFT dimensions: (  81,  81, 240)

     Smooth grid:   288125 G-vectors     FFT dimensions: (  60,  60, 180)

     Estimated max dynamical RAM per process >     271.81 MB

     Estimated total dynamical RAM >       2.12 GB

     Initial potential from superposition of free atoms

     starting charge     103.9989, renormalised to     104.0000
     Starting wfcs are  104 randomized atomic wfcs
     Checking if some PAW data can be deallocated... 

     total cpu time spent up to now is        1.5 secs

     Self-consistent Calculation

     iteration #  1     ecut=    90.00 Ry     beta= 0.30
     Davidson diagonalization with overlap
     ethr =  1.00E-02,  avg # of iterations =  3.0

     negative rho (up, down):  1.802E-07 0.000E+00

     total cpu time spent up to now is        3.7 secs

     total energy              =    -451.91267630 Ry
     estimated scf accuracy    <       2.44667503 Ry

     iteration #  2     ecut=    90.00 Ry     beta= 0.30
     Davidson diagonalization with overlap
     ethr =  2.35E-03,  avg # of iterations =  3.5

     negative rho (up, down):  2.897E-06 0.000E+00

     total cpu time spent up to now is        5.5 secs

     total energy              =    -451.75473647 Ry
     estimated scf accuracy    <       0.72292475 Ry

     iteration #  3     ecut=    90.00 Ry     beta= 0.30
     Davidson diagonalization with overlap
     ethr =  6.95E-04,  avg # of iterations =  7.0

     negative rho (up, down):  4.004E-06 0.000E+00

     total cpu time spent up to now is        7.8 secs

     total energy              =    -451.78176737 Ry
     estimated scf accuracy    <       0.10789182 Ry

     iteration #  4     ecut=    90.00 Ry     beta= 0.30
     Davidson diagonalization with overlap
     ethr =  1.04E-04,  avg # of iterations =  4.2

     negative rho (up, down):  8.279E-06 0.000E+00

     total cpu time spent up to now is        9.8 secs

     total energy              =    -451.79097761 Ry
     estimated scf accuracy    <       0.01082454 Ry

     iteration #  5     ecut=    90.00 Ry     beta= 0.30
     Davidson diagonalization with overlap
     ethr =  1.04E-05,  avg # of iterations = 10.0

     negative rho (up, down):  6.256E-06 0.000E+00

     total cpu time spent up to now is       12.4 secs

     total energy              =    -451.79294173 Ry
     estimated scf accuracy    <       0.00296344 Ry

     iteration #  6     ecut=    90.00 Ry     beta= 0.30
     Davidson diagonalization with overlap
     ethr =  2.85E-06,  avg # of iterations =  7.8

     negative rho (up, down):  6.957E-06 0.000E+00

     total cpu time spent up to now is       14.6 secs

     total energy              =    -451.79327558 Ry
     estimated scf accuracy    <       0.00034804 Ry

     iteration #  7     ecut=    90.00 Ry     beta= 0.30
     Davidson diagonalization with overlap
     ethr =  3.35E-07,  avg # of iterations =  3.2

     negative rho (up, down):  6.975E-06 0.000E+00

     total cpu time spent up to now is       16.5 secs

     total energy              =    -451.79332504 Ry
     estimated scf accuracy    <       0.00005043 Ry

     iteration #  8     ecut=    90.00 Ry     beta= 0.30
     Davidson diagonalization with overlap
     ethr =  4.85E-08,  avg # of iterations =  3.8

     negative rho (up, down):  6.841E-06 0.000E+00

     total cpu time spent up to now is       18.6 secs

     total energy              =    -451.79333593 Ry
     estimated scf accuracy    <       0.00001797 Ry

     iteration #  9     ecut=    90.00 Ry     beta= 0.30
     Davidson diagonalization with overlap
     ethr =  1.73E-08,  avg # of iterations =  2.0

     negative rho (up, down):  6.867E-06 0.000E+00

     total cpu time spent up to now is       20.5 secs

     total energy              =    -451.79333975 Ry
     estimated scf accuracy    <       0.00000245 Ry

     iteration # 10     ecut=    90.00 Ry     beta= 0.30
     Davidson diagonalization with overlap
     ethr =  2.36E-09,  avg # of iterations =  3.8

     negative rho (up, down):  6.812E-06 0.000E+00

     total cpu time spent up to now is       22.6 secs

     total energy              =    -451.79333993 Ry
     estimated scf accuracy    <       0.00000152 Ry

     iteration # 11     ecut=    90.00 Ry     beta= 0.30
     Davidson diagonalization with overlap
     ethr =  1.47E-09,  avg # of iterations =  2.8

     negative rho (up, down):  6.835E-06 0.000E+00

     total cpu time spent up to now is       24.5 secs

     total energy              =    -451.79334027 Ry
     estimated scf accuracy    <       0.00000002 Ry

     iteration # 12     ecut=    90.00 Ry     beta= 0.30
     Davidson diagonalization with overlap
     ethr =  2.09E-11,  avg # of iterations =  5.0

     negative rho (up, down):  6.860E-06 0.000E+00

     total cpu time spent up to now is       27.0 secs

     total energy              =    -451.79334026 Ry
     estimated scf accuracy    <       0.00000004 Ry

     iteration # 13     ecut=    90.00 Ry     beta= 0.30
     Davidson diagonalization with overlap
     ethr =  2.09E-11,  avg # of iterations =  3.5

     negative rho (up, down):  6.865E-06 0.000E+00

     total cpu time spent up to now is       29.2 secs

     total energy              =    -451.79334027 Ry
     estimated scf accuracy    <       0.00000001 Ry

     iteration # 14     ecut=    90.00 Ry     beta= 0.30
     Davidson diagonalization with overlap
     ethr =  1.12E-11,  avg # of iterations =  2.2

     negative rho (up, down):  6.917E-06 0.000E+00

     total cpu time spent up to now is       31.1 secs

     End of self-consistent calculation

          k = 0.0000-0.0000 0.0000 ( 36075 PWs)   bands (ev):

   -17.7341 -16.0405 -13.3820 -13.3820 -13.1628 -12.9558 -12.8570 -11.8357
   -11.5599 -11.5599  -9.2910  -9.2910  -9.0357  -8.8338  -8.8338  -8.6997
    -8.1465  -8.1465  -7.8461  -7.7708  -7.7708  -5.4157  -5.3748  -5.1789
    -4.8099  -4.8099  -3.9119  -3.9119  -3.4797  -3.4797  -2.6834  -2.2149
    -2.2125  -2.2125  -2.1199  -2.1199  -1.9084  -1.7679  -1.6555  -1.1986
    -1.1718  -1.1718   0.2253   0.4076   0.4076   0.4360   0.5412   0.8108
     0.8645   0.9944   1.3460   1.6817   5.4378   5.8930   7.4697   7.7495
     7.7863   8.3941   8.6222   8.9971   8.9971   9.1668

          k = 0.0000-0.3333 0.0000 ( 36027 PWs)   bands (ev):

   -17.2838 -16.2456 -14.6087 -13.8554 -12.9591 -12.9591 -11.7749 -11.7749
   -11.4964 -11.0049 -10.7597 -10.7597  -8.9216  -8.8818  -8.8818  -7.7636
    -7.4974  -7.2641  -7.2641  -6.9097  -6.9097  -6.1618  -5.0111  -4.8264
    -4.8264  -4.4753  -3.9271  -3.6997  -3.6997  -3.2054  -3.2054  -2.6414
    -2.3046  -2.1962  -2.1962  -1.8358  -1.6952  -1.6951  -1.4117  -1.4077
    -1.4077  -1.0764  -1.0668  -1.0667  -0.5788  -0.3774   0.2340   0.2521
     0.9234   1.3076   1.6385   1.7899   6.0638   6.4386   7.7454   7.7595
     8.3237   8.4864   8.6995   8.6995   8.7661   9.0902

          k = 0.3333-0.3333 0.0000 ( 36058 PWs)   bands (ev):

   -16.7779 -15.7449 -15.2813 -14.2672 -14.1262 -13.3792 -12.7275 -12.0021
   -11.0493 -10.5620  -9.9422  -9.8897  -9.0551  -8.6678  -8.3530  -7.4987
    -7.1293  -6.9131  -6.7801  -5.8572  -5.7932  -5.5769  -5.3275  -4.8484
    -4.8096  -4.6841  -4.0590  -3.8937  -3.8297  -3.7532  -3.6907  -3.0314
    -2.7457  -2.7095  -2.5301  -2.3393  -1.7546  -1.7185  -1.5995  -1.5447
    -1.5084  -1.0607  -0.9035  -0.8338  -0.6342  -0.4582  -0.3601   0.0003
     0.1120   0.1557   0.7729   1.2002   6.4982   6.9286   7.6316   7.7901
     8.1050   8.1133   8.3278   8.3351   8.8101   9.1071

          k =-0.3333 0.0000 0.0000 ( 36027 PWs)   bands (ev):

   -17.2264 -15.7239 -15.5437 -14.0896 -12.6936 -12.4853 -12.3761 -11.3840
   -11.3311 -11.1703 -10.9606 -10.1176 -10.0612  -8.8587  -8.2863  -8.1995
    -7.4392  -7.1099  -6.5810  -6.4422  -5.9907  -5.4182  -5.2119  -5.0775
    -5.0071  -4.9525  -4.6243  -3.7858  -3.7736  -3.6614  -3.5239  -2.8097
    -2.0388  -2.0059  -1.9048  -1.8056  -1.6919  -1.6840  -1.5732  -1.2294
    -1.1582  -1.0671  -0.8504  -0.8314  -0.6432  -0.5298  -0.4319   0.2857
     0.3861   0.9235   0.9655   1.0746   5.9060   6.3539   7.3563   7.4328
     8.2074   8.5351   8.9448   9.0361   9.3086   9.4498

     the Fermi energy is     3.3341 ev

!    total energy              =    -451.79334026 Ry
     estimated scf accuracy    <          4.2E-09 Ry
     smearing contrib. (-TS)   =       0.00000000 Ry
     internal energy E=F+TS    =    -451.79334026 Ry

     The total energy is F=E-TS. E is the sum of the following terms:
     one-electron contribution =   -2320.04643016 Ry
     hartree contribution      =    1200.85408147 Ry
     xc contribution           =    -117.68596378 Ry
     ewald contribution        =     933.00259135 Ry
     one-center paw contrib.   =    -147.91761913 Ry

     convergence has been achieved in  14 iterations

     negative rho (up, down):  6.917E-06 0.000E+00

     Forces acting on atoms (cartesian axes, Ry/au):

     atom    1 type  1   force =     0.00000000    0.00005121   -0.00018060
     atom    2 type  1   force =    -0.00000356   -0.00008211   -0.00004001
     atom    3 type  1   force =    -0.00000367    0.00000000    0.00005477
     atom    4 type  1   force =     0.00000000   -0.00000000    0.00011633
     atom    5 type  1   force =     0.00000000    0.00007919    0.00004025
     atom    6 type  1   force =    -0.00000376   -0.00005477    0.00018077
     atom    7 type  1   force =     0.00000000   -0.00005121   -0.00018060
     atom    8 type  1   force =    -0.00000356    0.00008211   -0.00004001
     atom    9 type  1   force =    -0.00000383    0.00000000   -0.00011612
     atom   10 type  1   force =     0.00000000    0.00000000   -0.00005581
     atom   11 type  1   force =     0.00000000   -0.00007919    0.00004025
     atom   12 type  1   force =    -0.00000376    0.00005477    0.00018077
     atom   13 type  2   force =     0.00000000    0.00008210   -0.00005448
     atom   14 type  2   force =     0.00000000   -0.00008210   -0.00005448
     atom   15 type  2   force =    -0.00000001   -0.00008215    0.00005464
     atom   16 type  2   force =    -0.00000001    0.00008215    0.00005464
     atom   17 type  1   force =     0.00000000    0.00005096   -0.00018150
     atom   18 type  1   force =     0.00000356   -0.00008211   -0.00004001
     atom   19 type  1   force =     0.00000367   -0.00000000    0.00005477
     atom   20 type  1   force =     0.00000000   -0.00000000    0.00011758
     atom   21 type  1   force =     0.00000000    0.00007881    0.00003944
     atom   22 type  1   force =     0.00000376   -0.00005477    0.00018077
     atom   23 type  1   force =     0.00000000   -0.00005096   -0.00018150
     atom   24 type  1   force =     0.00000356    0.00008211   -0.00004001
     atom   25 type  1   force =     0.00000383    0.00000000   -0.00011612
     atom   26 type  1   force =     0.00000000    0.00000000   -0.00005446
     atom   27 type  1   force =     0.00000000   -0.00007881    0.00003944
     atom   28 type  1   force =     0.00000376    0.00005477    0.00018077
     atom   29 type  2   force =     0.00000000    0.00008203   -0.00005438
     atom   30 type  2   force =     0.00000000   -0.00008203   -0.00005438
     atom   31 type  2   force =     0.00000001   -0.00008215    0.00005464
     atom   32 type  2   force =     0.00000001    0.00008215    0.00005464

     Total force =     0.000702     Total SCF correction =     0.000181
     SCF correction compared to forces is large: reduce conv_thr to get better values


     Computing stress (Cartesian axis) and pressure


     negative rho (up, down):  6.917E-06 0.000E+00
          total   stress  (Ry/bohr**3)                   (kbar)     P=      -13.45
   0.00005904   0.00000000   0.00000000            8.69        0.00        0.00
   0.00000000  -0.00032883   0.00000000            0.00      -48.37        0.00
   0.00000000   0.00000000  -0.00000454            0.00        0.00       -0.67


     Writing all to output data dir /tmp/qe/slab.save/ :
     XML data file, charge density, pseudopotentials, collected wavefunctions

     init_run     :      1.35s CPU      1.46s WALL (       1 calls)
     electrons    :     28.12s CPU     29.59s WALL (       1 calls)
     forces       :      0.82s CPU      0.89s WALL (       1 calls)
     stress       :      6.92s CPU      7.05s WALL (       1 calls)

     Called by init_run:
     wfcinit      :      0.76s CPU      0.80s WALL (       1 calls)
     potinit      :      0.25s CPU      0.27s WALL (       1 calls)
     hinit0       :      0.07s CPU      0.09s WALL (       1 calls)

     Called by electrons:
     c_bands      :     19.27s CPU     19.92s WALL (      14 calls)
     sum_band     :      4.26s CPU      4.59s WALL (      14 calls)
     v_of_rho     :      1.57s CPU      1.73s WALL (      15 calls)
     newd         :      1.14s CPU      1.43s WALL (      15 calls)
     PAW_pot      :      1.84s CPU      1.87s WALL (      15 calls)
     mix_rho      :      0.19s CPU      0.21s WALL (      14 calls)

     Called by c_bands:
     init_us_2    :      0.58s CPU      0.60s WALL (     124 calls)
     cegterg      :     18.37s CPU     18.99s WALL (      56 calls)

     Called by *egterg:
     cdiaghg      :      0.92s CPU      0.93s WALL (     303 calls)
     h_psi        :     12.90s CPU     13.33s WALL (     307 calls)
     s_psi        :      1.38s CPU      1.39s WALL (     307 calls)
     g_psi        :      0.09s CPU      0.10s WALL (     247 calls)

     Called by h_psi:
     h_psi:calbec :      1.28s CPU      1.31s WALL (     307 calls)
     vloc_psi     :     10.11s CPU     10.40s WALL (     307 calls)
     add_vuspsi   :      1.41s CPU      1.42s WALL (     307 calls)

     General routines
     calbec       :      1.84s CPU      1.88s WALL (     383 calls)
     fft          :      0.93s CPU      1.04s WALL (     218 calls)
     ffts         :      0.03s CPU      0.04s WALL (      29 calls)
     fftw         :      8.38s CPU      8.63s WALL (   23454 calls)
     interpolate  :      0.07s CPU      0.08s WALL (      15 calls)

     Parallel routines

     PWSCF        :     37.36s CPU     39.28s WALL


   This run was terminated on:  12:42: 4   1Aug2026            

=------------------------------------------------------------------------------=
   JOB DONE.
=------------------------------------------------------------------------------=
Note: The following floating-point exceptions are signalling: IEEE_UNDERFLOW_FLAG IEEE_DENORMAL
Note: The following floating-point exceptions are signalling: IEEE_UNDERFLOW_FLAG IEEE_DENORMAL
Note: The following floating-point exceptions are signalling: IEEE_UNDERFLOW_FLAG IEEE_DENORMAL
Note: The following floating-point exceptions are signalling: IEEE_UNDERFLOW_FLAG IEEE_DENORMAL
Note: The following floating-point exceptions are signalling: IEEE_UNDERFLOW_FLAG IEEE_DENORMAL
Note: The following floating-point exceptions are signalling: IEEE_UNDERFLOW_FLAG IEEE_DENORMAL
Note: The following floating-point exceptions are signalling: IEEE_UNDERFLOW_FLAG IEEE_DENORMAL
Note: The following floating-point exceptions are signalling: IEEE_UNDERFLOW_FLAG IEEE_DENORMAL
