
     Program PWSCF v.7.5 starts on 23Jun2026 at 13:32:16 

     This program is part of the open-source Quantum ESPRESSO suite
     for quantum simulation of materials; please cite
         "P. Giannozzi et al., J. Phys.:Condens. Matter 21 395502 (2009);
         "P. Giannozzi et al., J. Phys.:Condens. Matter 29 465901 (2017);
         "P. Giannozzi et al., J. Chem. Phys. 152 154105 (2020);
          URL http://www.quantum-espresso.org", 
     in publications or presentations arising from this work. More details at
     http://www.quantum-espresso.org/quote

     Serial version
     0 MiB available memory on the printing compute node when the environment starts

     Waiting for input...
     Reading input from standard input

     Current dimensions of program PWSCF are:
     Max number of different atomic species (ntypx) = 10
     Max number of k-points (npk) =  40000
     Max angular momentum in pseudopotentials (lmaxx) =  4
     file C.pbe-n-kjpaw_psl.1.0.0.UPF: wavefunction(s)  2S 2P renormalized
     Message from routine volume:
     axis vectors are left-handed
     Message from routine setup:
     using ibrav=0 with symmetry is DISCOURAGED, use correct ibrav instead


     G-vector sticks info
     --------------------
     sticks:   dense  smooth     PW     G-vecs:    dense   smooth      PW
     Sum        2339    1173    343               485157   171641   26465

     Using Slab Decomposition



     bravais-lattice index     =            0
     lattice parameter (alat)  =       4.7991  a.u.
     unit-cell volume          =    1774.2017 (a.u.)^3
     number of atoms/cell      =           14
     number of atomic types    =            2
     number of electrons       =        50.00
     number of Kohn-Sham states=           30
     kinetic-energy cutoff     =      80.0000  Ry
     charge density cutoff     =     640.0000  Ry
     scf convergence threshold =      1.0E-08
     mixing beta               =       0.3000
     number of iterations used =            8  plain     mixing
     Exchange-correlation= PBE
                           (   1   4   3   4   0   0   0)

     celldm(1)=   4.799112  celldm(2)=   0.000000  celldm(3)=   0.000000
     celldm(4)=   0.000000  celldm(5)=   0.000000  celldm(6)=   0.000000

     crystal axes: (cart. coord. in units of alat)
               a(1) = (   1.000000   0.000000   0.000000 )  
               a(2) = (   0.000000  -1.990050   0.000000 )  
               a(3) = (   0.000000   0.000000   8.065968 )  

     reciprocal axes: (cart. coord. in units 2 pi/alat)
               b(1) = (  1.000000 -0.000000 -0.000000 )  
               b(2) = ( -0.000000 -0.502500 -0.000000 )  
               b(3) = ( -0.000000 -0.000000  0.123978 )  


     PseudoPot. # 1 for C  read from file:
     ./C.pbe-n-kjpaw_psl.1.0.0.UPF
     MD5 check sum: 5d2aebdfa2cae82b50a7e79e9516da0f
     Pseudo is Projector augmented-wave + core cor, Zval =  4.0
     Generated using "atomic" code by A. Dal Corso  v.5.1
     Shape of augmentation charge: PSQ
     Using radial grid of 1073 points,  4 beta functions with: 
                l(1) =   0
                l(2) =   0
                l(3) =   1
                l(4) =   1
     Q(r) pseudized with 0 coefficients 


     PseudoPot. # 2 for H  read from file:
     ./H_ONCV_PBE-1.0.oncvpsp.upf
     MD5 check sum: 1790becc920ee074925cf490c71280fe
     Pseudo is Norm-conserving, Zval =  1.0
     Generated using ONCVPSP code by D. R. Hamann
     Using radial grid of 1166 points,  2 beta functions with: 
                l(1) =   0
                l(2) =   0

     atomic species   valence    mass     pseudopotential
     C                 4.00    12.01100     C ( 1.00)
     H                 1.00     1.00800     H ( 1.00)

      4 Sym. Ops. (no inversion) found



   Cartesian axes

     site n.     atom                  positions (alat units)
         1        C      tau(   1) = (   0.0000000  -0.3196384   4.6851320  )
         2        C      tau(   2) = (   0.5000000  -0.4619566   4.3658392  )
         3        C      tau(   3) = (   0.5000000   0.0000000   3.9733073  )
         4        C      tau(   4) = (   0.0000000   0.0000000   3.6394331  )
         5        C      tau(   5) = (   0.0000000  -0.4975124   3.3050381  )
         6        C      tau(   6) = (   0.5000000  -0.4975124   2.9532436  )
         7        C      tau(   7) = (   0.0000000  -1.6704113   4.6851320  )
         8        C      tau(   8) = (   0.5000000  -1.5280931   4.3658392  )
         9        C      tau(   9) = (   0.5000000  -0.9950249   4.0459830  )
        10        C      tau(  10) = (   0.0000000  -0.9950249   3.6814526  )
        11        C      tau(  11) = (   0.0000000  -1.4925373   3.3050381  )
        12        C      tau(  12) = (   0.5000000  -1.4925373   2.9532436  )
        13        H      tau(  13) = (   0.0000000  -0.4878404   5.0839469  )
        14        H      tau(  14) = (   0.0000000  -1.5022093   5.0839469  )

     number of k points=    15  Marzari-Vanderbilt smearing, width (Ry)=  0.0100
                       cart. coord. in units 2pi/alat
        k(    1) = (   0.0000000  -0.0000000   0.0000000), wk =   0.0444444
        k(    2) = (   0.0000000  -0.1005000   0.0000000), wk =   0.0888889
        k(    3) = (   0.0000000  -0.2010000   0.0000000), wk =   0.0888889
        k(    4) = (   0.1111111  -0.0000000   0.0000000), wk =   0.0888889
        k(    5) = (   0.1111111  -0.1005000   0.0000000), wk =   0.1777778
        k(    6) = (   0.1111111  -0.2010000   0.0000000), wk =   0.1777778
        k(    7) = (   0.2222222  -0.0000000   0.0000000), wk =   0.0888889
        k(    8) = (   0.2222222  -0.1005000   0.0000000), wk =   0.1777778
        k(    9) = (   0.2222222  -0.2010000   0.0000000), wk =   0.1777778
        k(   10) = (   0.3333333  -0.0000000   0.0000000), wk =   0.0888889
        k(   11) = (   0.3333333  -0.1005000   0.0000000), wk =   0.1777778
        k(   12) = (   0.3333333  -0.2010000   0.0000000), wk =   0.1777778
        k(   13) = (   0.4444444  -0.0000000   0.0000000), wk =   0.0888889
        k(   14) = (   0.4444444  -0.1005000   0.0000000), wk =   0.1777778
        k(   15) = (   0.4444444  -0.2010000   0.0000000), wk =   0.1777778

     Dense  grid:   485157 G-vectors     FFT dimensions: (  40,  80, 320)

     Smooth grid:   171641 G-vectors     FFT dimensions: (  27,  60, 225)

     Estimated max dynamical RAM per process >       1.02 GB

     Initial potential from superposition of free atoms

     starting charge      49.9995, renormalised to      50.0000

     negative rho (up, down):  7.415E-05 0.000E+00
     Starting wfcs are   50 randomized atomic wfcs

     total cpu time spent up to now is        4.1 secs

     Self-consistent Calculation

     iteration #  1     ecut=    80.00 Ry     beta= 0.30
     Davidson diagonalization with overlap
     ethr =  1.00E-02,  avg # of iterations =  2.5

     negative rho (up, down):  7.135E-05 0.000E+00

     total cpu time spent up to now is       12.3 secs

     total energy              =    -223.06736136 Ry
     estimated scf accuracy    <       0.88505254 Ry

     iteration #  2     ecut=    80.00 Ry     beta= 0.30
     Davidson diagonalization with overlap
     ethr =  1.77E-03,  avg # of iterations =  3.6

     negative rho (up, down):  7.695E-05 0.000E+00

     total cpu time spent up to now is       19.0 secs

     total energy              =    -223.01699874 Ry
     estimated scf accuracy    <       0.28863839 Ry

     iteration #  3     ecut=    80.00 Ry     beta= 0.30
     Davidson diagonalization with overlap
     ethr =  5.77E-04,  avg # of iterations =  5.2

     negative rho (up, down):  8.390E-05 0.000E+00

     total cpu time spent up to now is       26.7 secs

     total energy              =    -223.02095230 Ry
     estimated scf accuracy    <       0.06621693 Ry

     iteration #  4     ecut=    80.00 Ry     beta= 0.30
     Davidson diagonalization with overlap
     ethr =  1.32E-04,  avg # of iterations =  5.2

     negative rho (up, down):  8.845E-05 0.000E+00

     total cpu time spent up to now is       34.5 secs

     total energy              =    -223.02540417 Ry
     estimated scf accuracy    <       0.01028806 Ry

     iteration #  5     ecut=    80.00 Ry     beta= 0.30
     Davidson diagonalization with overlap
     ethr =  2.06E-05,  avg # of iterations =  5.3

     negative rho (up, down):  9.075E-05 0.000E+00

     total cpu time spent up to now is       43.0 secs

     total energy              =    -223.02670398 Ry
     estimated scf accuracy    <       0.00123840 Ry

     iteration #  6     ecut=    80.00 Ry     beta= 0.30
     Davidson diagonalization with overlap
     c_bands:  1 eigenvalues not converged
     ethr =  2.48E-06,  avg # of iterations =  6.9

     negative rho (up, down):  8.823E-05 0.000E+00

     total cpu time spent up to now is       53.2 secs

     total energy              =    -223.02685125 Ry
     estimated scf accuracy    <       0.00022310 Ry

     iteration #  7     ecut=    80.00 Ry     beta= 0.30
     Davidson diagonalization with overlap
     ethr =  4.46E-07,  avg # of iterations =  4.0

     negative rho (up, down):  8.841E-05 0.000E+00

     total cpu time spent up to now is       61.3 secs

     total energy              =    -223.02688684 Ry
     estimated scf accuracy    <       0.00005819 Ry

     iteration #  8     ecut=    80.00 Ry     beta= 0.30
     Davidson diagonalization with overlap
     ethr =  1.16E-07,  avg # of iterations =  2.0

     negative rho (up, down):  8.790E-05 0.000E+00

     total cpu time spent up to now is       68.4 secs

     total energy              =    -223.02689398 Ry
     estimated scf accuracy    <       0.00000761 Ry

     iteration #  9     ecut=    80.00 Ry     beta= 0.30
     Davidson diagonalization with overlap
     ethr =  1.52E-08,  avg # of iterations =  2.9

     negative rho (up, down):  8.760E-05 0.000E+00

     total cpu time spent up to now is       76.5 secs

     total energy              =    -223.02689540 Ry
     estimated scf accuracy    <       0.00000097 Ry

     iteration # 10     ecut=    80.00 Ry     beta= 0.30
     Davidson diagonalization with overlap
     ethr =  1.94E-09,  avg # of iterations =  3.6

     negative rho (up, down):  8.738E-05 0.000E+00

     total cpu time spent up to now is       88.3 secs

     total energy              =    -223.02689563 Ry
     estimated scf accuracy    <       0.00000042 Ry

     iteration # 11     ecut=    80.00 Ry     beta= 0.30
     Davidson diagonalization with overlap
     ethr =  8.41E-10,  avg # of iterations =  2.0

     negative rho (up, down):  8.731E-05 0.000E+00

     total cpu time spent up to now is       95.4 secs

     total energy              =    -223.02689569 Ry
     estimated scf accuracy    <       0.00000004 Ry

     iteration # 12     ecut=    80.00 Ry     beta= 0.30
     Davidson diagonalization with overlap
     ethr =  8.55E-11,  avg # of iterations =  4.2

     negative rho (up, down):  8.725E-05 0.000E+00

     total cpu time spent up to now is      104.8 secs

     total energy              =    -223.02689571 Ry
     estimated scf accuracy    <       0.00000002 Ry

     iteration # 13     ecut=    80.00 Ry     beta= 0.30
     Davidson diagonalization with overlap
     ethr =  3.05E-11,  avg # of iterations =  2.2

     negative rho (up, down):  8.720E-05 0.000E+00

     total cpu time spent up to now is      112.1 secs

     End of self-consistent calculation

          k = 0.0000-0.0000 0.0000 ( 21405 PWs)   bands (ev):

   -21.0765 -18.8149 -16.6603 -16.2765 -15.2421 -15.1390 -12.0517 -11.3316
   -10.9689  -8.0690  -7.9781  -7.1830  -6.1880  -5.6736  -4.2896  -4.1684
    -4.1167  -3.3442  -3.2556  -2.8170  -2.6820  -2.5429  -1.6608  -0.9285
    -0.4998  -0.0323   2.6056   3.1499   4.1524   4.2556

          k = 0.0000-0.1005 0.0000 ( 21431 PWs)   bands (ev):

   -20.9262 -18.7525 -17.8383 -15.8548 -14.9798 -14.8782 -11.5829 -11.2361
   -10.9029  -8.2643  -7.6355  -7.3175  -6.2272  -6.0753  -4.5853  -4.1684
    -4.1267  -3.8467  -3.6013  -2.8771  -2.6865  -2.2504  -1.6069  -1.0207
    -0.6695   0.2825   2.7809   2.8254   4.4896   4.9603

          k = 0.0000-0.2010 0.0000 ( 21381 PWs)   bands (ev):

   -20.5611 -19.1136 -18.2349 -16.5681 -14.6873 -14.0304 -11.3782 -10.4875
   -10.1906  -9.0191  -8.0424  -7.0803  -6.7928  -5.8210  -5.3209  -4.5210
    -4.3608  -3.9212  -3.4173  -3.2548  -2.9174  -1.9041  -1.5179  -1.0498
    -0.9512   0.9993   1.9596   3.4072   4.3336   4.8945

          k = 0.1111-0.0000 0.0000 ( 21413 PWs)   bands (ev):

   -20.8538 -18.5994 -16.4528 -16.0648 -15.0409 -14.9413 -11.8702 -11.2541
   -10.7921  -7.9706  -7.9222  -7.5240  -6.9606  -5.5241  -5.3065  -4.5138
    -4.2270  -3.9622  -3.5422  -3.4524  -3.4519  -2.7407  -2.4705  -1.0622
    -0.5312  -0.0268   2.8226   3.2628   4.7409   4.9083

          k = 0.1111-0.1005 0.0000 ( 21429 PWs)   bands (ev):

   -20.7038 -18.5366 -17.6253 -15.6534 -14.7767 -14.6791 -11.4467 -11.0806
   -10.7614  -8.2046  -7.6480  -7.4352  -6.9081  -6.1433  -5.2510  -4.9542
    -4.4328  -4.2435  -3.6027  -3.4503  -3.1711  -3.0755  -2.3331  -1.0902
    -0.6558   0.2761   2.8598   3.0365   5.0359   5.6397

          k = 0.1111-0.2010 0.0000 ( 21396 PWs)   bands (ev):

   -20.3396 -18.8949 -18.0225 -16.3636 -14.4924 -13.8306 -11.2616 -10.3272
   -10.0768  -8.8608  -7.9229  -7.3768  -6.7343  -6.5565  -5.6514  -5.3338
    -5.0391  -4.3562  -3.9082  -3.3601  -3.1119  -2.7372  -2.4482  -1.0626
    -0.8886   1.0011   1.9796   3.6021   4.4943   5.1198

          k = 0.2222-0.0000 0.0000 ( 21436 PWs)   bands (ev):

   -20.1896 -17.9617 -15.8357 -15.4344 -14.4607 -14.3540 -11.4868 -11.3601
   -10.3061  -9.1513  -8.3956  -7.9964  -7.4445  -6.3824  -6.0737  -5.5003
    -5.3598  -5.2352  -5.0731  -4.1833  -4.1379  -3.1025  -2.6116  -1.4079
    -0.9541  -0.1635   3.3642   3.5288   5.4468   5.7181

          k = 0.2222-0.1005 0.0000 ( 21421 PWs)   bands (ev):

   -20.0405 -17.8967 -16.9924 -15.0608 -14.1837 -14.0910 -11.4359 -10.7604
   -10.3623  -9.0343  -8.4974  -8.0773  -7.2510  -6.5477  -6.2094  -5.7551
    -5.6956  -5.1243  -4.8974  -4.4261  -4.1290  -3.3465  -2.8948  -1.3402
    -0.9349   0.0928   2.9471   3.5866   5.5426   5.7570

          k = 0.2222-0.2010 0.0000 ( 21415 PWs)   bands (ev):

   -19.6787 -18.2438 -17.3934 -15.7630 -13.9350 -13.2345 -11.2514 -10.1870
    -9.7962  -8.8660  -8.5514  -7.9272  -7.6426  -7.2006  -6.5894  -6.1539
    -5.8674  -5.2313  -4.6559  -4.4761  -4.2624  -3.4166  -3.1931  -1.2103
    -1.0149   0.8053   1.8473   4.0773   4.7259   5.2347

          k = 0.3333-0.0000 0.0000 ( 21470 PWs)   bands (ev):

   -19.0989 -16.9500 -14.8401 -14.4046 -13.8828 -13.4042 -12.7157 -11.0963
   -10.6908  -9.8766  -9.0290  -9.0133  -8.1610  -7.6315  -7.2614  -6.8518
    -6.0522  -5.6568  -5.1453  -4.6943  -4.1194  -4.0356  -2.5813  -1.6850
    -1.3520  -0.4105   3.7724   4.2370   5.7994   6.4254

          k = 0.3333-0.1005 0.0000 ( 21461 PWs)   bands (ev):

   -18.9513 -16.8754 -15.9675 -14.1854 -13.5882 -13.1233 -12.5522 -11.0447
   -10.5382  -9.8192  -9.1789  -8.8105  -8.0808  -7.7024  -7.3840  -6.2239
    -6.1485  -5.6035  -5.3953  -4.9088  -4.4744  -3.9347  -3.2666  -1.5884
    -1.3301  -0.1858   3.1304   4.4068   5.4008   6.0944

          k = 0.3333-0.2010 0.0000 ( 21437 PWs)   bands (ev):

   -18.5929 -17.1798 -16.3924 -14.8470 -13.4724 -12.2643 -12.2355 -11.3571
   -10.4214  -9.4853  -8.8546  -8.4567  -7.9065  -7.4186  -7.2474  -7.1708
    -6.2599  -5.6258  -5.5030  -4.9815  -4.7320  -4.1587  -3.8585  -1.4508
    -1.3474   0.5595   1.8018   4.5559   4.8763   5.6375

          k = 0.4444-0.0000 0.0000 ( 21506 PWs)   bands (ev):

   -17.6313 -16.1795 -14.9623 -13.4435 -13.0396 -13.0011 -12.2875 -12.0292
   -11.4999 -10.9976 -10.2055  -9.9333  -8.2329  -7.8641  -7.4124  -7.1027
    -6.4219  -5.7902  -5.6328  -5.3422  -4.4954  -3.4431  -2.8482  -1.8521
    -1.5792  -0.6152   3.8996   5.3272   5.7227   6.3449

          k = 0.4444-0.1005 0.0000 ( 21481 PWs)   bands (ev):

   -17.4856 -16.0387 -14.9855 -14.5042 -13.4134 -12.8549 -11.8998 -11.6830
   -11.4582 -10.6716 -10.1206  -9.7557  -8.2266  -7.8182  -7.6413  -6.4409
    -6.3518  -5.8283  -5.5805  -5.1689  -4.7033  -4.0629  -3.6115  -1.7340
    -1.5863  -0.3947   3.2488   5.1835   5.7378   6.0974

          k = 0.4444-0.2010 0.0000 ( 21469 PWs)   bands (ev):

   -17.1298 -15.8073 -15.5548 -14.6378 -14.3648 -12.5968 -12.2803 -11.2420
   -11.2103 -10.7143  -9.5538  -9.1524  -8.0556  -7.4972  -7.2152  -6.4629
    -6.0388  -5.8714  -5.4908  -5.3228  -5.1362  -4.9597  -4.6296  -1.6588
    -1.5904   0.4662   1.8450   4.8135   5.5818   6.2132

     the Fermi energy is    -0.5323 ev

!    total energy              =    -223.02689571 Ry
     estimated scf accuracy    <          1.8E-09 Ry
     smearing contrib. (-TS)   =      -0.00007313 Ry
     internal energy E=F+TS    =    -223.02682258 Ry

     The total energy is F=E-TS. E is the sum of the following terms:
     one-electron contribution =   -2261.85061431 Ry
     hartree contribution      =    1144.66696443 Ry
     xc contribution           =     -56.65978239 Ry
     ewald contribution        =    1024.79480913 Ry
     one-center paw contrib.   =     -73.97819944 Ry

     convergence has been achieved in  13 iterations

     negative rho (up, down):  8.720E-05 0.000E+00

     Forces acting on atoms (cartesian axes, Ry/au):

     atom    1 type  1   force =     0.00000000    0.00023834   -0.00119500
     atom    2 type  1   force =     0.00000000   -0.00007538    0.00030420
     atom    3 type  1   force =     0.00000000   -0.00000000    0.00002731
     atom    4 type  1   force =     0.00000000   -0.00000000    0.00059929
     atom    5 type  1   force =     0.00000000   -0.03095478   -0.08883488
     atom    6 type  1   force =     0.00000000   -0.00706954    0.08990748
     atom    7 type  1   force =     0.00000000   -0.00023834   -0.00119500
     atom    8 type  1   force =     0.00000000    0.00007538    0.00030420
     atom    9 type  1   force =     0.00000000    0.00000000   -0.00022058
     atom   10 type  1   force =     0.00000000    0.00000000   -0.00045645
     atom   11 type  1   force =     0.00000000    0.03095478   -0.08883488
     atom   12 type  1   force =     0.00000000    0.00706954    0.08990748
     atom   13 type  2   force =     0.00000000    0.00009928   -0.00015658
     atom   14 type  2   force =     0.00000000   -0.00009928   -0.00015658

     Total force =     0.001963     Total SCF correction =     0.000056


     Computing stress (Cartesian axis) and pressure


     negative rho (up, down):  8.720E-05 0.000E+00
          total   stress  (Ry/bohr**3)                   (kbar)     P=      -39.95
  -0.00014238   0.00000000   0.00000000          -20.94        0.00        0.00
   0.00000000  -0.00048836   0.00000000            0.00      -71.84        0.00
   0.00000000   0.00000000  -0.00018400            0.00        0.00      -27.07


     Writing all to output data dir ./tmp/slab.save/ :
     XML data file, charge density, pseudopotentials, collected wavefunctions

     init_run     :      3.77s CPU      4.11s WALL (       1 calls)
     electrons    :     97.76s CPU    107.94s WALL (       1 calls)
     forces       :      1.15s CPU      1.35s WALL (       1 calls)
     stress       :      3.27s CPU      3.95s WALL (       1 calls)

     Called by init_run:
     wfcinit      :      3.09s CPU      3.36s WALL (       1 calls)
     potinit      :      0.34s CPU      0.38s WALL (       1 calls)
     hinit0       :      0.16s CPU      0.16s WALL (       1 calls)

     Called by electrons:
     c_bands      :     79.53s CPU     88.05s WALL (      13 calls)
     sum_band     :     12.35s CPU     13.18s WALL (      13 calls)
     v_of_rho     :      2.34s CPU      2.52s WALL (      14 calls)
     newd         :      1.29s CPU      1.64s WALL (      14 calls)
     PAW_pot      :      2.06s CPU      2.33s WALL (      14 calls)
     mix_rho      :      0.35s CPU      0.41s WALL (      13 calls)

     Called by c_bands:
     init_us_2    :      1.16s CPU      1.44s WALL (     435 calls)
     cegterg      :     77.18s CPU     85.56s WALL (     195 calls)

     Called by *egterg:
     cdiaghg      :      0.54s CPU      0.57s WALL (     938 calls)
     h_psi        :     59.38s CPU     63.16s WALL (     953 calls)
     s_psi        :      5.82s CPU      6.94s WALL (     953 calls)
     g_psi        :      0.26s CPU      0.26s WALL (     743 calls)

     Called by h_psi:
     h_psi:calbec :      5.17s CPU      6.53s WALL (     953 calls)
     vloc_psi     :     47.53s CPU     48.44s WALL (     953 calls)
                                        0.00s GPU  (     953 calls)
     add_vuspsi   :      6.46s CPU      7.81s WALL (     953 calls)

     General routines
     calbec       :      8.43s CPU     10.62s WALL (    1403 calls)
     fft          :      1.94s CPU      1.94s WALL (     205 calls)
     ffts         :      0.07s CPU      0.07s WALL (      27 calls)
     fftw         :     50.45s CPU     50.71s WALL (   38066 calls)
     interpolate  :      0.18s CPU      0.20s WALL (      14 calls)


     PWSCF        :   1m46.00s CPU   1m57.48s WALL


   This run was terminated on:  13:34:14  23Jun2026            

=------------------------------------------------------------------------------=
   JOB DONE.
=------------------------------------------------------------------------------=
Note: The following floating-point exceptions are signalling: IEEE_INVALID_FLAG IEEE_DIVIDE_BY_ZERO IEEE_OVERFLOW_FLAG IEEE_UNDERFLOW_FLAG
