
     Program PWSCF v.7.3.1 starts on  1Aug2026 at 18:41:15 

     This program is part of the open-source Quantum ESPRESSO suite
     for quantum simulation of materials; please cite
         "P. Giannozzi et al., J. Phys.:Condens. Matter 21 395502 (2009);
         "P. Giannozzi et al., J. Phys.:Condens. Matter 29 465901 (2017);
         "P. Giannozzi et al., J. Chem. Phys. 152 154105 (2020);
          URL http://www.quantum-espresso.org", 
     in publications or presentations arising from this work. More details at
     http://www.quantum-espresso.org/quote

     Parallel version (MPI), running on     8 processors

     MPI processes distributed on     1 nodes
     183944 MiB available memory on the printing compute node when the environment starts

     Reading input from pw.in

     Current dimensions of program PWSCF are:
     Max number of different atomic species (ntypx) = 10
     Max number of k-points (npk) =  40000
     Max angular momentum in pseudopotentials (lmaxx) =  4
     file C.pbe-n-kjpaw_psl.1.0.0.UPF: wavefunction(s)  2S 2P renormalized
     Message from routine volume:
     axis vectors are left-handed
     Message from routine setup:
     using ibrav=0 with symmetry is DISCOURAGED, use correct ibrav instead

     R & G space division:  proc/nbgrp/npool/nimage =       8
     Subspace diagonalization in iterative solution of the eigenvalue problem:
     a serial algorithm will be used


     Parallelization info
     --------------------
     sticks:   dense  smooth     PW     G-vecs:    dense   smooth      PW
     Min         326     163     46                50952    18009    2740
     Max         327     164     47                50967    18017    2749
     Sum        2609    1305    373               407651   144113   21965

     Using Slab Decomposition



     bravais-lattice index     =            0
     lattice parameter (alat)  =       4.7752  a.u.
     unit-cell volume          =    1249.7564 (a.u.)^3
     number of atoms/cell      =           16
     number of atomic types    =            2
     number of electrons       =        52.00
     number of Kohn-Sham states=           31
     kinetic-energy cutoff     =      90.0000  Ry
     charge density cutoff     =     720.0000  Ry
     scf convergence threshold =      1.0E-08
     mixing beta               =       0.3000
     number of iterations used =            8  plain     mixing
     Exchange-correlation= PBE
                           (   1   4   3   4   0   0   0)

     celldm(1)=   4.775235  celldm(2)=   0.000000  celldm(3)=   0.000000
     celldm(4)=   0.000000  celldm(5)=   0.000000  celldm(6)=   0.000000

     crystal axes: (cart. coord. in units of alat)
               a(1) = (   1.000000   0.000000   0.000000 )  
               a(2) = (   0.000000  -2.000000   0.000000 )  
               a(3) = (   0.000000   0.000000   5.738667 )  

     reciprocal axes: (cart. coord. in units 2 pi/alat)
               b(1) = (  1.000000 -0.000000 -0.000000 )  
               b(2) = ( -0.000000 -0.500000 -0.000000 )  
               b(3) = ( -0.000000 -0.000000  0.174256 )  


     PseudoPot. # 1 for C  read from file:
     ./C.pbe-n-kjpaw_psl.1.0.0.UPF
     MD5 check sum: 5d2aebdfa2cae82b50a7e79e9516da0f
     Pseudo is Projector augmented-wave + core cor, Zval =  4.0
     Generated using "atomic" code by A. Dal Corso  v.5.1
     Shape of augmentation charge: PSQ
     Using radial grid of 1073 points,  4 beta functions with: 
                l(1) =   0
                l(2) =   0
                l(3) =   1
                l(4) =   1
     Q(r) pseudized with 0 coefficients 


     PseudoPot. # 2 for H  read from file:
     ./H_ONCV_PBE-1.0.oncvpsp.upf
     MD5 check sum: 1790becc920ee074925cf490c71280fe
     Pseudo is Norm-conserving, Zval =  1.0
     Generated using ONCVPSP code by D. R. Hamann
     Using radial grid of 1166 points,  2 beta functions with: 
                l(1) =   0
                l(2) =   0

     atomic species   valence    mass     pseudopotential
     C                 4.00    12.01100     C ( 1.00)
     H                 1.00     1.00800     H ( 1.00)

      8 Sym. Ops., with inversion, found ( 4 have fractional translation)



   Cartesian axes

     site n.     atom                  positions (alat units)
         1        C      tau(   1) = (   0.0000000  -0.3265862   3.7312429  )
         2        C      tau(   2) = (   0.5000000  -0.4683601   3.4081931  )
         3        C      tau(   3) = (   0.5000000   0.0000000   3.0312562  )
         4        C      tau(   4) = (   0.0000000   0.0000000   2.7074107  )
         5        C      tau(   5) = (  -0.0000000  -0.4683601   2.3304738  )
         6        C      tau(   6) = (   0.5000000  -0.3265862   2.0074240  )
         7        C      tau(   7) = (  -0.0000000  -1.6734138   3.7312429  )
         8        C      tau(   8) = (   0.5000000  -1.5316399   3.4081931  )
         9        C      tau(   9) = (   0.5000000  -1.0000000   3.0614923  )
        10        C      tau(  10) = (   0.0000000  -1.0000000   2.6771746  )
        11        C      tau(  11) = (   0.0000000  -1.5316399   2.3304738  )
        12        C      tau(  12) = (   0.5000000  -1.6734138   2.0074240  )
        13        H      tau(  13) = (   0.0000000  -0.4931590   4.1333023  )
        14        H      tau(  14) = (   0.0000000  -1.5068410   4.1333023  )
        15        H      tau(  15) = (   0.5000000  -0.4931590   1.6053646  )
        16        H      tau(  16) = (   0.5000000  -1.5068410   1.6053646  )

     number of k points=    15  Marzari-Vanderbilt smearing, width (Ry)=  0.0100
                       cart. coord. in units 2pi/alat
        k(    1) = (   0.0000000  -0.0000000   0.0000000), wk =   0.0444444
        k(    2) = (   0.0000000  -0.1000000   0.0000000), wk =   0.0888889
        k(    3) = (   0.0000000  -0.2000000   0.0000000), wk =   0.0888889
        k(    4) = (   0.1111111  -0.0000000   0.0000000), wk =   0.0888889
        k(    5) = (   0.1111111  -0.1000000   0.0000000), wk =   0.1777778
        k(    6) = (   0.1111111  -0.2000000   0.0000000), wk =   0.1777778
        k(    7) = (   0.2222222  -0.0000000   0.0000000), wk =   0.0888889
        k(    8) = (   0.2222222  -0.1000000   0.0000000), wk =   0.1777778
        k(    9) = (   0.2222222  -0.2000000   0.0000000), wk =   0.1777778
        k(   10) = (   0.3333333  -0.0000000   0.0000000), wk =   0.0888889
        k(   11) = (   0.3333333  -0.1000000   0.0000000), wk =   0.1777778
        k(   12) = (   0.3333333  -0.2000000   0.0000000), wk =   0.1777778
        k(   13) = (   0.4444444  -0.0000000   0.0000000), wk =   0.0888889
        k(   14) = (   0.4444444  -0.1000000   0.0000000), wk =   0.1777778
        k(   15) = (   0.4444444  -0.2000000   0.0000000), wk =   0.1777778

     Dense  grid:   407651 G-vectors     FFT dimensions: (  48,  81, 240)

     Smooth grid:   144113 G-vectors     FFT dimensions: (  30,  60, 180)

     Estimated max dynamical RAM per process >     112.61 MB

     Estimated total dynamical RAM >     900.90 MB

     Initial potential from superposition of free atoms

     starting charge      51.9995, renormalised to      52.0000
     Starting wfcs are   52 randomized atomic wfcs
     Checking if some PAW data can be deallocated... 

     total cpu time spent up to now is        1.2 secs

     Self-consistent Calculation

     iteration #  1     ecut=    90.00 Ry     beta= 0.30
     Davidson diagonalization with overlap
     ethr =  1.00E-02,  avg # of iterations =  2.7

     negative rho (up, down):  4.885E-08 0.000E+00

     total cpu time spent up to now is        3.0 secs

     total energy              =    -225.89026741 Ry
     estimated scf accuracy    <       1.22671640 Ry

     iteration #  2     ecut=    90.00 Ry     beta= 0.30
     Davidson diagonalization with overlap
     ethr =  2.36E-03,  avg # of iterations =  4.3

     negative rho (up, down):  1.048E-06 0.000E+00

     total cpu time spent up to now is        4.6 secs

     total energy              =    -225.82599922 Ry
     estimated scf accuracy    <       0.35349871 Ry

     iteration #  3     ecut=    90.00 Ry     beta= 0.30
     Davidson diagonalization with overlap
     ethr =  6.80E-04,  avg # of iterations =  6.2

     negative rho (up, down):  8.404E-07 0.000E+00

     total cpu time spent up to now is        6.4 secs

     total energy              =    -225.83469092 Ry
     estimated scf accuracy    <       0.05654492 Ry

     iteration #  4     ecut=    90.00 Ry     beta= 0.30
     Davidson diagonalization with overlap
     ethr =  1.09E-04,  avg # of iterations =  5.4

     negative rho (up, down):  1.741E-06 0.000E+00

     total cpu time spent up to now is        8.1 secs

     total energy              =    -225.83969345 Ry
     estimated scf accuracy    <       0.00398560 Ry

     iteration #  5     ecut=    90.00 Ry     beta= 0.30
     Davidson diagonalization with overlap
     ethr =  7.66E-06,  avg # of iterations =  8.2

     negative rho (up, down):  1.381E-06 0.000E+00

     total cpu time spent up to now is       10.3 secs

     total energy              =    -225.84037737 Ry
     estimated scf accuracy    <       0.00067882 Ry

     iteration #  6     ecut=    90.00 Ry     beta= 0.30
     Davidson diagonalization with overlap
     c_bands:  1 eigenvalues not converged
     ethr =  1.31E-06,  avg # of iterations =  6.7

     negative rho (up, down):  1.599E-06 0.000E+00

     total cpu time spent up to now is       12.1 secs

     total energy              =    -225.84046461 Ry
     estimated scf accuracy    <       0.00014063 Ry

     iteration #  7     ecut=    90.00 Ry     beta= 0.30
     Davidson diagonalization with overlap
     ethr =  2.70E-07,  avg # of iterations =  2.0

     negative rho (up, down):  1.622E-06 0.000E+00

     total cpu time spent up to now is       13.7 secs

     total energy              =    -225.84048250 Ry
     estimated scf accuracy    <       0.00001026 Ry

     iteration #  8     ecut=    90.00 Ry     beta= 0.30
     Davidson diagonalization with overlap
     ethr =  1.97E-08,  avg # of iterations =  3.5

     negative rho (up, down):  1.623E-06 0.000E+00

     total cpu time spent up to now is       15.4 secs

     total energy              =    -225.84048411 Ry
     estimated scf accuracy    <       0.00000311 Ry

     iteration #  9     ecut=    90.00 Ry     beta= 0.30
     Davidson diagonalization with overlap
     ethr =  5.99E-09,  avg # of iterations =  2.6

     negative rho (up, down):  1.635E-06 0.000E+00

     total cpu time spent up to now is       17.1 secs

     total energy              =    -225.84048461 Ry
     estimated scf accuracy    <       0.00000045 Ry

     iteration # 10     ecut=    90.00 Ry     beta= 0.30
     Davidson diagonalization with overlap
     ethr =  8.63E-10,  avg # of iterations =  2.9

     negative rho (up, down):  1.640E-06 0.000E+00

     total cpu time spent up to now is       18.8 secs

     total energy              =    -225.84048469 Ry
     estimated scf accuracy    <       0.00000015 Ry

     iteration # 11     ecut=    90.00 Ry     beta= 0.30
     Davidson diagonalization with overlap
     ethr =  2.88E-10,  avg # of iterations =  2.0

     negative rho (up, down):  1.680E-06 0.000E+00

     total cpu time spent up to now is       20.3 secs

     End of self-consistent calculation

          k = 0.0000-0.0000 0.0000 ( 17993 PWs)   bands (ev):

   -17.8460 -16.0061 -13.3695 -12.8795 -12.3047 -11.8877  -9.1604  -8.5890
    -7.9307  -5.5798  -5.5015  -5.0429  -2.8649  -2.2956  -1.8974  -1.5754
    -1.4854  -1.0838  -0.2459   0.4066   0.4167   0.8292   0.9492   1.1411
     1.4256   1.4776   5.4960   5.9259   7.6900   7.7703   7.9100

          k = 0.0000-0.1000 0.0000 ( 18035 PWs)   bands (ev):

   -17.7195 -15.9257 -14.4814 -12.3673 -12.3619 -11.5568  -8.8653  -8.0884
    -8.0316  -5.6477  -5.5464  -4.7814  -2.7790  -2.7180  -2.0389  -1.9072
    -1.8016  -1.0327  -0.1254  -0.1129   0.5088   0.8187   0.8572   1.0712
     1.2428   1.7122   5.7056   6.1420   7.6509   8.0377   8.3287

          k = 0.0000-0.2000 0.0000 ( 18011 PWs)   bands (ev):

   -17.4449 -15.7737 -15.3959 -12.9564 -12.2184 -10.7577  -8.6566  -7.4449
    -7.2308  -5.9416  -5.3658  -5.1597  -3.4732  -2.9329  -2.6089  -1.8470
    -1.6755  -0.9397  -0.6575  -0.1570   0.2553   0.5609   0.6997   1.1439
     1.2580   2.0511   6.3133   6.6596   7.2823   7.5541   7.8809

          k = 0.1111-0.0000 0.0000 ( 18007 PWs)   bands (ev):

   -17.6203 -15.7847 -13.1545 -12.6656 -12.1011 -11.6865  -9.0375  -8.4161
    -7.7455  -5.5106  -5.4079  -4.8770  -4.1294  -2.3512  -2.1828  -1.7330
    -1.6668  -1.3861  -0.4869  -0.4752   0.0034   0.0267   0.2913   0.5413
     1.1742   1.3204   5.6872   6.2022   8.0783   8.3580   8.4074

          k = 0.1111-0.1000 0.0000 ( 18012 PWs)   bands (ev):

   -17.4942 -15.7044 -14.2629 -12.1613 -12.1585 -11.3517  -8.7616  -7.9126
    -7.8387  -5.5445  -5.4768  -4.6174  -4.0374  -2.6134  -2.2826  -2.0668
    -1.8354  -1.6034  -1.1062  -0.3024  -0.1757   0.1419   0.4653   0.6365
     1.0739   1.2500   5.9001   6.4059   7.8671   8.5815   8.6828

          k = 0.1111-0.2000 0.0000 ( 18008 PWs)   bands (ev):

   -17.2203 -15.5526 -15.1748 -12.7504 -12.0157 -10.5549  -8.5502  -7.2516
    -7.1174  -5.7965  -5.2145  -5.0351  -3.8551  -3.3497  -2.8746  -2.2685
    -1.7888  -1.7247  -1.4893  -0.5599  -0.0863   0.1065   0.2967   0.6941
     1.1906   1.3314   6.5138   6.9008   7.4646   7.7791   7.9478

          k = 0.2222-0.0000 0.0000 ( 17986 PWs)   bands (ev):

   -16.9469 -15.1261 -12.5151 -12.0286 -11.5010 -11.0880  -8.9551  -7.9686
    -7.2299  -6.0515  -5.9310  -5.3011  -4.4533  -3.9110  -3.0011  -2.5590
    -2.1527  -2.0320  -1.7113  -1.2294  -1.0709  -0.6669  -0.4489  -0.4031
     0.5652   1.1506   6.2643   6.8108   8.6914   8.8561   8.9617

          k = 0.2222-0.1000 0.0000 ( 18022 PWs)   bands (ev):

   -16.8216 -15.0460 -13.6123 -11.5577 -11.5558 -10.7400  -8.7543  -7.4660
    -7.3013  -5.9580  -5.8548  -5.4102  -4.2446  -3.9537  -3.2675  -2.6028
    -2.2542  -2.1608  -1.7813  -1.5219  -1.1851  -0.9372  -0.4484  -0.1826
     0.6299   0.9008   6.4608   7.0013   8.1856   8.8916   8.9493

          k = 0.2222-0.2000 0.0000 ( 17999 PWs)   bands (ev):

   -16.5499 -14.8943 -14.5163 -12.1441 -11.4209  -9.9506  -8.5372  -6.9842
    -6.7365  -5.7963  -5.7712  -4.8777  -4.7754  -3.9392  -3.7196  -3.1282
    -3.0028  -2.4207  -1.8368  -1.6150  -1.0369  -0.8964  -0.3780  -0.1034
     0.5206   0.7745   6.9673   7.4996   7.7070   8.1072   8.2136

          k = 0.3333-0.0000 0.0000 ( 18020 PWs)   bands (ev):

   -15.8391 -14.0606 -11.4785 -10.9860 -10.5796 -10.1923 -10.1138  -7.8819
    -7.5708  -6.6513  -6.5092  -6.0352  -4.7917  -4.4678  -4.0653  -3.8402
    -3.5952  -2.9186  -1.7479  -1.6153  -1.5662  -1.2604  -0.6972  -0.6350
    -0.5289   1.0608   7.3225   7.6066   8.5630   9.4046   9.4661

          k = 0.3333-0.1000 0.0000 ( 18025 PWs)   bands (ev):

   -15.7152 -13.9794 -12.5490 -10.6394 -10.6355 -10.0276  -9.7345  -7.8201
    -7.4782  -6.6359  -6.4355  -5.8021  -4.5606  -4.5199  -4.3993  -4.0050
    -2.9680  -2.9452  -1.9680  -1.5748  -1.4773  -1.1792  -1.1698  -0.9537
    -0.3789   0.5460   7.4619   7.7920   8.4933   8.7922   8.8262

          k = 0.3333-0.2000 0.0000 ( 18024 PWs)   bands (ev):

   -15.4465 -13.8242 -13.4400 -11.2094 -10.5277  -9.8440  -8.9645  -7.8340
    -7.6991  -6.2745  -6.0975  -4.9922  -4.5921  -4.4227  -4.3046  -3.9901
    -3.6089  -3.1396  -2.0368  -1.8763  -1.6809  -1.2250  -1.1323  -0.9027
    -0.2354  -0.2030   7.3912   7.6562   8.3223   8.6487   8.7909

          k = 0.4444-0.0000 0.0000 ( 18076 PWs)   bands (ev):

   -14.3405 -12.9822 -11.8433 -10.7468  -9.9121  -9.5923  -8.8927  -8.6667
    -8.3889  -7.6475  -7.2548  -7.1981  -4.9365  -4.7534  -4.1204  -4.0635
    -3.7021  -2.9718  -2.4935  -2.0803  -2.0035  -1.5829  -1.3655  -1.0730
     0.1605   0.7484   8.2036   8.5196   8.7296   9.2638   9.4983

          k = 0.4444-0.1000 0.0000 ( 18041 PWs)   bands (ev):

   -14.2178 -12.8725 -11.7700 -11.1520 -10.5986  -9.8122  -8.6122  -8.4782
    -8.3707  -7.3398  -7.1849  -6.7612  -4.8629  -4.5737  -4.5453  -4.0473
    -2.9313  -2.9239  -2.5210  -2.1463  -1.8827  -1.4857  -1.4594  -1.0882
    -0.4708  -0.0095   8.1333   8.3093   9.0087   9.0692   9.4430

          k = 0.4444-0.2000 0.0000 ( 18023 PWs)   bands (ev):

   -13.9504 -12.6426 -12.0090 -11.6199 -10.6527 -10.5313  -8.8707  -8.4683
    -7.9269  -7.1763  -7.0702  -5.8110  -4.7398  -4.3049  -3.9309  -3.9276
    -2.9845  -2.9206  -2.1503  -2.0623  -1.8840  -1.6603  -1.6541  -1.4806
    -1.1208  -1.0406   7.6641   8.4802   8.5427   9.2679   9.4410

     the Fermi energy is     3.3425 ev

!    total energy              =    -225.84048472 Ry
     estimated scf accuracy    <          7.0E-09 Ry
     smearing contrib. (-TS)   =       0.00000000 Ry
     internal energy E=F+TS    =    -225.84048472 Ry

     The total energy is F=E-TS. E is the sum of the following terms:
     one-electron contribution =   -1141.98848646 Ry
     hartree contribution      =     591.35118211 Ry
     xc contribution           =     -58.73417031 Ry
     ewald contribution        =     457.48966519 Ry
     one-center paw contrib.   =     -73.95867526 Ry

     convergence has been achieved in  11 iterations

     negative rho (up, down):  1.680E-06 0.000E+00

     Forces acting on atoms (cartesian axes, Ry/au):

     atom    1 type  1   force =     0.00000000   -0.00001642    0.00001002
     atom    2 type  1   force =     0.00000000   -0.00000034   -0.00001771
     atom    3 type  1   force =     0.00000000    0.00000000   -0.00001558
     atom    4 type  1   force =     0.00000000   -0.00000000    0.00001558
     atom    5 type  1   force =    -0.00000000   -0.00000034    0.00001771
     atom    6 type  1   force =     0.00000000   -0.00001642   -0.00001002
     atom    7 type  1   force =     0.00000000    0.00001642    0.00001002
     atom    8 type  1   force =     0.00000000    0.00000034   -0.00001771
     atom    9 type  1   force =     0.00000000    0.00000000   -0.00000644
     atom   10 type  1   force =     0.00000000   -0.00000000    0.00000644
     atom   11 type  1   force =     0.00000000    0.00000034    0.00001771
     atom   12 type  1   force =     0.00000000    0.00001642   -0.00001002
     atom   13 type  2   force =     0.00000000    0.00000287   -0.00000253
     atom   14 type  2   force =     0.00000000   -0.00000287   -0.00000253
     atom   15 type  2   force =     0.00000000    0.00000287    0.00000253
     atom   16 type  2   force =     0.00000000   -0.00000287    0.00000253

     Total force =     0.000058     Total SCF correction =     0.000072
     SCF correction compared to forces is large: reduce conv_thr to get better values


     Computing stress (Cartesian axis) and pressure


     negative rho (up, down):  1.680E-06 0.000E+00
          total   stress  (Ry/bohr**3)                   (kbar)     P=      -23.82
   0.00012488   0.00000000   0.00000000           18.37        0.00        0.00
   0.00000000  -0.00060977   0.00000000            0.00      -89.70        0.00
   0.00000000   0.00000000  -0.00000097            0.00        0.00       -0.14


     Writing all to output data dir /tmp/qe/slab.save/ :
     XML data file, charge density, pseudopotentials, collected wavefunctions

     init_run     :      1.07s CPU      1.13s WALL (       1 calls)
     electrons    :     18.89s CPU     19.14s WALL (       1 calls)
     forces       :      0.34s CPU      0.35s WALL (       1 calls)
     stress       :      3.26s CPU      3.27s WALL (       1 calls)

     Called by init_run:
     wfcinit      :      0.76s CPU      0.79s WALL (       1 calls)
     potinit      :      0.13s CPU      0.15s WALL (       1 calls)
     hinit0       :      0.05s CPU      0.06s WALL (       1 calls)

     Called by electrons:
     c_bands      :     14.16s CPU     14.32s WALL (      11 calls)
     sum_band     :      2.90s CPU      2.95s WALL (      11 calls)
     v_of_rho     :      0.70s CPU      0.73s WALL (      12 calls)
     newd         :      0.42s CPU      0.43s WALL (      12 calls)
     PAW_pot      :      0.74s CPU      0.75s WALL (      12 calls)
     mix_rho      :      0.06s CPU      0.07s WALL (      11 calls)

     Called by c_bands:
     init_us_2    :      0.44s CPU      0.46s WALL (     375 calls)
     cegterg      :     13.50s CPU     13.64s WALL (     165 calls)

     Called by *egterg:
     cdiaghg      :      0.75s CPU      0.76s WALL (     862 calls)
     h_psi        :     10.83s CPU     10.95s WALL (     877 calls)
     s_psi        :      0.62s CPU      0.62s WALL (     877 calls)
     g_psi        :      0.07s CPU      0.07s WALL (     697 calls)

     Called by h_psi:
     h_psi:calbec :      0.63s CPU      0.65s WALL (     877 calls)
     vloc_psi     :      9.38s CPU      9.48s WALL (     877 calls)
     add_vuspsi   :      0.74s CPU      0.75s WALL (     877 calls)

     General routines
     calbec       :      0.90s CPU      0.92s WALL (    1117 calls)
     fft          :      0.37s CPU      0.41s WALL (     179 calls)
     ffts         :      0.01s CPU      0.01s WALL (      23 calls)
     fftw         :      8.45s CPU      8.53s WALL (   34129 calls)
     interpolate  :      0.02s CPU      0.03s WALL (      12 calls)

     Parallel routines

     PWSCF        :     23.69s CPU     24.12s WALL


   This run was terminated on:  18:41:39   1Aug2026            

=------------------------------------------------------------------------------=
   JOB DONE.
=------------------------------------------------------------------------------=
Note: The following floating-point exceptions are signalling: IEEE_UNDERFLOW_FLAG IEEE_DENORMAL
Note: The following floating-point exceptions are signalling: IEEE_UNDERFLOW_FLAG IEEE_DENORMAL
Note: The following floating-point exceptions are signalling: IEEE_UNDERFLOW_FLAG IEEE_DENORMAL
Note: The following floating-point exceptions are signalling: IEEE_UNDERFLOW_FLAG IEEE_DENORMAL
Note: The following floating-point exceptions are signalling: IEEE_UNDERFLOW_FLAG IEEE_DENORMAL
Note: The following floating-point exceptions are signalling: IEEE_UNDERFLOW_FLAG IEEE_DENORMAL
Note: The following floating-point exceptions are signalling: IEEE_UNDERFLOW_FLAG IEEE_DENORMAL
Note: The following floating-point exceptions are signalling: IEEE_UNDERFLOW_FLAG IEEE_DENORMAL
