
     Program PWSCF v.7.3.1 starts on  2Aug2026 at 15:14: 6 

     This program is part of the open-source Quantum ESPRESSO suite
     for quantum simulation of materials; please cite
         "P. Giannozzi et al., J. Phys.:Condens. Matter 21 395502 (2009);
         "P. Giannozzi et al., J. Phys.:Condens. Matter 29 465901 (2017);
         "P. Giannozzi et al., J. Chem. Phys. 152 154105 (2020);
          URL http://www.quantum-espresso.org", 
     in publications or presentations arising from this work. More details at
     http://www.quantum-espresso.org/quote

     Parallel version (MPI), running on     8 processors

     MPI processes distributed on     1 nodes
     187655 MiB available memory on the printing compute node when the environment starts

     Reading input from pw.in

     Current dimensions of program PWSCF are:
     Max number of different atomic species (ntypx) = 10
     Max number of k-points (npk) =  40000
     Max angular momentum in pseudopotentials (lmaxx) =  4
     file C.pbe-n-kjpaw_psl.1.0.0.UPF: wavefunction(s)  2S 2P renormalized
     Message from routine setup:
     using ibrav=0 with symmetry is DISCOURAGED, use correct ibrav instead

     R & G space division:  proc/nbgrp/npool/nimage =       8
     Subspace diagonalization in iterative solution of the eigenvalue problem:
     a serial algorithm will be used


     Parallelization info
     --------------------
     sticks:   dense  smooth     PW     G-vecs:    dense   smooth      PW
     Min         141      69     20                25711     9055    1470
     Max         142      70     21                25736     9090    1497
     Sum        1135     559    163               205839    72655   11835

     Using Slab Decomposition



     bravais-lattice index     =            0
     lattice parameter (alat)  =       4.7744  a.u.
     unit-cell volume          =     629.8634 (a.u.)^3
     number of atoms/cell      =           10
     number of atomic types    =            2
     number of electrons       =        34.00
     number of Kohn-Sham states=           21
     kinetic-energy cutoff     =      90.0000  Ry
     charge density cutoff     =     720.0000  Ry
     scf convergence threshold =      1.0E-08
     mixing beta               =       0.3000
     number of iterations used =            8  plain     mixing
     Exchange-correlation= PBE
                           (   1   4   3   4   0   0   0)

     celldm(1)=   4.774375  celldm(2)=   0.000000  celldm(3)=   0.000000
     celldm(4)=   0.000000  celldm(5)=   0.000000  celldm(6)=   0.000000

     crystal axes: (cart. coord. in units of alat)
               a(1) = (   1.000000   0.000000   0.000000 )  
               a(2) = (   0.500000   0.866025   0.000000 )  
               a(3) = (   0.000000   0.000000   6.682919 )  

     reciprocal axes: (cart. coord. in units 2 pi/alat)
               b(1) = (  1.000000 -0.577350  0.000000 )  
               b(2) = (  0.000000  1.154701  0.000000 )  
               b(3) = (  0.000000  0.000000  0.149635 )  


     PseudoPot. # 1 for C  read from file:
     ./C.pbe-n-kjpaw_psl.1.0.0.UPF
     MD5 check sum: 5d2aebdfa2cae82b50a7e79e9516da0f
     Pseudo is Projector augmented-wave + core cor, Zval =  4.0
     Generated using "atomic" code by A. Dal Corso  v.5.1
     Shape of augmentation charge: PSQ
     Using radial grid of 1073 points,  4 beta functions with: 
                l(1) =   0
                l(2) =   0
                l(3) =   1
                l(4) =   1
     Q(r) pseudized with 0 coefficients 


     PseudoPot. # 2 for H  read from file:
     ./H_ONCV_PBE-1.0.oncvpsp.upf
     MD5 check sum: 1790becc920ee074925cf490c71280fe
     Pseudo is Norm-conserving, Zval =  1.0
     Generated using ONCVPSP code by D. R. Hamann
     Using radial grid of 1166 points,  2 beta functions with: 
                l(1) =   0
                l(2) =   0

     atomic species   valence    mass     pseudopotential
     C                 4.00    12.01100     C ( 1.00)
     H                 1.00     1.00800     H ( 1.00)

     12 Sym. Ops., with inversion, found



   Cartesian axes

     site n.     atom                  positions (alat units)
         1        C      tau(   1) = (   0.5000000   0.2886751   4.6595968  )
         2        C      tau(   2) = (   1.0000000   0.5773503   4.4665072  )
         3        C      tau(   3) = (   1.0000000   0.5773503   3.8514637  )
         4        C      tau(   4) = (   0.0000000  -0.0000000   3.6478210  )
         5        C      tau(   5) = (   0.0000000   0.0000000   3.0350977  )
         6        C      tau(   6) = (   0.5000000   0.2886751   2.8314550  )
         7        C      tau(   7) = (   0.5000000   0.2886751   2.2164115  )
         8        C      tau(   8) = (   1.0000000   0.5773503   2.0233219  )
         9        H      tau(   9) = (   0.5000000   0.2886751   5.0985495  )
        10        H      tau(  10) = (   1.0000000   0.5773503   1.5843692  )

     number of k points=    12  Marzari-Vanderbilt smearing, width (Ry)=  0.0100
                       cart. coord. in units 2pi/alat
        k(    1) = (   0.0000000   0.0000000   0.0000000), wk =   0.0246914
        k(    2) = (   0.0000000   0.1283001   0.0000000), wk =   0.1481481
        k(    3) = (   0.0000000   0.2566001   0.0000000), wk =   0.1481481
        k(    4) = (   0.0000000   0.3849002   0.0000000), wk =   0.1481481
        k(    5) = (   0.0000000   0.5132002   0.0000000), wk =   0.1481481
        k(    6) = (   0.1111111   0.1924501   0.0000000), wk =   0.1481481
        k(    7) = (   0.1111111   0.3207501   0.0000000), wk =   0.2962963
        k(    8) = (   0.1111111   0.4490502   0.0000000), wk =   0.2962963
        k(    9) = (   0.1111111  -0.5773503   0.0000000), wk =   0.1481481
        k(   10) = (   0.2222222   0.3849002   0.0000000), wk =   0.1481481
        k(   11) = (   0.2222222  -0.6415003   0.0000000), wk =   0.2962963
        k(   12) = (   0.3333333  -0.5773503   0.0000000), wk =   0.0493827

     Dense  grid:   205839 G-vectors     FFT dimensions: (  45,  45, 288)

     Smooth grid:    72655 G-vectors     FFT dimensions: (  30,  30, 200)

     Estimated max dynamical RAM per process >      49.23 MB

     Estimated total dynamical RAM >     393.81 MB

     Initial potential from superposition of free atoms

     starting charge      33.9996, renormalised to      34.0000
     Starting wfcs are   34 randomized atomic wfcs
     Checking if some PAW data can be deallocated... 

     total cpu time spent up to now is        0.5 secs

     Self-consistent Calculation

     iteration #  1     ecut=    90.00 Ry     beta= 0.30
     Davidson diagonalization with overlap
     ethr =  1.00E-02,  avg # of iterations =  2.8

     total cpu time spent up to now is        1.1 secs

     total energy              =    -149.90051749 Ry
     estimated scf accuracy    <       0.71567538 Ry

     iteration #  2     ecut=    90.00 Ry     beta= 0.30
     Davidson diagonalization with overlap
     ethr =  2.10E-03,  avg # of iterations =  4.0

     negative rho (up, down):  1.027E-07 0.000E+00

     total cpu time spent up to now is        1.7 secs

     total energy              =    -149.84495147 Ry
     estimated scf accuracy    <       0.23273373 Ry

     iteration #  3     ecut=    90.00 Ry     beta= 0.30
     Davidson diagonalization with overlap
     ethr =  6.85E-04,  avg # of iterations =  4.2

     negative rho (up, down):  4.139E-08 0.000E+00

     total cpu time spent up to now is        2.2 secs

     total energy              =    -149.85283237 Ry
     estimated scf accuracy    <       0.03059297 Ry

     iteration #  4     ecut=    90.00 Ry     beta= 0.30
     Davidson diagonalization with overlap
     ethr =  9.00E-05,  avg # of iterations =  4.3

     negative rho (up, down):  1.230E-08 0.000E+00

     total cpu time spent up to now is        2.7 secs

     total energy              =    -149.85447811 Ry
     estimated scf accuracy    <       0.00375206 Ry

     iteration #  5     ecut=    90.00 Ry     beta= 0.30
     Davidson diagonalization with overlap
     ethr =  1.10E-05,  avg # of iterations =  5.4

     total cpu time spent up to now is        3.3 secs

     total energy              =    -149.85495008 Ry
     estimated scf accuracy    <       0.00028566 Ry

     iteration #  6     ecut=    90.00 Ry     beta= 0.30
     Davidson diagonalization with overlap
     ethr =  8.40E-07,  avg # of iterations =  3.5

     total cpu time spent up to now is        3.9 secs

     total energy              =    -149.85499660 Ry
     estimated scf accuracy    <       0.00005977 Ry

     iteration #  7     ecut=    90.00 Ry     beta= 0.30
     Davidson diagonalization with overlap
     ethr =  1.76E-07,  avg # of iterations =  2.2

     total cpu time spent up to now is        4.3 secs

     total energy              =    -149.85500390 Ry
     estimated scf accuracy    <       0.00000671 Ry

     iteration #  8     ecut=    90.00 Ry     beta= 0.30
     Davidson diagonalization with overlap
     ethr =  1.97E-08,  avg # of iterations =  3.1

     total cpu time spent up to now is        4.9 secs

     total energy              =    -149.85500553 Ry
     estimated scf accuracy    <       0.00000129 Ry

     iteration #  9     ecut=    90.00 Ry     beta= 0.30
     Davidson diagonalization with overlap
     ethr =  3.80E-09,  avg # of iterations =  2.9

     total cpu time spent up to now is        5.5 secs

     total energy              =    -149.85500590 Ry
     estimated scf accuracy    <       0.00000113 Ry

     iteration # 10     ecut=    90.00 Ry     beta= 0.30
     Davidson diagonalization with overlap
     ethr =  3.33E-09,  avg # of iterations =  2.0

     total cpu time spent up to now is        5.9 secs

     total energy              =    -149.85500593 Ry
     estimated scf accuracy    <       0.00000038 Ry

     iteration # 11     ecut=    90.00 Ry     beta= 0.30
     Davidson diagonalization with overlap
     ethr =  1.13E-09,  avg # of iterations =  1.4

     total cpu time spent up to now is        6.4 secs

     total energy              =    -149.85500591 Ry
     estimated scf accuracy    <       0.00000013 Ry

     iteration # 12     ecut=    90.00 Ry     beta= 0.30
     Davidson diagonalization with overlap
     ethr =  3.77E-10,  avg # of iterations =  2.1

     total cpu time spent up to now is        6.9 secs

     total energy              =    -149.85500590 Ry
     estimated scf accuracy    <       0.00000004 Ry

     iteration # 13     ecut=    90.00 Ry     beta= 0.30
     Davidson diagonalization with overlap
     ethr =  1.06E-10,  avg # of iterations =  3.8

     total cpu time spent up to now is        7.5 secs

     total energy              =    -149.85500592 Ry
     estimated scf accuracy    <       0.00000002 Ry

     iteration # 14     ecut=    90.00 Ry     beta= 0.30
     Davidson diagonalization with overlap
     ethr =  6.55E-11,  avg # of iterations =  1.0

     total cpu time spent up to now is        7.9 secs

     total energy              =    -149.85500592 Ry
     estimated scf accuracy    <       0.00000001 Ry

     iteration # 15     ecut=    90.00 Ry     beta= 0.30
     Davidson diagonalization with overlap
     ethr =  3.92E-11,  avg # of iterations =  3.0

     total cpu time spent up to now is        8.5 secs

     End of self-consistent calculation

          k = 0.0000 0.0000 0.0000 (  9007 PWs)   bands (ev):

   -15.9722 -15.0369 -13.5348 -11.6815  -7.4534  -5.1289  -2.0853   1.0808
     2.5286   2.5286   3.0908   3.0908   3.7330   3.9188   3.9188   4.7521
     4.7521   7.4849   7.8743  10.2055  11.2499

          k = 0.0000 0.1283 0.0000 (  9097 PWs)   bands (ev):

   -15.6707 -14.7389 -13.2435 -11.4021  -7.1825  -4.8892  -1.9071   1.0422
     1.1726   1.7659   1.8952   2.5248   2.6094   3.4329   3.4350   3.7456
     4.3246   7.7412   8.1750  10.2596  11.2367

          k = 0.0000 0.2566 0.0000 (  9061 PWs)   bands (ev):

   -14.7724 -13.8516 -12.3783 -10.5738  -6.4272  -4.2506  -1.9840  -1.3653
    -1.1418  -0.0699   0.7142   0.9943   1.3022   1.4061   2.4034   3.1995
     3.3646   8.5598   8.9536  10.3589  11.0312

          k = 0.0000 0.3849 0.0000 (  9086 PWs)   bands (ev):

   -13.3015 -12.4044 -10.9796  -9.2547  -5.8645  -5.0612  -3.8825  -3.7108
    -2.4283  -1.9144  -0.6354  -0.2843   0.4343   0.9667   1.4713   2.4295
     2.4679   9.5926   9.9390  10.5949  11.0813

          k = 0.0000 0.5132 0.0000 (  9086 PWs)   bands (ev):

   -11.3502 -10.5570  -9.4732  -8.3865  -7.4314  -6.8822  -6.2320  -4.7578
    -2.8848  -1.5815  -1.2285  -0.8274  -0.0990   0.4115   0.9530   1.8827
     1.9633   9.8903  10.6684  10.8611  11.6206

          k = 0.1111 0.1925 0.0000 (  9085 PWs)   bands (ev):

   -15.0707 -14.1461 -12.6651 -10.8478  -6.6654  -4.4428  -1.6314  -0.5129
    -0.2811   0.3826   0.8717   1.3610   1.4908   1.9094   2.6335   2.7859
     3.7562   8.3117   8.7344  10.7810  11.3436

          k = 0.1111 0.3208 0.0000 (  9058 PWs)   bands (ev):

   -13.8850 -12.9770 -11.5291  -9.7654  -5.8361  -3.9663  -3.2066  -2.5959
    -1.8652  -1.2243  -0.7213  -0.3122   0.3525   0.7332   1.3714   1.7792
     3.0651   9.4788   9.6753  11.1106  11.8730

          k = 0.1111 0.4491 0.0000 (  9082 PWs)   bands (ev):

   -12.1591 -11.2919  -9.9369  -8.3461  -6.5553  -6.1368  -4.9173  -3.6766
    -3.2050  -1.9689  -1.4891  -1.0409  -0.6086   0.0275   0.7782   1.1860
     2.1538  10.3723  11.0056  11.5812  12.1858

          k = 0.1111-0.5774 0.0000 (  9074 PWs)   bands (ev):

   -10.3018 -10.0261  -9.3427  -8.3713  -7.3309  -7.1843  -5.8795  -5.6706
    -2.2822  -2.0493  -1.5994  -1.3346  -1.1134   0.0564   0.1255   1.1853
     1.6325  10.6091  11.4342  12.1136  12.2239

          k = 0.2222 0.3849 0.0000 (  9057 PWs)   bands (ev):

   -12.4385 -11.5587 -10.1688  -8.4923  -5.8428  -4.9191  -4.2669  -3.2843
    -3.2253  -2.6380  -1.5883  -1.5076  -1.0581  -0.4357  -0.0722   1.0167
     2.2293  10.7636  10.8152  11.9619  12.5222

          k = 0.2222-0.6415 0.0000 (  9109 PWs)   bands (ev):

   -10.5375  -9.7727  -8.7413  -7.6761  -7.0050  -6.4987  -5.7971  -4.9100
    -3.4837  -2.8970  -2.7939  -1.8549  -1.4324  -0.7160  -0.2900   0.5385
     1.1919  11.1384  12.0179  12.3406  13.1395

          k = 0.3333-0.5774 0.0000 (  9105 PWs)   bands (ev):

    -8.8341  -8.7665  -8.7665  -7.5109  -7.5109  -6.2344  -5.8920  -5.8920
    -3.9966  -3.5833  -3.5833  -3.1211  -0.6331  -0.6331  -0.1172   0.1367
     0.1367  11.5913  12.2664  12.2664  12.5318

     the Fermi energy is     6.5419 ev

!    total energy              =    -149.85500592 Ry
     estimated scf accuracy    <          6.5E-09 Ry
     smearing contrib. (-TS)   =      -0.00000000 Ry
     internal energy E=F+TS    =    -149.85500592 Ry

     The total energy is F=E-TS. E is the sum of the following terms:
     one-electron contribution =    -884.48458034 Ry
     hartree contribution      =     458.07133400 Ry
     xc contribution           =     -38.87799516 Ry
     ewald contribution        =     364.74032713 Ry
     one-center paw contrib.   =     -49.30409155 Ry

     convergence has been achieved in  15 iterations

     Forces acting on atoms (cartesian axes, Ry/au):

     atom    1 type  1   force =     0.00000000   -0.00000000    0.00006851
     atom    2 type  1   force =     0.00000000    0.00000000   -0.00005153
     atom    3 type  1   force =     0.00000000   -0.00000000   -0.00004825
     atom    4 type  1   force =     0.00000000    0.00000000   -0.00007868
     atom    5 type  1   force =     0.00000000   -0.00000000    0.00007868
     atom    6 type  1   force =     0.00000000    0.00000000    0.00004825
     atom    7 type  1   force =     0.00000000   -0.00000000    0.00005153
     atom    8 type  1   force =     0.00000000    0.00000000   -0.00006851
     atom    9 type  2   force =     0.00000000    0.00000000    0.00005510
     atom   10 type  2   force =     0.00000000   -0.00000000   -0.00005510

     Total force =     0.000194     Total SCF correction =     0.000112
     SCF correction compared to forces is large: reduce conv_thr to get better values


     Computing stress (Cartesian axis) and pressure

          total   stress  (Ry/bohr**3)                   (kbar)     P=        3.71
   0.00003793   0.00000000   0.00000000            5.58        0.00        0.00
   0.00000000   0.00003793   0.00000000            0.00        5.58        0.00
   0.00000000   0.00000000  -0.00000021            0.00        0.00       -0.03


     Writing all to output data dir /tmp/qe/slab.save/ :
     XML data file, charge density, pseudopotentials, collected wavefunctions

     init_run     :      0.42s CPU      0.47s WALL (       1 calls)
     electrons    :      7.83s CPU      7.95s WALL (       1 calls)
     forces       :      0.12s CPU      0.12s WALL (       1 calls)
     stress       :      0.74s CPU      0.74s WALL (       1 calls)

     Called by init_run:
     wfcinit      :      0.20s CPU      0.22s WALL (       1 calls)
     potinit      :      0.11s CPU      0.13s WALL (       1 calls)
     hinit0       :      0.05s CPU      0.06s WALL (       1 calls)

     Called by electrons:
     c_bands      :      4.80s CPU      4.87s WALL (      15 calls)
     sum_band     :      1.25s CPU      1.27s WALL (      15 calls)
     v_of_rho     :      0.55s CPU      0.57s WALL (      16 calls)
     newd         :      0.27s CPU      0.28s WALL (      16 calls)
     PAW_pot      :      0.98s CPU      0.99s WALL (      16 calls)
     mix_rho      :      0.05s CPU      0.05s WALL (      15 calls)

     Called by c_bands:
     init_us_2    :      0.14s CPU      0.15s WALL (     396 calls)
     cegterg      :      4.56s CPU      4.62s WALL (     180 calls)

     Called by *egterg:
     cdiaghg      :      0.29s CPU      0.29s WALL (     727 calls)
     h_psi        :      3.82s CPU      3.88s WALL (     739 calls)
     s_psi        :      0.13s CPU      0.13s WALL (     739 calls)
     g_psi        :      0.02s CPU      0.02s WALL (     547 calls)

     Called by h_psi:
     h_psi:calbec :      0.16s CPU      0.16s WALL (     739 calls)
     vloc_psi     :      3.50s CPU      3.56s WALL (     739 calls)
     add_vuspsi   :      0.14s CPU      0.14s WALL (     739 calls)

     General routines
     calbec       :      0.24s CPU      0.24s WALL (     979 calls)
     fft          :      0.23s CPU      0.25s WALL (     231 calls)
     ffts         :      0.01s CPU      0.01s WALL (      31 calls)
     fftw         :      3.15s CPU      3.20s WALL (   24096 calls)
     interpolate  :      0.02s CPU      0.03s WALL (      16 calls)

     Parallel routines

     PWSCF        :      9.20s CPU      9.42s WALL


   This run was terminated on:  15:14:15   2Aug2026            

=------------------------------------------------------------------------------=
   JOB DONE.
=------------------------------------------------------------------------------=
Note: The following floating-point exceptions are signalling: IEEE_UNDERFLOW_FLAG IEEE_DENORMAL
Note: The following floating-point exceptions are signalling: IEEE_UNDERFLOW_FLAG IEEE_DENORMAL
Note: The following floating-point exceptions are signalling: IEEE_UNDERFLOW_FLAG IEEE_DENORMAL
Note: The following floating-point exceptions are signalling: IEEE_UNDERFLOW_FLAG IEEE_DENORMAL
Note: The following floating-point exceptions are signalling: IEEE_UNDERFLOW_FLAG IEEE_DENORMAL
Note: The following floating-point exceptions are signalling: IEEE_UNDERFLOW_FLAG IEEE_DENORMAL
Note: The following floating-point exceptions are signalling: IEEE_UNDERFLOW_FLAG IEEE_DENORMAL
Note: The following floating-point exceptions are signalling: IEEE_UNDERFLOW_FLAG IEEE_DENORMAL
