
     Program PWSCF v.7.3.1 starts on  1Aug2026 at 13:14:19 

     This program is part of the open-source Quantum ESPRESSO suite
     for quantum simulation of materials; please cite
         "P. Giannozzi et al., J. Phys.:Condens. Matter 21 395502 (2009);
         "P. Giannozzi et al., J. Phys.:Condens. Matter 29 465901 (2017);
         "P. Giannozzi et al., J. Chem. Phys. 152 154105 (2020);
          URL http://www.quantum-espresso.org", 
     in publications or presentations arising from this work. More details at
     http://www.quantum-espresso.org/quote

     Parallel version (MPI), running on     4 processors

     MPI processes distributed on     1 nodes
     188723 MiB available memory on the printing compute node when the environment starts

     Reading input from pw.in

     Current dimensions of program PWSCF are:
     Max number of different atomic species (ntypx) = 10
     Max number of k-points (npk) =  40000
     Max angular momentum in pseudopotentials (lmaxx) =  4
     file C.pbe-n-kjpaw_psl.1.0.0.UPF: wavefunction(s)  2S 2P renormalized
     Found identity + ( -0.5000 -0.5000  0.0000) symmetry
     This is a supercell, fractional translations are disabled
     Message from routine setup:
     using ibrav=0 with symmetry is DISCOURAGED, use correct ibrav instead

     R & G space division:  proc/nbgrp/npool/nimage =       4
     Subspace diagonalization in iterative solution of the eigenvalue problem:
     a serial algorithm will be used


     Parallelization info
     --------------------
     sticks:   dense  smooth     PW     G-vecs:    dense   smooth      PW
     Min         646     326     93                24596     8722    1373
     Max         647     327     94                24597     8723    1376
     Sum        2585    1305    373                98385    34889    5497

     Using Slab Decomposition



     bravais-lattice index     =            0
     lattice parameter (alat)  =       6.7069  a.u.
     unit-cell volume          =     301.6999 (a.u.)^3
     number of atoms/cell      =            8
     number of atomic types    =            1
     number of electrons       =        32.00
     number of Kohn-Sham states=           16
     kinetic-energy cutoff     =      90.0000  Ry
     charge density cutoff     =     720.0000  Ry
     scf convergence threshold =      1.0E-10
     mixing beta               =       0.4000
     number of iterations used =            8  plain     mixing
     Exchange-correlation= SLA  PW   PBX  PBC
                           (   1   4   3   4   0   0   0)

     celldm(1)=   6.706950  celldm(2)=   0.000000  celldm(3)=   0.000000
     celldm(4)=   0.000000  celldm(5)=   0.000000  celldm(6)=   0.000000

     crystal axes: (cart. coord. in units of alat)
               a(1) = (   1.000000   0.000000   0.000000 )  
               a(2) = (   0.000000   1.000000   0.000000 )  
               a(3) = (   0.000000   0.000000   1.000000 )  

     reciprocal axes: (cart. coord. in units 2 pi/alat)
               b(1) = (  1.000000  0.000000  0.000000 )  
               b(2) = (  0.000000  1.000000  0.000000 )  
               b(3) = (  0.000000  0.000000  1.000000 )  


     PseudoPot. # 1 for C  read from file:
     ./C.pbe-n-kjpaw_psl.1.0.0.UPF
     MD5 check sum: 5d2aebdfa2cae82b50a7e79e9516da0f
     Pseudo is Projector augmented-wave + core cor, Zval =  4.0
     Generated using "atomic" code by A. Dal Corso  v.5.1
     Shape of augmentation charge: PSQ
     Using radial grid of 1073 points,  4 beta functions with: 
                l(1) =   0
                l(2) =   0
                l(3) =   1
                l(4) =   1
     Q(r) pseudized with 0 coefficients 


     atomic species   valence    mass     pseudopotential
     C                 4.00    12.01100     C ( 1.00)

     24 Sym. Ops. (no inversion) found



   Cartesian axes

     site n.     atom                  positions (alat units)
         1        C      tau(   1) = (   0.0000000   0.0000000   0.0000000  )
         2        C      tau(   2) = (   0.2500000   0.2500000   0.2500000  )
         3        C      tau(   3) = (   0.5000000   0.5000000   0.0000000  )
         4        C      tau(   4) = (   0.7500000   0.7500000   0.2500000  )
         5        C      tau(   5) = (   0.5000000   0.0000000   0.5000000  )
         6        C      tau(   6) = (   0.7500000   0.2500000   0.7500000  )
         7        C      tau(   7) = (   0.0000000   0.5000000   0.5000000  )
         8        C      tau(   8) = (   0.2500000   0.7500000   0.7500000  )

     number of k points=    35
                       cart. coord. in units 2pi/alat
        k(    1) = (   0.0000000   0.0000000   0.0000000), wk =   0.0039062
        k(    2) = (   0.0000000   0.0000000   0.1250000), wk =   0.0234375
        k(    3) = (   0.0000000   0.0000000   0.2500000), wk =   0.0234375
        k(    4) = (   0.0000000   0.0000000   0.3750000), wk =   0.0234375
        k(    5) = (   0.0000000   0.0000000  -0.5000000), wk =   0.0117188
        k(    6) = (   0.0000000   0.1250000   0.1250000), wk =   0.0468750
        k(    7) = (   0.0000000   0.1250000   0.2500000), wk =   0.0937500
        k(    8) = (   0.0000000   0.1250000   0.3750000), wk =   0.0937500
        k(    9) = (   0.0000000   0.1250000  -0.5000000), wk =   0.0468750
        k(   10) = (   0.0000000   0.2500000   0.2500000), wk =   0.0468750
        k(   11) = (   0.0000000   0.2500000   0.3750000), wk =   0.0937500
        k(   12) = (   0.0000000   0.2500000  -0.5000000), wk =   0.0468750
        k(   13) = (   0.0000000   0.3750000   0.3750000), wk =   0.0468750
        k(   14) = (   0.0000000   0.3750000  -0.5000000), wk =   0.0468750
        k(   15) = (   0.0000000  -0.5000000  -0.5000000), wk =   0.0117188
        k(   16) = (   0.1250000   0.1250000   0.1250000), wk =   0.0312500
        k(   17) = (   0.1250000   0.1250000   0.2500000), wk =   0.0937500
        k(   18) = (   0.1250000   0.1250000   0.3750000), wk =   0.0937500
        k(   19) = (   0.1250000   0.1250000  -0.5000000), wk =   0.0468750
        k(   20) = (   0.1250000   0.2500000   0.2500000), wk =   0.0937500
        k(   21) = (   0.1250000   0.2500000   0.3750000), wk =   0.1875000
        k(   22) = (   0.1250000   0.2500000  -0.5000000), wk =   0.0937500
        k(   23) = (   0.1250000   0.3750000   0.3750000), wk =   0.0937500
        k(   24) = (   0.1250000   0.3750000  -0.5000000), wk =   0.0937500
        k(   25) = (   0.1250000  -0.5000000  -0.5000000), wk =   0.0234375
        k(   26) = (   0.2500000   0.2500000   0.2500000), wk =   0.0312500
        k(   27) = (   0.2500000   0.2500000   0.3750000), wk =   0.0937500
        k(   28) = (   0.2500000   0.2500000  -0.5000000), wk =   0.0468750
        k(   29) = (   0.2500000   0.3750000   0.3750000), wk =   0.0937500
        k(   30) = (   0.2500000   0.3750000  -0.5000000), wk =   0.0937500
        k(   31) = (   0.2500000  -0.5000000  -0.5000000), wk =   0.0234375
        k(   32) = (   0.3750000   0.3750000   0.3750000), wk =   0.0312500
        k(   33) = (   0.3750000   0.3750000  -0.5000000), wk =   0.0468750
        k(   34) = (   0.3750000  -0.5000000  -0.5000000), wk =   0.0234375
        k(   35) = (  -0.5000000  -0.5000000  -0.5000000), wk =   0.0039062

     Dense  grid:    98385 G-vectors     FFT dimensions: (  60,  60,  60)

     Smooth grid:    34889 G-vectors     FFT dimensions: (  45,  45,  45)

     Estimated max dynamical RAM per process >      49.63 MB

     Estimated total dynamical RAM >     198.54 MB

     Check: negative core charge=   -0.000001

     Initial potential from superposition of free atoms

     starting charge      31.9997, renormalised to      32.0000
     Starting wfcs are   32 randomized atomic wfcs
     Checking if some PAW data can be deallocated... 

     total cpu time spent up to now is        0.8 secs

     Self-consistent Calculation

     iteration #  1     ecut=    90.00 Ry     beta= 0.40
     Davidson diagonalization with overlap
     ethr =  1.00E-02,  avg # of iterations =  2.0

     total cpu time spent up to now is        1.7 secs

     total energy              =    -147.50291641 Ry
     estimated scf accuracy    <       0.46113298 Ry

     iteration #  2     ecut=    90.00 Ry     beta= 0.40
     Davidson diagonalization with overlap
     ethr =  1.44E-03,  avg # of iterations =  1.0

     total cpu time spent up to now is        2.4 secs

     total energy              =    -147.45640942 Ry
     estimated scf accuracy    <       0.12862023 Ry

     iteration #  3     ecut=    90.00 Ry     beta= 0.40
     Davidson diagonalization with overlap
     ethr =  4.02E-04,  avg # of iterations =  2.0

     total cpu time spent up to now is        3.3 secs

     total energy              =    -147.47012316 Ry
     estimated scf accuracy    <       0.00133690 Ry

     iteration #  4     ecut=    90.00 Ry     beta= 0.40
     Davidson diagonalization with overlap
     ethr =  4.18E-06,  avg # of iterations =  3.3

     total cpu time spent up to now is        4.3 secs

     total energy              =    -147.47072824 Ry
     estimated scf accuracy    <       0.00021210 Ry

     iteration #  5     ecut=    90.00 Ry     beta= 0.40
     Davidson diagonalization with overlap
     ethr =  6.63E-07,  avg # of iterations =  2.3

     total cpu time spent up to now is        5.1 secs

     total energy              =    -147.47076077 Ry
     estimated scf accuracy    <       0.00000217 Ry

     iteration #  6     ecut=    90.00 Ry     beta= 0.40
     Davidson diagonalization with overlap
     ethr =  6.79E-09,  avg # of iterations =  5.7

     total cpu time spent up to now is        6.5 secs

     total energy              =    -147.47076096 Ry
     estimated scf accuracy    <       0.00001411 Ry

     iteration #  7     ecut=    90.00 Ry     beta= 0.40
     Davidson diagonalization with overlap
     ethr =  6.79E-09,  avg # of iterations =  2.0

     total cpu time spent up to now is        7.5 secs

     total energy              =    -147.47076176 Ry
     estimated scf accuracy    <       0.00000041 Ry

     iteration #  8     ecut=    90.00 Ry     beta= 0.40
     Davidson diagonalization with overlap
     ethr =  1.27E-09,  avg # of iterations =  2.0

     total cpu time spent up to now is        8.4 secs

     total energy              =    -147.47076185 Ry
     estimated scf accuracy    <          4.6E-09 Ry

     iteration #  9     ecut=    90.00 Ry     beta= 0.40
     Davidson diagonalization with overlap
     ethr =  1.43E-11,  avg # of iterations =  4.9

     total cpu time spent up to now is        9.6 secs

     total energy              =    -147.47076185 Ry
     estimated scf accuracy    <          9.6E-09 Ry

     iteration # 10     ecut=    90.00 Ry     beta= 0.40
     Davidson diagonalization with overlap
     ethr =  1.43E-11,  avg # of iterations =  1.0

     total cpu time spent up to now is       10.3 secs

     total energy              =    -147.47076185 Ry
     estimated scf accuracy    <          3.5E-09 Ry

     iteration # 11     ecut=    90.00 Ry     beta= 0.40
     Davidson diagonalization with overlap
     ethr =  1.11E-11,  avg # of iterations =  2.0

     total cpu time spent up to now is       11.2 secs

     total energy              =    -147.47076185 Ry
     estimated scf accuracy    <          2.7E-10 Ry

     iteration # 12     ecut=    90.00 Ry     beta= 0.40
     Davidson diagonalization with overlap
     ethr =  8.57E-13,  avg # of iterations =  2.2

     total cpu time spent up to now is       12.1 secs

     total energy              =    -147.47076185 Ry
     estimated scf accuracy    <          1.2E-10 Ry

     iteration # 13     ecut=    90.00 Ry     beta= 0.40
     Davidson diagonalization with overlap
     ethr =  3.62E-13,  avg # of iterations =  2.1

     total cpu time spent up to now is       13.0 secs

     End of self-consistent calculation

          k = 0.0000 0.0000 0.0000 (  4385 PWs)   bands (ev):

    -8.0584   0.7477   0.7477   0.7477   0.7477   0.7477   0.7477   7.2270
     7.2270   7.2270   7.2270   7.2270   7.2270  13.6211  13.6211  13.6211

          k = 0.0000 0.0000 0.1250 (  4373 PWs)   bands (ev):

    -7.9128  -1.1979   0.8410   0.8410   0.8410   0.8410   2.8304   6.9162
     6.9162   6.9162   6.9162   7.3696   7.3696  13.0575  13.0575  13.2703

          k = 0.0000 0.0000 0.2500 (  4316 PWs)   bands (ev):

    -7.4769  -2.9524   1.0943   1.0943   1.0943   1.0943   4.9766   6.1954
     6.1954   6.1954   6.1954   7.7940   7.7940  11.8666  11.8666  12.2959

          k = 0.0000 0.0000 0.3750 (  4328 PWs)   bands (ev):

    -6.7542  -4.4785   1.4065   1.4065   1.4065   1.4065   5.4767   5.4767
     5.4767   5.4767   7.0951   8.4893   8.4893  10.5883  10.5883  10.8557

          k = 0.0000 0.0000-0.5000 (  4356 PWs)   bands (ev):

    -5.7512  -5.7512   1.5634   1.5634   1.5634   1.5634   5.1652   5.1652
     5.1652   5.1652   9.0872   9.0872   9.4343   9.4343   9.4343   9.4343

          k = 0.0000 0.1250 0.1250 (  4359 PWs)   bands (ev):

    -7.7673  -1.0799  -1.0799   0.8375   1.0085   2.8700   2.8700   5.9410
     7.0198   7.0198   7.1271   7.1271   7.4705  12.1838  12.5307  13.4385

          k = 0.0000 0.1250 0.2500 (  4337 PWs)   bands (ev):

    -7.3321  -2.8219  -0.7374   0.9009   1.3596   2.9265   4.8884   4.9620
     6.1917   6.6181   7.4039   7.4176   7.6925  10.9002  11.3892  12.8435

          k = 0.0000 0.1250 0.3750 (  4340 PWs)   bands (ev):

    -6.6108  -4.3412  -0.2143   0.8064   1.8616   2.8164   4.4166   5.2699
     6.2960   6.7042   6.9325   8.0912   8.6967   9.5503  10.1444  11.6318

          k = 0.0000 0.1250-0.5000 (  4358 PWs)   bands (ev):

    -5.6101  -5.6101   0.3773   0.3773   2.4127   2.4127   4.5744   4.5744
     6.4470   6.4470   8.1981   8.1981   9.0150   9.0150  10.1247  10.1247

          k = 0.0000 0.2500 0.2500 (  4342 PWs)   bands (ev):

    -6.8992  -2.4362  -2.4362   0.5533   1.7873   4.1569   4.5460   4.5460
     6.5263   6.5263   7.5871   7.5871   8.1755   9.5988  10.3197  12.8536

          k = 0.0000 0.2500 0.3750 (  4350 PWs)   bands (ev):

    -6.1821  -3.9328  -1.8161  -0.1413   2.3900   3.9067   4.0876   5.5062
     5.8592   7.1549   7.7309   8.2926   8.3264   9.0685   9.1279  12.0683

          k = 0.0000 0.2500-0.5000 (  4364 PWs)   bands (ev):

    -5.1889  -5.1889  -1.0115  -1.0115   3.1293   3.1293   4.6235   4.6235
     7.0543   7.0543   8.0397   8.0397   8.0639   8.0639  10.6959  10.6959

          k = 0.0000 0.3750 0.3750 (  4360 PWs)   bands (ev):

    -5.4734  -3.2647  -3.2647  -1.2790   3.0732   4.3949   4.8757   4.8757
     6.0792   6.0792   7.0528   7.9775   9.2593   9.4120   9.4120  11.8483

          k = 0.0000 0.3750-0.5000 (  4348 PWs)   bands (ev):

    -4.4949  -4.4949  -2.3619  -2.3619   3.9162   3.9162   5.1097   5.1097
     5.9064   5.9064   6.9248   6.9248   9.5626   9.5626  10.9025  10.9025

          k = 0.0000-0.5000-0.5000 (  4388 PWs)   bands (ev):

    -3.5429  -3.5428  -3.5428  -3.5428   4.8435   4.8435   4.8435   4.8435
     5.9072   5.9072   5.9072   5.9072  10.5636  10.5636  10.5636  10.5636

          k = 0.1250 0.1250 0.1250 (  4352 PWs)   bands (ev):

    -7.6221  -0.9669  -0.9669  -0.9669   2.8694   2.8694   2.8694   6.1662
     6.1662   6.1662   7.6091   7.6091   7.6091  11.1784  12.9580  12.9580

          k = 0.1250 0.1250 0.2500 (  4329 PWs)   bands (ev):

    -7.1876  -2.6933  -0.6472  -0.6472   2.7538   2.7538   4.6514   5.3731
     5.3731   6.9294   7.5601   7.5601   8.0213   9.8231  11.8902  12.6505

          k = 0.1250 0.1250 0.3750 (  4346 PWs)   bands (ev):

    -6.4677  -4.2048  -0.2081  -0.2081   2.3535   2.3535   5.0919   5.0919
     6.0383   7.1740   7.1740   8.3346   8.4779   8.6942  10.6996  11.5725

          k = 0.1250 0.1250-0.5000 (  4340 PWs)   bands (ev):

    -5.4694  -5.4694   0.0519   0.0519   2.0557   2.0557   5.1092   5.1092
     6.9414   6.9414   7.2298   7.2298   9.6027   9.6027  10.0295  10.0295

          k = 0.1250 0.2500 0.2500 (  4333 PWs)   bands (ev):

    -6.7555  -2.3150  -2.3150  -0.4404   2.1850   3.9144   3.9144   5.0257
     6.5820   6.5820   8.0632   8.0632   8.3005   8.4286  11.2454  12.5681

          k = 0.1250 0.2500 0.3750 (  4349 PWs)   bands (ev):

    -6.0401  -3.7995  -1.7171  -0.4371   1.7374   2.9395   4.8622   5.2767
     6.2882   7.0898   7.9730   8.0370   8.4581   9.0979  10.1699  11.8896

          k = 0.1250 0.2500-0.5000 (  4338 PWs)   bands (ev):

    -5.0498  -5.0498  -0.9908  -0.9908   2.0866   2.0866   5.7898   5.7898
     5.8944   5.8944   8.2428   8.2428   9.0827   9.0827  10.5912  10.5912

          k = 0.1250 0.3750 0.3750 (  4349 PWs)   bands (ev):

    -5.3336  -3.1393  -3.1393  -1.2544   1.9034   3.6721   3.6721   5.7732
     5.7828   7.2663   7.2663   9.1990   9.3537   9.4795   9.4795  11.7550

          k = 0.1250 0.3750-0.5000 (  4356 PWs)   bands (ev):

    -4.3595  -4.3595  -2.2588  -2.2588   2.6402   2.6402   4.6193   4.6193
     6.4831   6.4831   8.2020   8.2020   9.6430   9.6430  10.8818  10.8818

          k = 0.1250-0.5000-0.5000 (  4376 PWs)   bands (ev):

    -3.4162  -3.4162  -3.4162  -3.4162   3.5116   3.5116   3.5116   3.5116
     7.2969   7.2969   7.2969   7.2969  10.5939  10.5939  10.5940  10.5940

          k = 0.2500 0.2500 0.2500 (  4347 PWs)   bands (ev):

    -6.3260  -1.9681  -1.9681  -1.9681   2.7232   2.7232   2.7232   6.7993
     6.7994   6.7994   6.9569   8.6697   8.6697   8.6697  11.8484  11.8484

          k = 0.2500 0.2500 0.3750 (  4361 PWs)   bands (ev):

    -5.6160  -3.4060  -1.4797  -1.4797   1.6234   1.6234   3.4484   5.5898
     7.0874   7.0874   8.7036   8.8711   8.8711   9.2634  10.9436  11.5420

          k = 0.2500 0.2500-0.5000 (  4360 PWs)   bands (ev):

    -4.6360  -4.6360  -1.1786  -1.1786   1.1063   1.1063   4.4074   4.4074
     7.2372   7.2372   8.8598   8.8598  10.0436  10.0436  10.3888  10.3888

          k = 0.2500 0.3750 0.3750 (  4347 PWs)   bands (ev):

    -4.9172  -2.7790  -2.7790  -1.4314   0.8606   2.1609   2.1609   4.2183
     7.6826   8.6409   8.6409   9.6262   9.6809   9.6809  10.4688  11.4807

          k = 0.2500 0.3750-0.5000 (  4372 PWs)   bands (ev):

    -3.9595  -3.9595  -2.0080  -2.0080   1.1774   1.1774   3.0563   3.0563
     8.2253   8.2254   9.6537   9.6537   9.8776   9.8776  10.8016  10.8016

          k = 0.2500-0.5000-0.5000 (  4336 PWs)   bands (ev):

    -3.0517  -3.0517  -3.0517  -3.0517   1.9405   1.9405   1.9405   1.9406
     8.9826   8.9826   8.9826   8.9826  10.6690  10.6690  10.6690  10.6690

          k = 0.3750 0.3750 0.3750 (  4377 PWs)   bands (ev):

    -4.2360  -2.2651  -2.2651  -2.2651   0.9173   0.9173   0.9173   2.8287
     9.4217   9.4217   9.4217  10.0434  10.0434  10.0434  11.0555  11.0555

          k = 0.3750 0.3750-0.5000 (  4370 PWs)   bands (ev):

    -3.3202  -3.3202  -1.9409  -1.9409   0.3450   0.3450   1.6908   1.6908
     9.6022   9.6022  10.2746  10.2746  10.5469  10.5469  10.6657  10.6657

          k = 0.3750-0.5000-0.5000 (  4328 PWs)   bands (ev):

    -2.5297  -2.5297  -2.5297  -2.5297   0.6642   0.6642   0.6642   0.6642
    10.2771  10.2771  10.2771  10.2771  10.7466  10.7466  10.7466  10.7466

          k =-0.5000-0.5000-0.5000 (  4272 PWs)   bands (ev):

    -2.1977  -2.1977  -2.1977  -2.1977   0.0770   0.0770   0.0770   0.0770
    10.7795  10.7795  10.7795  10.7795  10.7795  10.7795  10.7795  10.7795

     highest occupied level (ev):    13.6211

!    total energy              =    -147.47076185 Ry
     total all-electron energy =      -609.583544 Ry
     estimated scf accuracy    <          3.0E-11 Ry

     The total energy is the sum of the following terms:
     one-electron contribution =      34.54725669 Ry
     hartree contribution      =       7.70088888 Ry
     xc contribution           =     -37.60762481 Ry
     ewald contribution        =    -102.80532404 Ry
     one-center paw contrib.   =     -49.30595856 Ry

     convergence has been achieved in  13 iterations

     Forces acting on atoms (cartesian axes, Ry/au):

     atom    1 type  1   force =     0.00000000    0.00000000    0.00000000
     atom    2 type  1   force =     0.00000002    0.00000002    0.00000002
     atom    3 type  1   force =     0.00000000    0.00000000    0.00000000
     atom    4 type  1   force =    -0.00000002   -0.00000002    0.00000002
     atom    5 type  1   force =     0.00000000    0.00000000    0.00000000
     atom    6 type  1   force =    -0.00000002    0.00000002   -0.00000002
     atom    7 type  1   force =     0.00000000    0.00000000    0.00000000
     atom    8 type  1   force =     0.00000002   -0.00000002   -0.00000002

     Total force =     0.000000     Total SCF correction =     0.000007
     SCF correction compared to forces is large: reduce conv_thr to get better values


     Computing stress (Cartesian axis) and pressure

          total   stress  (Ry/bohr**3)                   (kbar)     P=       90.26
   0.00061356   0.00000000   0.00000000           90.26        0.00        0.00
   0.00000000   0.00061356   0.00000000            0.00       90.26        0.00
   0.00000000   0.00000000   0.00061356            0.00        0.00       90.26


     Writing all to output data dir /tmp/qe/diamond.save/ :
     XML data file, charge density, pseudopotentials, collected wavefunctions

     init_run     :      0.68s CPU      0.72s WALL (       1 calls)
     electrons    :     12.00s CPU     12.18s WALL (       1 calls)
     forces       :      0.12s CPU      0.12s WALL (       1 calls)
     stress       :      1.15s CPU      1.15s WALL (       1 calls)

     Called by init_run:
     wfcinit      :      0.48s CPU      0.49s WALL (       1 calls)
     potinit      :      0.09s CPU      0.10s WALL (       1 calls)
     hinit0       :      0.07s CPU      0.07s WALL (       1 calls)

     Called by electrons:
     c_bands      :      8.92s CPU      9.05s WALL (      13 calls)
     sum_band     :      1.80s CPU      1.83s WALL (      13 calls)
     v_of_rho     :      0.32s CPU      0.34s WALL (      14 calls)
     newd         :      0.21s CPU      0.21s WALL (      14 calls)
     PAW_pot      :      0.80s CPU      0.81s WALL (      14 calls)
     mix_rho      :      0.03s CPU      0.03s WALL (      13 calls)

     Called by c_bands:
     init_us_2    :      0.27s CPU      0.28s WALL (    1015 calls)
     cegterg      :      8.43s CPU      8.55s WALL (     455 calls)

     Called by *egterg:
     cdiaghg      :      0.32s CPU      0.32s WALL (    1594 calls)
     h_psi        :      7.65s CPU      7.76s WALL (    1629 calls)
     s_psi        :      0.21s CPU      0.21s WALL (    1629 calls)
     g_psi        :      0.05s CPU      0.05s WALL (    1139 calls)

     Called by h_psi:
     h_psi:calbec :      0.27s CPU      0.28s WALL (    1629 calls)
     vloc_psi     :      7.14s CPU      7.24s WALL (    1629 calls)
     add_vuspsi   :      0.21s CPU      0.21s WALL (    1629 calls)

     General routines
     calbec       :      0.40s CPU      0.41s WALL (    2259 calls)
     fft          :      0.10s CPU      0.11s WALL (     205 calls)
     ffts         :      0.01s CPU      0.01s WALL (      27 calls)
     fftw         :      6.69s CPU      6.78s WALL (   52110 calls)
     interpolate  :      0.01s CPU      0.01s WALL (      14 calls)

     Parallel routines

     PWSCF        :     14.05s CPU     14.29s WALL


   This run was terminated on:  13:14:33   1Aug2026            

=------------------------------------------------------------------------------=
   JOB DONE.
=------------------------------------------------------------------------------=
Note: The following floating-point exceptions are signalling: IEEE_UNDERFLOW_FLAG IEEE_DENORMAL
Note: The following floating-point exceptions are signalling: IEEE_UNDERFLOW_FLAG IEEE_DENORMAL
Note: The following floating-point exceptions are signalling: IEEE_UNDERFLOW_FLAG IEEE_DENORMAL
Note: The following floating-point exceptions are signalling: IEEE_UNDERFLOW_FLAG IEEE_DENORMAL
