
     Program PWSCF v.7.3.1 starts on  1Aug2026 at 13: 7:12 

     This program is part of the open-source Quantum ESPRESSO suite
     for quantum simulation of materials; please cite
         "P. Giannozzi et al., J. Phys.:Condens. Matter 21 395502 (2009);
         "P. Giannozzi et al., J. Phys.:Condens. Matter 29 465901 (2017);
         "P. Giannozzi et al., J. Chem. Phys. 152 154105 (2020);
          URL http://www.quantum-espresso.org", 
     in publications or presentations arising from this work. More details at
     http://www.quantum-espresso.org/quote

     Parallel version (MPI), running on     8 processors

     MPI processes distributed on     1 nodes
     187939 MiB available memory on the printing compute node when the environment starts

     Reading input from pw.in

     Current dimensions of program PWSCF are:
     Max number of different atomic species (ntypx) = 10
     Max number of k-points (npk) =  40000
     Max angular momentum in pseudopotentials (lmaxx) =  4
     file C.pbe-n-kjpaw_psl.1.0.0.UPF: wavefunction(s)  2S 2P renormalized
     Message from routine volume:
     axis vectors are left-handed
     Message from routine setup:
     using ibrav=0 with symmetry is DISCOURAGED, use correct ibrav instead

     R & G space division:  proc/nbgrp/npool/nimage =       8
     Subspace diagonalization in iterative solution of the eigenvalue problem:
     a serial algorithm will be used


     Parallelization info
     --------------------
     sticks:   dense  smooth     PW     G-vecs:    dense   smooth      PW
     Min         326     163     46                57248    20243    3082
     Max         327     164     47                57265    20252    3095
     Sum        2609    1305    373               458027   161993   24711

     Using Slab Decomposition



     bravais-lattice index     =            0
     lattice parameter (alat)  =       4.7752  a.u.
     unit-cell volume          =    1403.7489 (a.u.)^3
     number of atoms/cell      =           20
     number of atomic types    =            2
     number of electrons       =        68.00
     number of Kohn-Sham states=           41
     kinetic-energy cutoff     =      90.0000  Ry
     charge density cutoff     =     720.0000  Ry
     scf convergence threshold =      1.0E-08
     mixing beta               =       0.3000
     number of iterations used =            8  plain     mixing
     energy convergence thresh.=      1.0E-05
     force convergence thresh. =      1.0E-04
     Exchange-correlation= PBE
                           (   1   4   3   4   0   0   0)
     nstep                     =           50


     celldm(1)=   4.775235  celldm(2)=   0.000000  celldm(3)=   0.000000
     celldm(4)=   0.000000  celldm(5)=   0.000000  celldm(6)=   0.000000

     crystal axes: (cart. coord. in units of alat)
               a(1) = (   1.000000   0.000000   0.000000 )  
               a(2) = (   0.000000  -2.000000   0.000000 )  
               a(3) = (   0.000000   0.000000   6.445774 )  

     reciprocal axes: (cart. coord. in units 2 pi/alat)
               b(1) = (  1.000000 -0.000000 -0.000000 )  
               b(2) = ( -0.000000 -0.500000 -0.000000 )  
               b(3) = ( -0.000000 -0.000000  0.155140 )  


     PseudoPot. # 1 for C  read from file:
     ./C.pbe-n-kjpaw_psl.1.0.0.UPF
     MD5 check sum: 5d2aebdfa2cae82b50a7e79e9516da0f
     Pseudo is Projector augmented-wave + core cor, Zval =  4.0
     Generated using "atomic" code by A. Dal Corso  v.5.1
     Shape of augmentation charge: PSQ
     Using radial grid of 1073 points,  4 beta functions with: 
                l(1) =   0
                l(2) =   0
                l(3) =   1
                l(4) =   1
     Q(r) pseudized with 0 coefficients 


     PseudoPot. # 2 for H  read from file:
     ./H_ONCV_PBE-1.0.oncvpsp.upf
     MD5 check sum: 1790becc920ee074925cf490c71280fe
     Pseudo is Norm-conserving, Zval =  1.0
     Generated using ONCVPSP code by D. R. Hamann
     Using radial grid of 1166 points,  2 beta functions with: 
                l(1) =   0
                l(2) =   0

     atomic species   valence    mass     pseudopotential
     C                 4.00    12.01100     C ( 1.00)
     H                 1.00     1.00800     H ( 1.00)

      4 Sym. Ops., with inversion, found ( 2 have fractional translation)



   Cartesian axes

     site n.     atom                  positions (alat units)
         1        C      tau(   1) = (   0.0000000  -0.3165877   4.4603237  )
         2        C      tau(   2) = (   0.5000000  -0.5000000   4.1067703  )
         3        C      tau(   3) = (   0.5000000   0.0000000   3.7532169  )
         4        C      tau(   4) = (   0.0000000   0.0000000   3.3996635  )
         5        C      tau(   5) = (   0.0000000  -0.5000000   3.0461101  )
         6        C      tau(   6) = (   0.5000000  -0.5000000   2.6925568  )
         7        C      tau(   7) = (   0.5000000   0.0000000   2.3390034  )
         8        C      tau(   8) = (   0.0000000   0.1834123   1.9854500  )
         9        C      tau(   9) = (   0.0000000  -1.6834123   4.4603237  )
        10        C      tau(  10) = (   0.5000000  -1.5000000   4.1067703  )
        11        C      tau(  11) = (   0.5000000  -1.0000000   3.7532169  )
        12        C      tau(  12) = (   0.0000000  -1.0000000   3.3996635  )
        13        C      tau(  13) = (   0.0000000  -1.5000000   3.0461101  )
        14        C      tau(  14) = (   0.5000000  -1.5000000   2.6925568  )
        15        C      tau(  15) = (   0.5000000  -1.0000000   2.3390034  )
        16        C      tau(  16) = (   0.0000000  -1.1834123   1.9854500  )
        17        H      tau(  17) = (   0.0000000  -0.4716621   4.8628351  )
        18        H      tau(  18) = (   0.0000000  -1.5283379   4.8628351  )
        19        H      tau(  19) = (   0.0000000   0.0283379   1.5829386  )
        20        H      tau(  20) = (   0.0000000  -1.0283379   1.5829386  )

     number of k points=    15  Marzari-Vanderbilt smearing, width (Ry)=  0.0100
                       cart. coord. in units 2pi/alat
        k(    1) = (   0.0000000  -0.0000000   0.0000000), wk =   0.0444444
        k(    2) = (   0.0000000  -0.1000000   0.0000000), wk =   0.0888889
        k(    3) = (   0.0000000  -0.2000000   0.0000000), wk =   0.0888889
        k(    4) = (   0.1111111  -0.0000000   0.0000000), wk =   0.0888889
        k(    5) = (   0.1111111  -0.1000000   0.0000000), wk =   0.1777778
        k(    6) = (   0.1111111  -0.2000000   0.0000000), wk =   0.1777778
        k(    7) = (   0.2222222  -0.0000000   0.0000000), wk =   0.0888889
        k(    8) = (   0.2222222  -0.1000000   0.0000000), wk =   0.1777778
        k(    9) = (   0.2222222  -0.2000000   0.0000000), wk =   0.1777778
        k(   10) = (   0.3333333  -0.0000000   0.0000000), wk =   0.0888889
        k(   11) = (   0.3333333  -0.1000000   0.0000000), wk =   0.1777778
        k(   12) = (   0.3333333  -0.2000000   0.0000000), wk =   0.1777778
        k(   13) = (   0.4444444  -0.0000000   0.0000000), wk =   0.0888889
        k(   14) = (   0.4444444  -0.1000000   0.0000000), wk =   0.1777778
        k(   15) = (   0.4444444  -0.2000000   0.0000000), wk =   0.1777778

     Dense  grid:   458027 G-vectors     FFT dimensions: (  45,  96, 270)

     Smooth grid:   161993 G-vectors     FFT dimensions: (  30,  60, 192)

     Estimated max dynamical RAM per process >     145.36 MB

     Estimated total dynamical RAM >       1.14 GB

     Initial potential from superposition of free atoms

     starting charge      67.9993, renormalised to      68.0000
     Starting wfcs are   68 randomized atomic wfcs
     Checking if some PAW data can be deallocated... 

     total cpu time spent up to now is        1.8 secs

     Self-consistent Calculation

     iteration #  1     ecut=    90.00 Ry     beta= 0.30
     Davidson diagonalization with overlap
     ethr =  1.00E-02,  avg # of iterations =  2.5

     negative rho (up, down):  3.093E-08 0.000E+00

     total cpu time spent up to now is        4.5 secs

     total energy              =    -299.57469497 Ry
     estimated scf accuracy    <       1.35969848 Ry

     iteration #  2     ecut=    90.00 Ry     beta= 0.30
     Davidson diagonalization with overlap
     ethr =  2.00E-03,  avg # of iterations =  4.7

     negative rho (up, down):  9.280E-07 0.000E+00

     total cpu time spent up to now is        6.9 secs

     total energy              =    -299.46987520 Ry
     estimated scf accuracy    <       0.43366238 Ry

     iteration #  3     ecut=    90.00 Ry     beta= 0.30
     Davidson diagonalization with overlap
     ethr =  6.38E-04,  avg # of iterations =  4.6

     negative rho (up, down):  1.033E-06 0.000E+00

     total cpu time spent up to now is        9.2 secs

     total energy              =    -299.48462567 Ry
     estimated scf accuracy    <       0.05941965 Ry

     iteration #  4     ecut=    90.00 Ry     beta= 0.30
     Davidson diagonalization with overlap
     ethr =  8.74E-05,  avg # of iterations =  7.0

     negative rho (up, down):  1.326E-06 0.000E+00

     total cpu time spent up to now is       11.9 secs

     total energy              =    -299.48812458 Ry
     estimated scf accuracy    <       0.00623391 Ry

     iteration #  5     ecut=    90.00 Ry     beta= 0.30
     Davidson diagonalization with overlap
     ethr =  9.17E-06,  avg # of iterations =  4.9

     negative rho (up, down):  1.608E-06 0.000E+00

     total cpu time spent up to now is       14.7 secs

     total energy              =    -299.48908686 Ry
     estimated scf accuracy    <       0.00079375 Ry

     iteration #  6     ecut=    90.00 Ry     beta= 0.30
     Davidson diagonalization with overlap
     ethr =  1.17E-06,  avg # of iterations =  5.7

     negative rho (up, down):  1.466E-06 0.000E+00

     total cpu time spent up to now is       17.5 secs

     total energy              =    -299.48918969 Ry
     estimated scf accuracy    <       0.00026994 Ry

     iteration #  7     ecut=    90.00 Ry     beta= 0.30
     Davidson diagonalization with overlap
     ethr =  3.97E-07,  avg # of iterations =  2.1

     negative rho (up, down):  1.553E-06 0.000E+00

     total cpu time spent up to now is       19.8 secs

     total energy              =    -299.48925113 Ry
     estimated scf accuracy    <       0.00004622 Ry

     iteration #  8     ecut=    90.00 Ry     beta= 0.30
     Davidson diagonalization with overlap
     ethr =  6.80E-08,  avg # of iterations =  2.0

     negative rho (up, down):  1.528E-06 0.000E+00

     total cpu time spent up to now is       22.0 secs

     total energy              =    -299.48925997 Ry
     estimated scf accuracy    <       0.00000367 Ry

     iteration #  9     ecut=    90.00 Ry     beta= 0.30
     Davidson diagonalization with overlap
     ethr =  5.39E-09,  avg # of iterations =  2.9

     negative rho (up, down):  1.512E-06 0.000E+00

     total cpu time spent up to now is       24.3 secs

     total energy              =    -299.48926036 Ry
     estimated scf accuracy    <       0.00000098 Ry

     iteration # 10     ecut=    90.00 Ry     beta= 0.30
     Davidson diagonalization with overlap
     ethr =  1.44E-09,  avg # of iterations =  2.9

     negative rho (up, down):  1.522E-06 0.000E+00

     total cpu time spent up to now is       26.9 secs

     total energy              =    -299.48926054 Ry
     estimated scf accuracy    <       0.00000049 Ry

     iteration # 11     ecut=    90.00 Ry     beta= 0.30
     Davidson diagonalization with overlap
     ethr =  7.25E-10,  avg # of iterations =  2.0

     negative rho (up, down):  1.526E-06 0.000E+00

     total cpu time spent up to now is       29.0 secs

     total energy              =    -299.48926060 Ry
     estimated scf accuracy    <       0.00000003 Ry

     iteration # 12     ecut=    90.00 Ry     beta= 0.30
     Davidson diagonalization with overlap
     ethr =  4.48E-11,  avg # of iterations =  4.4

     negative rho (up, down):  1.530E-06 0.000E+00

     total cpu time spent up to now is       31.9 secs

     total energy              =    -299.48926061 Ry
     estimated scf accuracy    <       0.00000002 Ry

     iteration # 13     ecut=    90.00 Ry     beta= 0.30
     Davidson diagonalization with overlap
     ethr =  3.64E-11,  avg # of iterations =  3.0

     negative rho (up, down):  1.545E-06 0.000E+00

     total cpu time spent up to now is       34.2 secs

     End of self-consistent calculation

          k = 0.0000-0.0000 0.0000 ( 20251 PWs)   bands (ev):

   -16.7658 -15.4201 -13.6140 -12.4729 -12.1498 -11.1249 -10.8035 -10.5732
    -8.5347  -7.6852  -7.5173  -5.5139  -5.4199  -5.3269  -2.7438  -2.7357
    -2.3116  -1.5864  -1.5850  -0.5883  -0.1917  -0.1037   0.2237   0.7415
     1.0304   1.1033   1.1893   1.3893   1.9448   2.7174   3.0625   3.1724
     3.1739   3.4744   6.5562   7.1006   8.5744   8.7332   9.3291   9.4791
     9.8426

          k = 0.0000-0.1000 0.0000 ( 20237 PWs)   bands (ev):

   -16.5882 -15.2825 -14.0274 -13.2893 -12.1966 -10.8226 -10.5166 -10.2628
    -8.2965  -7.4873  -7.2148  -5.6382  -5.2623  -5.0607  -2.8858  -2.5593
    -2.4026  -2.2388  -1.4390  -0.9240  -0.4763   0.0101   0.1051   0.4349
     0.4508   1.2335   1.3036   1.3982   2.0496   2.2940   2.8793   3.1030
     3.2536   3.6152   6.7787   7.3100   8.8861   9.2909   9.4899   9.5916
     9.8226

          k = 0.0000-0.2000 0.0000 ( 20225 PWs)   bands (ev):

   -16.0659 -15.2603 -14.7566 -13.7338 -12.5092 -11.2850 -10.0723  -9.4991
    -7.6494  -6.9236  -6.7190  -5.7025  -5.1374  -4.2759  -3.7549  -3.5213
    -2.8521  -2.0028  -1.4315  -1.0149  -0.7687  -0.3566  -0.1448   0.2752
     0.3346   0.9605   1.1947   1.5637   1.8392   2.1866   2.5736   2.9782
     3.4702   3.7521   7.3975   7.8370   8.3717   8.6646   9.3461   9.5883
     9.6923

          k = 0.1111-0.0000 0.0000 ( 20245 PWs)   bands (ev):

   -16.5396 -15.1962 -13.3956 -12.2612 -11.9392 -10.9164 -10.5966 -10.3712
    -8.4152  -7.4987  -7.3500  -5.4052  -5.2793  -5.2160  -3.0898  -2.6656
    -2.6569  -1.8911  -1.4997  -1.4295  -0.6289  -0.3836   0.0969   0.2828
     0.3855   0.6724   0.8756   0.9267   1.3457   2.1853   2.2495   2.4634
     2.7382   3.0041   6.7763   7.3238   9.2031   9.2643   9.5076   9.8354
     9.9876

          k = 0.1111-0.1000 0.0000 ( 20228 PWs)   bands (ev):

   -16.3623 -15.0586 -13.8078 -13.0736 -11.9892 -10.6224 -10.3076 -10.0607
    -8.1769  -7.3215  -7.0343  -5.5358  -5.1356  -4.9339  -2.9938  -2.7405
    -2.4892  -2.1405  -1.9620  -1.3789  -0.8828  -0.5847  -0.5456   0.1714
     0.2356   0.5185   0.8485   1.1020   1.5307   1.9071   2.2611   2.4603
     2.7028   2.9456   6.9934   7.5300   9.1698   9.6599   9.7100   9.9270
    10.2123

          k = 0.1111-0.2000 0.0000 ( 20228 PWs)   bands (ev):

   -15.8408 -15.0362 -14.5350 -13.5175 -12.2992 -11.0842  -9.8769  -9.2965
    -7.5414  -6.7942  -6.5578  -5.5516  -4.9929  -4.1277  -3.6103  -3.4169
    -2.7999  -2.3779  -1.9577  -1.5287  -1.0818  -1.0620  -0.7037  -0.2357
     0.0204   0.2946   0.7996   0.9936   1.7362   1.8310   2.2773   2.5052
     2.7321   2.7861   7.6051   8.0478   8.5650   8.8234   9.2635   9.6877
    10.2542

          k = 0.2222-0.0000 0.0000 ( 20222 PWs)   bands (ev):

   -15.8648 -14.5300 -12.7493 -11.6316 -11.3157 -10.3055  -9.9848  -9.7786
    -8.2760  -6.9851  -6.9194  -5.5081  -4.9704  -4.9672  -4.9636  -3.4685
    -2.9486  -2.5660  -2.4754  -1.8098  -1.7047  -0.9578  -0.8026  -0.6875
    -0.3212  -0.0735  -0.0038   0.1578   0.5295   0.6093   1.1905   1.4834
     2.0896   2.6519   7.4230   7.8438   9.4232   9.4425   9.9663  10.2038
    10.5384

          k = 0.2222-0.1000 0.0000 ( 20228 PWs)   bands (ev):

   -15.6885 -14.3923 -13.1540 -12.4351 -11.3800 -10.0442  -9.6849  -9.4698
    -8.0419  -6.9138  -6.5452  -5.5149  -5.0898  -4.7495  -4.5842  -3.4024
    -2.9863  -2.7668  -2.5544  -1.8954  -1.6916  -1.6259  -1.0696  -0.6823
    -0.4229  -0.1628   0.0186   0.2947   0.3750   0.6598   0.9713   1.4660
     2.1873   2.2604   7.6065   8.0374   9.2419   9.5463   9.7778  10.2354
    10.5926

          k = 0.2222-0.2000 0.0000 ( 20215 PWs)   bands (ev):

   -15.1694 -14.3681 -13.8758 -12.8759 -11.6827 -10.5053  -9.3196  -8.7009
    -7.4485  -6.6340  -6.1536  -5.2789  -4.7063  -4.3126  -3.8579  -3.6226
    -3.4636  -3.2259  -2.8802  -2.6993  -1.9265  -1.9010  -1.4005  -1.0019
    -0.5297  -0.3138  -0.0310   0.3661   0.5121   0.6702   1.0674   1.6012
     1.6798   2.1707   8.0526   8.5397   8.7036   9.0624   9.1635   9.7636
    10.1517

          k = 0.3333-0.0000 0.0000 ( 20254 PWs)   bands (ev):

   -14.7551 -13.4464 -11.7326 -10.6109 -10.3394  -9.4121  -9.2361  -8.9083
    -8.8766  -7.0456  -6.5847  -6.4745  -6.0883  -5.1257  -5.1130  -4.3670
    -3.9869  -3.5742  -3.5219  -2.7223  -2.5524  -2.0436  -1.1340  -1.0707
    -0.9867  -0.8165  -0.6769  -0.4808  -0.2474   0.1740   0.9215   1.0454
     1.3011   2.3534   8.4272   8.4533   9.3391   9.3529  10.0968  10.1374
    10.9962

          k = 0.3333-0.1000 0.0000 ( 20257 PWs)   bands (ev):

   -14.5806 -13.3076 -12.0879 -11.4256 -10.4563  -9.3222  -8.9323  -8.6602
    -8.5279  -7.0603  -6.7657  -6.1970  -5.7741  -5.2457  -4.6542  -4.1617
    -4.0514  -3.7625  -3.6909  -2.8034  -2.3344  -1.5210  -1.4457  -1.1437
    -1.0277  -0.8291  -0.7227  -0.4910  -0.3264  -0.0247   0.3936   1.0522
     1.2975   1.6994   8.4029   8.5574   9.1652   9.3360  10.0971  10.3582
    10.6591

          k = 0.3333-0.2000 0.0000 ( 20240 PWs)   bands (ev):

   -14.0659 -13.2707 -12.8017 -11.8425 -10.7416  -9.7360  -8.7514  -8.4506
    -7.6247  -7.3160  -6.5651  -6.0440  -5.2525  -4.6302  -4.4779  -4.2940
    -3.8924  -3.6396  -3.0502  -2.8206  -2.7194  -2.1803  -2.0350  -1.5572
    -0.9688  -0.6259  -0.6016  -0.5561  -0.3147  -0.0041   0.1315   0.7028
     1.0140   1.1527   8.1306   8.5286   9.1026   9.5823   9.8527  10.2826
    10.5753

          k = 0.4444-0.0000 0.0000 ( 20318 PWs)   bands (ev):

   -13.2491 -12.0740 -11.5332 -10.0511  -9.9370  -9.0690  -8.9236  -7.9367
    -7.8443  -7.6962  -7.5478  -7.1963  -7.0541  -5.8465  -5.8319  -5.1424
    -4.3426  -3.8638  -3.7834  -3.0775  -2.9529  -2.1631  -1.8880  -1.8009
    -1.3854  -0.9889  -0.9781  -0.7370  -0.6286   0.4260   0.5020   0.9069
     1.5046   1.7527   8.6424   8.7727   9.8569   9.8572  10.0720  10.0869
    11.1357

          k = 0.4444-0.1000 0.0000 ( 20269 PWs)   bands (ev):

   -13.0773 -11.9275 -11.3719 -10.5905  -9.9841  -9.6777  -9.1252  -8.9065
    -7.4445  -7.3320  -7.2197  -6.8382  -6.5403  -5.6316  -5.5650  -5.1370
    -4.2992  -4.0762  -3.8256  -2.8393  -2.7556  -1.9789  -1.7697  -1.6862
    -1.2636  -1.0673  -0.8751  -0.6316  -0.5319   0.0807   0.2330   0.5603
     0.8906   1.0526   8.3118   8.8333   9.8413  10.0935  10.1438  10.6641
    10.8355

          k = 0.4444-0.2000 0.0000 ( 20233 PWs)   bands (ev):

   -12.5694 -11.7899 -11.4209 -10.8684 -10.5112 -10.0216  -9.5500  -9.4534
    -7.4816  -7.3299  -6.6640  -6.5863  -6.2562  -5.7693  -4.7487  -4.6176
    -3.9033  -3.5512  -3.4084  -2.8128  -2.6470  -1.9998  -1.8841  -1.5905
    -1.2170  -0.9744  -0.7475  -0.7361  -0.5871  -0.4028  -0.3063  -0.2273
     0.1328   0.4437   8.2928   8.4821   9.8370  10.1184  10.3686  10.5980
    10.9890

     the Fermi energy is     4.8406 ev

!    total energy              =    -299.48926061 Ry
     estimated scf accuracy    <          1.5E-09 Ry
     smearing contrib. (-TS)   =       0.00000000 Ry
     internal energy E=F+TS    =    -299.48926061 Ry

     The total energy is F=E-TS. E is the sum of the following terms:
     one-electron contribution =   -1728.30250982 Ry
     hartree contribution      =     893.70547340 Ry
     xc contribution           =     -77.25581596 Ry
     ewald contribution        =     710.96937794 Ry
     one-center paw contrib.   =     -98.60578618 Ry

     convergence has been achieved in  13 iterations

     negative rho (up, down):  1.545E-06 0.000E+00

     Forces acting on atoms (cartesian axes, Ry/au):

     atom    1 type  1   force =     0.00000000   -0.05651368   -0.08434887
     atom    2 type  1   force =     0.00000000    0.15824651    0.08169486
     atom    3 type  1   force =     0.00000000   -0.00398512   -0.08695361
     atom    4 type  1   force =     0.00000000    0.00367756   -0.00959667
     atom    5 type  1   force =     0.00000000    0.00369294   -0.00549216
     atom    6 type  1   force =     0.00000000   -0.00357924   -0.08466372
     atom    7 type  1   force =     0.00000000    0.15806463   -0.07906369
     atom    8 type  1   force =     0.00000000   -0.05642536    0.08457508
     atom    9 type  1   force =     0.00000000    0.05642536   -0.08457508
     atom   10 type  1   force =     0.00000000   -0.15806463    0.07906369
     atom   11 type  1   force =     0.00000000    0.00357924    0.08466372
     atom   12 type  1   force =     0.00000000   -0.00369294    0.00549216
     atom   13 type  1   force =     0.00000000   -0.00367756    0.00959667
     atom   14 type  1   force =     0.00000000    0.00398512    0.08695361
     atom   15 type  1   force =     0.00000000   -0.15824651   -0.08169486
     atom   16 type  1   force =     0.00000000    0.05651368    0.08434887
     atom   17 type  2   force =     0.00000000   -0.01105369    0.00654587
     atom   18 type  2   force =     0.00000000    0.01122693    0.00639909
     atom   19 type  2   force =     0.00000000   -0.01122693   -0.00639909
     atom   20 type  2   force =     0.00000000    0.01105369   -0.00654587

     Total force =     0.444603     Total SCF correction =     0.000086

     BFGS Geometry Optimization
     Energy error            =      0.0E+00 Ry
     Gradient error          =      1.6E-01 Ry/Bohr

     number of scf cycles    =   1
     number of bfgs steps    =   0

     energy             new  =    -299.4892606146 Ry

     new trust radius        =       0.1780898908 bohr
     new conv_thr            =       0.0000000100 Ry


ATOMIC_POSITIONS (angstrom)
C                0.0000000000       -0.8299057500       11.2263606698
C                1.2634728900       -1.1797324417       10.4208169790
C                1.2634728900       -0.0021088332        9.4381617989
C                0.0000000000        0.0019460791        8.5856870811
C                0.0000000000       -1.2615186688        7.6944488436
C                1.2634728900       -1.2653669422        6.7591428064
C                1.2634728900        0.0836441989        5.8686959684
C                0.0000000000        0.4336138737        5.0618796243
C                0.0000000000       -4.2240325537       11.2262409657
C                1.2634728900       -3.8740628789       10.4194246216
C                1.2634728900       -2.5250517278        9.5289777836
C                0.0000000000       -2.5289000012        8.5936717464
C                0.0000000000       -3.7923647591        7.7024335089
C                1.2634728900       -3.7883098468        6.8499587911
C                1.2634728900       -2.6106862283        5.8673036110
C                0.0000000000       -2.9605129300        5.0617599202
H                0.0000000000       -1.1977140322       12.2915845073
H                0.0000000000       -3.8560858651       12.2915068334
H                0.0000000000        0.0656671851        3.9966137466
H                0.0000000000       -2.5927046378        3.9965360727



     Writing config-only to output data dir /tmp/qe/slab.save/ :
     XML data file
     NEW-OLD atomic charge density approx. for the potential

     negative rho (up, down):  1.063E-06 0.000E+00

     total cpu time spent up to now is       35.1 secs

     Self-consistent Calculation

     iteration #  1     ecut=    90.00 Ry     beta= 0.30
     Davidson diagonalization with overlap
     c_bands:  2 eigenvalues not converged
     c_bands:  1 eigenvalues not converged
     c_bands:  1 eigenvalues not converged
     c_bands:  1 eigenvalues not converged
     c_bands:  1 eigenvalues not converged
     c_bands:  1 eigenvalues not converged
     c_bands:  1 eigenvalues not converged
     ethr =  1.00E-06,  avg # of iterations = 18.8

     negative rho (up, down):  1.408E-06 0.000E+00

     total cpu time spent up to now is       42.9 secs

     total energy              =    -299.58214758 Ry
     estimated scf accuracy    <       0.01561827 Ry

     iteration #  2     ecut=    90.00 Ry     beta= 0.30
     Davidson diagonalization with overlap
     ethr =  2.30E-05,  avg # of iterations =  1.5

     negative rho (up, down):  1.883E-06 0.000E+00

     total cpu time spent up to now is       44.8 secs

     total energy              =    -299.58214953 Ry
     estimated scf accuracy    <       0.00461206 Ry

     iteration #  3     ecut=    90.00 Ry     beta= 0.30
     Davidson diagonalization with overlap
     ethr =  6.78E-06,  avg # of iterations =  2.3

     negative rho (up, down):  3.061E-06 0.000E+00

     total cpu time spent up to now is       46.9 secs

     total energy              =    -299.58248060 Ry
     estimated scf accuracy    <       0.00081099 Ry

     iteration #  4     ecut=    90.00 Ry     beta= 0.30
     Davidson diagonalization with overlap
     ethr =  1.19E-06,  avg # of iterations =  5.3

     negative rho (up, down):  3.028E-06 0.000E+00

     total cpu time spent up to now is       49.3 secs

     total energy              =    -299.58255157 Ry
     estimated scf accuracy    <       0.00003868 Ry

     iteration #  5     ecut=    90.00 Ry     beta= 0.30
     Davidson diagonalization with overlap
     ethr =  5.69E-08,  avg # of iterations =  3.2

     negative rho (up, down):  2.812E-06 0.000E+00

     total cpu time spent up to now is       51.9 secs

     total energy              =    -299.58255976 Ry
     estimated scf accuracy    <       0.00000778 Ry

     iteration #  6     ecut=    90.00 Ry     beta= 0.30
     Davidson diagonalization with overlap
     ethr =  1.14E-08,  avg # of iterations =  2.5

     negative rho (up, down):  2.720E-06 0.000E+00

     total cpu time spent up to now is       54.2 secs

     total energy              =    -299.58256110 Ry
     estimated scf accuracy    <       0.00000124 Ry

     iteration #  7     ecut=    90.00 Ry     beta= 0.30
     Davidson diagonalization with overlap
     ethr =  1.82E-09,  avg # of iterations =  2.0

     negative rho (up, down):  2.673E-06 0.000E+00

     total cpu time spent up to now is       56.4 secs

     total energy              =    -299.58256126 Ry
     estimated scf accuracy    <       0.00000017 Ry

     iteration #  8     ecut=    90.00 Ry     beta= 0.30
     Davidson diagonalization with overlap
     ethr =  2.46E-10,  avg # of iterations =  3.5

     negative rho (up, down):  2.669E-06 0.000E+00

     total cpu time spent up to now is       59.0 secs

     total energy              =    -299.58256130 Ry
     estimated scf accuracy    <       0.00000004 Ry

     iteration #  9     ecut=    90.00 Ry     beta= 0.30
     Davidson diagonalization with overlap
     ethr =  5.18E-11,  avg # of iterations =  2.3

     negative rho (up, down):  2.738E-06 0.000E+00

     total cpu time spent up to now is       61.2 secs

     End of self-consistent calculation

          k = 0.0000-0.0000 0.0000 ( 20251 PWs)   bands (ev):

   -16.8360 -15.7346 -13.8710 -12.2077 -12.1481 -11.1836 -11.0569 -10.8668
    -8.0669  -7.6771  -7.6465  -5.3416  -5.3037  -5.1327  -2.6915  -2.6751
    -2.1753  -1.8052  -1.3617  -0.8164  -0.1006   0.0917   0.6063   0.7386
     0.8615   1.3761   1.3786   1.4395   1.5469   1.9013   1.9016   2.7469
     2.9975   3.0037   6.5413   7.0472   8.6138   8.6220   9.0930   9.2603
     9.4754

          k = 0.0000-0.1000 0.0000 ( 20237 PWs)   bands (ev):

   -16.6758 -15.6382 -14.0108 -13.4026 -12.1487 -11.0414 -10.6172 -10.4475
    -7.9143  -7.5059  -7.1600  -5.4340  -5.1971  -4.8994  -2.7812  -2.5443
    -2.3242  -2.0064  -1.6845  -0.7633  -0.5533   0.0677   0.3897   0.4425
     0.6041   0.8925   1.3743   1.4438   1.7077   1.9806   2.2491   2.5040
     2.6882   3.0593   6.7551   7.2476   8.7986   9.0953   9.2946   9.4976
     9.6227

          k = 0.0000-0.2000 0.0000 ( 20225 PWs)   bands (ev):

   -16.2544 -15.5537 -14.6752 -13.7368 -12.6577 -11.4789 -10.2321  -9.5748
    -7.5075  -6.7963  -6.4565  -5.5097  -5.0619  -4.3048  -3.6545  -3.2201
    -2.7878  -1.9397  -1.3920  -1.1928  -0.7508  -0.3750  -0.0369   0.0998
     0.7356   0.7920   1.3147   1.3898   1.5016   1.9439   2.0906   2.5097
     2.6675   3.1406   7.3676   7.7909   8.3266   8.5809   9.0672   9.1964
     9.4379

          k = 0.1111-0.0000 0.0000 ( 20245 PWs)   bands (ev):

   -16.6101 -15.5111 -13.6542 -11.9941 -11.9356 -10.9759 -10.8527 -10.6649
    -7.9548  -7.4875  -7.4677  -5.2166  -5.1505  -5.0354  -3.1675  -2.6192
    -2.5612  -2.0533  -2.0077  -1.1918  -0.3783  -0.1216   0.0764   0.4439
     0.5674   0.6038   0.7889   0.9262   0.9344   1.3654   1.4390   2.1613
     2.7526   2.7772   6.7510   7.2631   9.2162   9.2393   9.4772   9.6985
    10.0080

          k = 0.1111-0.1000 0.0000 ( 20228 PWs)   bands (ev):

   -16.4502 -15.4149 -13.7919 -13.1866 -11.9389 -10.8402 -10.4121 -10.2449
    -7.8018  -7.3252  -6.9821  -5.3335  -5.0189  -4.8044  -3.0655  -2.6696
    -2.4507  -2.1019  -2.0570  -1.8017  -0.5845  -0.4623  -0.2578   0.0952
     0.3870   0.4725   0.5818   1.0378   1.3238   1.3819   1.6249   1.9076
     2.6069   2.7107   6.9659   7.4640   9.0256   9.6072   9.6923   9.9447
    10.1449

          k = 0.1111-0.2000 0.0000 ( 20228 PWs)   bands (ev):

   -16.0298 -15.3305 -14.4537 -13.5197 -12.4469 -11.2763 -10.0353  -9.3752
    -7.3984  -6.6530  -6.3033  -5.3584  -4.9093  -4.1394  -3.5137  -3.1413
    -2.7848  -2.5727  -2.0568  -1.7046  -1.0899  -1.0723  -0.5022  -0.2604
     0.0796   0.2352   0.7182   0.9876   1.2485   1.5537   1.8675   1.9435
     2.4346   2.5548   7.5819   8.0029   8.5280   8.7417   9.0515   9.3374
    10.2041

          k = 0.2222-0.0000 0.0000 ( 20222 PWs)   bands (ev):

   -15.9356 -14.8452 -13.0126 -11.3580 -11.3031 -10.3615 -10.2453 -10.0719
    -7.9238  -6.9758  -6.9729  -5.5472  -4.9788  -4.8025  -4.7669  -3.7043
    -3.3669  -2.5419  -2.4995  -1.5420  -1.5286  -1.1069  -0.9680  -0.8548
    -0.8545  -0.6973   0.0338   0.1854   0.7186   0.7205   1.2035   1.3696
     1.7728   2.7321   7.3645   7.7475   9.8459  10.0250  10.0712  10.2538
    10.5202

          k = 0.2222-0.1000 0.0000 ( 20228 PWs)   bands (ev):

   -15.7768 -14.7496 -13.1421 -12.5451 -11.3173 -10.2489  -9.8028  -9.6484
    -7.7665  -6.8671  -6.5085  -5.5039  -4.8695  -4.7900  -4.5313  -3.7015
    -3.3512  -2.6818  -2.5945  -1.7461  -1.6204  -1.4012  -1.2559  -1.0133
    -0.6475  -0.5240  -0.2487   0.2703   0.3781   0.8114   1.0451   1.1333
     1.9143   2.3884   7.5573   7.9474   9.3326   9.9421  10.0519  10.1921
    10.5066

          k = 0.2222-0.2000 0.0000 ( 20215 PWs)   bands (ev):

   -15.3593 -14.6650 -13.7939 -12.8750 -11.8235 -10.6829  -9.4664  -8.7882
    -7.3642  -6.4919  -5.9413  -5.1921  -4.5783  -4.5112  -4.0527  -3.7196
    -3.3814  -3.2775  -2.7527  -2.5713  -2.3185  -1.7505  -1.3899  -1.3176
    -0.5363  -0.4074  -0.2493   0.0650   0.3056   0.6796   0.9581   1.4262
     1.7975   1.9791   8.0617   8.4885   8.7048   9.0317   9.2237   9.6324
    10.0445

          k = 0.3333-0.0000 0.0000 ( 20254 PWs)   bands (ev):

   -14.8258 -13.7563 -12.0024 -10.3186 -10.2733  -9.4288  -9.2691  -9.1853
    -9.1311  -7.5138  -6.5408  -6.2815  -5.9698  -5.1302  -5.0197  -4.7934
    -3.9958  -3.4592  -3.3835  -2.8377  -2.7768  -2.6196  -1.5517  -1.5215
    -1.1971  -0.5810  -0.5490  -0.0770   0.0839   0.1707   0.6601   0.8009
     1.5310   2.4986   8.3766   8.5018  10.1049  10.2001  10.2829  10.3507
    10.9828

          k = 0.3333-0.1000 0.0000 ( 20257 PWs)   bands (ev):

   -14.6687 -13.6610 -12.0979 -11.5124 -10.3292  -9.3873  -9.0331  -8.8036
    -8.7327  -7.4421  -6.6729  -6.1216  -5.6659  -5.1997  -4.9117  -4.2638
    -4.1052  -3.8584  -3.4688  -2.7631  -2.6874  -2.2106  -1.4403  -1.3706
    -1.1559  -0.8545  -0.5773  -0.3825  -0.0570   0.2347   0.3228   0.6915
     1.3237   1.8394   8.5070   8.6787   9.4625   9.8144  10.2327  10.5246
    10.7522

          k = 0.3333-0.2000 0.0000 ( 20240 PWs)   bands (ev):

   -14.2560 -13.5731 -12.7161 -11.8365 -10.8408  -9.8019  -8.8363  -8.6618
    -7.7345  -7.4198  -6.7934  -5.9911  -5.3281  -4.7741  -4.4041  -4.3263
    -3.9692  -3.5212  -3.0869  -2.8960  -2.7588  -2.2893  -1.9835  -1.6479
    -1.3223  -0.8295  -0.6192  -0.4473  -0.1913   0.0409   0.1527   0.6769
     0.9091   1.0979   8.5573   8.6721   9.2004   9.6259   9.7484  10.0310
    10.5766

          k = 0.4444-0.0000 0.0000 ( 20318 PWs)   bands (ev):

   -13.3181 -12.3466 -11.6346 -10.2036 -10.1504  -8.8978  -8.8847  -8.1205
    -7.9894  -7.9100  -7.6099  -7.1313  -6.9866  -6.2036  -6.1949  -5.5306
    -4.2716  -3.7483  -3.7460  -2.7353  -2.7231  -2.3794  -2.1917  -2.0689
    -1.9096  -1.0226  -1.0171  -0.5301  -0.3230   0.1487   0.3257   0.9807
     1.8214   1.9665   9.3030   9.4620   9.7566   9.8082  10.2871  10.3394
    11.3721

          k = 0.4444-0.1000 0.0000 ( 20269 PWs)   bands (ev):

   -13.1636 -12.2457 -11.4958 -10.4510 -10.1105  -9.9183  -9.0870  -8.8102
    -7.7906  -7.4311  -7.2943  -7.0589  -6.7670  -5.9188  -5.7061  -5.3875
    -4.2513  -3.8482  -3.7266  -2.6800  -2.5610  -2.0924  -1.9176  -1.8810
    -1.8278  -1.0708  -1.0113  -0.3834  -0.2884   0.0295   0.1537   0.3813
     1.1173   1.2108   8.8639   9.6736   9.9220  10.0819  10.2270  10.6762
    11.0568

          k = 0.4444-0.2000 0.0000 ( 20233 PWs)   bands (ev):

   -12.7578 -12.1234 -11.3454 -11.0296 -10.2582 -10.0417  -9.6377  -9.6011
    -7.7191  -7.5948  -7.0573  -6.8226  -6.3106  -6.0913  -5.0658  -4.6439
    -3.9270  -3.4752  -3.0575  -2.6813  -2.3194  -2.0577  -1.7858  -1.5721
    -1.3179  -1.0033  -0.9427  -0.8761  -0.7120  -0.4969  -0.1786  -0.1705
     0.2143   0.2527   8.8916   9.2374   9.8103   9.9787  10.4013  10.4419
    10.7199

     the Fermi energy is     5.0003 ev

!    total energy              =    -299.58256130 Ry
     estimated scf accuracy    <          9.2E-09 Ry
     smearing contrib. (-TS)   =      -0.00000000 Ry
     internal energy E=F+TS    =    -299.58256130 Ry

     The total energy is F=E-TS. E is the sum of the following terms:
     one-electron contribution =   -1735.19354262 Ry
     hartree contribution      =     897.04010342 Ry
     xc contribution           =     -77.34051001 Ry
     ewald contribution        =     714.51963593 Ry
     one-center paw contrib.   =     -98.60824803 Ry

     convergence has been achieved in   9 iterations

     negative rho (up, down):  2.738E-06 0.000E+00

     Forces acting on atoms (cartesian axes, Ry/au):

     atom    1 type  1   force =     0.00000000    0.00734449    0.02713937
     atom    2 type  1   force =     0.00000000   -0.01077705   -0.02183123
     atom    3 type  1   force =     0.00000000    0.00011273   -0.01080771
     atom    4 type  1   force =     0.00000000   -0.00790857   -0.03218011
     atom    5 type  1   force =     0.00000000   -0.00758994   -0.05300965
     atom    6 type  1   force =     0.00000000    0.00008407   -0.04885008
     atom    7 type  1   force =     0.00000000   -0.01002903    0.02108648
     atom    8 type  1   force =     0.00000000    0.00695925   -0.02591683
     atom    9 type  1   force =     0.00000000   -0.00695925    0.02591683
     atom   10 type  1   force =     0.00000000    0.01002903   -0.02108648
     atom   11 type  1   force =     0.00000000   -0.00008407    0.04885008
     atom   12 type  1   force =     0.00000000    0.00758994    0.05300965
     atom   13 type  1   force =     0.00000000    0.00790857    0.03218011
     atom   14 type  1   force =     0.00000000   -0.00011273    0.01080771
     atom   15 type  1   force =     0.00000000    0.01077705    0.02183123
     atom   16 type  1   force =     0.00000000   -0.00734449   -0.02713937
     atom   17 type  2   force =     0.00000000    0.00027581   -0.03215406
     atom   18 type  2   force =     0.00000000   -0.00016426   -0.03234483
     atom   19 type  2   force =     0.00000000    0.00016426    0.03234483
     atom   20 type  2   force =     0.00000000   -0.00027581    0.03215406

     Total force =     0.149650     Total SCF correction =     0.000204
     Energy error            =      9.3E-02 Ry
     Gradient error          =      5.3E-02 Ry/Bohr

     number of scf cycles    =   2
     number of bfgs steps    =   1

     energy             old  =    -299.4892606146 Ry
     energy             new  =    -299.5825613028 Ry

     CASE: energy            _new < energy            _old

     new trust radius        =       0.0537281790 bohr
     new conv_thr            =       0.0000000100 Ry


ATOMIC_POSITIONS (angstrom)
C                0.0000000000       -0.8291095427       11.2355560592
C                1.2634728900       -1.1771170790       10.4141155295
C                1.2634728900       -0.0022532287        9.4284444412
C                0.0000000000       -0.0017835272        8.5692774590
C                0.0000000000       -1.2650897962        7.6679358320
C                1.2634728900       -1.2655051317        6.7307114143
C                1.2634728900        0.0866206577        5.8751609786
C                0.0000000000        0.4342238447        5.0533006975
C                0.0000000000       -4.2246425247       11.2348198925
C                1.2634728900       -3.8770393377       10.4129596114
C                1.2634728900       -2.5249135383        9.5574091757
C                0.0000000000       -2.5253288738        8.6201847580
C                0.0000000000       -3.7886351528        7.7188431310
C                1.2634728900       -3.7881654513        6.8596761488
C                1.2634728900       -2.6133015910        5.8740050605
C                0.0000000000       -2.9613091373        5.0525645308
H                0.0000000000       -1.1981327970       12.2759986922
H                0.0000000000       -3.8556031864       12.2758192247
H                0.0000000000        0.0651845064        4.0123013553
H                0.0000000000       -2.5922858730        4.0121218878



     Writing config-only to output data dir /tmp/qe/slab.save/ :
     XML data file
     NEW-OLD atomic charge density approx. for the potential

     negative rho (up, down):  2.967E-06 0.000E+00

     total cpu time spent up to now is       62.2 secs

     Self-consistent Calculation

     iteration #  1     ecut=    90.00 Ry     beta= 0.30
     Davidson diagonalization with overlap
     ethr =  1.00E-06,  avg # of iterations = 10.8

     negative rho (up, down):  3.165E-06 0.000E+00

     total cpu time spent up to now is       67.4 secs

     total energy              =    -299.59588931 Ry
     estimated scf accuracy    <       0.00216640 Ry

     iteration #  2     ecut=    90.00 Ry     beta= 0.30
     Davidson diagonalization with overlap
     ethr =  3.19E-06,  avg # of iterations =  1.5

     negative rho (up, down):  3.282E-06 0.000E+00

     total cpu time spent up to now is       69.3 secs

     total energy              =    -299.59586077 Ry
     estimated scf accuracy    <       0.00055640 Ry

     iteration #  3     ecut=    90.00 Ry     beta= 0.30
     Davidson diagonalization with overlap
     ethr =  8.18E-07,  avg # of iterations =  3.1

     negative rho (up, down):  3.226E-06 0.000E+00

     total cpu time spent up to now is       71.8 secs

     total energy              =    -299.59593903 Ry
     estimated scf accuracy    <       0.00008978 Ry

     iteration #  4     ecut=    90.00 Ry     beta= 0.30
     Davidson diagonalization with overlap
     ethr =  1.32E-07,  avg # of iterations =  2.3

     negative rho (up, down):  3.187E-06 0.000E+00

     total cpu time spent up to now is       73.9 secs

     total energy              =    -299.59594952 Ry
     estimated scf accuracy    <       0.00001143 Ry

     iteration #  5     ecut=    90.00 Ry     beta= 0.30
     Davidson diagonalization with overlap
     ethr =  1.68E-08,  avg # of iterations =  2.0

     negative rho (up, down):  3.122E-06 0.000E+00

     total cpu time spent up to now is       76.1 secs

     total energy              =    -299.59595078 Ry
     estimated scf accuracy    <       0.00000151 Ry

     iteration #  6     ecut=    90.00 Ry     beta= 0.30
     Davidson diagonalization with overlap
     ethr =  2.22E-09,  avg # of iterations =  2.9

     negative rho (up, down):  3.087E-06 0.000E+00

     total cpu time spent up to now is       78.5 secs

     total energy              =    -299.59595109 Ry
     estimated scf accuracy    <       0.00000041 Ry

     iteration #  7     ecut=    90.00 Ry     beta= 0.30
     Davidson diagonalization with overlap
     ethr =  6.05E-10,  avg # of iterations =  2.3

     negative rho (up, down):  3.077E-06 0.000E+00

     total cpu time spent up to now is       80.8 secs

     total energy              =    -299.59595114 Ry
     estimated scf accuracy    <       0.00000004 Ry

     iteration #  8     ecut=    90.00 Ry     beta= 0.30
     Davidson diagonalization with overlap
     ethr =  5.66E-11,  avg # of iterations =  2.7

     negative rho (up, down):  3.086E-06 0.000E+00

     total cpu time spent up to now is       83.2 secs

     End of self-consistent calculation

          k = 0.0000-0.0000 0.0000 ( 20251 PWs)   bands (ev):

   -16.7522 -15.6570 -13.7509 -12.1641 -12.1032 -11.1629 -11.0161 -10.8099
    -8.0852  -7.6588  -7.6362  -5.3883  -5.3503  -5.1580  -2.6883  -2.6638
    -2.1787  -1.6881  -1.3228  -0.6736  -0.1844   0.0595   0.5579   0.7506
     1.0354   1.4343   1.4600   1.4694   1.5382   2.0771   2.0774   2.7631
     3.0472   3.0960   6.5356   7.0655   8.6691   8.7120   9.1420   9.3931
     9.4790

          k = 0.0000-0.1000 0.0000 ( 20237 PWs)   bands (ev):

   -16.5914 -15.5524 -13.8818 -13.3766 -12.1554 -10.9731 -10.5381 -10.4078
    -7.9674  -7.5125  -7.1212  -5.4940  -5.2092  -4.9342  -2.7706  -2.5567
    -2.3212  -1.9416  -1.5655  -0.6282  -0.6111   0.0608   0.3821   0.4045
     0.7216   1.0281   1.3531   1.5295   1.6859   2.1628   2.4101   2.5191
     2.7222   3.1671   6.7509   7.2671   8.8617   9.2314   9.3900   9.5469
     9.6660

          k = 0.0000-0.2000 0.0000 ( 20225 PWs)   bands (ev):

   -16.1702 -15.4395 -14.5949 -13.7093 -12.6514 -11.3993 -10.1774  -9.5222
    -7.5676  -6.8122  -6.4329  -5.5299  -5.0713  -4.3404  -3.6657  -3.1884
    -2.8041  -1.8833  -1.2676  -1.2048  -0.5826  -0.3884  -0.0840   0.2037
     0.7810   0.8370   1.3781   1.4101   1.4890   2.0954   2.1332   2.4891
     2.8309   3.2599   7.3677   7.8104   8.3450   8.6307   9.1599   9.2870
     9.5565

          k = 0.1111-0.0000 0.0000 ( 20245 PWs)   bands (ev):

   -16.5262 -15.4335 -13.5340 -11.9504 -11.8906 -10.9551 -10.8114 -10.6083
    -7.9761  -7.4697  -7.4543  -5.2611  -5.2007  -5.0634  -3.1064  -2.6029
    -2.5266  -1.9647  -1.9403  -1.1557  -0.2937  -0.1864   0.1062   0.4675
     0.6366   0.6745   0.7659   1.0538   1.0608   1.4121   1.4472   2.2478
     2.7632   2.8235   6.7476   7.2790   9.2512   9.3072   9.6054   9.6986
    10.0355

          k = 0.1111-0.1000 0.0000 ( 20228 PWs)   bands (ev):

   -16.3657 -15.3292 -13.6628 -13.1605 -11.9456 -10.7718 -10.3323 -10.2055
    -7.8543  -7.3322  -6.9436  -5.3903  -5.0340  -4.8422  -3.0130  -2.6506
    -2.4307  -2.0540  -1.9541  -1.7175  -0.6045  -0.3820  -0.2311   0.1337
     0.3903   0.4731   0.6335   1.1928   1.3811   1.4698   1.6220   1.9766
     2.6406   2.7545   6.9633   7.4803   9.0994   9.6859   9.7343   9.9604
    10.2408

          k = 0.1111-0.2000 0.0000 ( 20228 PWs)   bands (ev):

   -15.9455 -15.2164 -14.3732 -13.4920 -12.4406 -11.1966  -9.9810  -9.3224
    -7.4576  -6.6741  -6.2743  -5.3765  -4.9251  -4.1773  -3.5202  -3.1227
    -2.7623  -2.5024  -1.9253  -1.6163  -1.0723  -0.9958  -0.4563  -0.2416
     0.0518   0.2940   0.7787   1.0497   1.2787   1.6073   1.9840   1.9972
     2.5027   2.5486   7.5826   8.0197   8.5478   8.7948   9.1190   9.4253
    10.2622

          k = 0.2222-0.0000 0.0000 ( 20222 PWs)   bands (ev):

   -15.8517 -14.7679 -12.8924 -11.3141 -11.2577 -10.3411 -10.2025 -10.0168
    -7.9351  -6.9538  -6.9529  -5.5083  -4.9135  -4.8609  -4.8249  -3.6714
    -3.2415  -2.4837  -2.4437  -1.5129  -1.4888  -1.0958  -0.8710  -0.7339
    -0.7200  -0.6637  -0.0243   0.1922   0.6825   0.7400   1.1402   1.4450
     1.8071   2.7428   7.3788   7.7796   9.8700  10.0390  10.1756  10.2584
    10.5749

          k = 0.2222-0.1000 0.0000 ( 20228 PWs)   bands (ev):

   -15.6923 -14.6642 -13.0122 -12.5190 -11.3244 -10.1814  -9.7209  -9.6103
    -7.7958  -6.8718  -6.4716  -5.4827  -4.8906  -4.7544  -4.5576  -3.6536
    -3.2346  -2.6146  -2.5585  -1.7203  -1.6059  -1.3515  -1.2303  -0.8951
    -0.5167  -0.4329  -0.3037   0.2799   0.3671   0.8336   1.0474   1.1366
     1.9207   2.4117   7.5722   7.9783   9.3904   9.9630  10.0721  10.2328
    10.5911

          k = 0.2222-0.2000 0.0000 ( 20215 PWs)   bands (ev):

   -15.2750 -14.5511 -13.7132 -12.8468 -11.8179 -10.6030  -9.4148  -8.7354
    -7.3981  -6.5005  -5.9010  -5.1763  -4.6157  -4.4547  -3.9853  -3.6912
    -3.3449  -3.2372  -2.7100  -2.5274  -2.2531  -1.7862  -1.2856  -1.2655
    -0.5334  -0.3231  -0.2129   0.1783   0.3124   0.6880   1.0103   1.3946
     1.8141   1.9684   8.0816   8.5176   8.7524   9.0756   9.2469   9.6934
    10.0726

          k = 0.3333-0.0000 0.0000 ( 20254 PWs)   bands (ev):

   -14.7419 -13.6807 -11.8832 -10.2749 -10.2286  -9.4176  -9.2278  -9.1316
    -9.0761  -7.3972  -6.4778  -6.2762  -5.9366  -5.1246  -5.0450  -4.7596
    -3.9899  -3.3822  -3.3447  -2.7465  -2.7026  -2.5439  -1.5030  -1.4748
    -1.2113  -0.6544  -0.6207  -0.0575   0.0645   0.2540   0.7042   0.8667
     1.4475   2.5058   8.4134   8.5562  10.0837  10.2977  10.3535  10.4687
    10.9908

          k = 0.3333-0.1000 0.0000 ( 20257 PWs)   bands (ev):

   -14.5843 -13.5772 -11.9661 -11.4870 -10.3387  -9.3336  -8.9789  -8.7444
    -8.6715  -7.3322  -6.6269  -6.1041  -5.6505  -5.2231  -4.8480  -4.2467
    -4.0786  -3.8154  -3.4401  -2.6966  -2.6400  -2.1175  -1.4223  -1.3307
    -1.1361  -0.8455  -0.6180  -0.3950  -0.0634   0.2703   0.3527   0.7199
     1.2868   1.8489   8.5459   8.7297   9.5002   9.8421  10.3014  10.6388
    10.8131

          k = 0.3333-0.2000 0.0000 ( 20240 PWs)   bands (ev):

   -14.1719 -13.4603 -12.6344 -11.8073 -10.8384  -9.7248  -8.7954  -8.6169
    -7.6775  -7.3231  -6.7104  -5.9707  -5.3246  -4.7305  -4.3522  -4.3054
    -3.9396  -3.5015  -3.0571  -2.8616  -2.7479  -2.2535  -1.9815  -1.6313
    -1.2618  -0.8491  -0.5574  -0.4287  -0.1648   0.0800   0.1528   0.7080
     0.8889   1.0777   8.5753   8.7326   9.2320   9.6817   9.7751  10.1213
    10.6636

          k = 0.4444-0.0000 0.0000 ( 20318 PWs)   bands (ev):

   -13.2351 -12.2792 -11.5419 -10.1188 -10.0811  -8.8457  -8.8303  -8.0203
    -7.9543  -7.8223  -7.5297  -7.1144  -6.9796  -6.1725  -6.1611  -5.4587
    -4.2977  -3.6975  -3.6814  -2.6943  -2.6879  -2.3980  -2.1475  -2.0344
    -1.9098  -1.1156  -1.1099  -0.5388  -0.2936   0.2077   0.3989   1.0807
     1.7281   1.9487   9.4175   9.6048   9.8382   9.9099  10.2061  10.3506
    11.3865

          k = 0.4444-0.1000 0.0000 ( 20269 PWs)   bands (ev):

   -13.0802 -12.1704 -11.3986 -10.3606 -10.0457  -9.8751  -9.0898  -8.7288
    -7.6897  -7.3476  -7.2465  -7.0127  -6.7470  -5.8488  -5.6403  -5.3443
    -4.2633  -3.8274  -3.6915  -2.7045  -2.5574  -2.0914  -1.8578  -1.8330
    -1.8266  -1.1287  -1.0695  -0.3970  -0.2736   0.0991   0.2162   0.4821
     1.0438   1.1884   9.0059   9.7110   9.9533  10.1245  10.2261  10.8560
    11.0822

          k = 0.4444-0.2000 0.0000 ( 20233 PWs)   bands (ev):

   -12.6748 -12.0172 -11.2395 -10.9743 -10.2471  -9.9558  -9.6191  -9.5488
    -7.6568  -7.5223  -7.0245  -6.7379  -6.2576  -5.9774  -4.9806  -4.5899
    -3.9483  -3.4312  -3.0723  -2.7399  -2.3832  -2.0708  -1.8132  -1.5198
    -1.2854  -1.0043  -0.9174  -0.8721  -0.6656  -0.4463  -0.1709  -0.1261
     0.2215   0.2507   8.9930   9.3196   9.8476   9.9930  10.4213  10.5275
    10.7702

     the Fermi energy is     5.0321 ev

!    total energy              =    -299.59595115 Ry
     estimated scf accuracy    <          8.7E-09 Ry
     smearing contrib. (-TS)   =      -0.00000000 Ry
     internal energy E=F+TS    =    -299.59595115 Ry

     The total energy is F=E-TS. E is the sum of the following terms:
     one-electron contribution =   -1732.89208605 Ry
     hartree contribution      =     895.99963710 Ry
     xc contribution           =     -77.36995281 Ry
     ewald contribution        =     713.27431633 Ry
     one-center paw contrib.   =     -98.60786572 Ry

     convergence has been achieved in   8 iterations

     negative rho (up, down):  3.086E-06 0.000E+00

     Forces acting on atoms (cartesian axes, Ry/au):

     atom    1 type  1   force =     0.00000000    0.01818205   -0.00922773
     atom    2 type  1   force =     0.00000000   -0.00815908    0.00111758
     atom    3 type  1   force =     0.00000000   -0.00831646   -0.01018800
     atom    4 type  1   force =     0.00000000   -0.00884886   -0.01889333
     atom    5 type  1   force =     0.00000000   -0.00586388   -0.02362250
     atom    6 type  1   force =     0.00000000   -0.00657690   -0.02242196
     atom    7 type  1   force =     0.00000000   -0.00831610    0.00164573
     atom    8 type  1   force =     0.00000000    0.01823559    0.00908809
     atom    9 type  1   force =     0.00000000   -0.01823559   -0.00908809
     atom   10 type  1   force =     0.00000000    0.00831610   -0.00164573
     atom   11 type  1   force =     0.00000000    0.00657690    0.02242196
     atom   12 type  1   force =     0.00000000    0.00586388    0.02362250
     atom   13 type  1   force =     0.00000000    0.00884886    0.01889333
     atom   14 type  1   force =     0.00000000    0.00831646    0.01018800
     atom   15 type  1   force =     0.00000000    0.00815908   -0.00111758
     atom   16 type  1   force =     0.00000000   -0.01818205    0.00922773
     atom   17 type  2   force =     0.00000000   -0.00761257   -0.00943493
     atom   18 type  2   force =     0.00000000    0.00779678   -0.01028126
     atom   19 type  2   force =     0.00000000   -0.00779678    0.01028126
     atom   20 type  2   force =     0.00000000    0.00761257    0.00943493

     Total force =     0.077854     Total SCF correction =     0.000202
     Energy error            =      1.3E-02 Ry
     Gradient error          =      2.4E-02 Ry/Bohr

     number of scf cycles    =   3
     number of bfgs steps    =   2

     energy             old  =    -299.5825613028 Ry
     energy             new  =    -299.5959511488 Ry

     CASE: energy            _new < energy            _old

     new trust radius        =       0.0640090026 bohr
     new conv_thr            =       0.0000000100 Ry


ATOMIC_POSITIONS (angstrom)
C                0.0000000000       -0.8154240741       11.2294806202
C                1.2634728900       -1.1780522807       10.4145119587
C                1.2634728900       -0.0092941900        9.4132377689
C                0.0000000000       -0.0106046570        8.5462402351
C                0.0000000000       -1.2713787661        7.6367040536
C                1.2634728900       -1.2710963863        6.6973039690
C                1.2634728900        0.0857083287        5.8770182270
C                0.0000000000        0.4478747141        5.0595369049
C                0.0000000000       -4.2382933941       11.2285836851
C                1.2634728900       -3.8761270087       10.4111023630
C                1.2634728900       -2.5193222837        9.5908166210
C                0.0000000000       -2.5190399039        8.6514165364
C                0.0000000000       -3.7798140230        7.7418803549
C                1.2634728900       -3.7811244900        6.8748828211
C                1.2634728900       -2.6123663893        5.8736086313
C                0.0000000000       -2.9749946059        5.0586399698
H                0.0000000000       -1.2049207845       12.2615987635
H                0.0000000000       -3.8486302122       12.2606723248
H                0.0000000000        0.0582115322        4.0274482552
H                0.0000000000       -2.5854978855        4.0265218165



     Writing config-only to output data dir /tmp/qe/slab.save/ :
     XML data file
     NEW-OLD atomic charge density approx. for the potential

     negative rho (up, down):  3.301E-06 0.000E+00

     total cpu time spent up to now is       84.2 secs

     Self-consistent Calculation

     iteration #  1     ecut=    90.00 Ry     beta= 0.30
     Davidson diagonalization with overlap
     c_bands:  1 eigenvalues not converged
     ethr =  1.00E-06,  avg # of iterations = 11.7

     negative rho (up, down):  3.205E-06 0.000E+00

     total cpu time spent up to now is       89.8 secs

     total energy              =    -299.60305045 Ry
     estimated scf accuracy    <       0.00267479 Ry

     iteration #  2     ecut=    90.00 Ry     beta= 0.30
     Davidson diagonalization with overlap
     ethr =  3.93E-06,  avg # of iterations =  1.5

     negative rho (up, down):  3.119E-06 0.000E+00

     total cpu time spent up to now is       91.7 secs

     total energy              =    -299.60303551 Ry
     estimated scf accuracy    <       0.00070444 Ry

     iteration #  3     ecut=    90.00 Ry     beta= 0.30
     Davidson diagonalization with overlap
     ethr =  1.04E-06,  avg # of iterations =  2.5

     negative rho (up, down):  3.039E-06 0.000E+00

     total cpu time spent up to now is       94.0 secs

     total energy              =    -299.60313815 Ry
     estimated scf accuracy    <       0.00011500 Ry

     iteration #  4     ecut=    90.00 Ry     beta= 0.30
     Davidson diagonalization with overlap
     ethr =  1.69E-07,  avg # of iterations =  1.4

     negative rho (up, down):  3.054E-06 0.000E+00

     total cpu time spent up to now is       95.9 secs

     total energy              =    -299.60314845 Ry
     estimated scf accuracy    <       0.00001839 Ry

     iteration #  5     ecut=    90.00 Ry     beta= 0.30
     Davidson diagonalization with overlap
     ethr =  2.70E-08,  avg # of iterations =  2.6

     negative rho (up, down):  2.995E-06 0.000E+00

     total cpu time spent up to now is       98.4 secs

     total energy              =    -299.60315057 Ry
     estimated scf accuracy    <       0.00000398 Ry

     iteration #  6     ecut=    90.00 Ry     beta= 0.30
     Davidson diagonalization with overlap
     ethr =  5.85E-09,  avg # of iterations =  2.5

     negative rho (up, down):  2.994E-06 0.000E+00

     total cpu time spent up to now is      100.6 secs

     total energy              =    -299.60315113 Ry
     estimated scf accuracy    <       0.00000087 Ry

     iteration #  7     ecut=    90.00 Ry     beta= 0.30
     Davidson diagonalization with overlap
     ethr =  1.27E-09,  avg # of iterations =  2.4

     negative rho (up, down):  2.984E-06 0.000E+00

     total cpu time spent up to now is      103.0 secs

     total energy              =    -299.60315128 Ry
     estimated scf accuracy    <       0.00000009 Ry

     iteration #  8     ecut=    90.00 Ry     beta= 0.30
     Davidson diagonalization with overlap
     ethr =  1.29E-10,  avg # of iterations =  2.3

     negative rho (up, down):  2.985E-06 0.000E+00

     total cpu time spent up to now is      105.3 secs

     total energy              =    -299.60315130 Ry
     estimated scf accuracy    <       0.00000001 Ry

     iteration #  9     ecut=    90.00 Ry     beta= 0.30
     Davidson diagonalization with overlap
     ethr =  1.69E-11,  avg # of iterations =  2.7

     negative rho (up, down):  3.001E-06 0.000E+00

     total cpu time spent up to now is      107.7 secs

     End of self-consistent calculation

          k = 0.0000-0.0000 0.0000 ( 20251 PWs)   bands (ev):

   -16.7274 -15.6782 -13.7480 -12.1825 -12.1088 -11.2342 -11.0444 -10.7848
    -8.1265  -7.6696  -7.6222  -5.3907  -5.3798  -5.1876  -2.6893  -2.6865
    -2.1590  -1.6434  -1.3304  -0.6757  -0.2614   0.0792   0.5142   0.7822
     1.0273   1.4126   1.4903   1.5287   1.5419   2.0982   2.0987   2.7405
     3.0800   3.1081   6.5369   7.0522   8.6403   8.7199   9.0926   9.4321
     9.5203

          k = 0.0000-0.1000 0.0000 ( 20237 PWs)   bands (ev):

   -16.5662 -15.5670 -13.8506 -13.4230 -12.2425 -10.9580 -10.5118 -10.4237
    -8.0334  -7.5350  -7.0770  -5.5248  -5.2884  -4.9160  -2.7338  -2.6209
    -2.2934  -1.9296  -1.5181  -0.6892  -0.6017   0.0108   0.3558   0.4429
     0.7582   1.0060   1.3805   1.5115   1.6257   2.2076   2.4727   2.5109
     2.7516   3.1892   6.7552   7.2584   8.8536   9.3644   9.3874   9.5895
     9.6630

          k = 0.0000-0.2000 0.0000 ( 20225 PWs)   bands (ev):

   -16.1434 -15.4266 -14.5830 -13.7843 -12.7252 -11.3898 -10.1451  -9.5129
    -7.6121  -6.8543  -6.4005  -5.6167  -5.0202  -4.4353  -3.7015  -3.1860
    -2.7553  -1.8734  -1.2223  -1.2103  -0.5420  -0.4545  -0.0337   0.2150
     0.6855   0.7803   1.3742   1.3982   1.4901   2.1065   2.1877   2.4504
     2.9142   3.2951   7.3782   7.8176   8.3756   8.6996   9.2859   9.4499
     9.6097

          k = 0.1111-0.0000 0.0000 ( 20245 PWs)   bands (ev):

   -16.5013 -15.4546 -13.5311 -11.9688 -11.8961 -11.0265 -10.8394 -10.5835
    -8.0157  -7.4802  -7.4422  -5.2545  -5.2299  -5.1045  -3.0642  -2.6312
    -2.5360  -1.9515  -1.9273  -1.1679  -0.2745  -0.2489   0.1300   0.4207
     0.6908   0.6919   0.7450   1.0498   1.0764   1.4054   1.4685   2.2712
     2.7225   2.8613   6.7504   7.2679   9.1963   9.3005   9.6591   9.7237
     9.9896

          k = 0.1111-0.1000 0.0000 ( 20228 PWs)   bands (ev):

   -16.3404 -15.3436 -13.6315 -13.2069 -12.0328 -10.7569 -10.3047 -10.2227
    -7.9163  -7.3577  -6.9003  -5.4217  -5.1122  -4.8286  -2.9703  -2.6382
    -2.4680  -2.0370  -1.9513  -1.6893  -0.6423  -0.3684  -0.2764   0.0735
     0.3781   0.5114   0.6309   1.2205   1.3917   1.5326   1.5735   1.9886
     2.6482   2.7745   6.9682   7.4733   9.1500   9.7163   9.7623   9.9710
    10.2496

          k = 0.1111-0.2000 0.0000 ( 20228 PWs)   bands (ev):

   -15.9185 -15.2032 -14.3613 -13.5670 -12.5145 -11.1872  -9.9492  -9.3127
    -7.5005  -6.7204  -6.2378  -5.4600  -4.8810  -4.2731  -3.5525  -3.1271
    -2.7069  -2.4681  -1.9013  -1.5883  -1.0860  -0.9740  -0.5247  -0.2968
     0.0645   0.2773   0.7214   1.0538   1.2954   1.6455   1.9756   2.0702
     2.5125   2.5392   7.5938   8.0267   8.5828   8.8694   9.2161   9.5930
    10.2682

          k = 0.2222-0.0000 0.0000 ( 20222 PWs)   bands (ev):

   -15.8263 -14.7884 -12.8891 -11.3327 -11.2633 -10.4135 -10.2298  -9.9938
    -7.9634  -6.9608  -6.9484  -5.5235  -4.8876  -4.8732  -4.8589  -3.6524
    -3.2639  -2.4856  -2.4687  -1.5194  -1.4722  -1.0571  -0.8756  -0.7126
    -0.6920  -0.6884  -0.0686   0.2683   0.5828   0.6773   1.1411   1.4877
     1.8114   2.7256   7.3844   7.7752   9.8609   9.9729  10.1818  10.2378
    10.5555

          k = 0.2222-0.1000 0.0000 ( 20228 PWs)   bands (ev):

   -15.6664 -14.6779 -12.9807 -12.5650 -11.4121 -10.1682  -9.6885  -9.6326
    -7.8378  -6.9044  -6.4331  -5.5134  -4.8968  -4.7165  -4.6368  -3.6283
    -3.2482  -2.6118  -2.5308  -1.7580  -1.6404  -1.3546  -1.2256  -0.8722
    -0.4876  -0.4335  -0.3153   0.2547   0.4051   0.7388   1.0564   1.1634
     1.9080   2.4165   7.5791   7.9770   9.4225   9.9437  10.0380  10.2269
    10.6889

          k = 0.2222-0.2000 0.0000 ( 20215 PWs)   bands (ev):

   -15.2472 -14.5372 -13.7011 -12.9218 -11.8922 -10.5943  -9.3866  -8.7242
    -7.4290  -6.5435  -5.8644  -5.2184  -4.6453  -4.4142  -4.0168  -3.7037
    -3.3990  -3.2296  -2.7174  -2.4667  -2.2933  -1.7974  -1.3173  -1.2785
    -0.5154  -0.3375  -0.2046   0.2144   0.3846   0.5823   1.0710   1.3618
     1.8216   1.9289   8.0956   8.5226   8.8017   9.1085   9.2741   9.7682
    10.1287

          k = 0.3333-0.0000 0.0000 ( 20254 PWs)   bands (ev):

   -14.7157 -13.6998 -11.8760 -10.2962 -10.2382  -9.4944  -9.2540  -9.1203
    -9.0770  -7.3737  -6.4621  -6.3173  -5.9451  -5.1313  -5.0635  -4.7744
    -3.9472  -3.3967  -3.3770  -2.7429  -2.7057  -2.5424  -1.4820  -1.4552
    -1.1874  -0.6514  -0.6055  -0.1742  -0.0591   0.3359   0.7040   0.8981
     1.3766   2.4894   8.4187   8.5689   9.9480  10.2986  10.3813  10.4567
    10.9907

          k = 0.3333-0.1000 0.0000 ( 20257 PWs)   bands (ev):

   -14.5575 -13.5894 -11.9325 -11.5304 -10.4292  -9.3385  -8.9759  -8.7464
    -8.6661  -7.3109  -6.6426  -6.1246  -5.6590  -5.2539  -4.8550  -4.2856
    -4.0288  -3.8320  -3.4229  -2.7244  -2.6669  -2.0840  -1.4540  -1.2713
    -1.0962  -0.8835  -0.6313  -0.3723  -0.1675   0.2638   0.3181   0.7448
     1.2385   1.8428   8.5549   8.7457   9.4564   9.7814  10.3374  10.7915
    10.8391

          k = 0.3333-0.2000 0.0000 ( 20240 PWs)   bands (ev):

   -14.1427 -13.4448 -12.6210 -11.8806 -10.9130  -9.7206  -8.7963  -8.6107
    -7.6719  -7.2996  -6.6951  -6.0276  -5.3349  -4.7501  -4.3320  -4.3037
    -3.9675  -3.5028  -3.0836  -2.9132  -2.7385  -2.2637  -2.0037  -1.6350
    -1.2023  -0.8429  -0.5586  -0.4457  -0.1847   0.0759   0.1928   0.6957
     0.8501   1.0038   8.5519   8.7606   9.2573   9.7341   9.7880  10.2350
    10.7202

          k = 0.4444-0.0000 0.0000 ( 20318 PWs)   bands (ev):

   -13.2073 -12.2913 -11.5013 -10.1731 -10.1405  -8.8525  -8.8227  -8.0239
    -8.0004  -7.8013  -7.4946  -7.1399  -7.0138  -6.2016  -6.1814  -5.4355
    -4.2951  -3.6971  -3.6780  -2.6949  -2.6840  -2.4003  -2.1551  -2.0335
    -1.8967  -1.0790  -1.0632  -0.6431  -0.4388   0.2279   0.3977   1.1226
     1.6319   1.9328   9.4589   9.6737   9.8415   9.9139  10.0572  10.3753
    11.3598

          k = 0.4444-0.1000 0.0000 ( 20269 PWs)   bands (ev):

   -13.0515 -12.1753 -11.3541 -10.3617 -10.1135  -9.9266  -9.1615  -8.7054
    -7.6853  -7.3194  -7.2583  -7.0198  -6.7873  -5.8408  -5.6295  -5.3452
    -4.2582  -3.8451  -3.6631  -2.7349  -2.6193  -2.1151  -1.8492  -1.8249
    -1.7669  -1.1021  -1.0164  -0.5092  -0.3910   0.1093   0.2054   0.5216
     0.9696   1.1738   9.0520   9.7432   9.9418  10.0149  10.2431  10.9516
    11.1129

          k = 0.4444-0.2000 0.0000 ( 20233 PWs)   bands (ev):

   -12.6423 -11.9952 -11.2001 -10.9682 -10.3395  -9.9714  -9.7068  -9.5686
    -7.6964  -7.5131  -7.0659  -6.6784  -6.2541  -5.9314  -4.9304  -4.5800
    -3.9576  -3.4213  -3.1115  -2.8198  -2.5001  -2.0497  -1.8557  -1.5266
    -1.2283  -0.9633  -0.9448  -0.8313  -0.6229  -0.3789  -0.2066  -0.1365
     0.1060   0.1403   9.0158   9.3757   9.8653  10.0283  10.4250  10.6061
    10.8429

     the Fermi energy is     5.0183 ev

!    total energy              =    -299.60315130 Ry
     estimated scf accuracy    <          1.8E-09 Ry
     smearing contrib. (-TS)   =      -0.00000000 Ry
     internal energy E=F+TS    =    -299.60315130 Ry

     The total energy is F=E-TS. E is the sum of the following terms:
     one-electron contribution =   -1735.06801529 Ry
     hartree contribution      =     897.08541032 Ry
     xc contribution           =     -77.39470849 Ry
     ewald contribution        =     714.38181727 Ry
     one-center paw contrib.   =     -98.60765511 Ry

     convergence has been achieved in   9 iterations

     negative rho (up, down):  3.001E-06 0.000E+00

     Forces acting on atoms (cartesian axes, Ry/au):

     atom    1 type  1   force =     0.00000000    0.00539145   -0.00441804
     atom    2 type  1   force =     0.00000000    0.00504456    0.00289842
     atom    3 type  1   force =     0.00000000   -0.00928627   -0.00735682
     atom    4 type  1   force =     0.00000000   -0.00601611    0.00122373
     atom    5 type  1   force =     0.00000000   -0.00191313    0.00361244
     atom    6 type  1   force =     0.00000000   -0.00591755    0.00406486
     atom    7 type  1   force =     0.00000000    0.00577568    0.00398846
     atom    8 type  1   force =     0.00000000    0.00530474    0.00794049
     atom    9 type  1   force =     0.00000000   -0.00530474   -0.00794049
     atom   10 type  1   force =     0.00000000   -0.00577568   -0.00398846
     atom   11 type  1   force =     0.00000000    0.00591755   -0.00406486
     atom   12 type  1   force =     0.00000000    0.00191313   -0.00361244
     atom   13 type  1   force =     0.00000000    0.00601611   -0.00122373
     atom   14 type  1   force =     0.00000000    0.00928627    0.00735682
     atom   15 type  1   force =     0.00000000   -0.00504456   -0.00289842
     atom   16 type  1   force =     0.00000000   -0.00539145    0.00441804
     atom   17 type  2   force =     0.00000000   -0.00493431   -0.00642243
     atom   18 type  2   force =     0.00000000    0.00551412   -0.00697980
     atom   19 type  2   force =     0.00000000   -0.00551412    0.00697980
     atom   20 type  2   force =     0.00000000    0.00493431    0.00642243

     Total force =     0.035040     Total SCF correction =     0.000080
     Energy error            =      7.2E-03 Ry
     Gradient error          =      9.3E-03 Ry/Bohr

     number of scf cycles    =   4
     number of bfgs steps    =   3

     energy             old  =    -299.5959511488 Ry
     energy             new  =    -299.6031513006 Ry

     CASE: energy            _new < energy            _old

     new trust radius        =       0.0189108263 bohr
     new conv_thr            =       0.0000000093 Ry


ATOMIC_POSITIONS (angstrom)
C                0.0000000000       -0.8104334577       11.2273116852
C                1.2634728900       -1.1747048249       10.4154399653
C                1.2634728900       -0.0158635654        9.4056888005
C                0.0000000000       -0.0158244070        8.5422334366
C                0.0000000000       -1.2737473592        7.6319108617
C                1.2634728900       -1.2754116444        6.6923078616
C                1.2634728900        0.0895608428        5.8805855524
C                0.0000000000        0.4527826184        5.0639937916
C                0.0000000000       -4.2432012984       11.2241267984
C                1.2634728900       -3.8799795228       10.4075350376
C                1.2634728900       -2.5150070256        9.5958127284
C                0.0000000000       -2.5166713108        8.6562097283
C                0.0000000000       -3.7745942730        7.7458871534
C                1.2634728900       -3.7745551146        6.8824317895
C                1.2634728900       -2.6157138451        5.8726806247
C                0.0000000000       -2.9799852223        5.0608089048
H                0.0000000000       -1.2087949313       12.2539133172
H                0.0000000000       -3.8443668686       12.2525439285
H                0.0000000000        0.0539481886        4.0355766515
H                0.0000000000       -2.5816237387        4.0342072628



     Writing config-only to output data dir /tmp/qe/slab.save/ :
     XML data file
     NEW-OLD atomic charge density approx. for the potential

     negative rho (up, down):  3.362E-06 0.000E+00

     total cpu time spent up to now is      108.7 secs

     Self-consistent Calculation

     iteration #  1     ecut=    90.00 Ry     beta= 0.30
     Davidson diagonalization with overlap
     ethr =  1.00E-06,  avg # of iterations =  6.7

     negative rho (up, down):  3.344E-06 0.000E+00

     total cpu time spent up to now is      112.4 secs

     total energy              =    -299.60430697 Ry
     estimated scf accuracy    <       0.00025978 Ry

     iteration #  2     ecut=    90.00 Ry     beta= 0.30
     Davidson diagonalization with overlap
     ethr =  3.82E-07,  avg # of iterations =  2.0

     negative rho (up, down):  3.208E-06 0.000E+00

     total cpu time spent up to now is      114.4 secs

     total energy              =    -299.60430422 Ry
     estimated scf accuracy    <       0.00008086 Ry

     iteration #  3     ecut=    90.00 Ry     beta= 0.30
     Davidson diagonalization with overlap
     ethr =  1.19E-07,  avg # of iterations =  2.1

     negative rho (up, down):  3.163E-06 0.000E+00

     total cpu time spent up to now is      116.8 secs

     total energy              =    -299.60431679 Ry
     estimated scf accuracy    <       0.00001363 Ry

     iteration #  4     ecut=    90.00 Ry     beta= 0.30
     Davidson diagonalization with overlap
     ethr =  2.00E-08,  avg # of iterations =  2.0

     negative rho (up, down):  3.133E-06 0.000E+00

     total cpu time spent up to now is      118.8 secs

     total energy              =    -299.60431825 Ry
     estimated scf accuracy    <       0.00000353 Ry

     iteration #  5     ecut=    90.00 Ry     beta= 0.30
     Davidson diagonalization with overlap
     ethr =  5.19E-09,  avg # of iterations =  2.2

     negative rho (up, down):  3.138E-06 0.000E+00

     total cpu time spent up to now is      121.0 secs

     total energy              =    -299.60431852 Ry
     estimated scf accuracy    <       0.00000047 Ry

     iteration #  6     ecut=    90.00 Ry     beta= 0.30
     Davidson diagonalization with overlap
     ethr =  6.86E-10,  avg # of iterations =  2.7

     negative rho (up, down):  3.146E-06 0.000E+00

     total cpu time spent up to now is      123.4 secs

     total energy              =    -299.60431862 Ry
     estimated scf accuracy    <       0.00000010 Ry

     iteration #  7     ecut=    90.00 Ry     beta= 0.30
     Davidson diagonalization with overlap
     ethr =  1.51E-10,  avg # of iterations =  2.2

     negative rho (up, down):  3.150E-06 0.000E+00

     total cpu time spent up to now is      125.5 secs

     total energy              =    -299.60431862 Ry
     estimated scf accuracy    <       0.00000001 Ry

     iteration #  8     ecut=    90.00 Ry     beta= 0.30
     Davidson diagonalization with overlap
     ethr =  2.18E-11,  avg # of iterations =  2.5

     negative rho (up, down):  3.161E-06 0.000E+00

     total cpu time spent up to now is      127.9 secs

     End of self-consistent calculation

          k = 0.0000-0.0000 0.0000 ( 20251 PWs)   bands (ev):

   -16.7358 -15.6974 -13.7693 -12.1862 -12.1055 -11.2527 -11.0399 -10.7972
    -8.1315  -7.6704  -7.6245  -5.4021  -5.3771  -5.1752  -2.6982  -2.6960
    -2.1439  -1.6610  -1.3226  -0.7002  -0.2622   0.0796   0.4979   0.8094
     0.9962   1.4160   1.4693   1.5328   1.5580   2.0995   2.1000   2.7565
     3.0829   3.1015   6.5354   7.0452   8.6192   8.6991   9.0723   9.4152
     9.5555

          k = 0.0000-0.1000 0.0000 ( 20237 PWs)   bands (ev):

   -16.5749 -15.5882 -13.8642 -13.4297 -12.2474 -10.9745 -10.5110 -10.4244
    -8.0448  -7.5373  -7.0716  -5.5340  -5.3022  -4.8970  -2.7375  -2.6299
    -2.2772  -1.9320  -1.5362  -0.6730  -0.6283  -0.0041   0.3548   0.4533
     0.7564   0.9753   1.4032   1.5059   1.6279   2.1947   2.4714   2.5215
     2.7674   3.1747   6.7551   7.2532   8.8396   9.3581   9.3933   9.5962
     9.6664

          k = 0.0000-0.2000 0.0000 ( 20225 PWs)   bands (ev):

   -16.1529 -15.4551 -14.5767 -13.8006 -12.7332 -11.4003 -10.1456  -9.5125
    -7.6201  -6.8676  -6.3900  -5.6376  -5.0041  -4.4584  -3.6982  -3.1738
    -2.7429  -1.8891  -1.2301  -1.1973  -0.5747  -0.4490  -0.0256   0.2228
     0.6563   0.7576   1.3600   1.4224   1.5128   2.1182   2.1678   2.4353
     2.9047   3.2964   7.3809   7.8183   8.3858   8.7192   9.3096   9.5045
     9.6173

          k = 0.1111-0.0000 0.0000 ( 20245 PWs)   bands (ev):

   -16.5096 -15.4738 -13.5523 -11.9726 -11.8928 -11.0450 -10.8349 -10.5960
    -8.0218  -7.4810  -7.4432  -5.2675  -5.2269  -5.0915  -3.0698  -2.6459
    -2.5486  -1.9503  -1.9402  -1.1596  -0.2913  -0.2459   0.1267   0.4125
     0.6797   0.6975   0.7209   1.0504   1.0872   1.4070   1.4831   2.2597
     2.7248   2.8843   6.7501   7.2611   9.1733   9.2818   9.6495   9.7594
     9.9676

          k = 0.1111-0.1000 0.0000 ( 20228 PWs)   bands (ev):

   -16.3491 -15.3648 -13.6451 -13.2135 -12.0376 -10.7735 -10.3039 -10.2235
    -7.9278  -7.3593  -6.8953  -5.4319  -5.1251  -4.8105  -2.9740  -2.6491
    -2.4756  -2.0350  -1.9672  -1.6926  -0.6291  -0.3691  -0.2985   0.0593
     0.3736   0.5127   0.6324   1.2112   1.4008   1.5323   1.5757   1.9841
     2.6463   2.7890   6.9690   7.4685   9.1594   9.7216   9.7702   9.9849
    10.2290

          k = 0.1111-0.2000 0.0000 ( 20228 PWs)   bands (ev):

   -15.9280 -15.2318 -14.3550 -13.5833 -12.5224 -11.1977  -9.9501  -9.3125
    -7.5077  -6.7345  -6.2270  -5.4801  -4.8656  -4.2960  -3.5492  -3.1188
    -2.6949  -2.4823  -1.9307  -1.5967  -1.0695  -0.9659  -0.5385  -0.3025
     0.0640   0.2724   0.7052   1.0382   1.3111   1.6505   1.9744   2.0690
     2.4958   2.5489   7.5973   8.0273   8.5946   8.8893   9.2495   9.6532
    10.2698

          k = 0.2222-0.0000 0.0000 ( 20222 PWs)   bands (ev):

   -15.8346 -14.8075 -12.9101 -11.3365 -11.2598 -10.4332 -10.2250 -10.0059
    -7.9736  -6.9626  -6.9453  -5.5354  -4.8883  -4.8796  -4.8578  -3.6607
    -3.2840  -2.4937  -2.4782  -1.5240  -1.4723  -1.0566  -0.9043  -0.7034
    -0.6870  -0.6842  -0.0691   0.2758   0.5498   0.6711   1.1614   1.4955
     1.8027   2.7462   7.3865   7.7717   9.8554   9.9579  10.1741  10.2611
    10.5431

          k = 0.2222-0.1000 0.0000 ( 20228 PWs)   bands (ev):

   -15.6751 -14.6990 -12.9944 -12.5712 -11.4165 -10.1853  -9.6876  -9.6343
    -7.8499  -6.9053  -6.4307  -5.5292  -4.8887  -4.7251  -4.6467  -3.6411
    -3.2648  -2.6164  -2.5261  -1.7657  -1.6461  -1.3571  -1.2318  -0.8912
    -0.4793  -0.4320  -0.3048   0.2383   0.4143   0.7260   1.0585   1.1683
     1.9004   2.4341   7.5821   7.9752   9.4388   9.9478  10.0350  10.2311
    10.7149

          k = 0.2222-0.2000 0.0000 ( 20215 PWs)   bands (ev):

   -15.2567 -14.5657 -13.6944 -12.9381 -11.8995 -10.6048  -9.3897  -8.7247
    -7.4345  -6.5610  -5.8553  -5.2319  -4.6420  -4.4280  -4.0294  -3.7289
    -3.4125  -3.2270  -2.7160  -2.4474  -2.3016  -1.7938  -1.3394  -1.2843
    -0.5053  -0.3390  -0.2014   0.2180   0.3854   0.5607   1.0893   1.3474
     1.8287   1.9178   8.1033   8.5250   8.8222   9.1214   9.2905   9.7940
    10.1629

          k = 0.3333-0.0000 0.0000 ( 20254 PWs)   bands (ev):

   -14.7238 -13.7182 -11.8950 -10.3001 -10.2342  -9.5243  -9.2450  -9.1247
    -9.0975  -7.3946  -6.4562  -6.3149  -5.9602  -5.1398  -5.0628  -4.7760
    -3.9606  -3.4093  -3.3802  -2.7404  -2.7074  -2.5620  -1.4706  -1.4470
    -1.1923  -0.6357  -0.5896  -0.2085  -0.1105   0.3461   0.6997   0.8996
     1.3859   2.5059   8.4219   8.5747   9.9449  10.3073  10.4067  10.4493
    10.9907

          k = 0.3333-0.1000 0.0000 ( 20257 PWs)   bands (ev):

   -14.5659 -13.6099 -11.9466 -11.5343 -10.4325  -9.3584  -8.9969  -8.7465
    -8.6653  -7.3299  -6.6371  -6.1380  -5.6619  -5.2571  -4.8682  -4.2854
    -4.0456  -3.8318  -3.4132  -2.7479  -2.6778  -2.0726  -1.4628  -1.2600
    -1.0929  -0.8811  -0.6240  -0.3806  -0.1855   0.2413   0.3163   0.7411
     1.2407   1.8580   8.5617   8.7536   9.4564   9.7851  10.3563  10.8283
    10.8700

          k = 0.3333-0.2000 0.0000 ( 20240 PWs)   bands (ev):

   -14.1518 -13.4730 -12.6138 -11.8967 -10.9175  -9.7301  -8.8173  -8.6229
    -7.6699  -7.3111  -6.6927  -6.0446  -5.3431  -4.7627  -4.3359  -4.3160
    -3.9648  -3.5052  -3.0949  -2.9287  -2.7309  -2.2697  -1.9965  -1.6288
    -1.1915  -0.8418  -0.5671  -0.4348  -0.2001   0.0706   0.2114   0.6558
     0.8601   0.9908   8.5627   8.7773   9.2705   9.7431   9.8088  10.2758
    10.7382

          k = 0.4444-0.0000 0.0000 ( 20318 PWs)   bands (ev):

   -13.2145 -12.3058 -11.5037 -10.2095 -10.1733  -8.8588  -8.8172  -8.0283
    -8.0016  -7.8066  -7.5133  -7.1379  -7.0180  -6.2079  -6.1837  -5.4586
    -4.2965  -3.7014  -3.6769  -2.6927  -2.6723  -2.4055  -2.1693  -2.0200
    -1.8910  -1.0657  -1.0472  -0.6918  -0.4941   0.2170   0.3980   1.1355
     1.6391   1.9463   9.4740   9.6959   9.8399   9.9190  10.0496  10.4011
    11.3663

          k = 0.4444-0.1000 0.0000 ( 20269 PWs)   bands (ev):

   -13.0590 -12.1919 -11.3568 -10.3737 -10.1456  -9.9503  -9.1636  -8.7045
    -7.7036  -7.3309  -7.2589  -7.0229  -6.7940  -5.8429  -5.6319  -5.3623
    -4.2594  -3.8375  -3.6600  -2.7474  -2.6256  -2.1130  -1.8593  -1.8207
    -1.7435  -1.0950  -1.0026  -0.5597  -0.4414   0.1059   0.2067   0.5256
     0.9763   1.1873   9.0698   9.7615   9.9423  10.0079  10.2655  10.9652
    11.1333

          k = 0.4444-0.2000 0.0000 ( 20233 PWs)   bands (ev):

   -12.6505 -12.0209 -11.1917 -10.9720 -10.3499 -10.0045  -9.7312  -9.5709
    -7.7115  -7.5214  -7.0798  -6.6803  -6.2541  -5.9429  -4.9297  -4.5772
    -3.9562  -3.4276  -3.1043  -2.8349  -2.5148  -2.0431  -1.8664  -1.5194
    -1.2142  -0.9607  -0.9333  -0.8290  -0.6249  -0.3656  -0.2290  -0.1470
     0.0833   0.1122   9.0308   9.3969   9.8791  10.0569  10.4559  10.6133
    10.8801

     the Fermi energy is     5.0210 ev

!    total energy              =    -299.60431862 Ry
     estimated scf accuracy    <          5.8E-09 Ry
     smearing contrib. (-TS)   =      -0.00000000 Ry
     internal energy E=F+TS    =    -299.60431862 Ry

     The total energy is F=E-TS. E is the sum of the following terms:
     one-electron contribution =   -1738.37213423 Ry
     hartree contribution      =     898.73941877 Ry
     xc contribution           =     -77.41604923 Ry
     ewald contribution        =     716.05247577 Ry
     one-center paw contrib.   =     -98.60802969 Ry

     convergence has been achieved in   8 iterations

     negative rho (up, down):  3.161E-06 0.000E+00

     Forces acting on atoms (cartesian axes, Ry/au):

     atom    1 type  1   force =     0.00000000    0.00155666   -0.00419530
     atom    2 type  1   force =     0.00000000    0.00099468   -0.00012049
     atom    3 type  1   force =     0.00000000   -0.00301995   -0.00046089
     atom    4 type  1   force =    -0.00000000   -0.00082880   -0.00102531
     atom    5 type  1   force =     0.00000000   -0.00192996    0.00503383
     atom    6 type  1   force =     0.00000000   -0.00024367    0.00705576
     atom    7 type  1   force =     0.00000000    0.00326397    0.00599659
     atom    8 type  1   force =     0.00000000    0.00035054    0.00705966
     atom    9 type  1   force =     0.00000000   -0.00035054   -0.00705966
     atom   10 type  1   force =     0.00000000   -0.00326397   -0.00599659
     atom   11 type  1   force =     0.00000000    0.00024367   -0.00705576
     atom   12 type  1   force =     0.00000000    0.00192996   -0.00503383
     atom   13 type  1   force =     0.00000000    0.00082880    0.00102531
     atom   14 type  1   force =     0.00000000    0.00301995    0.00046089
     atom   15 type  1   force =    -0.00000000   -0.00099468    0.00012049
     atom   16 type  1   force =     0.00000000   -0.00155666    0.00419530
     atom   17 type  2   force =     0.00000000   -0.00428017   -0.00351483
     atom   18 type  2   force =     0.00000000    0.00464219   -0.00621385
     atom   19 type  2   force =     0.00000000   -0.00464219    0.00621385
     atom   20 type  2   force =     0.00000000    0.00428017    0.00351483

     Total force =     0.024430     Total SCF correction =     0.000156
     Energy error            =      1.2E-03 Ry
     Gradient error          =      7.1E-03 Ry/Bohr

     number of scf cycles    =   5
     number of bfgs steps    =   4

     energy             old  =    -299.6031513006 Ry
     energy             new  =    -299.6043186158 Ry

     CASE: energy            _new < energy            _old

     new trust radius        =       0.0241581456 bohr
     new conv_thr            =       0.0000000071 Ry


ATOMIC_POSITIONS (angstrom)
C                0.0000000000       -0.8059501927       11.2232211966
C                1.2634728900       -1.1725829503       10.4150668068
C                1.2634728900       -0.0219694582        9.4007899385
C               -0.0000000000       -0.0196343297        8.5375973102
C                0.0000000000       -1.2770698734        7.6313744386
C                1.2634728900       -1.2778941376        6.6935582215
C                1.2634728900        0.0939847944        5.8884461692
C                0.0000000000        0.4561322679        5.0718049693
C                0.0000000000       -4.2465509479       11.2163156207
C                1.2634728900       -3.8844034744       10.3996744208
C                1.2634728900       -2.5125245324        9.5945623685
C                0.0000000000       -2.5133487966        8.6567461514
C                0.0000000000       -3.7707843503        7.7505232798
C                1.2634728900       -3.7684492218        6.8873306515
C                1.2634728900       -2.6178357197        5.8730537832
C                0.0000000000       -2.9844684873        5.0648993934
H                0.0000000000       -1.2147061318       12.2455265234
H                0.0000000000       -3.8379332227       12.2414968780
H                0.0000000000        0.0475145427        4.0466237020
H                0.0000000000       -2.5757125382        4.0425940566



     Writing config-only to output data dir /tmp/qe/slab.save/ :
     XML data file
     NEW-OLD atomic charge density approx. for the potential

     negative rho (up, down):  3.720E-06 0.000E+00

     total cpu time spent up to now is      128.9 secs

     Self-consistent Calculation

     iteration #  1     ecut=    90.00 Ry     beta= 0.30
     Davidson diagonalization with overlap
     ethr =  1.00E-06,  avg # of iterations =  5.3

     negative rho (up, down):  3.665E-06 0.000E+00

     total cpu time spent up to now is      132.5 secs

     total energy              =    -299.60520716 Ry
     estimated scf accuracy    <       0.00026845 Ry

     iteration #  2     ecut=    90.00 Ry     beta= 0.30
     Davidson diagonalization with overlap
     ethr =  3.95E-07,  avg # of iterations =  1.9

     negative rho (up, down):  3.465E-06 0.000E+00

     total cpu time spent up to now is      134.5 secs

     total energy              =    -299.60521137 Ry
     estimated scf accuracy    <       0.00008174 Ry

     iteration #  3     ecut=    90.00 Ry     beta= 0.30
     Davidson diagonalization with overlap
     ethr =  1.20E-07,  avg # of iterations =  2.0

     negative rho (up, down):  3.385E-06 0.000E+00

     total cpu time spent up to now is      136.7 secs

     total energy              =    -299.60522005 Ry
     estimated scf accuracy    <       0.00001593 Ry

     iteration #  4     ecut=    90.00 Ry     beta= 0.30
     Davidson diagonalization with overlap
     ethr =  2.34E-08,  avg # of iterations =  1.8

     negative rho (up, down):  3.371E-06 0.000E+00

     total cpu time spent up to now is      138.6 secs

     total energy              =    -299.60522142 Ry
     estimated scf accuracy    <       0.00000270 Ry

     iteration #  5     ecut=    90.00 Ry     beta= 0.30
     Davidson diagonalization with overlap
     ethr =  3.97E-09,  avg # of iterations =  2.0

     negative rho (up, down):  3.394E-06 0.000E+00

     total cpu time spent up to now is      140.8 secs

     total energy              =    -299.60522162 Ry
     estimated scf accuracy    <       0.00000022 Ry

     iteration #  6     ecut=    90.00 Ry     beta= 0.30
     Davidson diagonalization with overlap
     ethr =  3.30E-10,  avg # of iterations =  3.6

     negative rho (up, down):  3.401E-06 0.000E+00

     total cpu time spent up to now is      143.3 secs

     total energy              =    -299.60522168 Ry
     estimated scf accuracy    <       0.00000011 Ry

     iteration #  7     ecut=    90.00 Ry     beta= 0.30
     Davidson diagonalization with overlap
     ethr =  1.62E-10,  avg # of iterations =  2.1

     negative rho (up, down):  3.407E-06 0.000E+00

     total cpu time spent up to now is      145.4 secs

     total energy              =    -299.60522169 Ry
     estimated scf accuracy    <       0.00000001 Ry

     iteration #  8     ecut=    90.00 Ry     beta= 0.30
     Davidson diagonalization with overlap
     ethr =  1.66E-11,  avg # of iterations =  3.3

     negative rho (up, down):  3.426E-06 0.000E+00

     total cpu time spent up to now is      147.9 secs

     End of self-consistent calculation

          k = 0.0000-0.0000 0.0000 ( 20251 PWs)   bands (ev):

   -16.7633 -15.7282 -13.8047 -12.2051 -12.1189 -11.2680 -11.0410 -10.8100
    -8.1383  -7.6817  -7.6426  -5.4137  -5.3752  -5.1566  -2.7141  -2.7040
    -2.1199  -1.6875  -1.3433  -0.7305  -0.2633   0.0748   0.4893   0.8356
     0.9660   1.4096   1.4506   1.5175   1.5619   2.0927   2.0934   2.7488
     3.0684   3.1209   6.5371   7.0391   8.5908   8.6576   9.0463   9.3950
     9.5994

          k = 0.0000-0.1000 0.0000 ( 20237 PWs)   bands (ev):

   -16.6026 -15.6215 -13.9016 -13.4442 -12.2513 -10.9916 -10.5255 -10.4281
    -8.0527  -7.5511  -7.0832  -5.5341  -5.3197  -4.8799  -2.7507  -2.6379
    -2.2614  -1.9553  -1.5623  -0.6603  -0.6572  -0.0241   0.3533   0.4668
     0.7375   0.9430   1.4143   1.5016   1.6236   2.1809   2.4630   2.5150
     2.7807   3.1624   6.7579   7.2488   8.8204   9.3183   9.4063   9.5957
     9.6779

          k = 0.0000-0.2000 0.0000 ( 20225 PWs)   bands (ev):

   -16.1806 -15.4973 -14.5972 -13.8226 -12.7379 -11.4170 -10.1449  -9.5232
    -7.6237  -6.8801  -6.4030  -5.6536  -5.0050  -4.4810  -3.7033  -3.1692
    -2.7416  -1.9119  -1.2539  -1.1826  -0.6126  -0.4400  -0.0132   0.2049
     0.6326   0.7294   1.3561   1.4387   1.5264   2.1132   2.1488   2.4213
     2.9009   3.2841   7.3860   7.8185   8.3973   8.7341   9.3204   9.5490
     9.6242

          k = 0.1111-0.0000 0.0000 ( 20245 PWs)   bands (ev):

   -16.5371 -15.5046 -13.5877 -11.9914 -11.9061 -11.0604 -10.8360 -10.6088
    -8.0295  -7.4925  -7.4614  -5.2784  -5.2250  -5.0755  -3.0831  -2.6595
    -2.5702  -1.9603  -1.9428  -1.1790  -0.3157  -0.2449   0.1252   0.4053
     0.6663   0.6857   0.7155   1.0436   1.0845   1.3980   1.4864   2.2568
     2.7204   2.8904   6.7529   7.2561   9.1456   9.2417   9.6382   9.8024
     9.9407

          k = 0.1111-0.1000 0.0000 ( 20228 PWs)   bands (ev):

   -16.3767 -15.3980 -13.6826 -13.2279 -12.0414 -10.7906 -10.3182 -10.2276
    -7.9362  -7.3730  -6.9076  -5.4330  -5.1419  -4.7949  -2.9840  -2.6641
    -2.4905  -2.0350  -1.9971  -1.7100  -0.6170  -0.3938  -0.3170   0.0479
     0.3671   0.5150   0.6322   1.2013   1.4036   1.5234   1.5708   1.9725
     2.6512   2.7870   6.9726   7.4652   9.1648   9.7323   9.7741   9.9992
    10.1868

          k = 0.1111-0.2000 0.0000 ( 20228 PWs)   bands (ev):

   -15.9557 -15.2739 -14.3754 -13.6053 -12.5270 -11.2143  -9.9498  -9.3233
    -7.5114  -6.7475  -6.2401  -5.4955  -4.8662  -4.3191  -3.5548  -3.1151
    -2.7013  -2.4991  -1.9677  -1.6152  -1.0594  -0.9829  -0.5558  -0.3059
     0.0668   0.2741   0.6927   1.0221   1.3240   1.6483   1.9615   2.0655
     2.4849   2.5448   7.6028   8.0279   8.6073   8.9044   9.2845   9.7052
    10.2712

          k = 0.2222-0.0000 0.0000 ( 20222 PWs)   bands (ev):

   -15.8620 -14.8382 -12.9453 -11.3553 -11.2728 -10.4491 -10.2263 -10.0187
    -7.9879  -6.9762  -6.9630  -5.5467  -4.9015  -4.8819  -4.8613  -3.6655
    -3.3100  -2.5155  -2.4927  -1.5347  -1.4793  -1.0463  -0.9188  -0.7149
    -0.6906  -0.6887  -0.0659   0.2688   0.5272   0.6547   1.1623   1.5092
     1.8030   2.7341   7.3902   7.7688   9.8442   9.9352  10.1717  10.2857
    10.5406

          k = 0.2222-0.1000 0.0000 ( 20228 PWs)   bands (ev):

   -15.7026 -14.7321 -13.0320 -12.5853 -11.4201 -10.2026  -9.7010  -9.6401
    -7.8632  -6.9201  -6.4458  -5.5407  -4.8881  -4.7391  -4.6613  -3.6513
    -3.2877  -2.6361  -2.5318  -1.7802  -1.6573  -1.3764  -1.2295  -0.9037
    -0.4769  -0.4317  -0.2999   0.2197   0.4127   0.7125   1.0584   1.1673
     1.8982   2.4281   7.5866   7.9740   9.4639   9.9563  10.0320  10.2359
    10.7411

          k = 0.2222-0.2000 0.0000 ( 20215 PWs)   bands (ev):

   -15.2842 -14.6078 -13.7147 -12.9601 -11.9037 -10.6216  -9.3916  -8.7365
    -7.4420  -6.5788  -5.8681  -5.2452  -4.6496  -4.4423  -4.0532  -3.7539
    -3.4310  -3.2419  -2.7329  -2.4478  -2.3116  -1.7907  -1.3576  -1.3013
    -0.4937  -0.3370  -0.1976   0.2086   0.3874   0.5456   1.0905   1.3341
     1.8231   1.9082   8.1118   8.5281   8.8446   9.1386   9.3048   9.8188
    10.2041

          k = 0.3333-0.0000 0.0000 ( 20254 PWs)   bands (ev):

   -14.7510 -13.7484 -11.9293 -10.3185 -10.2465  -9.5460  -9.2456  -9.1356
    -9.1266  -7.4250  -6.4789  -6.3213  -5.9746  -5.1537  -5.0692  -4.7816
    -3.9620  -3.4298  -3.3940  -2.7434  -2.7155  -2.5743  -1.4701  -1.4383
    -1.1893  -0.6242  -0.5741  -0.2400  -0.1559   0.3209   0.7019   0.9078
     1.3811   2.4890   8.4251   8.5785   9.9649  10.3122  10.4380  10.4515
    10.9936

          k = 0.3333-0.1000 0.0000 ( 20257 PWs)   bands (ev):

   -14.5932 -13.6426 -11.9844 -11.5472 -10.4356  -9.3785  -9.0243  -8.7561
    -8.6795  -7.3580  -6.6487  -6.1573  -5.6685  -5.2681  -4.8827  -4.2964
    -4.0549  -3.8413  -3.4140  -2.7681  -2.6930  -2.0626  -1.4716  -1.2442
    -1.0963  -0.8909  -0.6167  -0.4008  -0.2073   0.2059   0.3166   0.7453
     1.2374   1.8431   8.5682   8.7602   9.4685   9.8057  10.3748  10.8575
    10.9050

          k = 0.3333-0.2000 0.0000 ( 20240 PWs)   bands (ev):

   -14.1791 -13.5149 -12.6338 -11.9187 -10.9201  -9.7475  -8.8404  -8.6452
    -7.6779  -7.3297  -6.7057  -6.0648  -5.3461  -4.7793  -4.3477  -4.3290
    -3.9766  -3.5188  -3.1039  -2.9526  -2.7386  -2.2756  -1.9999  -1.6226
    -1.1879  -0.8448  -0.5815  -0.4312  -0.2154   0.0630   0.2162   0.6225
     0.8552   0.9770   8.5776   8.8041   9.2812   9.7535   9.8276  10.3085
    10.7580

          k = 0.4444-0.0000 0.0000 ( 20318 PWs)   bands (ev):

   -13.2409 -12.3336 -11.5283 -10.2490 -10.2089  -8.8793  -8.8319  -8.0505
    -8.0102  -7.8210  -7.5352  -7.1460  -7.0277  -6.2178  -6.1908  -5.4723
    -4.2944  -3.7149  -3.6927  -2.6964  -2.6773  -2.4016  -2.1899  -2.0081
    -1.8821  -1.0515  -1.0305  -0.7326  -0.5456   0.2150   0.4084   1.1098
     1.6331   1.9261   9.4851   9.7135   9.8366   9.9364  10.0684  10.4345
    11.3701

          k = 0.4444-0.1000 0.0000 ( 20269 PWs)   bands (ev):

   -13.0856 -12.2221 -11.3820 -10.4047 -10.1792  -9.9776  -9.1710  -8.7260
    -7.7270  -7.3434  -7.2730  -7.0276  -6.8023  -5.8532  -5.6458  -5.3730
    -4.2598  -3.8434  -3.6745  -2.7581  -2.6336  -2.1043  -1.8723  -1.8157
    -1.7328  -1.0867  -0.9929  -0.5998  -0.4903   0.1016   0.2131   0.5017
     0.9705   1.1686   9.0881   9.7801   9.9476  10.0187  10.2973  10.9741
    11.1601

          k = 0.4444-0.2000 0.0000 ( 20233 PWs)   bands (ev):

   -12.6771 -12.0614 -11.2142 -10.9909 -10.3658 -10.0452  -9.7507  -9.5911
    -7.7291  -7.5368  -7.0882  -6.6789  -6.2665  -5.9616  -4.9265  -4.5858
    -3.9573  -3.4404  -3.1157  -2.8444  -2.5319  -2.0391  -1.8691  -1.5257
    -1.2176  -0.9647  -0.9261  -0.8385  -0.6402  -0.3868  -0.2480  -0.1593
     0.0594   0.0979   9.0489   9.4121   9.9022  10.0923  10.4958  10.6202
    10.9130

     the Fermi energy is     5.0170 ev

!    total energy              =    -299.60522169 Ry
     estimated scf accuracy    <          3.4E-09 Ry
     smearing contrib. (-TS)   =      -0.00000000 Ry
     internal energy E=F+TS    =    -299.60522169 Ry

     The total energy is F=E-TS. E is the sum of the following terms:
     one-electron contribution =   -1744.74378537 Ry
     hartree contribution      =     901.91385603 Ry
     xc contribution           =     -77.44397142 Ry
     ewald contribution        =     719.27728033 Ry
     one-center paw contrib.   =     -98.60860126 Ry

     convergence has been achieved in   8 iterations

     negative rho (up, down):  3.426E-06 0.000E+00

     Forces acting on atoms (cartesian axes, Ry/au):

     atom    1 type  1   force =     0.00000000   -0.00355760   -0.00145162
     atom    2 type  1   force =     0.00000000   -0.00317701   -0.00383986
     atom    3 type  1   force =     0.00000000    0.00237976   -0.00085306
     atom    4 type  1   force =     0.00000000    0.00174609    0.00238307
     atom    5 type  1   force =     0.00000000    0.00059004    0.00316885
     atom    6 type  1   force =     0.00000000    0.00265448    0.00534981
     atom    7 type  1   force =     0.00000000   -0.00076046    0.00527641
     atom    8 type  1   force =     0.00000000   -0.00408539    0.00445068
     atom    9 type  1   force =     0.00000000    0.00408539   -0.00445068
     atom   10 type  1   force =     0.00000000    0.00076046   -0.00527641
     atom   11 type  1   force =     0.00000000   -0.00265448   -0.00534981
     atom   12 type  1   force =     0.00000000   -0.00059004   -0.00316885
     atom   13 type  1   force =     0.00000000   -0.00174609   -0.00238307
     atom   14 type  1   force =     0.00000000   -0.00237976    0.00085306
     atom   15 type  1   force =     0.00000000    0.00317701    0.00383986
     atom   16 type  1   force =     0.00000000    0.00355760    0.00145162
     atom   17 type  2   force =     0.00000000   -0.00242729   -0.00231461
     atom   18 type  2   force =     0.00000000    0.00349760   -0.00631170
     atom   19 type  2   force =     0.00000000   -0.00349760    0.00631170
     atom   20 type  2   force =     0.00000000    0.00242729    0.00231461

     Total force =     0.021402     Total SCF correction =     0.000138
     Energy error            =      9.0E-04 Ry
     Gradient error          =      6.3E-03 Ry/Bohr

     number of scf cycles    =   6
     number of bfgs steps    =   5

     energy             old  =    -299.6043186158 Ry
     energy             new  =    -299.6052216875 Ry

     CASE: energy            _new < energy            _old

     new trust radius        =       0.0317914668 bohr
     new conv_thr            =       0.0000000063 Ry


ATOMIC_POSITIONS (angstrom)
C                0.0000000000       -0.8045181419       11.2184329644
C                1.2634728900       -1.1732748183       10.4119495093
C                1.2634728900       -0.0260316918        9.3949121837
C               -0.0000000000       -0.0221753203        8.5364819816
C                0.0000000000       -1.2792198880        7.6336378063
C                1.2634728900       -1.2786761729        6.6990351219
C                1.2634728900        0.0969907617        5.8990681171
C                0.0000000000        0.4564040466        5.0823628335
C                0.0000000000       -4.2468227266       11.2057577565
C                1.2634728900       -3.8874094417       10.3890524729
C                1.2634728900       -2.5117424971        9.5890854681
C                0.0000000000       -2.5111987820        8.6544827837
C                0.0000000000       -3.7682433597        7.7516386084
C                1.2634728900       -3.7643869882        6.8932084063
C                1.2634728900       -2.6171438517        5.8761710807
C                0.0000000000       -2.9859005381        5.0696876256
H                0.0000000000       -1.2218089821       12.2363174832
H                0.0000000000       -3.8294134809       12.2269903937
H                0.0000000000        0.0389948009        4.0611301863
H                0.0000000000       -2.5686096879        4.0518030968



     Writing config-only to output data dir /tmp/qe/slab.save/ :
     XML data file
     NEW-OLD atomic charge density approx. for the potential

     negative rho (up, down):  4.233E-06 0.000E+00

     total cpu time spent up to now is      148.9 secs

     Self-consistent Calculation

     iteration #  1     ecut=    90.00 Ry     beta= 0.30
     Davidson diagonalization with overlap
     ethr =  1.00E-06,  avg # of iterations =  6.0

     negative rho (up, down):  4.148E-06 0.000E+00

     total cpu time spent up to now is      152.7 secs

     total energy              =    -299.60602300 Ry
     estimated scf accuracy    <       0.00033820 Ry

     iteration #  2     ecut=    90.00 Ry     beta= 0.30
     Davidson diagonalization with overlap
     ethr =  4.97E-07,  avg # of iterations =  1.9

     negative rho (up, down):  3.868E-06 0.000E+00

     total cpu time spent up to now is      154.6 secs

     total energy              =    -299.60602618 Ry
     estimated scf accuracy    <       0.00010991 Ry

     iteration #  3     ecut=    90.00 Ry     beta= 0.30
     Davidson diagonalization with overlap
     ethr =  1.62E-07,  avg # of iterations =  2.0

     negative rho (up, down):  3.737E-06 0.000E+00

     total cpu time spent up to now is      156.7 secs

     total energy              =    -299.60603350 Ry
     estimated scf accuracy    <       0.00002050 Ry

     iteration #  4     ecut=    90.00 Ry     beta= 0.30
     Davidson diagonalization with overlap
     ethr =  3.01E-08,  avg # of iterations =  2.0

     negative rho (up, down):  3.732E-06 0.000E+00

     total cpu time spent up to now is      158.7 secs

     total energy              =    -299.60603516 Ry
     estimated scf accuracy    <       0.00000242 Ry

     iteration #  5     ecut=    90.00 Ry     beta= 0.30
     Davidson diagonalization with overlap
     ethr =  3.56E-09,  avg # of iterations =  3.3

     negative rho (up, down):  3.760E-06 0.000E+00

     total cpu time spent up to now is      161.1 secs

     total energy              =    -299.60603539 Ry
     estimated scf accuracy    <       0.00000035 Ry

     iteration #  6     ecut=    90.00 Ry     beta= 0.30
     Davidson diagonalization with overlap
     ethr =  5.15E-10,  avg # of iterations =  3.2

     negative rho (up, down):  3.769E-06 0.000E+00

     total cpu time spent up to now is      163.7 secs

     total energy              =    -299.60603547 Ry
     estimated scf accuracy    <       0.00000017 Ry

     iteration #  7     ecut=    90.00 Ry     beta= 0.30
     Davidson diagonalization with overlap
     ethr =  2.47E-10,  avg # of iterations =  2.0

     negative rho (up, down):  3.774E-06 0.000E+00

     total cpu time spent up to now is      165.8 secs

     total energy              =    -299.60603548 Ry
     estimated scf accuracy    <       0.00000002 Ry

     iteration #  8     ecut=    90.00 Ry     beta= 0.30
     Davidson diagonalization with overlap
     ethr =  2.52E-11,  avg # of iterations =  4.3

     negative rho (up, down):  3.783E-06 0.000E+00

     total cpu time spent up to now is      168.6 secs

     total energy              =    -299.60603549 Ry
     estimated scf accuracy    <       0.00000001 Ry

     iteration #  9     ecut=    90.00 Ry     beta= 0.30
     Davidson diagonalization with overlap
     ethr =  1.76E-11,  avg # of iterations =  2.0

     negative rho (up, down):  3.800E-06 0.000E+00

     total cpu time spent up to now is      170.9 secs

     End of self-consistent calculation

          k = 0.0000-0.0000 0.0000 ( 20251 PWs)   bands (ev):

   -16.8015 -15.7512 -13.8261 -12.2387 -12.1495 -11.2797 -11.0503 -10.8295
    -8.1381  -7.6999  -7.6615  -5.4264  -5.3781  -5.1330  -2.7257  -2.7025
    -2.0900  -1.7353  -1.3795  -0.7585  -0.2726   0.0723   0.4863   0.8642
     0.9422   1.3991   1.4098   1.4708   1.5705   2.0822   2.0837   2.7466
     3.0391   3.1481   6.5438   7.0402   8.5549   8.6135   9.0282   9.3701
     9.6186

          k = 0.0000-0.1000 0.0000 ( 20237 PWs)   bands (ev):

   -16.6405 -15.6457 -13.9345 -13.4661 -12.2624 -11.0121 -10.5543 -10.4331
    -8.0523  -7.5664  -7.1059  -5.5323  -5.3321  -4.8672  -2.7593  -2.6434
    -2.2450  -1.9881  -1.6099  -0.6901  -0.6506  -0.0343   0.3491   0.4844
     0.6924   0.9189   1.4349   1.4767   1.6268   2.1567   2.4375   2.5154
     2.8039   3.1369   6.7652   7.2507   8.7968   9.2789   9.3897   9.5928
     9.6804

          k = 0.0000-0.2000 0.0000 ( 20225 PWs)   bands (ev):

   -16.2163 -15.5299 -14.6322 -13.8385 -12.7464 -11.4384 -10.1479  -9.5416
    -7.6146  -6.8916  -6.4317  -5.6711  -5.0200  -4.4905  -3.7137  -3.1727
    -2.7425  -1.9257  -1.3003  -1.1721  -0.6520  -0.4294  -0.0028   0.1673
     0.6227   0.7072   1.3378   1.4604   1.5427   2.1166   2.1186   2.4297
     2.8719   3.2615   7.3936   7.8204   8.4100   8.7433   9.3130   9.5659
     9.6129

          k = 0.1111-0.0000 0.0000 ( 20245 PWs)   bands (ev):

   -16.5753 -15.5276 -13.6091 -12.0251 -11.9367 -11.0721 -10.8453 -10.6284
    -8.0292  -7.5107  -7.4810  -5.2892  -5.2281  -5.0558  -3.1130  -2.6630
    -2.5869  -1.9797  -1.9295  -1.2134  -0.3322  -0.2537   0.1120   0.3809
     0.6452   0.6510   0.7199   1.0343   1.0766   1.3929   1.4904   2.2391
     2.7211   2.9058   6.7604   7.2577   9.1232   9.2004   9.6241   9.8180
     9.9156

          k = 0.1111-0.1000 0.0000 ( 20228 PWs)   bands (ev):

   -16.4146 -15.4222 -13.7155 -13.2498 -12.0525 -10.8112 -10.3470 -10.2328
    -7.9353  -7.3888  -6.9309  -5.4319  -5.1541  -4.7840  -3.0098  -2.6721
    -2.5047  -2.0338  -2.0303  -1.7336  -0.6163  -0.4279  -0.3371   0.0369
     0.3590   0.5204   0.6174   1.1872   1.4091   1.4975   1.5669   1.9597
     2.6647   2.7838   6.9804   7.4676   9.1614   9.7362   9.7756  10.0142
    10.1428

          k = 0.1111-0.2000 0.0000 ( 20228 PWs)   bands (ev):

   -15.9914 -15.3066 -14.4104 -13.6212 -12.5354 -11.2358  -9.9530  -9.3418
    -7.5023  -6.7590  -6.2693  -5.5127  -4.8803  -4.3296  -3.5658  -3.1194
    -2.7135  -2.5274  -2.0020  -1.6309  -1.0542  -1.0176  -0.5710  -0.3048
     0.0713   0.2629   0.6863   0.9971   1.3426   1.6431   1.9547   2.0458
     2.4841   2.5362   7.6109   8.0300   8.6202   8.9132   9.3015   9.7280
    10.2738

          k = 0.2222-0.0000 0.0000 ( 20222 PWs)   bands (ev):

   -15.9002 -14.8611 -12.9665 -11.3889 -11.3033 -10.4607 -10.2356 -10.0382
    -7.9943  -6.9951  -6.9844  -5.5519  -4.9344  -4.8887  -4.8704  -3.6689
    -3.3199  -2.5341  -2.5044  -1.5633  -1.5093  -1.0360  -0.9352  -0.7434
    -0.6976  -0.6953  -0.0738   0.2570   0.5197   0.6421   1.1521   1.5164
     1.8126   2.7251   7.3990   7.7727   9.8380   9.9089  10.1704  10.3108
    10.5302

          k = 0.2222-0.1000 0.0000 ( 20228 PWs)   bands (ev):

   -15.7405 -14.7563 -13.0645 -12.6072 -11.4312 -10.2233  -9.7293  -9.6463
    -7.8674  -6.9380  -6.4711  -5.5477  -4.8971  -4.7701  -4.6732  -3.6617
    -3.2952  -2.6618  -2.5424  -1.8022  -1.6771  -1.4022  -1.2328  -0.9235
    -0.4814  -0.4429  -0.2998   0.2059   0.4028   0.7079   1.0544   1.1653
     1.9046   2.4235   7.5958   7.9787   9.4832   9.9665  10.0308  10.2398
    10.7604

          k = 0.2222-0.2000 0.0000 ( 20215 PWs)   bands (ev):

   -15.3199 -14.6405 -13.7496 -12.9758 -11.9119 -10.6431  -9.3958  -8.7554
    -7.4392  -6.5947  -5.8977  -5.2612  -4.6658  -4.4731  -4.0748  -3.7773
    -3.4414  -3.2676  -2.7587  -2.4554  -2.3277  -1.7947  -1.3717  -1.3176
    -0.4916  -0.3391  -0.1984   0.1933   0.3820   0.5383   1.0844   1.3304
     1.8163   1.9100   8.1225   8.5350   8.8594   9.1557   9.3141   9.8391
    10.2305

          k = 0.3333-0.0000 0.0000 ( 20254 PWs)   bands (ev):

   -14.7889 -13.7711 -11.9501 -10.3515 -10.2760  -9.5582  -9.2566  -9.1546
    -9.1542  -7.4535  -6.5049  -6.3349  -5.9934  -5.1760  -5.0855  -4.7786
    -3.9735  -3.4551  -3.4245  -2.7509  -2.7270  -2.5834  -1.4740  -1.4317
    -1.1797  -0.6257  -0.5711  -0.2584  -0.1852   0.2826   0.7079   0.9156
     1.3668   2.4720   8.4352   8.5892  10.0016  10.3249  10.4586  10.4586
    11.0001

          k = 0.3333-0.1000 0.0000 ( 20257 PWs)   bands (ev):

   -14.6309 -13.6665 -12.0158 -11.5697 -10.4463  -9.3986  -9.0489  -8.7687
    -8.7070  -7.3845  -6.6713  -6.1801  -5.6837  -5.2904  -4.8881  -4.3089
    -4.0766  -3.8612  -3.4235  -2.7785  -2.7152  -2.0607  -1.4806  -1.2336
    -1.0944  -0.9118  -0.6213  -0.4199  -0.2238   0.1792   0.3128   0.7494
     1.2333   1.8277   8.5810   8.7730   9.4872   9.8340  10.3829  10.8816
    10.9241

          k = 0.3333-0.2000 0.0000 ( 20240 PWs)   bands (ev):

   -14.2145 -13.5474 -12.6685 -11.9339 -10.9276  -9.7697  -8.8561  -8.6654
    -7.6961  -7.3552  -6.7310  -6.0875  -5.3607  -4.7908  -4.3634  -4.3539
    -3.9978  -3.5361  -3.1176  -2.9711  -2.7598  -2.2826  -2.0115  -1.6214
    -1.1911  -0.8462  -0.5907  -0.4345  -0.2256   0.0535   0.2098   0.6047
     0.8461   0.9707   8.6012   8.8248   9.2913   9.7667   9.8351  10.3236
    10.7761

          k = 0.4444-0.0000 0.0000 ( 20318 PWs)   bands (ev):

   -13.2780 -12.3552 -11.5609 -10.2691 -10.2292  -8.9145  -8.8629  -8.0717
    -8.0247  -7.8406  -7.5668  -7.1721  -7.0477  -6.2326  -6.2039  -5.4910
    -4.2861  -3.7371  -3.7198  -2.7034  -2.6922  -2.3995  -2.2048  -2.0034
    -1.8698  -1.0475  -1.0278  -0.7608  -0.5727   0.2173   0.4195   1.0739
     1.6185   1.9011   9.5044   9.7340   9.8438   9.9659  10.1054  10.4656
    11.3824

          k = 0.4444-0.1000 0.0000 ( 20269 PWs)   bands (ev):

   -13.1224 -12.2450 -11.4147 -10.4374 -10.1986  -9.9991  -9.1841  -8.7587
    -7.7513  -7.3711  -7.2977  -7.0375  -6.8211  -5.8720  -5.6732  -5.3867
    -4.2551  -3.8606  -3.6967  -2.7649  -2.6402  -2.1006  -1.8805  -1.8173
    -1.7306  -1.0892  -0.9933  -0.6251  -0.5187   0.0963   0.2179   0.4737
     0.9585   1.1451   9.1120   9.8021   9.9602  10.0441  10.3277  10.9901
    11.1822

          k = 0.4444-0.2000 0.0000 ( 20233 PWs)   bands (ev):

   -12.7118 -12.0926 -11.2517 -11.0147 -10.3840 -10.0750  -9.7604  -9.6160
    -7.7512  -7.5633  -7.1048  -6.6908  -6.2877  -5.9899  -4.9343  -4.6040
    -3.9513  -3.4567  -3.1379  -2.8527  -2.5466  -2.0446  -1.8630  -1.5405
    -1.2260  -0.9755  -0.9283  -0.8528  -0.6592  -0.4094  -0.2627  -0.1697
     0.0472   0.0902   9.0707   9.4293   9.9199  10.1163  10.5286  10.6248
    10.9253

     the Fermi energy is     5.0167 ev

!    total energy              =    -299.60603549 Ry
     estimated scf accuracy    <          1.0E-09 Ry
     smearing contrib. (-TS)   =      -0.00000000 Ry
     internal energy E=F+TS    =    -299.60603549 Ry

     The total energy is F=E-TS. E is the sum of the following terms:
     one-electron contribution =   -1753.60298445 Ry
     hartree contribution      =     906.32695104 Ry
     xc contribution           =     -77.47552570 Ry
     ewald contribution        =     723.75480194 Ry
     one-center paw contrib.   =     -98.60927832 Ry

     convergence has been achieved in   9 iterations

     negative rho (up, down):  3.800E-06 0.000E+00

     Forces acting on atoms (cartesian axes, Ry/au):

     atom    1 type  1   force =     0.00000000   -0.00574337   -0.00193829
     atom    2 type  1   force =     0.00000000   -0.00358454   -0.00544712
     atom    3 type  1   force =     0.00000000    0.00499507    0.00258496
     atom    4 type  1   force =     0.00000000    0.00397328   -0.00068276
     atom    5 type  1   force =     0.00000000    0.00241632    0.00100623
     atom    6 type  1   force =     0.00000000    0.00425588    0.00212394
     atom    7 type  1   force =     0.00000000   -0.00316937    0.00287796
     atom    8 type  1   force =     0.00000000   -0.00472486    0.00192689
     atom    9 type  1   force =    -0.00000000    0.00472486   -0.00192689
     atom   10 type  1   force =     0.00000000    0.00316937   -0.00287796
     atom   11 type  1   force =     0.00000000   -0.00425588   -0.00212394
     atom   12 type  1   force =     0.00000000   -0.00241632   -0.00100623
     atom   13 type  1   force =     0.00000000   -0.00397328    0.00068276
     atom   14 type  1   force =     0.00000000   -0.00499507   -0.00258496
     atom   15 type  1   force =     0.00000000    0.00358454    0.00544712
     atom   16 type  1   force =    -0.00000000    0.00574337    0.00193829
     atom   17 type  2   force =     0.00000000   -0.00081728   -0.00046884
     atom   18 type  2   force =     0.00000000    0.00275810   -0.00541542
     atom   19 type  2   force =     0.00000000   -0.00275810    0.00541542
     atom   20 type  2   force =     0.00000000    0.00081728    0.00046884

     Total force =     0.021855     Total SCF correction =     0.000096
     Energy error            =      8.1E-04 Ry
     Gradient error          =      5.7E-03 Ry/Bohr

     number of scf cycles    =   7
     number of bfgs steps    =   6

     energy             old  =    -299.6052216875 Ry
     energy             new  =    -299.6060354888 Ry

     CASE: energy            _new < energy            _old

     new trust radius        =       0.0386326106 bohr
     new conv_thr            =       0.0000000057 Ry


ATOMIC_POSITIONS (angstrom)
C                0.0000000000       -0.8065850037       11.2113406739
C                1.2634728900       -1.1754621267       10.4058149947
C                1.2634728900       -0.0274783465        9.3912924917
C               -0.0000000000       -0.0222077979        8.5346521001
C                0.0000000000       -1.2793969413        7.6373548223
C                1.2634728900       -1.2771777329        6.7063034257
C                1.2634728900        0.0980571896        5.9106742769
C                0.0000000000        0.4543401777        5.0945048000
C               -0.0000000000       -4.2447588577       11.1936157900
C                1.2634728900       -3.8884758696       10.3774463131
C                1.2634728900       -2.5132409371        9.5818171643
C                0.0000000000       -2.5110217287        8.6507657677
C                0.0000000000       -3.7682108821        7.7534684899
C                1.2634728900       -3.7629403335        6.8968280983
C                1.2634728900       -2.6149565433        5.8823055953
C               -0.0000000000       -2.9838336763        5.0767799161
H                0.0000000000       -1.2294040425       12.2273580426
H                0.0000000000       -3.8188859648       12.2094658972
H                0.0000000000        0.0284672848        4.0786546828
H                0.0000000000       -2.5610146275        4.0607625374



     Writing config-only to output data dir /tmp/qe/slab.save/ :
     XML data file
     NEW-OLD atomic charge density approx. for the potential

     negative rho (up, down):  4.768E-06 0.000E+00

     total cpu time spent up to now is      171.8 secs

     Self-consistent Calculation

     iteration #  1     ecut=    90.00 Ry     beta= 0.30
     Davidson diagonalization with overlap
     ethr =  1.00E-06,  avg # of iterations =  6.9

     negative rho (up, down):  4.634E-06 0.000E+00

     total cpu time spent up to now is      175.8 secs

     total energy              =    -299.60669531 Ry
     estimated scf accuracy    <       0.00048640 Ry

     iteration #  2     ecut=    90.00 Ry     beta= 0.30
     Davidson diagonalization with overlap
     ethr =  7.15E-07,  avg # of iterations =  2.7

     negative rho (up, down):  4.315E-06 0.000E+00

     total cpu time spent up to now is      177.9 secs

     total energy              =    -299.60671048 Ry
     estimated scf accuracy    <       0.00014779 Ry

     iteration #  3     ecut=    90.00 Ry     beta= 0.30
     Davidson diagonalization with overlap
     ethr =  2.17E-07,  avg # of iterations =  1.1

     negative rho (up, down):  4.115E-06 0.000E+00

     total cpu time spent up to now is      179.8 secs

     total energy              =    -299.60671317 Ry
     estimated scf accuracy    <       0.00004011 Ry

     iteration #  4     ecut=    90.00 Ry     beta= 0.30
     Davidson diagonalization with overlap
     ethr =  5.90E-08,  avg # of iterations =  2.0

     negative rho (up, down):  4.119E-06 0.000E+00

     total cpu time spent up to now is      181.8 secs

     total energy              =    -299.60671610 Ry
     estimated scf accuracy    <       0.00000281 Ry

     iteration #  5     ecut=    90.00 Ry     beta= 0.30
     Davidson diagonalization with overlap
     ethr =  4.13E-09,  avg # of iterations =  3.1

     negative rho (up, down):  4.144E-06 0.000E+00

     total cpu time spent up to now is      184.3 secs

     total energy              =    -299.60671650 Ry
     estimated scf accuracy    <       0.00000046 Ry

     iteration #  6     ecut=    90.00 Ry     beta= 0.30
     Davidson diagonalization with overlap
     ethr =  6.83E-10,  avg # of iterations =  2.3

     negative rho (up, down):  4.155E-06 0.000E+00

     total cpu time spent up to now is      186.7 secs

     total energy              =    -299.60671660 Ry
     estimated scf accuracy    <       0.00000008 Ry

     iteration #  7     ecut=    90.00 Ry     beta= 0.30
     Davidson diagonalization with overlap
     ethr =  1.14E-10,  avg # of iterations =  2.0

     negative rho (up, down):  4.168E-06 0.000E+00

     total cpu time spent up to now is      188.8 secs

     total energy              =    -299.60671660 Ry
     estimated scf accuracy    <       0.00000001 Ry

     iteration #  8     ecut=    90.00 Ry     beta= 0.30
     Davidson diagonalization with overlap
     ethr =  1.79E-11,  avg # of iterations =  3.6

     negative rho (up, down):  4.192E-06 0.000E+00

     total cpu time spent up to now is      191.4 secs

     End of self-consistent calculation

          k = 0.0000-0.0000 0.0000 ( 20251 PWs)   bands (ev):

   -16.8478 -15.7754 -13.8407 -12.2870 -12.1923 -11.2896 -11.0773 -10.8435
    -8.1304  -7.7332  -7.6891  -5.4400  -5.3920  -5.1053  -2.7328  -2.7006
    -2.0532  -1.7842  -1.4415  -0.7856  -0.2921   0.0750   0.4773   0.8983
     0.9272   1.3552   1.4090   1.4246   1.5716   2.0544   2.0563   2.7137
     3.0292   3.1769   6.5555   7.0470   8.5196   8.5662   9.0103   9.3436
     9.6277

          k = 0.0000-0.1000 0.0000 ( 20237 PWs)   bands (ev):

   -16.6863 -15.6695 -13.9659 -13.4993 -12.2842 -11.0252 -10.5949 -10.4434
    -8.0468  -7.5945  -7.1371  -5.5276  -5.3516  -4.8599  -2.7712  -2.6510
    -2.2322  -2.0272  -1.6578  -0.7171  -0.6598  -0.0365   0.3448   0.4983
     0.6416   0.9019   1.4456   1.4478   1.6290   2.1307   2.4075   2.5006
     2.8259   3.1212   6.7767   7.2574   8.7744   9.2425   9.3610   9.5879
     9.6795

          k = 0.0000-0.2000 0.0000 ( 20225 PWs)   bands (ev):

   -16.2597 -15.5577 -14.6799 -13.8612 -12.7608 -11.4598 -10.1485  -9.5658
    -7.6049  -6.9049  -6.4720  -5.6906  -5.0508  -4.5008  -3.7377  -3.1877
    -2.7501  -1.9321  -1.3451  -1.1751  -0.6836  -0.4214   0.0062   0.1165
     0.6281   0.6815   1.3183   1.4743   1.5512   2.0934   2.1110   2.4439
     2.8523   3.2340   7.4037   7.8235   8.4228   8.7478   9.2991   9.5583
     9.5923

          k = 0.1111-0.0000 0.0000 ( 20245 PWs)   bands (ev):

   -16.6216 -15.5518 -13.6237 -12.0733 -11.9794 -11.0820 -10.8724 -10.6424
    -8.0207  -7.5440  -7.5109  -5.2998  -5.2426  -5.0339  -3.1473  -2.6640
    -2.5958  -2.0021  -1.9094  -1.2740  -0.3404  -0.2733   0.0981   0.3505
     0.6180   0.6306   0.7401   1.0129   1.0510   1.3835   1.4832   2.2364
     2.6990   2.9187   6.7723   7.2654   9.1043   9.1514   9.6066   9.8198
     9.8990

          k = 0.1111-0.1000 0.0000 ( 20228 PWs)   bands (ev):

   -16.4604 -15.4461 -13.7467 -13.2831 -12.0744 -10.8242 -10.3875 -10.2432
    -7.9287  -7.4184  -6.9630  -5.4273  -5.1738  -4.7795  -3.0402  -2.6807
    -2.5179  -2.0724  -2.0316  -1.7603  -0.6316  -0.4679  -0.3520   0.0312
     0.3491   0.5220   0.6019   1.1705   1.4100   1.4702   1.5584   1.9447
     2.6835   2.7704   6.9922   7.4751   9.1540   9.7376   9.7753  10.0274
    10.0971

          k = 0.1111-0.2000 0.0000 ( 20228 PWs)   bands (ev):

   -16.0347 -15.3344 -14.4581 -13.6439 -12.5499 -11.2572  -9.9537  -9.3660
    -7.4929  -6.7718  -6.3104  -5.5320  -4.9099  -4.3417  -3.5905  -3.1338
    -2.7360  -2.5534  -2.0286  -1.6459  -1.0699  -1.0528  -0.5861  -0.3087
     0.0756   0.2504   0.6882   0.9791   1.3549   1.6344   1.9424   2.0292
     2.4879   2.5241   7.6210   8.0334   8.6326   8.9176   9.3083   9.7233
    10.2777

          k = 0.2222-0.0000 0.0000 ( 20222 PWs)   bands (ev):

   -15.9465 -14.8853 -12.9812 -11.4370 -11.3459 -10.4698 -10.2629 -10.0528
    -7.9941  -7.0286  -7.0188  -5.5532  -4.9670  -4.9064  -4.8893  -3.6664
    -3.3237  -2.5519  -2.5198  -1.5939  -1.5415  -1.0175  -0.9297  -0.7974
    -0.7199  -0.7174  -0.0875   0.2452   0.5176   0.6322   1.1185   1.5352
     1.8338   2.6819   7.4111   7.7817   9.8332   9.8725  10.1710  10.3358
    10.5271

          k = 0.2222-0.1000 0.0000 ( 20228 PWs)   bands (ev):

   -15.7862 -14.7802 -13.0954 -12.6408 -11.4532 -10.2360  -9.7691  -9.6575
    -7.8671  -6.9711  -6.5049  -5.5506  -4.9170  -4.8027  -4.6944  -3.6651
    -3.3005  -2.6920  -2.5604  -1.8328  -1.7012  -1.4334  -1.2319  -0.9344
    -0.4955  -0.4626  -0.3096   0.1986   0.3865   0.7020   1.0475   1.1670
     1.9158   2.3994   7.6078   7.9877   9.4976   9.9776  10.0322  10.2418
    10.7718

          k = 0.2222-0.2000 0.0000 ( 20215 PWs)   bands (ev):

   -15.3632 -14.6683 -13.7974 -12.9984 -11.9266 -10.6646  -9.3963  -8.7795
    -7.4393  -6.6095  -5.9390  -5.2804  -4.6972  -4.5013  -4.1066  -3.7937
    -3.4577  -3.3052  -2.7936  -2.4744  -2.3489  -1.8075  -1.3808  -1.3352
    -0.4908  -0.3423  -0.1982   0.1708   0.3774   0.5368   1.0725   1.3328
     1.8053   1.9108   8.1333   8.5431   8.8697   9.1707   9.3197   9.8529
    10.2419

          k = 0.3333-0.0000 0.0000 ( 20254 PWs)   bands (ev):

   -14.8351 -13.7955 -11.9659 -10.3987 -10.3180  -9.5591  -9.2879  -9.1792
    -9.1777  -7.4784  -6.5417  -6.3669  -6.0064  -5.2023  -5.1167  -4.7832
    -3.9705  -3.4806  -3.4578  -2.7612  -2.7454  -2.5838  -1.4881  -1.4343
    -1.1621  -0.6387  -0.5825  -0.2634  -0.1958   0.2245   0.7240   0.9374
     1.3245   2.4227   8.4489   8.6022  10.0429  10.3463  10.4694  10.4791
    11.0124

          k = 0.3333-0.1000 0.0000 ( 20257 PWs)   bands (ev):

   -14.6765 -13.6906 -12.0453 -11.6053 -10.4688  -9.4095  -9.0680  -8.7913
    -8.7469  -7.4087  -6.7076  -6.2047  -5.7041  -5.3270  -4.8911  -4.3379
    -4.0851  -3.8884  -3.4381  -2.7841  -2.7338  -2.0683  -1.4875  -1.2290
    -1.0899  -0.9483  -0.6381  -0.4367  -0.2422   0.1603   0.3094   0.7624
     1.2196   1.7858   8.5968   8.7878   9.5113   9.8665  10.3888  10.8904
    10.9453

          k = 0.3333-0.2000 0.0000 ( 20240 PWs)   bands (ev):

   -14.2577 -13.5752 -12.7163 -11.9563 -10.9435  -9.7925  -8.8622  -8.6871
    -7.7233  -7.3822  -6.7639  -6.1146  -5.3762  -4.8064  -4.3947  -4.3685
    -4.0277  -3.5625  -3.1288  -2.9989  -2.7901  -2.2916  -2.0382  -1.6287
    -1.1996  -0.8471  -0.5952  -0.4507  -0.2310   0.0432   0.1966   0.6022
     0.8282   0.9631   8.6279   8.8422   9.3003   9.7811   9.8322  10.3234
    10.7918

          k = 0.4444-0.0000 0.0000 ( 20318 PWs)   bands (ev):

   -13.3237 -12.3809 -11.6039 -10.2740 -10.2406  -8.9625  -8.9053  -8.1025
    -8.0523  -7.8660  -7.5943  -7.2078  -7.0738  -6.2589  -6.2313  -5.4928
    -4.2750  -3.7658  -3.7531  -2.7167  -2.7149  -2.3957  -2.2192  -2.0083
    -1.8604  -1.0548  -1.0366  -0.7674  -0.5784   0.2376   0.4412   1.0105
     1.5744   1.8463   9.5342   9.7529   9.8613   9.9993  10.1494  10.4994
    11.3986

          k = 0.4444-0.1000 0.0000 ( 20269 PWs)   bands (ev):

   -13.1675 -12.2705 -11.4575 -10.4715 -10.2094 -10.0190  -9.2105  -8.8017
    -7.7730  -7.4003  -7.3324  -7.0504  -6.8487  -5.8997  -5.7107  -5.3915
    -4.2513  -3.8915  -3.7251  -2.7689  -2.6506  -2.0973  -1.8889  -1.8269
    -1.7362  -1.1000  -1.0042  -0.6287  -0.5295   0.0951   0.2263   0.4339
     0.9237   1.0934   9.1430   9.8269   9.9774  10.0708  10.3645  11.0095
    11.2020

          k = 0.4444-0.2000 0.0000 ( 20233 PWs)   bands (ev):

   -12.7547 -12.1209 -11.3011 -11.0530 -10.4089 -10.0970  -9.7671  -9.6467
    -7.7785  -7.5945  -7.1237  -6.6993  -6.3148  -6.0158  -4.9401  -4.6306
    -3.9505  -3.4778  -3.1755  -2.8641  -2.5701  -2.0572  -1.8555  -1.5659
    -1.2468  -0.9949  -0.9390  -0.8719  -0.6841  -0.4470  -0.2666  -0.1717
     0.0422   0.0850   9.0973   9.4519   9.9346  10.1202  10.5579  10.6328
    10.9191

     the Fermi energy is     5.0173 ev

!    total energy              =    -299.60671660 Ry
     estimated scf accuracy    <          3.4E-09 Ry
     smearing contrib. (-TS)   =      -0.00000000 Ry
     internal energy E=F+TS    =    -299.60671660 Ry

     The total energy is F=E-TS. E is the sum of the following terms:
     one-electron contribution =   -1764.20159114 Ry
     hartree contribution      =     911.60262201 Ry
     xc contribution           =     -77.50994770 Ry
     ewald contribution        =     729.11227915 Ry
     one-center paw contrib.   =     -98.61007893 Ry

     convergence has been achieved in   8 iterations

     negative rho (up, down):  4.192E-06 0.000E+00

     Forces acting on atoms (cartesian axes, Ry/au):

     atom    1 type  1   force =     0.00000000   -0.00450572   -0.00061117
     atom    2 type  1   force =     0.00000000   -0.00275703   -0.00464188
     atom    3 type  1   force =     0.00000000    0.00501291    0.00031525
     atom    4 type  1   force =     0.00000000    0.00270173    0.00134422
     atom    5 type  1   force =     0.00000000    0.00250872   -0.00155751
     atom    6 type  1   force =     0.00000000    0.00299565   -0.00039943
     atom    7 type  1   force =     0.00000000   -0.00338258   -0.00114078
     atom    8 type  1   force =     0.00000000   -0.00225972   -0.00032644
     atom    9 type  1   force =     0.00000000    0.00225972    0.00032644
     atom   10 type  1   force =     0.00000000    0.00338258    0.00114078
     atom   11 type  1   force =     0.00000000   -0.00299565    0.00039943
     atom   12 type  1   force =     0.00000000   -0.00250872    0.00155751
     atom   13 type  1   force =     0.00000000   -0.00270173   -0.00134422
     atom   14 type  1   force =     0.00000000   -0.00501291   -0.00031525
     atom   15 type  1   force =     0.00000000    0.00275703    0.00464188
     atom   16 type  1   force =     0.00000000    0.00450572    0.00061117
     atom   17 type  2   force =     0.00000000    0.00089772   -0.00025425
     atom   18 type  2   force =     0.00000000    0.00223050   -0.00289089
     atom   19 type  2   force =     0.00000000   -0.00223050    0.00289089
     atom   20 type  2   force =    -0.00000000   -0.00089772    0.00025425

     Total force =     0.016381     Total SCF correction =     0.000181
     Energy error            =      6.8E-04 Ry
     Gradient error          =      5.0E-03 Ry/Bohr

     number of scf cycles    =   8
     number of bfgs steps    =   7

     energy             old  =    -299.6060354888 Ry
     energy             new  =    -299.6067165991 Ry

     CASE: energy            _new < energy            _old

     new trust radius        =       0.0195423151 bohr
     new conv_thr            =       0.0000000050 Ry


ATOMIC_POSITIONS (angstrom)
C                0.0000000000       -0.8098688970       11.2076186967
C                1.2634728900       -1.1776604550       10.4009592032
C                1.2634728900       -0.0253865232        9.3896741195
C               -0.0000000000       -0.0208410684        8.5356050351
C                0.0000000000       -1.2779374144        7.6387507555
C                1.2634728900       -1.2750992131        6.7099683993
C                1.2634728900        0.0967584333        5.9141936515
C                0.0000000000        0.4525705831        5.0997868318
C               -0.0000000000       -4.2429892631       11.1883337582
C                1.2634728900       -3.8871771133       10.3739269385
C                1.2634728900       -2.5153194569        9.5781521907
C                0.0000000000       -2.5124812556        8.6493698345
C                0.0000000000       -3.7695776116        7.7525155549
C                1.2634728900       -3.7650321568        6.8984464705
C                1.2634728900       -2.6127582150        5.8871613868
C               -0.0000000000       -2.9805497830        5.0805018933
H                0.0000000000       -1.2320029617       12.2237595723
H                0.0000000000       -3.8129582996       12.2009920398
H                0.0000000000        0.0225396196        4.0871285402
H               -0.0000000000       -2.5584157083        4.0643610077



     Writing config-only to output data dir /tmp/qe/slab.save/ :
     XML data file
     NEW-OLD atomic charge density approx. for the potential

     negative rho (up, down):  4.631E-06 0.000E+00

     total cpu time spent up to now is      192.4 secs

     Self-consistent Calculation

     iteration #  1     ecut=    90.00 Ry     beta= 0.30
     Davidson diagonalization with overlap
     ethr =  1.00E-06,  avg # of iterations =  4.1

     negative rho (up, down):  4.555E-06 0.000E+00

     total cpu time spent up to now is      195.6 secs

     total energy              =    -299.60695994 Ry
     estimated scf accuracy    <       0.00011674 Ry

     iteration #  2     ecut=    90.00 Ry     beta= 0.30
     Davidson diagonalization with overlap
     ethr =  1.72E-07,  avg # of iterations =  2.0

     negative rho (up, down):  4.362E-06 0.000E+00

     total cpu time spent up to now is      197.7 secs

     total energy              =    -299.60696023 Ry
     estimated scf accuracy    <       0.00004192 Ry

     iteration #  3     ecut=    90.00 Ry     beta= 0.30
     Davidson diagonalization with overlap
     ethr =  6.17E-08,  avg # of iterations =  2.0

     negative rho (up, down):  4.295E-06 0.000E+00

     total cpu time spent up to now is      199.9 secs

     total energy              =    -299.60696420 Ry
     estimated scf accuracy    <       0.00000629 Ry

     iteration #  4     ecut=    90.00 Ry     beta= 0.30
     Davidson diagonalization with overlap
     ethr =  9.24E-09,  avg # of iterations =  2.9

     negative rho (up, down):  4.286E-06 0.000E+00

     total cpu time spent up to now is      202.3 secs

     total energy              =    -299.60696482 Ry
     estimated scf accuracy    <       0.00000432 Ry

     iteration #  5     ecut=    90.00 Ry     beta= 0.30
     Davidson diagonalization with overlap
     ethr =  6.36E-09,  avg # of iterations =  2.3

     negative rho (up, down):  4.282E-06 0.000E+00

     total cpu time spent up to now is      204.6 secs

     total energy              =    -299.60696569 Ry
     estimated scf accuracy    <       0.00000042 Ry

     iteration #  6     ecut=    90.00 Ry     beta= 0.30
     Davidson diagonalization with overlap
     ethr =  6.13E-10,  avg # of iterations =  2.1

     negative rho (up, down):  4.293E-06 0.000E+00

     total cpu time spent up to now is      206.9 secs

     total energy              =    -299.60696578 Ry
     estimated scf accuracy    <       0.00000006 Ry

     iteration #  7     ecut=    90.00 Ry     beta= 0.30
     Davidson diagonalization with overlap
     ethr =  8.85E-11,  avg # of iterations =  2.1

     negative rho (up, down):  4.306E-06 0.000E+00

     total cpu time spent up to now is      209.1 secs

     End of self-consistent calculation

          k = 0.0000-0.0000 0.0000 ( 20251 PWs)   bands (ev):

   -16.8683 -15.7809 -13.8354 -12.3136 -12.2171 -11.2964 -11.0979 -10.8472
    -8.1215  -7.7507  -7.6973  -5.4445  -5.4042  -5.0935  -2.7292  -2.6975
    -2.0363  -1.8120  -1.4710  -0.7967  -0.3063   0.0799   0.4726   0.9142
     0.9246   1.3227   1.3920   1.4147   1.5760   2.0358   2.0378   2.7040
     3.0170   3.1920   6.5632   7.0541   8.5030   8.5535   9.0078   9.3309
     9.6096

          k = 0.0000-0.1000 0.0000 ( 20237 PWs)   bands (ev):

   -16.7064 -15.6737 -13.9716 -13.5165 -12.3029 -11.0276 -10.6173 -10.4520
    -8.0408  -7.6062  -7.1507  -5.5257  -5.3597  -4.8603  -2.7757  -2.6503
    -2.2295  -2.0400  -1.6856  -0.7274  -0.6718  -0.0307   0.3442   0.5043
     0.6091   0.8989   1.4166   1.4570   1.6348   2.1154   2.3845   2.5013
     2.8393   3.1060   6.7839   7.2638   8.7635   9.2332   9.3388   9.5837
     9.6702

          k = 0.0000-0.2000 0.0000 ( 20225 PWs)   bands (ev):

   -16.2786 -15.5599 -14.7034 -13.8695 -12.7738 -11.4666 -10.1527  -9.5791
    -7.5973  -6.9099  -6.4896  -5.6999  -5.0686  -4.5015  -3.7519  -3.1980
    -2.7518  -1.9256  -1.3727  -1.1787  -0.6942  -0.4206   0.0091   0.0849
     0.6389   0.6716   1.2954   1.4811   1.5555   2.0816   2.1168   2.4623
     2.8301   3.2146   7.4093   7.8258   8.4283   8.7466   9.2883   9.5391
     9.5718

          k = 0.1111-0.0000 0.0000 ( 20245 PWs)   bands (ev):

   -16.6421 -15.5573 -13.6184 -12.0999 -12.0043 -11.0887 -10.8930 -10.6461
    -8.0107  -7.5612  -7.5205  -5.3030  -5.2550  -5.0249  -3.1679  -2.6606
    -2.5912  -2.0131  -1.9000  -1.3032  -0.3362  -0.2878   0.0850   0.3249
     0.5967   0.6255   0.7504   0.9980   1.0361   1.3833   1.4805   2.2268
     2.6915   2.9304   6.7799   7.2726   9.1001   9.1391   9.5988   9.8009
     9.8916

          k = 0.1111-0.1000 0.0000 ( 20228 PWs)   bands (ev):

   -16.4805 -15.4502 -13.7523 -13.3003 -12.0932 -10.8267 -10.4098 -10.2517
    -7.9213  -7.4311  -6.9769  -5.4252  -5.1822  -4.7812  -3.0590  -2.6827
    -2.5179  -2.0892  -2.0318  -1.7708  -0.6472  -0.4892  -0.3564   0.0279
     0.3425   0.5214   0.5917   1.1602   1.4092   1.4519   1.5548   1.9388
     2.6932   2.7669   6.9994   7.4816   9.1462   9.7315   9.7720  10.0333
    10.0861

          k = 0.1111-0.2000 0.0000 ( 20228 PWs)   bands (ev):

   -16.0536 -15.3365 -14.4816 -13.6522 -12.5630 -11.2640  -9.9577  -9.3794
    -7.4852  -6.7761  -6.3285  -5.5414  -4.9274  -4.3432  -3.6051  -3.1450
    -2.7453  -2.5661  -2.0347  -1.6479  -1.0942  -1.0607  -0.5914  -0.3131
     0.0778   0.2342   0.6922   0.9713   1.3577   1.6313   1.9410   2.0152
     2.4873   2.5233   7.6265   8.0357   8.6373   8.9162   9.3003   9.7030
    10.2795

          k = 0.2222-0.0000 0.0000 ( 20222 PWs)   bands (ev):

   -15.9670 -14.8909 -12.9760 -11.4636 -11.3708 -10.4760 -10.2836 -10.0569
    -7.9870  -7.0442  -7.0313  -5.5515  -4.9862  -4.9193  -4.9003  -3.6647
    -3.3174  -2.5542  -2.5272  -1.6163  -1.5665  -1.0105  -0.9272  -0.8245
    -0.7361  -0.7299  -0.0995   0.2409   0.5200   0.6337   1.1003   1.5390
     1.8470   2.6679   7.4188   7.7894   9.8356   9.8618  10.1707  10.3323
    10.5278

          k = 0.2222-0.1000 0.0000 ( 20228 PWs)   bands (ev):

   -15.8064 -14.7844 -13.1007 -12.6584 -11.4722 -10.2383  -9.7912  -9.6657
    -7.8611  -6.9860  -6.5186  -5.5503  -4.9310  -4.8224  -4.7040  -3.6656
    -3.2959  -2.7072  -2.5686  -1.8506  -1.7177  -1.4451  -1.2353  -0.9404
    -0.5109  -0.4773  -0.3171   0.1991   0.3794   0.7004   1.0418   1.1712
     1.9236   2.3923   7.6152   7.9948   9.4942   9.9812  10.0334  10.2408
    10.7718

          k = 0.2222-0.2000 0.0000 ( 20215 PWs)   bands (ev):

   -15.3821 -14.6704 -13.8210 -13.0066 -11.9399 -10.6714  -9.3991  -8.7924
    -7.4362  -6.6129  -5.9581  -5.2901  -4.7160  -4.5194  -4.1198  -3.7980
    -3.4628  -3.3240  -2.8103  -2.4832  -2.3621  -1.8202  -1.3832  -1.3385
    -0.4939  -0.3492  -0.2030   0.1571   0.3747   0.5374   1.0666   1.3401
     1.8021   1.9153   8.1382   8.5478   8.8686   9.1715   9.3205   9.8525
    10.2333

          k = 0.3333-0.0000 0.0000 ( 20254 PWs)   bands (ev):

   -14.8556 -13.8012 -11.9614 -10.4250 -10.3431  -9.5574  -9.3103  -9.1884
    -9.1860  -7.4845  -6.5525  -6.3861  -6.0121  -5.2168  -5.1361  -4.7836
    -3.9710  -3.4961  -3.4810  -2.7702  -2.7557  -2.5801  -1.4964  -1.4404
    -1.1520  -0.6501  -0.5969  -0.2597  -0.1895   0.2038   0.7310   0.9457
     1.3001   2.4056   8.4583   8.6113  10.0573  10.3613  10.4764  10.4789
    11.0207

          k = 0.3333-0.1000 0.0000 ( 20257 PWs)   bands (ev):

   -14.6966 -13.6949 -12.0489 -11.6247 -10.4882  -9.4097  -9.0716  -8.8035
    -8.7693  -7.4158  -6.7269  -6.2149  -5.7165  -5.3488  -4.8892  -4.3516
    -4.0904  -3.9064  -3.4493  -2.7827  -2.7443  -2.0802  -1.4918  -1.2342
    -1.0806  -0.9667  -0.6524  -0.4413  -0.2489   0.1614   0.3074   0.7671
     1.2118   1.7716   8.6066   8.7970   9.5205   9.8741  10.3861  10.8835
    10.9492

          k = 0.3333-0.2000 0.0000 ( 20240 PWs)   bands (ev):

   -14.2767 -13.5774 -12.7399 -11.9642 -10.9581  -9.7994  -8.8586  -8.6936
    -7.7409  -7.3961  -6.7829  -6.1275  -5.3899  -4.8118  -4.4116  -4.3757
    -4.0434  -3.5738  -3.1350  -3.0086  -2.8075  -2.2980  -2.0546  -1.6380
    -1.2061  -0.8408  -0.5957  -0.4614  -0.2301   0.0373   0.1882   0.6102
     0.8208   0.9615   8.6398   8.8405   9.3045   9.7849   9.8238  10.3133
    10.7949

          k = 0.4444-0.0000 0.0000 ( 20318 PWs)   bands (ev):

   -13.3438 -12.3878 -11.6209 -10.2647 -10.2381  -8.9879  -8.9290  -8.1117
    -8.0702  -7.8808  -7.6049  -7.2309  -7.0908  -6.2757  -6.2495  -5.4924
    -4.2685  -3.7822  -3.7701  -2.7268  -2.7241  -2.3967  -2.2187  -2.0184
    -1.8599  -1.0648  -1.0470  -0.7607  -0.5686   0.2487   0.4470   0.9877
     1.5489   1.8250   9.5542   9.7610   9.8758  10.0120  10.1664  10.5089
    11.4112

          k = 0.4444-0.1000 0.0000 ( 20269 PWs)   bands (ev):

   -13.1874 -12.2760 -11.4739 -10.4846 -10.2065 -10.0231  -9.2282  -8.8203
    -7.7808  -7.4187  -7.3513  -7.0615  -6.8691  -5.9148  -5.7318  -5.3949
    -4.2487  -3.9107  -3.7350  -2.7688  -2.6560  -2.1013  -1.8894  -1.8369
    -1.7428  -1.1101  -1.0133  -0.6216  -0.5239   0.0944   0.2252   0.4246
     0.9043   1.0729   9.1575   9.8388   9.9884  10.0782  10.3733  11.0239
    11.2067

          k = 0.4444-0.2000 0.0000 ( 20233 PWs)   bands (ev):

   -12.7734 -12.1233 -11.3230 -11.0710 -10.4231 -10.0984  -9.7678  -9.6582
    -7.7945  -7.6114  -7.1395  -6.7107  -6.3309  -6.0258  -4.9508  -4.6476
    -3.9488  -3.4855  -3.1940  -2.8699  -2.5801  -2.0639  -1.8530  -1.5778
    -1.2559  -1.0057  -0.9496  -0.8807  -0.6931  -0.4593  -0.2645  -0.1687
     0.0422   0.0834   9.1070   9.4619   9.9335  10.1055  10.5628  10.6350
    10.9036

     the Fermi energy is     5.0216 ev

!    total energy              =    -299.60696578 Ry
     estimated scf accuracy    <          3.8E-09 Ry
     smearing contrib. (-TS)   =      -0.00000000 Ry
     internal energy E=F+TS    =    -299.60696578 Ry

     The total energy is F=E-TS. E is the sum of the following terms:
     one-electron contribution =   -1769.02799625 Ry
     hartree contribution      =     914.00455695 Ry
     xc contribution           =     -77.52410794 Ry
     ewald contribution        =     731.55099888 Ry
     one-center paw contrib.   =     -98.61041742 Ry

     convergence has been achieved in   7 iterations

     negative rho (up, down):  4.306E-06 0.000E+00

     Forces acting on atoms (cartesian axes, Ry/au):

     atom    1 type  1   force =     0.00000000   -0.00151157   -0.00131495
     atom    2 type  1   force =     0.00000000   -0.00018042   -0.00196255
     atom    3 type  1   force =     0.00000000    0.00199218    0.00114850
     atom    4 type  1   force =     0.00000000    0.00147347   -0.00074669
     atom    5 type  1   force =     0.00000000    0.00142193   -0.00032467
     atom    6 type  1   force =     0.00000000    0.00075902   -0.00117353
     atom    7 type  1   force =     0.00000000   -0.00112837   -0.00159769
     atom    8 type  1   force =     0.00000000    0.00001453   -0.00157124
     atom    9 type  1   force =     0.00000000   -0.00001453    0.00157124
     atom   10 type  1   force =     0.00000000    0.00112837    0.00159769
     atom   11 type  1   force =     0.00000000   -0.00075902    0.00117353
     atom   12 type  1   force =     0.00000000   -0.00142193    0.00032467
     atom   13 type  1   force =     0.00000000   -0.00147347    0.00074669
     atom   14 type  1   force =     0.00000000   -0.00199218   -0.00114850
     atom   15 type  1   force =     0.00000000    0.00018042    0.00196255
     atom   16 type  1   force =     0.00000000    0.00151157    0.00131495
     atom   17 type  2   force =     0.00000000    0.00099103   -0.00013165
     atom   18 type  2   force =     0.00000000    0.00183384   -0.00088804
     atom   19 type  2   force =     0.00000000   -0.00183384    0.00088804
     atom   20 type  2   force =    -0.00000000   -0.00099103    0.00013165

     Total force =     0.007930     Total SCF correction =     0.000112
     Energy error            =      2.5E-04 Ry
     Gradient error          =      2.0E-03 Ry/Bohr

     number of scf cycles    =   9
     number of bfgs steps    =   8

     energy             old  =    -299.6067165991 Ry
     energy             new  =    -299.6069657824 Ry

     CASE: energy            _new < energy            _old

     new trust radius        =       0.0050883724 bohr
     new conv_thr            =       0.0000000020 Ry


ATOMIC_POSITIONS (angstrom)
C                0.0000000000       -0.8115422733       11.2060210075
C                1.2634728900       -1.1780720652       10.3989825290
C                1.2634728900       -0.0236290459        9.3902808109
C               -0.0000000000       -0.0195338718        8.5356142915
C                0.0000000000       -1.2766323065        7.6391702730
C                1.2634728900       -1.2742428268        6.7101177350
C                1.2634728900        0.0958217686        5.9134339827
C                0.0000000000        0.4522031428        5.0996123912
C               -0.0000000000       -4.2426218228       11.1885081988
C                1.2634728900       -3.8862404486       10.3746866073
C                1.2634728900       -2.5161758432        9.5780028550
C                0.0000000000       -2.5137863635        8.6489503170
C                0.0000000000       -3.7708848082        7.7525062985
C                1.2634728900       -3.7667896341        6.8978397791
C                1.2634728900       -2.6123466048        5.8891380610
C               -0.0000000000       -2.9788764067        5.0820995825
H                0.0000000000       -1.2316606300       12.2233801964
H                0.0000000000       -3.8108106278       12.1993678865
H                0.0000000000        0.0203919478        4.0887526935
H               -0.0000000000       -2.5587580400        4.0647403836



     Writing config-only to output data dir /tmp/qe/slab.save/ :
     XML data file
     NEW-OLD atomic charge density approx. for the potential

     negative rho (up, down):  4.378E-06 0.000E+00

     total cpu time spent up to now is      210.0 secs

     Self-consistent Calculation

     iteration #  1     ecut=    90.00 Ry     beta= 0.30
     Davidson diagonalization with overlap
     ethr =  1.00E-06,  avg # of iterations =  2.6

     Threshold (ethr) on eigenvalues was too large:
     Diagonalizing with lowered threshold

     Davidson diagonalization with overlap
     ethr =  1.39E-08,  avg # of iterations =  4.5

     negative rho (up, down):  4.361E-06 0.000E+00

     total cpu time spent up to now is      215.3 secs

     total energy              =    -299.60702266 Ry
     estimated scf accuracy    <       0.00001561 Ry

     iteration #  2     ecut=    90.00 Ry     beta= 0.30
     Davidson diagonalization with overlap
     ethr =  2.30E-08,  avg # of iterations =  1.7

     negative rho (up, down):  4.332E-06 0.000E+00

     total cpu time spent up to now is      217.2 secs

     total energy              =    -299.60702288 Ry
     estimated scf accuracy    <       0.00000417 Ry

     iteration #  3     ecut=    90.00 Ry     beta= 0.30
     Davidson diagonalization with overlap
     ethr =  6.14E-09,  avg # of iterations =  2.0

     negative rho (up, down):  4.321E-06 0.000E+00

     total cpu time spent up to now is      219.5 secs

     total energy              =    -299.60702340 Ry
     estimated scf accuracy    <       0.00000080 Ry

     iteration #  4     ecut=    90.00 Ry     beta= 0.30
     Davidson diagonalization with overlap
     ethr =  1.17E-09,  avg # of iterations =  2.0

     negative rho (up, down):  4.316E-06 0.000E+00

     total cpu time spent up to now is      221.5 secs

     total energy              =    -299.60702349 Ry
     estimated scf accuracy    <       0.00000009 Ry

     iteration #  5     ecut=    90.00 Ry     beta= 0.30
     Davidson diagonalization with overlap
     ethr =  1.27E-10,  avg # of iterations =  2.4

     negative rho (up, down):  4.318E-06 0.000E+00

     total cpu time spent up to now is      223.8 secs

     total energy              =    -299.60702350 Ry
     estimated scf accuracy    <       0.00000002 Ry

     iteration #  6     ecut=    90.00 Ry     beta= 0.30
     Davidson diagonalization with overlap
     ethr =  2.25E-11,  avg # of iterations =  3.3

     negative rho (up, down):  4.318E-06 0.000E+00

     total cpu time spent up to now is      226.4 secs

     total energy              =    -299.60702350 Ry
     estimated scf accuracy    <          9.7E-09 Ry

     iteration #  7     ecut=    90.00 Ry     beta= 0.30
     Davidson diagonalization with overlap
     ethr =  1.43E-11,  avg # of iterations =  2.5

     negative rho (up, down):  4.319E-06 0.000E+00

     total cpu time spent up to now is      228.8 secs

     End of self-consistent calculation

          k = 0.0000-0.0000 0.0000 ( 20251 PWs)   bands (ev):

   -16.8708 -15.7816 -13.8319 -12.3172 -12.2220 -11.2985 -11.1054 -10.8439
    -8.1176  -7.7579  -7.6997  -5.4437  -5.4121  -5.0916  -2.7250  -2.7020
    -2.0325  -1.8132  -1.4792  -0.7974  -0.3084   0.0783   0.4689   0.9177
     0.9266   1.3257   1.3939   1.4173   1.5728   2.0286   2.0306   2.6934
     3.0235   3.1942   6.5654   7.0567   8.5029   8.5545   9.0080   9.3299
     9.6043

          k = 0.0000-0.1000 0.0000 ( 20237 PWs)   bands (ev):

   -16.7089 -15.6737 -13.9681 -13.5218 -12.3086 -11.0243 -10.6208 -10.4554
    -8.0386  -7.6113  -7.1536  -5.5254  -5.3635  -4.8626  -2.7807  -2.6482
    -2.2304  -2.0416  -1.6867  -0.7275  -0.6787  -0.0259   0.3426   0.5034
     0.6095   0.9002   1.4134   1.4524   1.6369   2.1134   2.3826   2.4970
     2.8403   3.1098   6.7859   7.2660   8.7635   9.2352   9.3360   9.5823
     9.6684

          k = 0.0000-0.2000 0.0000 ( 20225 PWs)   bands (ev):

   -16.2816 -15.5576 -14.7055 -13.8728 -12.7782 -11.4655 -10.1541  -9.5797
    -7.5984  -6.9118  -6.4907  -5.7013  -5.0734  -4.5049  -3.7574  -3.2021
    -2.7534  -1.9239  -1.3741  -1.1826  -0.6920  -0.4212   0.0093   0.0835
     0.6415   0.6693   1.2929   1.4816   1.5511   2.0824   2.1158   2.4645
     2.8322   3.2146   7.4106   7.8266   8.4288   8.7458   9.2872   9.5305
     9.5684

          k = 0.1111-0.0000 0.0000 ( 20245 PWs)   bands (ev):

   -16.6446 -15.5580 -13.6149 -12.1035 -12.0092 -11.0908 -10.9005 -10.6428
    -8.0067  -7.5684  -7.5233  -5.3018  -5.2629  -5.0237  -3.1695  -2.6638
    -2.5849  -2.0155  -1.8981  -1.3116  -0.3330  -0.2892   0.0812   0.3227
     0.5981   0.6283   0.7534   0.9938   1.0297   1.3836   1.4761   2.2320
     2.6824   2.9322   6.7819   7.2753   9.1011   9.1388   9.5979   9.7982
     9.8901

          k = 0.1111-0.1000 0.0000 ( 20228 PWs)   bands (ev):

   -16.4830 -15.4503 -13.7488 -13.3057 -12.0988 -10.8234 -10.4133 -10.2551
    -7.9188  -7.4367  -6.9797  -5.4246  -5.1863  -4.7839  -3.0608  -2.6866
    -2.5143  -2.0919  -2.0326  -1.7722  -0.6536  -0.4891  -0.3551   0.0296
     0.3406   0.5206   0.5910   1.1588   1.4049   1.4513   1.5549   1.9389
     2.6951   2.7649   7.0012   7.4839   9.1444   9.7311   9.7697  10.0338
    10.0875

          k = 0.1111-0.2000 0.0000 ( 20228 PWs)   bands (ev):

   -16.0567 -15.3342 -14.4837 -13.6555 -12.5674 -11.2629  -9.9589  -9.3800
    -7.4865  -6.7776  -6.3298  -5.5429  -4.9324  -4.3466  -3.6106  -3.1489
    -2.7473  -2.5673  -2.0322  -1.6484  -1.0956  -1.0635  -0.5913  -0.3161
     0.0783   0.2321   0.6924   0.9744   1.3543   1.6317   1.9402   2.0161
     2.4889   2.5231   7.6277   8.0366   8.6376   8.9154   9.2970   9.6936
    10.2806

          k = 0.2222-0.0000 0.0000 ( 20222 PWs)   bands (ev):

   -15.9695 -14.8916 -12.9726 -11.4672 -11.3757 -10.4779 -10.2911 -10.0538
    -7.9838  -7.0510  -7.0347  -5.5504  -4.9860  -4.9268  -4.9028  -3.6633
    -3.3154  -2.5521  -2.5308  -1.6161  -1.5669  -1.0078  -0.9216  -0.8333
    -0.7410  -0.7356  -0.1007   0.2382   0.5184   0.6372   1.0928   1.5439
     1.8513   2.6569   7.4207   7.7919   9.8368   9.8602  10.1709  10.3273
    10.5337

          k = 0.2222-0.1000 0.0000 ( 20228 PWs)   bands (ev):

   -15.8089 -14.7845 -13.0971 -12.6639 -11.4779 -10.2349  -9.7947  -9.6690
    -7.8591  -6.9919  -6.5208  -5.5497  -4.9355  -4.8238  -4.7084  -3.6634
    -3.2960  -2.7082  -2.5707  -1.8546  -1.7180  -1.4463  -1.2350  -0.9389
    -0.5138  -0.4810  -0.3214   0.2008   0.3788   0.6973   1.0419   1.1733
     1.9251   2.3868   7.6169   7.9971   9.4912   9.9813  10.0339  10.2398
    10.7698

          k = 0.2222-0.2000 0.0000 ( 20215 PWs)   bands (ev):

   -15.3852 -14.6682 -13.8230 -13.0099 -11.9445 -10.6703  -9.3998  -8.7927
    -7.4386  -6.6126  -5.9599  -5.2921  -4.7220  -4.5206  -4.1242  -3.7958
    -3.4668  -3.3274  -2.8116  -2.4858  -2.3648  -1.8237  -1.3832  -1.3385
    -0.4946  -0.3505  -0.2031   0.1557   0.3748   0.5372   1.0671   1.3419
     1.8009   1.9149   8.1388   8.5491   8.8666   9.1698   9.3204   9.8499
    10.2276

          k = 0.3333-0.0000 0.0000 ( 20254 PWs)   bands (ev):

   -14.8581 -13.8020 -11.9585 -10.4285 -10.3482  -9.5561  -9.3177  -9.1891
    -9.1852  -7.4829  -6.5539  -6.3944  -6.0109  -5.2185  -5.1419  -4.7883
    -3.9658  -3.4956  -3.4824  -2.7710  -2.7584  -2.5777  -1.4988  -1.4462
    -1.1491  -0.6525  -0.6054  -0.2581  -0.1819   0.1989   0.7342   0.9515
     1.2898   2.3952   8.4608   8.6135  10.0565  10.3653  10.4773  10.4788
    11.0231

          k = 0.3333-0.1000 0.0000 ( 20257 PWs)   bands (ev):

   -14.6992 -13.6951 -12.0452 -11.6308 -10.4942  -9.4059  -9.0696  -8.8079
    -8.7735  -7.4150  -6.7306  -6.2159  -5.7198  -5.3550  -4.8890  -4.3589
    -4.0852  -3.9082  -3.4509  -2.7807  -2.7436  -2.0844  -1.4926  -1.2379
    -1.0777  -0.9719  -0.6571  -0.4397  -0.2533   0.1645   0.3080   0.7707
     1.2081   1.7633   8.6092   8.7990   9.5214   9.8723  10.3868  10.8758
    10.9511

          k = 0.3333-0.2000 0.0000 ( 20240 PWs)   bands (ev):

   -14.2798 -13.5752 -12.7419 -11.9677 -10.9634  -9.7984  -8.8555  -8.6947
    -7.7438  -7.3973  -6.7846  -6.1295  -5.3931  -4.8143  -4.4173  -4.3723
    -4.0446  -3.5769  -3.1339  -3.0132  -2.8098  -2.2993  -2.0612  -1.6424
    -1.2078  -0.8387  -0.5946  -0.4667  -0.2304   0.0378   0.1876   0.6139
     0.8184   0.9606   8.6423   8.8367   9.3055   9.7840   9.8204  10.3094
    10.7937

          k = 0.4444-0.0000 0.0000 ( 20318 PWs)   bands (ev):

   -13.3465 -12.3894 -11.6238 -10.2592 -10.2356  -8.9911  -8.9330  -8.1142
    -8.0764  -7.8826  -7.6028  -7.2358  -7.0920  -6.2821  -6.2562  -5.4867
    -4.2680  -3.7853  -3.7706  -2.7280  -2.7259  -2.3972  -2.2173  -2.0231
    -1.8635  -1.0716  -1.0506  -0.7527  -0.5640   0.2558   0.4502   0.9802
     1.5377   1.8153   9.5595   9.7619   9.8810  10.0114  10.1673  10.5095
    11.4157

          k = 0.4444-0.1000 0.0000 ( 20269 PWs)   bands (ev):

   -13.1900 -12.2770 -11.4767 -10.4838 -10.2041 -10.0231  -9.2338  -8.8222
    -7.7806  -7.4202  -7.3539  -7.0637  -6.8739  -5.9186  -5.7354  -5.3923
    -4.2496  -3.9157  -3.7355  -2.7672  -2.6575  -2.1032  -1.8882  -1.8408
    -1.7466  -1.1138  -1.0172  -0.6152  -0.5203   0.0965   0.2258   0.4226
     0.8960   1.0637   9.1602   9.8415   9.9916  10.0773  10.3742  11.0277
    11.2063

          k = 0.4444-0.2000 0.0000 ( 20233 PWs)   bands (ev):

   -12.7767 -12.1216 -11.3241 -11.0773 -10.4265 -10.0955  -9.7681  -9.6584
    -7.7979  -7.6128  -7.1430  -6.7121  -6.3314  -6.0239  -4.9521  -4.6494
    -3.9515  -3.4871  -3.1974  -2.8717  -2.5845  -2.0645  -1.8553  -1.5804
    -1.2616  -1.0083  -0.9528  -0.8823  -0.6948  -0.4649  -0.2602  -0.1666
     0.0442   0.0830   9.1091   9.4648   9.9310  10.0962  10.5621  10.6361
    10.8980

     the Fermi energy is     5.0244 ev

!    total energy              =    -299.60702350 Ry
     estimated scf accuracy    <          1.0E-09 Ry
     smearing contrib. (-TS)   =      -0.00000000 Ry
     internal energy E=F+TS    =    -299.60702350 Ry

     The total energy is F=E-TS. E is the sum of the following terms:
     one-electron contribution =   -1769.63275075 Ry
     hartree contribution      =     914.30470016 Ry
     xc contribution           =     -77.52605191 Ry
     ewald contribution        =     731.85755604 Ry
     one-center paw contrib.   =     -98.61047703 Ry

     convergence has been achieved in   7 iterations

     negative rho (up, down):  4.319E-06 0.000E+00

     Forces acting on atoms (cartesian axes, Ry/au):

     atom    1 type  1   force =     0.00000000    0.00016455   -0.00012648
     atom    2 type  1   force =     0.00000000    0.00039224   -0.00046027
     atom    3 type  1   force =     0.00000000    0.00048878   -0.00023251
     atom    4 type  1   force =     0.00000000    0.00005286    0.00058667
     atom    5 type  1   force =     0.00000000    0.00003493   -0.00030502
     atom    6 type  1   force =     0.00000000   -0.00011823   -0.00017270
     atom    7 type  1   force =     0.00000000    0.00000758   -0.00124314
     atom    8 type  1   force =     0.00000000    0.00069384   -0.00058567
     atom    9 type  1   force =     0.00000000   -0.00069384    0.00058567
     atom   10 type  1   force =     0.00000000   -0.00000758    0.00124314
     atom   11 type  1   force =     0.00000000    0.00011823    0.00017270
     atom   12 type  1   force =     0.00000000   -0.00003493    0.00030502
     atom   13 type  1   force =     0.00000000   -0.00005286   -0.00058667
     atom   14 type  1   force =     0.00000000   -0.00048878    0.00023251
     atom   15 type  1   force =     0.00000000   -0.00039224    0.00046027
     atom   16 type  1   force =     0.00000000   -0.00016455    0.00012648
     atom   17 type  2   force =     0.00000000    0.00068365   -0.00070607
     atom   18 type  2   force =     0.00000000    0.00162422    0.00043386
     atom   19 type  2   force =     0.00000000   -0.00162422   -0.00043386
     atom   20 type  2   force =     0.00000000   -0.00068365    0.00070607

     Total force =     0.003834     Total SCF correction =     0.000069
     Energy error            =      5.8E-05 Ry
     Gradient error          =      1.6E-03 Ry/Bohr

     number of scf cycles    =  10
     number of bfgs steps    =   9

     energy             old  =    -299.6069657824 Ry
     energy             new  =    -299.6070235029 Ry

     CASE: energy            _new < energy            _old

     new trust radius        =       0.0024599213 bohr
     new conv_thr            =       0.0000000006 Ry


ATOMIC_POSITIONS (angstrom)
C                0.0000000000       -0.8118668454       11.2057906342
C                1.2634728900       -1.1779239195       10.3983373381
C                1.2634728900       -0.0227497973        9.3904644955
C               -0.0000000000       -0.0191083590        8.5360387312
C                0.0000000000       -1.2762880546        7.6389743528
C                1.2634728900       -1.2740581509        6.7098810282
C                1.2634728900        0.0955275043        5.9121659446
C                0.0000000000        0.4525046227        5.0988620965
C               -0.0000000000       -4.2429233027       11.1892584935
C                1.2634728900       -3.8859461843       10.3759546454
C                1.2634728900       -2.5163605191        9.5782395618
C                0.0000000000       -2.5141306154        8.6491462372
C                0.0000000000       -3.7713103210        7.7520818588
C                1.2634728900       -3.7676688827        6.8976560945
C                1.2634728900       -2.6124947505        5.8897832519
C               -0.0000000000       -2.9785518346        5.0823299558
H                0.0000000000       -1.2309159193       12.2231302262
H                0.0000000000       -3.8095735640       12.1997699834
H                0.0000000000        0.0191548840        4.0883505966
H               -0.0000000000       -2.5595027507        4.0649903538



     Writing config-only to output data dir /tmp/qe/slab.save/ :
     XML data file
     NEW-OLD atomic charge density approx. for the potential

     negative rho (up, down):  4.313E-06 0.000E+00

     total cpu time spent up to now is      229.7 secs

     Self-consistent Calculation

     iteration #  1     ecut=    90.00 Ry     beta= 0.30
     Davidson diagonalization with overlap
     ethr =  1.00E-06,  avg # of iterations =  2.0

     Threshold (ethr) on eigenvalues was too large:
     Diagonalizing with lowered threshold

     Davidson diagonalization with overlap
     ethr =  2.58E-09,  avg # of iterations =  4.9

     negative rho (up, down):  4.313E-06 0.000E+00

     total cpu time spent up to now is      235.0 secs

     total energy              =    -299.60703876 Ry
     estimated scf accuracy    <       0.00000244 Ry

     iteration #  2     ecut=    90.00 Ry     beta= 0.30
     Davidson diagonalization with overlap
     ethr =  3.59E-09,  avg # of iterations =  1.0

     negative rho (up, down):  4.320E-06 0.000E+00

     total cpu time spent up to now is      236.9 secs

     total energy              =    -299.60703873 Ry
     estimated scf accuracy    <       0.00000084 Ry

     iteration #  3     ecut=    90.00 Ry     beta= 0.30
     Davidson diagonalization with overlap
     ethr =  1.23E-09,  avg # of iterations =  2.0

     negative rho (up, down):  4.319E-06 0.000E+00

     total cpu time spent up to now is      239.0 secs

     total energy              =    -299.60703881 Ry
     estimated scf accuracy    <       0.00000012 Ry

     iteration #  4     ecut=    90.00 Ry     beta= 0.30
     Davidson diagonalization with overlap
     ethr =  1.73E-10,  avg # of iterations =  2.0

     negative rho (up, down):  4.318E-06 0.000E+00

     total cpu time spent up to now is      241.1 secs

     total energy              =    -299.60703882 Ry
     estimated scf accuracy    <       0.00000002 Ry

     iteration #  5     ecut=    90.00 Ry     beta= 0.30
     Davidson diagonalization with overlap
     ethr =  3.56E-11,  avg # of iterations =  2.0

     negative rho (up, down):  4.317E-06 0.000E+00

     total cpu time spent up to now is      243.4 secs

     total energy              =    -299.60703883 Ry
     estimated scf accuracy    <          2.6E-09 Ry

     iteration #  6     ecut=    90.00 Ry     beta= 0.30
     Davidson diagonalization with overlap
     ethr =  3.80E-12,  avg # of iterations =  2.5

     negative rho (up, down):  4.316E-06 0.000E+00

     total cpu time spent up to now is      245.7 secs

     total energy              =    -299.60703883 Ry
     estimated scf accuracy    <          6.5E-10 Ry

     iteration #  7     ecut=    90.00 Ry     beta= 0.30
     Davidson diagonalization with overlap
     ethr =  9.63E-13,  avg # of iterations =  2.0

     negative rho (up, down):  4.315E-06 0.000E+00

     total cpu time spent up to now is      248.1 secs

     End of self-consistent calculation

          k = 0.0000-0.0000 0.0000 ( 20251 PWs)   bands (ev):

   -16.8695 -15.7814 -13.8307 -12.3152 -12.2218 -11.2997 -11.1061 -10.8429
    -8.1161  -7.7574  -7.6992  -5.4433  -5.4139  -5.0916  -2.7236  -2.7042
    -2.0324  -1.8129  -1.4769  -0.7978  -0.3068   0.0768   0.4672   0.9181
     0.9266   1.3261   1.3935   1.4190   1.5725   2.0281   2.0301   2.6962
     3.0221   3.1939   6.5655   7.0569   8.5034   8.5577   9.0085   9.3303
     9.6011

          k = 0.0000-0.1000 0.0000 ( 20237 PWs)   bands (ev):

   -16.7077 -15.6735 -13.9659 -13.5215 -12.3096 -11.0228 -10.6199 -10.4569
    -8.0378  -7.6113  -7.1519  -5.5262  -5.3637  -4.8625  -2.7820  -2.6469
    -2.2308  -2.0395  -1.6866  -0.7278  -0.6787  -0.0248   0.3421   0.5027
     0.6101   0.9006   1.4118   1.4517   1.6379   2.1140   2.3815   2.4993
     2.8403   3.1085   6.7860   7.2663   8.7630   9.2369   9.3364   9.5817
     9.6679

          k = 0.0000-0.2000 0.0000 ( 20225 PWs)   bands (ev):

   -16.2808 -15.5566 -14.7035 -13.8725 -12.7794 -11.4636 -10.1560  -9.5792
    -7.5992  -6.9113  -6.4880  -5.7009  -5.0726  -4.5058  -3.7578  -3.2016
    -2.7526  -1.9230  -1.3746  -1.1818  -0.6916  -0.4211   0.0090   0.0842
     0.6402   0.6700   1.2901   1.4815   1.5514   2.0840   2.1177   2.4649
     2.8296   3.2143   7.4108   7.8268   8.4289   8.7459   9.2871   9.5292
     9.5684

          k = 0.1111-0.0000 0.0000 ( 20245 PWs)   bands (ev):

   -16.6433 -15.5578 -13.6137 -12.1015 -12.0089 -11.0921 -10.9012 -10.6418
    -8.0053  -7.5678  -7.5226  -5.3016  -5.2645  -5.0235  -3.1694  -2.6653
    -2.5825  -2.0164  -1.8990  -1.3094  -0.3321  -0.2873   0.0796   0.3223
     0.5976   0.6279   0.7524   0.9934   1.0300   1.3848   1.4759   2.2306
     2.6851   2.9320   6.7820   7.2756   9.1013   9.1424   9.5986   9.7963
     9.8891

          k = 0.1111-0.1000 0.0000 ( 20228 PWs)   bands (ev):

   -16.4818 -15.4501 -13.7466 -13.3053 -12.0998 -10.8219 -10.4124 -10.2565
    -7.9182  -7.4365  -6.9779  -5.4254  -5.1865  -4.7837  -3.0609  -2.6878
    -2.5120  -2.0906  -2.0337  -1.7717  -0.6534  -0.4880  -0.3549   0.0298
     0.3396   0.5204   0.5908   1.1591   1.4036   1.4510   1.5551   1.9393
     2.6952   2.7656   7.0013   7.4842   9.1435   9.7310   9.7685  10.0342
    10.0906

          k = 0.1111-0.2000 0.0000 ( 20228 PWs)   bands (ev):

   -16.0558 -15.3332 -14.4818 -13.6551 -12.5686 -11.2610  -9.9608  -9.3794
    -7.4873  -6.7770  -6.3271  -5.5425  -4.9316  -4.3474  -3.6110  -3.1489
    -2.7460  -2.5669  -2.0317  -1.6479  -1.0944  -1.0632  -0.5907  -0.3163
     0.0781   0.2305   0.6911   0.9755   1.3527   1.6328   1.9412   2.0152
     2.4890   2.5226   7.6278   8.0367   8.6377   8.9156   9.2966   9.6925
    10.2810

          k = 0.2222-0.0000 0.0000 ( 20222 PWs)   bands (ev):

   -15.9682 -14.8915 -12.9713 -11.4651 -11.3755 -10.4791 -10.2918 -10.0528
    -7.9827  -7.0500  -7.0334  -5.5510  -4.9856  -4.9278  -4.9021  -3.6634
    -3.3153  -2.5510  -2.5319  -1.6158  -1.5674  -1.0080  -0.9233  -0.8316
    -0.7410  -0.7348  -0.0998   0.2370   0.5163   0.6387   1.0938   1.5430
     1.8511   2.6596   7.4209   7.7922   9.8371   9.8626  10.1707  10.3226
    10.5364

          k = 0.2222-0.1000 0.0000 ( 20228 PWs)   bands (ev):

   -15.8076 -14.7843 -13.0948 -12.6635 -11.4789 -10.2335  -9.7939  -9.6703
    -7.8585  -6.9911  -6.5188  -5.5505  -4.9351  -4.8240  -4.7084  -3.6634
    -3.2963  -2.7074  -2.5701  -1.8540  -1.7183  -1.4452  -1.2358  -0.9385
    -0.5158  -0.4807  -0.3207   0.2002   0.3799   0.6964   1.0418   1.1735
     1.9248   2.3886   7.6171   7.9975   9.4894   9.9807  10.0333  10.2401
    10.7692

          k = 0.2222-0.2000 0.0000 ( 20215 PWs)   bands (ev):

   -15.3844 -14.6672 -13.8211 -13.0095 -11.9457 -10.6684  -9.4015  -8.7921
    -7.4391  -6.6118  -5.9574  -5.2920  -4.7219  -4.5208  -4.1241  -3.7955
    -3.4671  -3.3267  -2.8103  -2.4839  -2.3649  -1.8251  -1.3825  -1.3376
    -0.4947  -0.3516  -0.2039   0.1561   0.3746   0.5358   1.0681   1.3418
     1.8019   1.9142   8.1389   8.5493   8.8662   9.1689   9.3204   9.8494
    10.2257

          k = 0.3333-0.0000 0.0000 ( 20254 PWs)   bands (ev):

   -14.8568 -13.8019 -11.9572 -10.4265 -10.3481  -9.5571  -9.3179  -9.1884
    -9.1845  -7.4822  -6.5519  -6.3938  -6.0105  -5.2188  -5.1417  -4.7888
    -3.9660  -3.4957  -3.4833  -2.7711  -2.7582  -2.5773  -1.4983  -1.4475
    -1.1497  -0.6509  -0.6071  -0.2598  -0.1810   0.2023   0.7331   0.9507
     1.2903   2.3981   8.4612   8.6138  10.0542  10.3661  10.4734  10.4791
    11.0233

          k = 0.3333-0.1000 0.0000 ( 20257 PWs)   bands (ev):

   -14.6979 -13.6949 -12.0429 -11.6304 -10.4952  -9.4046  -9.0690  -8.8082
    -8.7729  -7.4147  -6.7295  -6.2153  -5.7193  -5.3552  -4.8895  -4.3583
    -4.0853  -3.9079  -3.4508  -2.7799  -2.7440  -2.0858  -1.4935  -1.2395
    -1.0760  -0.9704  -0.6569  -0.4387  -0.2542   0.1650   0.3081   0.7702
     1.2078   1.7658   8.6096   8.7993   9.5203   9.8685  10.3874  10.8743
    10.9501

          k = 0.3333-0.2000 0.0000 ( 20240 PWs)   bands (ev):

   -14.2790 -13.5742 -12.7400 -11.9672 -10.9646  -9.7963  -8.8554  -8.6947
    -7.7439  -7.3975  -6.7842  -6.1290  -5.3938  -4.8144  -4.4172  -4.3723
    -4.0433  -3.5753  -3.1329  -3.0125  -2.8093  -2.3003  -2.0615  -1.6436
    -1.2078  -0.8358  -0.5950  -0.4663  -0.2309   0.0378   0.1879   0.6131
     0.8191   0.9600   8.6419   8.8344   9.3058   9.7828   9.8201  10.3098
    10.7928

          k = 0.4444-0.0000 0.0000 ( 20318 PWs)   bands (ev):

   -13.3452 -12.3891 -11.6222 -10.2587 -10.2357  -8.9889  -8.9327  -8.1126
    -8.0771  -7.8830  -7.6007  -7.2358  -7.0918  -6.2828  -6.2569  -5.4867
    -4.2685  -3.7852  -3.7695  -2.7267  -2.7246  -2.3987  -2.2151  -2.0242
    -1.8664  -1.0725  -1.0500  -0.7528  -0.5653   0.2553   0.4488   0.9838
     1.5382   1.8181   9.5602   9.7617   9.8812  10.0087  10.1655  10.5066
    11.4158

          k = 0.4444-0.1000 0.0000 ( 20269 PWs)   bands (ev):

   -13.1888 -12.2767 -11.4751 -10.4821 -10.2041 -10.0229  -9.2342  -8.8200
    -7.7802  -7.4198  -7.3533  -7.0650  -6.8747  -5.9180  -5.7348  -5.3930
    -4.2502  -3.9155  -3.7327  -2.7671  -2.6573  -2.1043  -1.8869  -1.8410
    -1.7481  -1.1137  -1.0170  -0.6161  -0.5212   0.0965   0.2246   0.4253
     0.8963   1.0662   9.1591   9.8414   9.9922  10.0756  10.3705  11.0289
    11.2060

          k = 0.4444-0.2000 0.0000 ( 20233 PWs)   bands (ev):

   -12.7759 -12.1206 -11.3215 -11.0768 -10.4263 -10.0944  -9.7686  -9.6570
    -7.7982  -7.6120  -7.1443  -6.7141  -6.3310  -6.0221  -4.9544  -4.6494
    -3.9516  -3.4853  -3.1951  -2.8720  -2.5837  -2.0624  -1.8569  -1.5789
    -1.2611  -1.0078  -0.9532  -0.8821  -0.6938  -0.4634  -0.2609  -0.1680
     0.0441   0.0819   9.1078   9.4638   9.9299  10.0948  10.5604  10.6361
    10.8982

     the Fermi energy is     5.0248 ev

!    total energy              =    -299.60703883 Ry
     estimated scf accuracy    <          5.0E-11 Ry
     smearing contrib. (-TS)   =      -0.00000000 Ry
     internal energy E=F+TS    =    -299.60703883 Ry

     The total energy is F=E-TS. E is the sum of the following terms:
     one-electron contribution =   -1769.32391748 Ry
     hartree contribution      =     914.15041903 Ry
     xc contribution           =     -77.52536018 Ry
     ewald contribution        =     731.70227693 Ry
     one-center paw contrib.   =     -98.61045713 Ry

     convergence has been achieved in   7 iterations

     negative rho (up, down):  4.315E-06 0.000E+00

     Forces acting on atoms (cartesian axes, Ry/au):

     atom    1 type  1   force =     0.00000000    0.00070439   -0.00038640
     atom    2 type  1   force =     0.00000000    0.00046061    0.00028366
     atom    3 type  1   force =     0.00000000   -0.00019550    0.00002171
     atom    4 type  1   force =     0.00000000   -0.00009786   -0.00000300
     atom    5 type  1   force =     0.00000000   -0.00010808    0.00028330
     atom    6 type  1   force =     0.00000000   -0.00037674   -0.00000662
     atom    7 type  1   force =     0.00000000    0.00027465   -0.00020621
     atom    8 type  1   force =     0.00000000    0.00010880   -0.00075635
     atom    9 type  1   force =     0.00000000   -0.00010880    0.00075635
     atom   10 type  1   force =     0.00000000   -0.00027465    0.00020621
     atom   11 type  1   force =     0.00000000    0.00037674    0.00000662
     atom   12 type  1   force =     0.00000000    0.00010808   -0.00028330
     atom   13 type  1   force =     0.00000000    0.00009786    0.00000300
     atom   14 type  1   force =     0.00000000    0.00019550   -0.00002171
     atom   15 type  1   force =     0.00000000   -0.00046061   -0.00028366
     atom   16 type  1   force =     0.00000000   -0.00070439    0.00038640
     atom   17 type  2   force =     0.00000000    0.00022750   -0.00036272
     atom   18 type  2   force =     0.00000000    0.00112642    0.00030468
     atom   19 type  2   force =     0.00000000   -0.00112642   -0.00030468
     atom   20 type  2   force =     0.00000000   -0.00022750    0.00036272

     Total force =     0.002633     Total SCF correction =     0.000009
     Energy error            =      1.5E-05 Ry
     Gradient error          =      1.1E-03 Ry/Bohr

     number of scf cycles    =  11
     number of bfgs steps    =  10

     energy             old  =    -299.6070235029 Ry
     energy             new  =    -299.6070388260 Ry

     CASE: energy            _new < energy            _old

     new trust radius        =       0.0027827092 bohr
     new conv_thr            =       0.0000000002 Ry


ATOMIC_POSITIONS (angstrom)
C                0.0000000000       -0.8115679115       11.2053774130
C                1.2634728900       -1.1775835752       10.3981331447
C                1.2634728900       -0.0224040256        9.3905603205
C               -0.0000000000       -0.0189346627        8.5361327545
C                0.0000000000       -1.2761713512        7.6389819362
C                1.2634728900       -1.2741913840        6.7096450574
C                1.2634728900        0.0955292754        5.9114942285
C                0.0000000000        0.4526610928        5.0979239440
C               -0.0000000000       -4.2430797728       11.1901966460
C                1.2634728900       -3.8859479554       10.3766263615
C                1.2634728900       -2.5162272860        9.5784755326
C                0.0000000000       -2.5142473188        8.6491386538
C                0.0000000000       -3.7714840173        7.7519878355
C                1.2634728900       -3.7680146544        6.8975602695
C                1.2634728900       -2.6128350948        5.8899874453
C               -0.0000000000       -2.9788507685        5.0827431770
H                0.0000000000       -1.2304208334       12.2226854045
H                0.0000000000       -3.8081210409       12.2000119944
H                0.0000000000        0.0177023609        4.0881085856
H               -0.0000000000       -2.5599978366        4.0654351755



     Writing config-only to output data dir /tmp/qe/slab.save/ :
     XML data file
     NEW-OLD atomic charge density approx. for the potential

     negative rho (up, down):  4.318E-06 0.000E+00

     total cpu time spent up to now is      249.0 secs

     Self-consistent Calculation

     iteration #  1     ecut=    90.00 Ry     beta= 0.30
     Davidson diagonalization with overlap
     ethr =  1.00E-06,  avg # of iterations =  2.0

     Threshold (ethr) on eigenvalues was too large:
     Diagonalizing with lowered threshold

     Davidson diagonalization with overlap
     ethr =  1.54E-09,  avg # of iterations =  4.9

     negative rho (up, down):  4.320E-06 0.000E+00

     total cpu time spent up to now is      254.2 secs

     total energy              =    -299.60704705 Ry
     estimated scf accuracy    <       0.00000142 Ry

     iteration #  2     ecut=    90.00 Ry     beta= 0.30
     Davidson diagonalization with overlap
     ethr =  2.09E-09,  avg # of iterations =  1.0

     negative rho (up, down):  4.323E-06 0.000E+00

     total cpu time spent up to now is      256.1 secs

     total energy              =    -299.60704702 Ry
     estimated scf accuracy    <       0.00000050 Ry

     iteration #  3     ecut=    90.00 Ry     beta= 0.30
     Davidson diagonalization with overlap
     ethr =  7.34E-10,  avg # of iterations =  2.0

     negative rho (up, down):  4.322E-06 0.000E+00

     total cpu time spent up to now is      258.2 secs

     total energy              =    -299.60704708 Ry
     estimated scf accuracy    <       0.00000006 Ry

     iteration #  4     ecut=    90.00 Ry     beta= 0.30
     Davidson diagonalization with overlap
     ethr =  8.47E-11,  avg # of iterations =  2.0

     negative rho (up, down):  4.322E-06 0.000E+00

     total cpu time spent up to now is      260.3 secs

     total energy              =    -299.60704708 Ry
     estimated scf accuracy    <       0.00000001 Ry

     iteration #  5     ecut=    90.00 Ry     beta= 0.30
     Davidson diagonalization with overlap
     ethr =  1.59E-11,  avg # of iterations =  2.0

     negative rho (up, down):  4.321E-06 0.000E+00

     total cpu time spent up to now is      262.5 secs

     total energy              =    -299.60704709 Ry
     estimated scf accuracy    <          1.6E-09 Ry

     iteration #  6     ecut=    90.00 Ry     beta= 0.30
     Davidson diagonalization with overlap
     ethr =  2.42E-12,  avg # of iterations =  2.5

     negative rho (up, down):  4.321E-06 0.000E+00

     total cpu time spent up to now is      264.9 secs

     total energy              =    -299.60704709 Ry
     estimated scf accuracy    <          5.2E-10 Ry

     iteration #  7     ecut=    90.00 Ry     beta= 0.30
     Davidson diagonalization with overlap
     ethr =  7.69E-13,  avg # of iterations =  2.1

     negative rho (up, down):  4.321E-06 0.000E+00

     total cpu time spent up to now is      267.3 secs

     End of self-consistent calculation

          k = 0.0000-0.0000 0.0000 ( 20251 PWs)   bands (ev):

   -16.8686 -15.7819 -13.8314 -12.3128 -12.2209 -11.3000 -11.1053 -10.8424
    -8.1160  -7.7578  -7.6989  -5.4422  -5.4159  -5.0912  -2.7222  -2.7086
    -2.0320  -1.8120  -1.4753  -0.7979  -0.3033   0.0718   0.4666   0.9184
     0.9261   1.3285   1.3954   1.4207   1.5700   2.0293   2.0313   2.6971
     3.0225   3.1938   6.5655   7.0567   8.5036   8.5588   9.0083   9.3308
     9.6023

          k = 0.0000-0.1000 0.0000 ( 20237 PWs)   bands (ev):

   -16.7069 -15.6741 -13.9651 -13.5212 -12.3087 -11.0223 -10.6186 -10.4575
    -8.0376  -7.6114  -7.1515  -5.5265  -5.3641  -4.8624  -2.7847  -2.6454
    -2.2303  -2.0393  -1.6858  -0.7280  -0.6782  -0.0237   0.3396   0.5033
     0.6130   0.8998   1.4139   1.4487   1.6388   2.1145   2.3831   2.4993
     2.8403   3.1093   6.7860   7.2661   8.7625   9.2370   9.3380   9.5818
     9.6692

          k = 0.0000-0.2000 0.0000 ( 20225 PWs)   bands (ev):

   -16.2804 -15.5574 -14.7012 -13.8727 -12.7791 -11.4627 -10.1574  -9.5780
    -7.6004  -6.9114  -6.4859  -5.7005  -5.0716  -4.5081  -3.7574  -3.2004
    -2.7518  -1.9253  -1.3741  -1.1809  -0.6921  -0.4203   0.0103   0.0878
     0.6358   0.6695   1.2921   1.4818   1.5513   2.0841   2.1180   2.4628
     2.8307   3.2158   7.4109   7.8269   8.4293   8.7469   9.2878   9.5305
     9.5702

          k = 0.1111-0.0000 0.0000 ( 20245 PWs)   bands (ev):

   -16.6425 -15.5583 -13.6144 -12.0991 -12.0081 -11.0924 -10.9004 -10.6414
    -8.0053  -7.5682  -7.5222  -5.3008  -5.2664  -5.0230  -3.1686  -2.6694
    -2.5807  -2.0166  -1.8992  -1.3079  -0.3336  -0.2835   0.0779   0.3237
     0.5978   0.6276   0.7522   0.9955   1.0307   1.3857   1.4745   2.2312
     2.6857   2.9320   6.7820   7.2754   9.1005   9.1438   9.5995   9.7987
     9.8875

          k = 0.1111-0.1000 0.0000 ( 20228 PWs)   bands (ev):

   -16.4811 -15.4507 -13.7458 -13.3051 -12.0990 -10.8215 -10.4111 -10.2571
    -7.9181  -7.4366  -6.9775  -5.4257  -5.1870  -4.7836  -3.0603  -2.6907
    -2.5102  -2.0899  -2.0341  -1.7716  -0.6525  -0.4858  -0.3556   0.0307
     0.3386   0.5210   0.5912   1.1595   1.4020   1.4517   1.5562   1.9395
     2.6946   2.7665   7.0014   7.4841   9.1433   9.7321   9.7680  10.0349
    10.0914

          k = 0.1111-0.2000 0.0000 ( 20228 PWs)   bands (ev):

   -16.0555 -15.3341 -14.4794 -13.6554 -12.5684 -11.2601  -9.9622  -9.3782
    -7.4885  -6.7770  -6.3251  -5.5421  -4.9308  -4.3494  -3.6107  -3.1480
    -2.7449  -2.5671  -2.0324  -1.6490  -1.0917  -1.0622  -0.5905  -0.3160
     0.0789   0.2314   0.6879   0.9766   1.3518   1.6337   1.9413   2.0155
     2.4885   2.5226   7.6279   8.0368   8.6381   8.9167   9.2982   9.6945
    10.2816

          k = 0.2222-0.0000 0.0000 ( 20222 PWs)   bands (ev):

   -15.9673 -14.8919 -12.9721 -11.4628 -11.3747 -10.4794 -10.2910 -10.0524
    -7.9830  -7.0503  -7.0326  -5.5515  -4.9846  -4.9293  -4.9005  -3.6634
    -3.3163  -2.5506  -2.5336  -1.6139  -1.5659  -1.0079  -0.9245  -0.8303
    -0.7388  -0.7343  -0.0969   0.2336   0.5133   0.6397   1.0948   1.5435
     1.8505   2.6606   7.4210   7.7922   9.8365   9.8633  10.1707  10.3217
    10.5381

          k = 0.2222-0.1000 0.0000 ( 20228 PWs)   bands (ev):

   -15.8069 -14.7849 -13.0941 -12.6633 -11.4780 -10.2331  -9.7926  -9.6708
    -7.8588  -6.9908  -6.5181  -5.5511  -4.9346  -4.8234  -4.7085  -3.6635
    -3.2977  -2.7066  -2.5695  -1.8538  -1.7163  -1.4449  -1.2358  -0.9386
    -0.5151  -0.4789  -0.3208   0.1990   0.3814   0.6946   1.0431   1.1722
     1.9241   2.3893   7.6172   7.9975   9.4896   9.9804  10.0327  10.2406
    10.7693

          k = 0.2222-0.2000 0.0000 ( 20215 PWs)   bands (ev):

   -15.3840 -14.6680 -13.8187 -13.0098 -11.9454 -10.6675  -9.4028  -8.7909
    -7.4403  -6.6116  -5.9558  -5.2919  -4.7214  -4.5206  -4.1242  -3.7957
    -3.4682  -3.3259  -2.8087  -2.4825  -2.3638  -1.8240  -1.3828  -1.3385
    -0.4950  -0.3513  -0.2030   0.1572   0.3748   0.5343   1.0697   1.3394
     1.8018   1.9134   8.1390   8.5494   8.8670   9.1691   9.3210   9.8497
    10.2268

          k = 0.3333-0.0000 0.0000 ( 20254 PWs)   bands (ev):

   -14.8560 -13.8023 -11.9579 -10.4242 -10.3473  -9.5579  -9.3167  -9.1877
    -9.1848  -7.4823  -6.5510  -6.3934  -6.0105  -5.2179  -5.1409  -4.7903
    -3.9659  -3.4942  -3.4827  -2.7693  -2.7581  -2.5782  -1.4965  -1.4488
    -1.1500  -0.6481  -0.6086  -0.2638  -0.1812   0.2034   0.7324   0.9507
     1.2915   2.3992   8.4613   8.6140  10.0527  10.3656  10.4718  10.4787
    11.0232

          k = 0.3333-0.1000 0.0000 ( 20257 PWs)   bands (ev):

   -14.6972 -13.6955 -12.0423 -11.6300 -10.4941  -9.4045  -9.0695  -8.8082
    -8.7717  -7.4150  -6.7279  -6.2150  -5.7191  -5.3548  -4.8901  -4.3585
    -4.0848  -3.9060  -3.4502  -2.7801  -2.7439  -2.0848  -1.4943  -1.2395
    -1.0755  -0.9693  -0.6556  -0.4380  -0.2576   0.1638   0.3082   0.7703
     1.2078   1.7666   8.6098   8.7996   9.5195   9.8665  10.3889  10.8737
    10.9507

          k = 0.3333-0.2000 0.0000 ( 20240 PWs)   bands (ev):

   -14.2787 -13.5750 -12.7375 -11.9676 -10.9641  -9.7953  -8.8566  -8.6952
    -7.7429  -7.3975  -6.7826  -6.1286  -5.3940  -4.8147  -4.4170  -4.3716
    -4.0410  -3.5749  -3.1323  -3.0124  -2.8082  -2.3007  -2.0611  -1.6432
    -1.2066  -0.8352  -0.5960  -0.4657  -0.2331   0.0387   0.1892   0.6101
     0.8192   0.9593   8.6419   8.8341   9.3063   9.7825   9.8208  10.3120
    10.7929

          k = 0.4444-0.0000 0.0000 ( 20318 PWs)   bands (ev):

   -13.3444 -12.3894 -11.6215 -10.2599 -10.2367  -8.9867  -8.9318  -8.1123
    -8.0763  -7.8823  -7.5998  -7.2352  -7.0903  -6.2828  -6.2566  -5.4869
    -4.2687  -3.7851  -3.7678  -2.7255  -2.7237  -2.3988  -2.2144  -2.0233
    -1.8686  -1.0738  -1.0483  -0.7535  -0.5696   0.2548   0.4485   0.9852
     1.5394   1.8193   9.5595   9.7623   9.8805  10.0066  10.1646  10.5054
    11.4154

          k = 0.4444-0.1000 0.0000 ( 20269 PWs)   bands (ev):

   -13.1881 -12.2772 -11.4745 -10.4808 -10.2051 -10.0236  -9.2333  -8.8184
    -7.7803  -7.4189  -7.3520  -7.0652  -6.8740  -5.9175  -5.7336  -5.3933
    -4.2505  -3.9146  -3.7314  -2.7667  -2.6568  -2.1045  -1.8865  -1.8404
    -1.7486  -1.1132  -1.0164  -0.6181  -0.5246   0.0962   0.2246   0.4259
     0.8972   1.0674   9.1581   9.8414   9.9922  10.0759  10.3686  11.0285
    11.2065

          k = 0.4444-0.2000 0.0000 ( 20233 PWs)   bands (ev):

   -12.7756 -12.1214 -11.3191 -11.0768 -10.4256 -10.0950  -9.7693  -9.6558
    -7.7981  -7.6108  -7.1442  -6.7150  -6.3295  -6.0212  -4.9548  -4.6480
    -3.9520  -3.4849  -3.1927  -2.8716  -2.5832  -2.0614  -1.8581  -1.5775
    -1.2614  -1.0068  -0.9524  -0.8818  -0.6938  -0.4632  -0.2617  -0.1707
     0.0445   0.0798   9.1073   9.4632   9.9298  10.0967  10.5603  10.6364
    10.9012

     the Fermi energy is     5.0247 ev

!    total energy              =    -299.60704709 Ry
     estimated scf accuracy    <          6.0E-11 Ry
     smearing contrib. (-TS)   =      -0.00000000 Ry
     internal energy E=F+TS    =    -299.60704709 Ry

     The total energy is F=E-TS. E is the sum of the following terms:
     one-electron contribution =   -1769.10403410 Ry
     hartree contribution      =     914.04081852 Ry
     xc contribution           =     -77.52512843 Ry
     ewald contribution        =     731.59174171 Ry
     one-center paw contrib.   =     -98.61044479 Ry

     convergence has been achieved in   7 iterations

     negative rho (up, down):  4.321E-06 0.000E+00

     Forces acting on atoms (cartesian axes, Ry/au):

     atom    1 type  1   force =     0.00000000    0.00058637    0.00029918
     atom    2 type  1   force =     0.00000000    0.00032877    0.00029207
     atom    3 type  1   force =     0.00000000   -0.00025686    0.00006610
     atom    4 type  1   force =     0.00000000   -0.00014266   -0.00004203
     atom    5 type  1   force =     0.00000000   -0.00025071    0.00017036
     atom    6 type  1   force =     0.00000000   -0.00019684    0.00014446
     atom    7 type  1   force =     0.00000000    0.00002846    0.00011624
     atom    8 type  1   force =     0.00000000   -0.00034717    0.00009511
     atom    9 type  1   force =     0.00000000    0.00034717   -0.00009511
     atom   10 type  1   force =     0.00000000   -0.00002846   -0.00011624
     atom   11 type  1   force =     0.00000000    0.00019684   -0.00014446
     atom   12 type  1   force =     0.00000000    0.00025071   -0.00017036
     atom   13 type  1   force =     0.00000000    0.00014266    0.00004203
     atom   14 type  1   force =     0.00000000    0.00025686   -0.00006610
     atom   15 type  1   force =     0.00000000   -0.00032877   -0.00029207
     atom   16 type  1   force =     0.00000000   -0.00058637   -0.00029918
     atom   17 type  2   force =     0.00000000    0.00002564   -0.00025575
     atom   18 type  2   force =     0.00000000    0.00077864    0.00041231
     atom   19 type  2   force =     0.00000000   -0.00077864   -0.00041231
     atom   20 type  2   force =     0.00000000   -0.00002564    0.00025575

     Total force =     0.001927     Total SCF correction =     0.000012
     Energy error            =      8.3E-06 Ry
     Gradient error          =      7.8E-04 Ry/Bohr

     number of scf cycles    =  12
     number of bfgs steps    =  11

     energy             old  =    -299.6070388260 Ry
     energy             new  =    -299.6070470866 Ry

     CASE: energy            _new < energy            _old

     new trust radius        =       0.0031022724 bohr
     new conv_thr            =            1.0E-10 Ry


ATOMIC_POSITIONS (angstrom)
C                0.0000000000       -0.8110213286       11.2052967841
C                1.2634728900       -1.1771861202       10.3980475757
C                1.2634728900       -0.0223659342        9.3905740633
C               -0.0000000000       -0.0189371446        8.5360953527
C                0.0000000000       -1.2762862071        7.6390373784
C                1.2634728900       -1.2743718912        6.7096184523
C                1.2634728900        0.0955241377        5.9113139158
C                0.0000000000        0.4525101438        5.0976473725
C               -0.0000000000       -4.2429288238       11.1904732175
C                1.2634728900       -3.8859428177       10.3768066742
C                1.2634728900       -2.5160467788        9.5785021377
C                0.0000000000       -2.5141324629        8.6490832116
C                0.0000000000       -3.7714815354        7.7520252373
C                1.2634728900       -3.7680527458        6.8975465267
C                1.2634728900       -2.6132325498        5.8900730143
C               -0.0000000000       -2.9793973514        5.0828238059
H                0.0000000000       -1.2302063079       12.2220268719
H                0.0000000000       -3.8064841509       12.2001369413
H                0.0000000000        0.0160654709        4.0879836387
H               -0.0000000000       -2.5602123621        4.0660937081



     Writing config-only to output data dir /tmp/qe/slab.save/ :
     XML data file
     NEW-OLD atomic charge density approx. for the potential

     negative rho (up, down):  4.334E-06 0.000E+00

     total cpu time spent up to now is      268.2 secs

     Self-consistent Calculation

     iteration #  1     ecut=    90.00 Ry     beta= 0.30
     Davidson diagonalization with overlap
     ethr =  1.00E-06,  avg # of iterations =  2.0

     Threshold (ethr) on eigenvalues was too large:
     Diagonalizing with lowered threshold

     Davidson diagonalization with overlap
     ethr =  1.96E-09,  avg # of iterations =  4.0

     negative rho (up, down):  4.333E-06 0.000E+00

     total cpu time spent up to now is      272.9 secs

     total energy              =    -299.60705217 Ry
     estimated scf accuracy    <       0.00000159 Ry

     iteration #  2     ecut=    90.00 Ry     beta= 0.30
     Davidson diagonalization with overlap
     ethr =  2.33E-09,  avg # of iterations =  1.3

     negative rho (up, down):  4.330E-06 0.000E+00

     total cpu time spent up to now is      274.8 secs

     total energy              =    -299.60705211 Ry
     estimated scf accuracy    <       0.00000052 Ry

     iteration #  3     ecut=    90.00 Ry     beta= 0.30
     Davidson diagonalization with overlap
     ethr =  7.66E-10,  avg # of iterations =  2.0

     negative rho (up, down):  4.329E-06 0.000E+00

     total cpu time spent up to now is      277.0 secs

     total energy              =    -299.60705216 Ry
     estimated scf accuracy    <       0.00000007 Ry

     iteration #  4     ecut=    90.00 Ry     beta= 0.30
     Davidson diagonalization with overlap
     ethr =  1.03E-10,  avg # of iterations =  1.9

     negative rho (up, down):  4.329E-06 0.000E+00

     total cpu time spent up to now is      279.1 secs

     total energy              =    -299.60705217 Ry
     estimated scf accuracy    <          9.0E-09 Ry

     iteration #  5     ecut=    90.00 Ry     beta= 0.30
     Davidson diagonalization with overlap
     ethr =  1.32E-11,  avg # of iterations =  2.2

     negative rho (up, down):  4.329E-06 0.000E+00

     total cpu time spent up to now is      281.4 secs

     total energy              =    -299.60705217 Ry
     estimated scf accuracy    <          1.9E-09 Ry

     iteration #  6     ecut=    90.00 Ry     beta= 0.30
     Davidson diagonalization with overlap
     ethr =  2.79E-12,  avg # of iterations =  2.7

     negative rho (up, down):  4.329E-06 0.000E+00

     total cpu time spent up to now is      283.9 secs

     total energy              =    -299.60705217 Ry
     estimated scf accuracy    <          7.4E-10 Ry

     iteration #  7     ecut=    90.00 Ry     beta= 0.30
     Davidson diagonalization with overlap
     ethr =  1.09E-12,  avg # of iterations =  2.6

     negative rho (up, down):  4.329E-06 0.000E+00

     total cpu time spent up to now is      286.3 secs

     total energy              =    -299.60705217 Ry
     estimated scf accuracy    <          1.4E-10 Ry

     iteration #  8     ecut=    90.00 Ry     beta= 0.30
     Davidson diagonalization with overlap
     ethr =  2.04E-13,  avg # of iterations =  2.3

     negative rho (up, down):  4.329E-06 0.000E+00

     total cpu time spent up to now is      288.5 secs

     End of self-consistent calculation

          k = 0.0000-0.0000 0.0000 ( 20251 PWs)   bands (ev):

   -16.8687 -15.7827 -13.8327 -12.3120 -12.2204 -11.3002 -11.1052 -10.8422
    -8.1158  -7.7580  -7.6997  -5.4428  -5.4164  -5.0897  -2.7227  -2.7110
    -2.0308  -1.8118  -1.4749  -0.7982  -0.3014   0.0689   0.4654   0.9194
     0.9256   1.3297   1.3960   1.4209   1.5684   2.0303   2.0322   2.6976
     3.0227   3.1939   6.5655   7.0565   8.5031   8.5584   9.0075   9.3308
     9.6039

          k = 0.0000-0.1000 0.0000 ( 20237 PWs)   bands (ev):

   -16.7071 -15.6751 -13.9659 -13.5208 -12.3082 -11.0222 -10.6183 -10.4579
    -8.0375  -7.6119  -7.1513  -5.5270  -5.3649  -4.8612  -2.7864  -2.6455
    -2.2296  -2.0397  -1.6856  -0.7285  -0.6770  -0.0242   0.3380   0.5036
     0.6138   0.8995   1.4148   1.4473   1.6388   2.1157   2.3835   2.4990
     2.8403   3.1097   6.7862   7.2660   8.7616   9.2360   9.3390   9.5815
     9.6706

          k = 0.0000-0.2000 0.0000 ( 20225 PWs)   bands (ev):

   -16.2807 -15.5587 -14.7008 -13.8726 -12.7792 -11.4623 -10.1581  -9.5777
    -7.6009  -6.9113  -6.4857  -5.7005  -5.0712  -4.5092  -3.7575  -3.1997
    -2.7517  -1.9272  -1.3741  -1.1798  -0.6926  -0.4195   0.0107   0.0886
     0.6325   0.6702   1.2921   1.4818   1.5517   2.0854   2.1175   2.4608
     2.8306   3.2167   7.4111   7.8268   8.4300   8.7478   9.2881   9.5320
     9.5713

          k = 0.1111-0.0000 0.0000 ( 20245 PWs)   bands (ev):

   -16.6426 -15.5591 -13.6158 -12.0983 -12.0076 -11.0926 -10.9003 -10.6411
    -8.0053  -7.5683  -7.5229  -5.3016  -5.2670  -5.0214  -3.1684  -2.6717
    -2.5809  -2.0168  -1.8989  -1.3075  -0.3350  -0.2815   0.0775   0.3247
     0.5973   0.6264   0.7519   0.9960   1.0318   1.3859   1.4738   2.2317
     2.6863   2.9318   6.7821   7.2752   9.0992   9.1434   9.5999   9.8012
     9.8857

          k = 0.1111-0.1000 0.0000 ( 20228 PWs)   bands (ev):

   -16.4812 -15.4517 -13.7467 -13.3046 -12.0985 -10.8213 -10.4108 -10.2575
    -7.9181  -7.4370  -6.9773  -5.4263  -5.1878  -4.7824  -3.0601  -2.6924
    -2.5101  -2.0900  -2.0342  -1.7719  -0.6512  -0.4855  -0.3559   0.0310
     0.3376   0.5209   0.5918   1.1602   1.4011   1.4518   1.5563   1.9394
     2.6946   2.7665   7.0015   7.4840   9.1430   9.7329   9.7676  10.0358
    10.0908

          k = 0.1111-0.2000 0.0000 ( 20228 PWs)   bands (ev):

   -16.0558 -15.3354 -14.4790 -13.6553 -12.5684 -11.2598  -9.9629  -9.3779
    -7.4890  -6.7770  -6.3249  -5.5421  -4.9304  -4.3505  -3.6109  -3.1475
    -2.7446  -2.5672  -2.0334  -1.6501  -1.0911  -1.0613  -0.5901  -0.3152
     0.0791   0.2316   0.6858   0.9771   1.3514   1.6343   1.9411   2.0155
     2.4882   2.5219   7.6282   8.0367   8.6388   8.9177   9.2997   9.6966
    10.2821

          k = 0.2222-0.0000 0.0000 ( 20222 PWs)   bands (ev):

   -15.9674 -14.8927 -12.9734 -11.4619 -11.3741 -10.4796 -10.2909 -10.0522
    -7.9834  -7.0505  -7.0329  -5.5520  -4.9843  -4.9294  -4.9001  -3.6630
    -3.3172  -2.5515  -2.5349  -1.6127  -1.5653  -1.0073  -0.9257  -0.8299
    -0.7375  -0.7331  -0.0953   0.2315   0.5105   0.6393   1.0955   1.5441
     1.8502   2.6608   7.4212   7.7920   9.8356   9.8629  10.1706  10.3226
    10.5382

          k = 0.2222-0.1000 0.0000 ( 20228 PWs)   bands (ev):

   -15.8071 -14.7859 -13.0949 -12.6628 -11.4775 -10.2330  -9.7924  -9.6712
    -7.8592  -6.9910  -6.5181  -5.5518  -4.9338  -4.8234  -4.7089  -3.6633
    -3.2986  -2.7066  -2.5697  -1.8537  -1.7159  -1.4453  -1.2356  -0.9379
    -0.5154  -0.4775  -0.3199   0.1975   0.3815   0.6935   1.0434   1.1714
     1.9236   2.3894   7.6174   7.9975   9.4904   9.9802  10.0321  10.2416
    10.7697

          k = 0.2222-0.2000 0.0000 ( 20215 PWs)   bands (ev):

   -15.3843 -14.6693 -13.8183 -13.0097 -11.9454 -10.6671  -9.4036  -8.7906
    -7.4408  -6.6118  -5.9555  -5.2919  -4.7211  -4.5202  -4.1246  -3.7962
    -3.4685  -3.3262  -2.8085  -2.4815  -2.3635  -1.8236  -1.3825  -1.3394
    -0.4947  -0.3512  -0.2024   0.1579   0.3747   0.5328   1.0701   1.3378
     1.8016   1.9123   8.1393   8.5495   8.8679   9.1699   9.3216   9.8505
    10.2286

          k = 0.3333-0.0000 0.0000 ( 20254 PWs)   bands (ev):

   -14.8561 -13.8031 -11.9591 -10.4233 -10.3468  -9.5586  -9.3162  -9.1871
    -9.1857  -7.4830  -6.5515  -6.3928  -6.0103  -5.2184  -5.1408  -4.7900
    -3.9659  -3.4938  -3.4828  -2.7685  -2.7585  -2.5779  -1.4955  -1.4493
    -1.1503  -0.6462  -0.6085  -0.2669  -0.1831   0.2031   0.7320   0.9510
     1.2922   2.3993   8.4614   8.6141  10.0537  10.3659  10.4701  10.4779
    11.0231

          k = 0.3333-0.1000 0.0000 ( 20257 PWs)   bands (ev):

   -14.6974 -13.6964 -12.0432 -11.6294 -10.4935  -9.4046  -9.0704  -8.8083
    -8.7713  -7.4157  -6.7275  -6.2153  -5.7186  -5.3548  -4.8904  -4.3584
    -4.0851  -3.9056  -3.4494  -2.7803  -2.7438  -2.0843  -1.4951  -1.2392
    -1.0751  -0.9689  -0.6547  -0.4384  -0.2595   0.1617   0.3080   0.7703
     1.2077   1.7665   8.6100   8.7998   9.5195   9.8661  10.3898  10.8738
    10.9518

          k = 0.3333-0.2000 0.0000 ( 20240 PWs)   bands (ev):

   -14.2790 -13.5763 -12.7371 -11.9675 -10.9640  -9.7949  -8.8578  -8.6959
    -7.7427  -7.3979  -6.7824  -6.1284  -5.3935  -4.8149  -4.4170  -4.3719
    -4.0405  -3.5744  -3.1315  -3.0128  -2.8080  -2.3013  -2.0609  -1.6430
    -1.2059  -0.8345  -0.5970  -0.4650  -0.2343   0.0387   0.1893   0.6073
     0.8191   0.9584   8.6423   8.8345   9.3065   9.7826   9.8215  10.3133
    10.7941

          k = 0.4444-0.0000 0.0000 ( 20318 PWs)   bands (ev):

   -13.3445 -12.3901 -11.6217 -10.2613 -10.2378  -8.9860  -8.9315  -8.1126
    -8.0755  -7.8828  -7.5996  -7.2347  -7.0897  -6.2826  -6.2567  -5.4872
    -4.2685  -3.7852  -3.7674  -2.7250  -2.7231  -2.3988  -2.2142  -2.0224
    -1.8698  -1.0735  -1.0469  -0.7559  -0.5734   0.2543   0.4489   0.9851
     1.5402   1.8194   9.5594   9.7630   9.8797  10.0053  10.1654  10.5043
    11.4141

          k = 0.4444-0.1000 0.0000 ( 20269 PWs)   bands (ev):

   -13.1883 -12.2781 -11.4747 -10.4810 -10.2061 -10.0242  -9.2328  -8.8181
    -7.7807  -7.4186  -7.3517  -7.0652  -6.8737  -5.9170  -5.7333  -5.3936
    -4.2506  -3.9142  -3.7306  -2.7670  -2.6566  -2.1040  -1.8865  -1.8396
    -1.7489  -1.1125  -1.0158  -0.6209  -0.5278   0.0957   0.2250   0.4255
     0.8976   1.0675   9.1578   9.8416   9.9921  10.0775  10.3672  11.0277
    11.2072

          k = 0.4444-0.2000 0.0000 ( 20233 PWs)   bands (ev):

   -12.7759 -12.1227 -11.3188 -11.0769 -10.4250 -10.0961  -9.7699  -9.6558
    -7.7979  -7.6105  -7.1442  -6.7153  -6.3292  -6.0208  -4.9552  -4.6477
    -3.9517  -3.4844  -3.1919  -2.8717  -2.5831  -2.0606  -1.8588  -1.5768
    -1.2615  -1.0063  -0.9518  -0.8820  -0.6944  -0.4639  -0.2632  -0.1726
     0.0439   0.0787   9.1073   9.4630   9.9300  10.0988  10.5606  10.6370
    10.9036

     the Fermi energy is     5.0237 ev

!    total energy              =    -299.60705217 Ry
     estimated scf accuracy    <          8.8E-12 Ry
     smearing contrib. (-TS)   =      -0.00000000 Ry
     internal energy E=F+TS    =    -299.60705217 Ry

     The total energy is F=E-TS. E is the sum of the following terms:
     one-electron contribution =   -1769.08192252 Ry
     hartree contribution      =     914.02959429 Ry
     xc contribution           =     -77.52523375 Ry
     ewald contribution        =     731.58095051 Ry
     one-center paw contrib.   =     -98.61044069 Ry

     convergence has been achieved in   8 iterations

     negative rho (up, down):  4.329E-06 0.000E+00

     Forces acting on atoms (cartesian axes, Ry/au):

     atom    1 type  1   force =     0.00000000    0.00040522    0.00014949
     atom    2 type  1   force =     0.00000000    0.00012589    0.00036180
     atom    3 type  1   force =    -0.00000000   -0.00005781   -0.00001655
     atom    4 type  1   force =     0.00000000   -0.00007864    0.00004460
     atom    5 type  1   force =    -0.00000000   -0.00013000   -0.00000575
     atom    6 type  1   force =    -0.00000000   -0.00011802    0.00008499
     atom    7 type  1   force =     0.00000000   -0.00027273    0.00037590
     atom    8 type  1   force =     0.00000000   -0.00077411   -0.00005664
     atom    9 type  1   force =     0.00000000    0.00077411    0.00005664
     atom   10 type  1   force =     0.00000000    0.00027273   -0.00037590
     atom   11 type  1   force =     0.00000000    0.00011802   -0.00008499
     atom   12 type  1   force =     0.00000000    0.00013000    0.00000575
     atom   13 type  1   force =     0.00000000    0.00007864   -0.00004460
     atom   14 type  1   force =     0.00000000    0.00005781    0.00001655
     atom   15 type  1   force =     0.00000000   -0.00012589   -0.00036180
     atom   16 type  1   force =     0.00000000   -0.00040522   -0.00014949
     atom   17 type  2   force =     0.00000000   -0.00012980    0.00021913
     atom   18 type  2   force =     0.00000000    0.00034621    0.00000549
     atom   19 type  2   force =    -0.00000000   -0.00034621   -0.00000549
     atom   20 type  2   force =     0.00000000    0.00012980   -0.00021913

     Total force =     0.001665     Total SCF correction =     0.000006
     Energy error            =      5.1E-06 Ry
     Gradient error          =      7.7E-04 Ry/Bohr

     number of scf cycles    =  13
     number of bfgs steps    =  12

     energy             old  =    -299.6070470866 Ry
     energy             new  =    -299.6070521697 Ry

     CASE: energy            _new < energy            _old

     new trust radius        =       0.0031576033 bohr
     new conv_thr            =            1.0E-10 Ry


ATOMIC_POSITIONS (angstrom)
C                0.0000000000       -0.8103071156       11.2052249019
C                1.2634728900       -1.1767879264       10.3981851587
C                1.2634728900       -0.0223584820        9.3905090773
C               -0.0000000000       -0.0189993562        8.5361330736
C               -0.0000000000       -1.2764553560        7.6390795369
C                1.2634728900       -1.2746067392        6.7097042939
C                1.2634728900        0.0953178310        5.9114760352
C                0.0000000000        0.4518564445        5.0974150532
C               -0.0000000000       -4.2422751245       11.1907055368
C                1.2634728900       -3.8857365110       10.3766445548
C                1.2634728900       -2.5158119308        9.5784162961
C                0.0000000000       -2.5139633140        8.6490410531
C                0.0000000000       -3.7714193238        7.7519875164
C                1.2634728900       -3.7680601980        6.8976115127
C                1.2634728900       -2.6136307436        5.8899354313
C               -0.0000000000       -2.9801115644        5.0828956881
H                0.0000000000       -1.2301688378       12.2216040556
H                0.0000000000       -3.8048144029       12.2000740566
H               -0.0000000000        0.0143957229        4.0880465234
H               -0.0000000000       -2.5602498322        4.0665165244



     Writing config-only to output data dir /tmp/qe/slab.save/ :
     XML data file
     NEW-OLD atomic charge density approx. for the potential

     negative rho (up, down):  4.341E-06 0.000E+00

     total cpu time spent up to now is      289.5 secs

     Self-consistent Calculation

     iteration #  1     ecut=    90.00 Ry     beta= 0.30
     Davidson diagonalization with overlap
     ethr =  1.00E-06,  avg # of iterations =  2.0

     Threshold (ethr) on eigenvalues was too large:
     Diagonalizing with lowered threshold

     Davidson diagonalization with overlap
     ethr =  1.89E-09,  avg # of iterations =  4.5

     negative rho (up, down):  4.339E-06 0.000E+00

     total cpu time spent up to now is      294.5 secs

     total energy              =    -299.60705644 Ry
     estimated scf accuracy    <       0.00000167 Ry

     iteration #  2     ecut=    90.00 Ry     beta= 0.30
     Davidson diagonalization with overlap
     ethr =  2.45E-09,  avg # of iterations =  1.0

     negative rho (up, down):  4.335E-06 0.000E+00

     total cpu time spent up to now is      296.4 secs

     total energy              =    -299.60705633 Ry
     estimated scf accuracy    <       0.00000063 Ry

     iteration #  3     ecut=    90.00 Ry     beta= 0.30
     Davidson diagonalization with overlap
     ethr =  9.21E-10,  avg # of iterations =  2.0

     negative rho (up, down):  4.335E-06 0.000E+00

     total cpu time spent up to now is      298.6 secs

     total energy              =    -299.60705640 Ry
     estimated scf accuracy    <       0.00000005 Ry

     iteration #  4     ecut=    90.00 Ry     beta= 0.30
     Davidson diagonalization with overlap
     ethr =  7.06E-11,  avg # of iterations =  1.9

     negative rho (up, down):  4.334E-06 0.000E+00

     total cpu time spent up to now is      300.7 secs

     total energy              =    -299.60705641 Ry
     estimated scf accuracy    <          9.6E-09 Ry

     iteration #  5     ecut=    90.00 Ry     beta= 0.30
     Davidson diagonalization with overlap
     ethr =  1.40E-11,  avg # of iterations =  2.2

     negative rho (up, down):  4.334E-06 0.000E+00

     total cpu time spent up to now is      303.2 secs

     total energy              =    -299.60705641 Ry
     estimated scf accuracy    <          2.0E-09 Ry

     iteration #  6     ecut=    90.00 Ry     beta= 0.30
     Davidson diagonalization with overlap
     ethr =  2.92E-12,  avg # of iterations =  2.5

     negative rho (up, down):  4.334E-06 0.000E+00

     total cpu time spent up to now is      305.6 secs

     total energy              =    -299.60705641 Ry
     estimated scf accuracy    <          6.9E-10 Ry

     iteration #  7     ecut=    90.00 Ry     beta= 0.30
     Davidson diagonalization with overlap
     ethr =  1.01E-12,  avg # of iterations =  2.1

     negative rho (up, down):  4.334E-06 0.000E+00

     total cpu time spent up to now is      307.9 secs

     End of self-consistent calculation

          k = 0.0000-0.0000 0.0000 ( 20251 PWs)   bands (ev):

   -16.8689 -15.7828 -13.8331 -12.3120 -12.2202 -11.2997 -11.1059 -10.8421
    -8.1155  -7.7586  -7.6994  -5.4426  -5.4175  -5.0884  -2.7220  -2.7135
    -2.0296  -1.8122  -1.4748  -0.7982  -0.2997   0.0654   0.4657   0.9203
     0.9254   1.3293   1.3950   1.4220   1.5667   2.0311   2.0327   2.6986
     3.0219   3.1942   6.5658   7.0566   8.5023   8.5579   9.0071   9.3307
     9.6037

          k = 0.0000-0.1000 0.0000 ( 20237 PWs)   bands (ev):

   -16.7072 -15.6752 -13.9665 -13.5204 -12.3080 -11.0221 -10.6184 -10.4583
    -8.0369  -7.6119  -7.1519  -5.5267  -5.3653  -4.8608  -2.7878  -2.6447
    -2.2287  -2.0405  -1.6859  -0.7286  -0.6767  -0.0237   0.3360   0.5048
     0.6135   0.8993   1.4150   1.4459   1.6396   2.1158   2.3833   2.4991
     2.8406   3.1091   6.7865   7.2661   8.7606   9.2351   9.3388   9.5815
     9.6710

          k = 0.0000-0.2000 0.0000 ( 20225 PWs)   bands (ev):

   -16.2809 -15.5591 -14.7010 -13.8721 -12.7792 -11.4622 -10.1589  -9.5777
    -7.6003  -6.9109  -6.4863  -5.7002  -5.0714  -4.5098  -3.7573  -3.1989
    -2.7510  -1.9290  -1.3744  -1.1790  -0.6931  -0.4189   0.0118   0.0887
     0.6297   0.6703   1.2926   1.4824   1.5521   2.0851   2.1177   2.4598
     2.8300   3.2165   7.4114   7.8269   8.4307   8.7484   9.2879   9.5321
     9.5712

          k = 0.1111-0.0000 0.0000 ( 20245 PWs)   bands (ev):

   -16.6427 -15.5592 -13.6161 -12.0983 -12.0073 -11.0920 -10.9010 -10.6410
    -8.0050  -7.5689  -7.5226  -5.3014  -5.2680  -5.0202  -3.1683  -2.6740
    -2.5805  -2.0166  -1.8981  -1.3073  -0.3364  -0.2800   0.0766   0.3249
     0.5956   0.6258   0.7523   0.9968   1.0324   1.3864   1.4726   2.2312
     2.6872   2.9319   6.7824   7.2753   9.0982   9.1430   9.6002   9.8025
     9.8837

          k = 0.1111-0.1000 0.0000 ( 20228 PWs)   bands (ev):

   -16.4814 -15.4518 -13.7472 -13.3042 -12.0982 -10.8212 -10.4110 -10.2579
    -7.9175  -7.4369  -6.9779  -5.4259  -5.1881  -4.7820  -3.0599  -2.6937
    -2.5097  -2.0900  -2.0338  -1.7722  -0.6508  -0.4858  -0.3563   0.0315
     0.3366   0.5212   0.5919   1.1602   1.4004   1.4511   1.5570   1.9389
     2.6943   2.7669   7.0019   7.4841   9.1424   9.7329   9.7673  10.0367
    10.0902

          k = 0.1111-0.2000 0.0000 ( 20228 PWs)   bands (ev):

   -16.0559 -15.3358 -14.4792 -13.6548 -12.5684 -11.2597  -9.9637  -9.3780
    -7.4884  -6.7766  -6.3256  -5.5419  -4.9306  -4.3510  -3.6107  -3.1467
    -2.7440  -2.5676  -2.0341  -1.6509  -1.0913  -1.0608  -0.5899  -0.3146
     0.0798   0.2315   0.6839   0.9773   1.3514   1.6345   1.9408   2.0148
     2.4872   2.5221   7.6285   8.0367   8.6395   8.9183   9.3001   9.6971
    10.2825

          k = 0.2222-0.0000 0.0000 ( 20222 PWs)   bands (ev):

   -15.9676 -14.8928 -12.9737 -11.4620 -11.3739 -10.4791 -10.2915 -10.0520
    -7.9833  -7.0510  -7.0327  -5.5517  -4.9842  -4.9302  -4.8997  -3.6625
    -3.3173  -2.5519  -2.5360  -1.6127  -1.5659  -1.0067  -0.9264  -0.8297
    -0.7363  -0.7329  -0.0940   0.2290   0.5090   0.6396   1.0957   1.5442
     1.8498   2.6616   7.4215   7.7921   9.8350   9.8625  10.1708  10.3234
    10.5377

          k = 0.2222-0.1000 0.0000 ( 20228 PWs)   bands (ev):

   -15.8072 -14.7860 -13.0955 -12.6624 -11.4772 -10.2329  -9.7926  -9.6715
    -7.8588  -6.9909  -6.5186  -5.5516  -4.9338  -4.8234  -4.7091  -3.6629
    -3.2986  -2.7070  -2.5698  -1.8544  -1.7153  -1.4457  -1.2354  -0.9379
    -0.5155  -0.4768  -0.3201   0.1964   0.3818   0.6928   1.0439   1.1702
     1.9233   2.3898   7.6177   7.9976   9.4907   9.9800  10.0317  10.2421
    10.7693

          k = 0.2222-0.2000 0.0000 ( 20215 PWs)   bands (ev):

   -15.3844 -14.6697 -13.8184 -13.0092 -11.9454 -10.6670  -9.4044  -8.7906
    -7.4405  -6.6115  -5.9562  -5.2918  -4.7211  -4.5202  -4.1243  -3.7964
    -3.4682  -3.3268  -2.8087  -2.4814  -2.3630  -1.8226  -1.3823  -1.3406
    -0.4951  -0.3511  -0.2019   0.1577   0.3749   0.5322   1.0704   1.3359
     1.8013   1.9121   8.1396   8.5496   8.8685   9.1703   9.3220   9.8506
    10.2298

          k = 0.3333-0.0000 0.0000 ( 20254 PWs)   bands (ev):

   -14.8562 -13.8031 -11.9595 -10.4233 -10.3465  -9.5585  -9.3165  -9.1865
    -9.1862  -7.4834  -6.5517  -6.3926  -6.0101  -5.2183  -5.1412  -4.7896
    -3.9657  -3.4935  -3.4838  -2.7674  -2.7596  -2.5781  -1.4940  -1.4504
    -1.1498  -0.6453  -0.6090  -0.2693  -0.1840   0.2027   0.7316   0.9509
     1.2929   2.3999   8.4616   8.6143  10.0549  10.3668  10.4687  10.4773
    11.0234

          k = 0.3333-0.1000 0.0000 ( 20257 PWs)   bands (ev):

   -14.6975 -13.6966 -12.0438 -11.6290 -10.4932  -9.4045  -9.0708  -8.8084
    -8.7714  -7.4161  -6.7274  -6.2152  -5.7186  -5.3550  -4.8900  -4.3584
    -4.0851  -3.9055  -3.4495  -2.7805  -2.7438  -2.0841  -1.4958  -1.2382
    -1.0750  -0.9687  -0.6542  -0.4386  -0.2615   0.1607   0.3077   0.7701
     1.2078   1.7670   8.6103   8.8002   9.5195   9.8664  10.3899  10.8733
    10.9523

          k = 0.3333-0.2000 0.0000 ( 20240 PWs)   bands (ev):

   -14.2791 -13.5767 -12.7373 -11.9670 -10.9638  -9.7949  -8.8583  -8.6959
    -7.7429  -7.3984  -6.7826  -6.1281  -5.3936  -4.8143  -4.4171  -4.3718
    -4.0404  -3.5745  -3.1318  -3.0124  -2.8083  -2.3017  -2.0606  -1.6423
    -1.2050  -0.8347  -0.5979  -0.4644  -0.2354   0.0389   0.1894   0.6054
     0.8188   0.9580   8.6428   8.8349   9.3066   9.7828   9.8215  10.3133
    10.7951

          k = 0.4444-0.0000 0.0000 ( 20318 PWs)   bands (ev):

   -13.3447 -12.3902 -11.6219 -10.2616 -10.2378  -8.9861  -8.9313  -8.1135
    -8.0742  -7.8829  -7.6001  -7.2346  -7.0895  -6.2825  -6.2570  -5.4876
    -4.2674  -3.7859  -3.7674  -2.7251  -2.7231  -2.3980  -2.2145  -2.0216
    -1.8702  -1.0742  -1.0462  -0.7567  -0.5761   0.2537   0.4491   0.9852
     1.5409   1.8199   9.5598   9.7639   9.8795  10.0041  10.1663  10.5033
    11.4133

          k = 0.4444-0.1000 0.0000 ( 20269 PWs)   bands (ev):

   -13.1884 -12.2782 -11.4749 -10.4813 -10.2060 -10.0241  -9.2325  -8.8183
    -7.7808  -7.4186  -7.3519  -7.0654  -6.8739  -5.9171  -5.7333  -5.3940
    -4.2496  -3.9142  -3.7309  -2.7667  -2.6562  -2.1036  -1.8866  -1.8395
    -1.7492  -1.1123  -1.0156  -0.6222  -0.5300   0.0951   0.2251   0.4253
     0.8982   1.0679   9.1579   9.8421   9.9919  10.0794  10.3657  11.0266
    11.2071

          k = 0.4444-0.2000 0.0000 ( 20233 PWs)   bands (ev):

   -12.7760 -12.1231 -11.3191 -11.0767 -10.4245 -10.0964  -9.7698  -9.6558
    -7.7979  -7.6106  -7.1445  -6.7160  -6.3293  -6.0210  -4.9557  -4.6476
    -3.9507  -3.4843  -3.1916  -2.8709  -2.5826  -2.0611  -1.8587  -1.5766
    -1.2615  -1.0059  -0.9514  -0.8823  -0.6950  -0.4641  -0.2639  -0.1744
     0.0439   0.0775   9.1076   9.4634   9.9297  10.1002  10.5597  10.6373
    10.9046

     the Fermi energy is     5.0231 ev

!    total energy              =    -299.60705641 Ry
     estimated scf accuracy    <          5.2E-11 Ry
     smearing contrib. (-TS)   =      -0.00000000 Ry
     internal energy E=F+TS    =    -299.60705641 Ry

     The total energy is F=E-TS. E is the sum of the following terms:
     one-electron contribution =   -1769.09181015 Ry
     hartree contribution      =     914.03420673 Ry
     xc contribution           =     -77.52500329 Ry
     ewald contribution        =     731.58598094 Ry
     one-center paw contrib.   =     -98.61043063 Ry

     convergence has been achieved in   7 iterations

     negative rho (up, down):  4.334E-06 0.000E+00

     Forces acting on atoms (cartesian axes, Ry/au):

     atom    1 type  1   force =     0.00000000    0.00008754    0.00042553
     atom    2 type  1   force =     0.00000000    0.00009458    0.00012635
     atom    3 type  1   force =     0.00000000    0.00016725    0.00012281
     atom    4 type  1   force =    -0.00000000    0.00005559   -0.00012900
     atom    5 type  1   force =     0.00000000   -0.00003012   -0.00006443
     atom    6 type  1   force =     0.00000000   -0.00008916   -0.00006819
     atom    7 type  1   force =     0.00000000   -0.00047752    0.00023503
     atom    8 type  1   force =     0.00000000   -0.00070220    0.00030156
     atom    9 type  1   force =     0.00000000    0.00070220   -0.00030156
     atom   10 type  1   force =     0.00000000    0.00047752   -0.00023503
     atom   11 type  1   force =     0.00000000    0.00008916    0.00006819
     atom   12 type  1   force =     0.00000000    0.00003012    0.00006443
     atom   13 type  1   force =     0.00000000   -0.00005559    0.00012900
     atom   14 type  1   force =     0.00000000   -0.00016725   -0.00012281
     atom   15 type  1   force =     0.00000000   -0.00009458   -0.00012635
     atom   16 type  1   force =     0.00000000   -0.00008754   -0.00042553
     atom   17 type  2   force =    -0.00000000   -0.00006177    0.00036717
     atom   18 type  2   force =     0.00000000    0.00013155   -0.00011911
     atom   19 type  2   force =    -0.00000000   -0.00013155    0.00011911
     atom   20 type  2   force =     0.00000000    0.00006177   -0.00036717

     Total force =     0.001632     Total SCF correction =     0.000010
     Energy error            =      4.2E-06 Ry
     Gradient error          =      7.0E-04 Ry/Bohr

     number of scf cycles    =  14
     number of bfgs steps    =  13

     energy             old  =    -299.6070521697 Ry
     energy             new  =    -299.6070564080 Ry

     CASE: energy            _new < energy            _old

     new trust radius        =       0.0035860954 bohr
     new conv_thr            =            1.0E-10 Ry


ATOMIC_POSITIONS (angstrom)
C                0.0000000000       -0.8094828957       11.2054925069
C                1.2634728900       -1.1762383945       10.3984292883
C                1.2634728900       -0.0222283378        9.3905686367
C               -0.0000000000       -0.0190168803        8.5360870884
C               -0.0000000000       -1.2766456433        7.6391502971
C                1.2634728900       -1.2749671479        6.7097588357
C                1.2634728900        0.0947676394        5.9117147996
C                0.0000000000        0.4507266992        5.0974137150
C               -0.0000000000       -4.2411453792       11.1907068750
C                1.2634728900       -3.8851863194       10.3764057904
C                1.2634728900       -2.5154515221        9.5783617543
C                0.0000000000       -2.5137730267        8.6489702929
C                0.0000000000       -3.7714017997        7.7520335016
C                1.2634728900       -3.7681903422        6.8975519533
C                1.2634728900       -2.6141802755        5.8896913017
C               -0.0000000000       -2.9809357843        5.0826280831
H                0.0000000000       -1.2301184167       12.2214374100
H                0.0000000000       -3.8029177678       12.2000110929
H               -0.0000000000        0.0124990878        4.0881094871
H               -0.0000000000       -2.5603002533        4.0666831700



     Writing config-only to output data dir /tmp/qe/slab.save/ :
     XML data file
     NEW-OLD atomic charge density approx. for the potential

     negative rho (up, down):  4.335E-06 0.000E+00

     total cpu time spent up to now is      308.9 secs

     Self-consistent Calculation

     iteration #  1     ecut=    90.00 Ry     beta= 0.30
     Davidson diagonalization with overlap
     ethr =  1.00E-06,  avg # of iterations =  2.0

     Threshold (ethr) on eigenvalues was too large:
     Diagonalizing with lowered threshold

     Davidson diagonalization with overlap
     ethr =  3.67E-09,  avg # of iterations =  4.1

     negative rho (up, down):  4.333E-06 0.000E+00

     total cpu time spent up to now is      313.9 secs

     total energy              =    -299.60706090 Ry
     estimated scf accuracy    <       0.00000328 Ry

     iteration #  2     ecut=    90.00 Ry     beta= 0.30
     Davidson diagonalization with overlap
     ethr =  4.82E-09,  avg # of iterations =  1.0

     negative rho (up, down):  4.333E-06 0.000E+00

     total cpu time spent up to now is      315.8 secs

     total energy              =    -299.60706070 Ry
     estimated scf accuracy    <       0.00000116 Ry

     iteration #  3     ecut=    90.00 Ry     beta= 0.30
     Davidson diagonalization with overlap
     ethr =  1.70E-09,  avg # of iterations =  2.0

     negative rho (up, down):  4.335E-06 0.000E+00

     total cpu time spent up to now is      318.0 secs

     total energy              =    -299.60706081 Ry
     estimated scf accuracy    <       0.00000010 Ry

     iteration #  4     ecut=    90.00 Ry     beta= 0.30
     Davidson diagonalization with overlap
     ethr =  1.51E-10,  avg # of iterations =  2.0

     negative rho (up, down):  4.335E-06 0.000E+00

     total cpu time spent up to now is      320.2 secs

     total energy              =    -299.60706083 Ry
     estimated scf accuracy    <          1.0E-08 Ry

     iteration #  5     ecut=    90.00 Ry     beta= 0.30
     Davidson diagonalization with overlap
     ethr =  1.46E-11,  avg # of iterations =  2.0

     negative rho (up, down):  4.334E-06 0.000E+00

     total cpu time spent up to now is      322.4 secs

     total energy              =    -299.60706083 Ry
     estimated scf accuracy    <          2.1E-09 Ry

     iteration #  6     ecut=    90.00 Ry     beta= 0.30
     Davidson diagonalization with overlap
     ethr =  3.14E-12,  avg # of iterations =  2.2

     negative rho (up, down):  4.334E-06 0.000E+00

     total cpu time spent up to now is      324.7 secs

     total energy              =    -299.60706083 Ry
     estimated scf accuracy    <          2.4E-10 Ry

     iteration #  7     ecut=    90.00 Ry     beta= 0.30
     Davidson diagonalization with overlap
     ethr =  3.46E-13,  avg # of iterations =  2.5

     negative rho (up, down):  4.334E-06 0.000E+00

     total cpu time spent up to now is      327.2 secs

     End of self-consistent calculation

          k = 0.0000-0.0000 0.0000 ( 20251 PWs)   bands (ev):

   -16.8687 -15.7821 -13.8327 -12.3123 -12.2198 -11.2988 -11.1076 -10.8412
    -8.1148  -7.7595  -7.6994  -5.4428  -5.4186  -5.0868  -2.7217  -2.7154
    -2.0283  -1.8116  -1.4752  -0.7973  -0.2993   0.0634   0.4657   0.9212
     0.9262   1.3301   1.3948   1.4223   1.5650   2.0314   2.0325   2.6981
     3.0226   3.1941   6.5663   7.0570   8.5020   8.5575   9.0071   9.3309
     9.6028

          k = 0.0000-0.1000 0.0000 ( 20237 PWs)   bands (ev):

   -16.7070 -15.6745 -13.9667 -13.5196 -12.3083 -11.0213 -10.6187 -10.4587
    -8.0362  -7.6119  -7.1525  -5.5265  -5.3658  -4.8603  -2.7886  -2.6445
    -2.2280  -2.0413  -1.6853  -0.7276  -0.6766  -0.0236   0.3344   0.5053
     0.6133   0.9005   1.4149   1.4447   1.6402   2.1167   2.3829   2.4983
     2.8404   3.1096   6.7870   7.2665   8.7600   9.2348   9.3382   9.5813
     9.6712

          k = 0.0000-0.2000 0.0000 ( 20225 PWs)   bands (ev):

   -16.2805 -15.5583 -14.7017 -13.8709 -12.7797 -11.4619 -10.1593  -9.5778
    -7.5993  -6.9102  -6.4877  -5.6998  -5.0719  -4.5096  -3.7575  -3.1987
    -2.7511  -1.9299  -1.3737  -1.1788  -0.6920  -0.4185   0.0120   0.0878
     0.6285   0.6720   1.2919   1.4824   1.5519   2.0864   2.1172   2.4588
     2.8296   3.2169   7.4118   7.8268   8.4313   8.7486   9.2877   9.5309
     9.5704

          k = 0.1111-0.0000 0.0000 ( 20245 PWs)   bands (ev):

   -16.6426 -15.5585 -13.6157 -12.0986 -12.0070 -11.0911 -10.9027 -10.6401
    -8.0043  -7.5698  -7.5227  -5.3016  -5.2690  -5.0186  -3.1677  -2.6756
    -2.5803  -2.0158  -1.8969  -1.3078  -0.3368  -0.2799   0.0766   0.3259
     0.5946   0.6259   0.7528   0.9964   1.0329   1.3867   1.4711   2.2317
     2.6868   2.9318   6.7829   7.2756   9.0977   9.1424   9.6004   9.8033
     9.8818

          k = 0.1111-0.1000 0.0000 ( 20228 PWs)   bands (ev):

   -16.4812 -15.4511 -13.7474 -13.3035 -12.0985 -10.8204 -10.4113 -10.2583
    -7.9168  -7.4371  -6.9786  -5.4257  -5.1886  -4.7816  -3.0593  -2.6944
    -2.5099  -2.0897  -2.0330  -1.7723  -0.6506  -0.4862  -0.3556   0.0319
     0.3356   0.5209   0.5923   1.1607   1.3997   1.4507   1.5575   1.9386
     2.6941   2.7667   7.0023   7.4844   9.1416   9.7323   9.7669  10.0374
    10.0899

          k = 0.1111-0.2000 0.0000 ( 20228 PWs)   bands (ev):

   -16.0555 -15.3349 -14.4799 -13.6535 -12.5689 -11.2593  -9.9641  -9.3780
    -7.4875  -6.7759  -6.3270  -5.5415  -4.9311  -4.3507  -3.6110  -3.1465
    -2.7436  -2.5675  -2.0336  -1.6511  -1.0920  -1.0608  -0.5888  -0.3136
     0.0801   0.2309   0.6830   0.9780   1.3510   1.6346   1.9405   2.0145
     2.4868   2.5219   7.6288   8.0366   8.6400   8.9184   9.2994   9.6958
    10.2829

          k = 0.2222-0.0000 0.0000 ( 20222 PWs)   bands (ev):

   -15.9674 -14.8921 -12.9733 -11.4622 -11.3736 -10.4782 -10.2932 -10.0510
    -7.9827  -7.0518  -7.0330  -5.5509  -4.9835  -4.9308  -4.8999  -3.6612
    -3.3166  -2.5522  -2.5368  -1.6121  -1.5662  -1.0057  -0.9260  -0.8302
    -0.7362  -0.7328  -0.0936   0.2275   0.5079   0.6396   1.0954   1.5449
     1.8497   2.6611   7.4219   7.7923   9.8345   9.8619  10.1710  10.3248
    10.5365

          k = 0.2222-0.1000 0.0000 ( 20228 PWs)   bands (ev):

   -15.8070 -14.7853 -13.0957 -12.6616 -11.4775 -10.2320  -9.7930  -9.6718
    -7.8581  -6.9912  -6.5193  -5.5508  -4.9337  -4.8231  -4.7096  -3.6617
    -3.2977  -2.7072  -2.5706  -1.8547  -1.7150  -1.4460  -1.2349  -0.9368
    -0.5161  -0.4766  -0.3201   0.1957   0.3814   0.6924   1.0441   1.1697
     1.9231   2.3895   7.6181   7.9978   9.4907   9.9797  10.0314  10.2424
    10.7683

          k = 0.2222-0.2000 0.0000 ( 20215 PWs)   bands (ev):

   -15.3841 -14.6689 -13.8192 -13.0080 -11.9459 -10.6667  -9.4047  -8.7906
    -7.4398  -6.6110  -5.9574  -5.2915  -4.7214  -4.5193  -4.1237  -3.7958
    -3.4672  -3.3276  -2.8093  -2.4818  -2.3631  -1.8219  -1.3814  -1.3413
    -0.4951  -0.3512  -0.2016   0.1576   0.3752   0.5317   1.0701   1.3350
     1.8009   1.9118   8.1397   8.5496   8.8683   9.1704   9.3220   9.8502
    10.2303

          k = 0.3333-0.0000 0.0000 ( 20254 PWs)   bands (ev):

   -14.8561 -13.8025 -11.9591 -10.4235 -10.3462  -9.5577  -9.3177  -9.1862
    -9.1853  -7.4829  -6.5524  -6.3928  -6.0092  -5.2186  -5.1421  -4.7883
    -3.9645  -3.4928  -3.4847  -2.7668  -2.7609  -2.5771  -1.4929  -1.4520
    -1.1492  -0.6455  -0.6093  -0.2700  -0.1846   0.2019   0.7316   0.9515
     1.2929   2.3994   8.4617   8.6145  10.0573  10.3686  10.4663  10.4761
    11.0238

          k = 0.3333-0.1000 0.0000 ( 20257 PWs)   bands (ev):

   -14.6973 -13.6959 -12.0440 -11.6283 -10.4933  -9.4036  -9.0704  -8.8085
    -8.7717  -7.4156  -6.7279  -6.2148  -5.7185  -5.3554  -4.8890  -4.3585
    -4.0842  -3.9061  -3.4494  -2.7802  -2.7432  -2.0846  -1.4962  -1.2374
    -1.0748  -0.9690  -0.6544  -0.4390  -0.2621   0.1602   0.3073   0.7703
     1.2077   1.7666   8.6106   8.8005   9.5197   9.8673  10.3890  10.8717
    10.9527

          k = 0.3333-0.2000 0.0000 ( 20240 PWs)   bands (ev):

   -14.2787 -13.5759 -12.7381 -11.9658 -10.9642  -9.7946  -8.8579  -8.6952
    -7.7432  -7.3983  -6.7831  -6.1273  -5.3933  -4.8132  -4.4174  -4.3711
    -4.0411  -3.5743  -3.1316  -3.0122  -2.8087  -2.3021  -2.0606  -1.6420
    -1.2046  -0.8348  -0.5985  -0.4645  -0.2352   0.0389   0.1887   0.6045
     0.8185   0.9579   8.6436   8.8346   9.3063   9.7830   9.8206  10.3116
    10.7963

          k = 0.4444-0.0000 0.0000 ( 20318 PWs)   bands (ev):

   -13.3445 -12.3897 -11.6219 -10.2605 -10.2367  -8.9864  -8.9310  -8.1143
    -8.0729  -7.8835  -7.5999  -7.2346  -7.0891  -6.2824  -6.2580  -5.4869
    -4.2659  -3.7865  -3.7673  -2.7255  -2.7232  -2.3969  -2.2150  -2.0214
    -1.8703  -1.0746  -1.0464  -0.7572  -0.5770   0.2537   0.4498   0.9845
     1.5409   1.8194   9.5607   9.7644   9.8797  10.0023  10.1680  10.5013
    11.4125

          k = 0.4444-0.1000 0.0000 ( 20269 PWs)   bands (ev):

   -13.1882 -12.2776 -11.4749 -10.4813 -10.2047 -10.0231  -9.2325  -8.8186
    -7.7802  -7.4183  -7.3522  -7.0653  -6.8743  -5.9171  -5.7335  -5.3935
    -4.2483  -3.9144  -3.7314  -2.7663  -2.6560  -2.1030  -1.8867  -1.8397
    -1.7495  -1.1126  -1.0160  -0.6226  -0.5308   0.0950   0.2256   0.4247
     0.8981   1.0674   9.1583   9.8427   9.9913  10.0820  10.3637  11.0248
    11.2061

          k = 0.4444-0.2000 0.0000 ( 20233 PWs)   bands (ev):

   -12.7757 -12.1224 -11.3200 -11.0762 -10.4236 -10.0955  -9.7692  -9.6558
    -7.7974  -7.6107  -7.1449  -6.7160  -6.3293  -6.0206  -4.9559  -4.6475
    -3.9494  -3.4840  -3.1922  -2.8703  -2.5823  -2.0619  -1.8585  -1.5768
    -1.2618  -1.0056  -0.9513  -0.8828  -0.6955  -0.4646  -0.2641  -0.1750
     0.0439   0.0773   9.1081   9.4644   9.9284  10.0998  10.5579  10.6376
    10.9040

     the Fermi energy is     5.0225 ev

!    total energy              =    -299.60706083 Ry
     estimated scf accuracy    <          6.8E-11 Ry
     smearing contrib. (-TS)   =      -0.00000000 Ry
     internal energy E=F+TS    =    -299.60706083 Ry

     The total energy is F=E-TS. E is the sum of the following terms:
     one-electron contribution =   -1769.02975674 Ry
     hartree contribution      =     914.00269453 Ry
     xc contribution           =     -77.52411592 Ry
     ewald contribution        =     731.55452570 Ry
     one-center paw contrib.   =     -98.61040840 Ry

     convergence has been achieved in   7 iterations

     negative rho (up, down):  4.334E-06 0.000E+00

     Forces acting on atoms (cartesian axes, Ry/au):

     atom    1 type  1   force =     0.00000000   -0.00007262    0.00026130
     atom    2 type  1   force =    -0.00000000    0.00009045    0.00004141
     atom    3 type  1   force =     0.00000000    0.00035376    0.00003809
     atom    4 type  1   force =     0.00000000    0.00010994    0.00000960
     atom    5 type  1   force =     0.00000000   -0.00000917   -0.00019262
     atom    6 type  1   force =    -0.00000000   -0.00011679   -0.00011528
     atom    7 type  1   force =     0.00000000   -0.00049271    0.00009560
     atom    8 type  1   force =     0.00000000   -0.00040311    0.00019167
     atom    9 type  1   force =     0.00000000    0.00040311   -0.00019167
     atom   10 type  1   force =     0.00000000    0.00049271   -0.00009560
     atom   11 type  1   force =     0.00000000    0.00011679    0.00011528
     atom   12 type  1   force =     0.00000000    0.00000917    0.00019262
     atom   13 type  1   force =     0.00000000   -0.00010994   -0.00000960
     atom   14 type  1   force =     0.00000000   -0.00035376   -0.00003809
     atom   15 type  1   force =     0.00000000   -0.00009045   -0.00004141
     atom   16 type  1   force =     0.00000000    0.00007262   -0.00026130
     atom   17 type  2   force =     0.00000000    0.00005616    0.00055107
     atom   18 type  2   force =     0.00000000   -0.00006237   -0.00037785
     atom   19 type  2   force =     0.00000000    0.00006237    0.00037785
     atom   20 type  2   force =     0.00000000   -0.00005616   -0.00055107

     Total force =     0.001543     Total SCF correction =     0.000011
     Energy error            =      4.4E-06 Ry
     Gradient error          =      5.5E-04 Ry/Bohr

     number of scf cycles    =  15
     number of bfgs steps    =  14

     energy             old  =    -299.6070564080 Ry
     energy             new  =    -299.6070608287 Ry

     CASE: energy            _new < energy            _old

     new trust radius        =       0.0029570086 bohr
     new conv_thr            =            1.0E-10 Ry


ATOMIC_POSITIONS (angstrom)
C                0.0000000000       -0.8087479820       11.2059201047
C                1.2634728900       -1.1756329109       10.3987846505
C                1.2634728900       -0.0218732834        9.3906840648
C               -0.0000000000       -0.0189614349        8.5361428858
C               -0.0000000000       -1.2768415839        7.6391186001
C                1.2634728900       -1.2754059044        6.7097545265
C                1.2634728900        0.0939685063        5.9118826602
C                0.0000000000        0.4494898879        5.0974101909
C               -0.0000000000       -4.2399085679       11.1907103991
C                1.2634728900       -3.8843871863       10.3762379298
C                1.2634728900       -2.5150127656        9.5783660635
C                0.0000000000       -2.5135770861        8.6490019899
C                0.0000000000       -3.7714572451        7.7519777042
C                1.2634728900       -3.7685453966        6.8974365252
C                1.2634728900       -2.6147857591        5.8893359395
C               -0.0000000000       -2.9816706980        5.0822004853
H                0.0000000000       -1.2299482178       12.2217931274
H                0.0000000000       -3.8013583524       12.1998816130
H               -0.0000000000        0.0109396724        4.0882389670
H               -0.0000000000       -2.5604704522        4.0663274526



     Writing config-only to output data dir /tmp/qe/slab.save/ :
     XML data file
     NEW-OLD atomic charge density approx. for the potential

     negative rho (up, down):  4.318E-06 0.000E+00

     total cpu time spent up to now is      328.1 secs

     Self-consistent Calculation

     iteration #  1     ecut=    90.00 Ry     beta= 0.30
     Davidson diagonalization with overlap
     ethr =  1.00E-06,  avg # of iterations =  2.0

     Threshold (ethr) on eigenvalues was too large:
     Diagonalizing with lowered threshold

     Davidson diagonalization with overlap
     ethr =  3.87E-09,  avg # of iterations =  4.3

     negative rho (up, down):  4.316E-06 0.000E+00

     total cpu time spent up to now is      333.2 secs

     total energy              =    -299.60706451 Ry
     estimated scf accuracy    <       0.00000368 Ry

     iteration #  2     ecut=    90.00 Ry     beta= 0.30
     Davidson diagonalization with overlap
     ethr =  5.41E-09,  avg # of iterations =  1.0

     negative rho (up, down):  4.323E-06 0.000E+00

     total cpu time spent up to now is      335.1 secs

     total energy              =    -299.60706432 Ry
     estimated scf accuracy    <       0.00000124 Ry

     iteration #  3     ecut=    90.00 Ry     beta= 0.30
     Davidson diagonalization with overlap
     ethr =  1.82E-09,  avg # of iterations =  2.0

     negative rho (up, down):  4.326E-06 0.000E+00

     total cpu time spent up to now is      337.2 secs

     total energy              =    -299.60706443 Ry
     estimated scf accuracy    <       0.00000013 Ry

     iteration #  4     ecut=    90.00 Ry     beta= 0.30
     Davidson diagonalization with overlap
     ethr =  1.84E-10,  avg # of iterations =  2.0

     negative rho (up, down):  4.326E-06 0.000E+00

     total cpu time spent up to now is      339.5 secs

     total energy              =    -299.60706445 Ry
     estimated scf accuracy    <       0.00000001 Ry

     iteration #  5     ecut=    90.00 Ry     beta= 0.30
     Davidson diagonalization with overlap
     ethr =  1.72E-11,  avg # of iterations =  2.1

     negative rho (up, down):  4.325E-06 0.000E+00

     total cpu time spent up to now is      341.7 secs

     total energy              =    -299.60706445 Ry
     estimated scf accuracy    <          3.3E-09 Ry

     iteration #  6     ecut=    90.00 Ry     beta= 0.30
     Davidson diagonalization with overlap
     ethr =  4.91E-12,  avg # of iterations =  2.0

     negative rho (up, down):  4.324E-06 0.000E+00

     total cpu time spent up to now is      344.0 secs

     total energy              =    -299.60706445 Ry
     estimated scf accuracy    <          5.2E-10 Ry

     iteration #  7     ecut=    90.00 Ry     beta= 0.30
     Davidson diagonalization with overlap
     ethr =  7.72E-13,  avg # of iterations =  2.4

     negative rho (up, down):  4.324E-06 0.000E+00

     total cpu time spent up to now is      346.4 secs

     total energy              =    -299.60706445 Ry
     estimated scf accuracy    <          1.0E-10 Ry

     iteration #  8     ecut=    90.00 Ry     beta= 0.30
     Davidson diagonalization with overlap
     ethr =  1.50E-13,  avg # of iterations =  2.7

     negative rho (up, down):  4.323E-06 0.000E+00

     total cpu time spent up to now is      348.9 secs

     End of self-consistent calculation

          k = 0.0000-0.0000 0.0000 ( 20251 PWs)   bands (ev):

   -16.8680 -15.7808 -13.8313 -12.3121 -12.2196 -11.2975 -11.1096 -10.8401
    -8.1141  -7.7600  -7.6987  -5.4422  -5.4199  -5.0859  -2.7208  -2.7167
    -2.0276  -1.8107  -1.4750  -0.7961  -0.2997   0.0625   0.4663   0.9216
     0.9273   1.3308   1.3939   1.4229   1.5637   2.0313   2.0320   2.6984
     3.0229   3.1936   6.5667   7.0575   8.5022   8.5581   9.0075   9.3314
     9.6004

          k = 0.0000-0.1000 0.0000 ( 20237 PWs)   bands (ev):

   -16.7062 -15.6731 -13.9661 -13.5186 -12.3089 -11.0202 -10.6189 -10.4591
    -8.0354  -7.6114  -7.1529  -5.5260  -5.3658  -4.8605  -2.7888  -2.6439
    -2.2276  -2.0414  -1.6845  -0.7263  -0.6769  -0.0231   0.3334   0.5053
     0.6129   0.9021   1.4143   1.4440   1.6411   2.1173   2.3823   2.4981
     2.8399   3.1097   6.7873   7.2669   8.7598   9.2354   9.3373   9.5813
     9.6704

          k = 0.0000-0.2000 0.0000 ( 20225 PWs)   bands (ev):

   -16.2795 -15.5563 -14.7023 -13.8692 -12.7803 -11.4612 -10.1597  -9.5779
    -7.5980  -6.9091  -6.4890  -5.6991  -5.0724  -4.5089  -3.7575  -3.1985
    -2.7508  -1.9298  -1.3728  -1.1791  -0.6902  -0.4184   0.0118   0.0868
     0.6286   0.6737   1.2910   1.4820   1.5518   2.0873   2.1171   2.4586
     2.8291   3.2167   7.4120   7.8267   8.4316   8.7484   9.2873   9.5288
     9.5691

          k = 0.1111-0.0000 0.0000 ( 20245 PWs)   bands (ev):

   -16.6418 -15.5572 -13.6143 -12.0984 -12.0068 -11.0899 -10.9047 -10.6390
    -8.0035  -7.5703  -7.5220  -5.3010  -5.2703  -5.0178  -3.1668  -2.6766
    -2.5794  -2.0149  -1.8959  -1.3075  -0.3364  -0.2806   0.0765   0.3268
     0.5933   0.6268   0.7531   0.9958   1.0332   1.3872   1.4698   2.2316
     2.6871   2.9314   6.7832   7.2761   9.0978   9.1429   9.6008   9.8027
     9.8805

          k = 0.1111-0.1000 0.0000 ( 20228 PWs)   bands (ev):

   -16.4803 -15.4496 -13.7468 -13.3024 -12.0991 -10.8193 -10.4115 -10.2587
    -7.9158  -7.4366  -6.9789  -5.4251  -5.1887  -4.7819  -3.0584  -2.6944
    -2.5095  -2.0889  -2.0322  -1.7720  -0.6508  -0.4863  -0.3547   0.0323
     0.3349   0.5206   0.5925   1.1610   1.3991   1.4501   1.5581   1.9384
     2.6937   2.7666   7.0026   7.4848   9.1406   9.7310   9.7666  10.0378
    10.0906

          k = 0.1111-0.2000 0.0000 ( 20228 PWs)   bands (ev):

   -16.0546 -15.3330 -14.4805 -13.6519 -12.5695 -11.2586  -9.9645  -9.3781
    -7.4862  -6.7748  -6.3282  -5.5408  -4.9316  -4.3500  -3.6110  -3.1462
    -2.7428  -2.5672  -2.0322  -1.6507  -1.0927  -1.0613  -0.5877  -0.3128
     0.0801   0.2299   0.6828   0.9786   1.3507   1.6345   1.9402   2.0141
     2.4864   2.5218   7.6289   8.0365   8.6402   8.9181   9.2979   9.6931
    10.2831

          k = 0.2222-0.0000 0.0000 ( 20222 PWs)   bands (ev):

   -15.9667 -14.8909 -12.9719 -11.4620 -11.3734 -10.4770 -10.2951 -10.0499
    -7.9817  -7.0521  -7.0327  -5.5497  -4.9826  -4.9318  -4.8999  -3.6600
    -3.3153  -2.5517  -2.5372  -1.6119  -1.5670  -1.0050  -0.9252  -0.8301
    -0.7365  -0.7331  -0.0940   0.2267   0.5079   0.6400   1.0951   1.5448
     1.8495   2.6614   7.4222   7.7926   9.8344   9.8621  10.1712  10.3251
    10.5356

          k = 0.2222-0.1000 0.0000 ( 20228 PWs)   bands (ev):

   -15.8062 -14.7838 -13.0951 -12.6606 -11.4781 -10.2308  -9.7933  -9.6720
    -7.8568  -6.9910  -6.5196  -5.5497  -4.9341  -4.8225  -4.7097  -3.6603
    -3.2962  -2.7071  -2.5712  -1.8549  -1.7149  -1.4457  -1.2346  -0.9358
    -0.5167  -0.4770  -0.3202   0.1956   0.3811   0.6924   1.0440   1.1695
     1.9228   2.3898   7.6183   7.9980   9.4900   9.9793  10.0314  10.2422
    10.7668

          k = 0.2222-0.2000 0.0000 ( 20215 PWs)   bands (ev):

   -15.3831 -14.6669 -13.8198 -13.0063 -11.9465 -10.6660  -9.4050  -8.7906
    -7.4388  -6.6098  -5.9584  -5.2910  -4.7216  -4.5184  -4.1224  -3.7947
    -3.4659  -3.3280  -2.8096  -2.4824  -2.3630  -1.8214  -1.3804  -1.3415
    -0.4955  -0.3515  -0.2014   0.1571   0.3754   0.5317   1.0697   1.3347
     1.8008   1.9119   8.1397   8.5496   8.8676   9.1699   9.3218   9.8491
    10.2297

          k = 0.3333-0.0000 0.0000 ( 20254 PWs)   bands (ev):

   -14.8553 -13.8012 -11.9577 -10.4232 -10.3460  -9.5564  -9.3192  -9.1855
    -9.1839  -7.4819  -6.5525  -6.3926  -6.0080  -5.2185  -5.1430  -4.7872
    -3.9631  -3.4920  -3.4859  -2.7663  -2.7620  -2.5764  -1.4919  -1.4537
    -1.1484  -0.6463  -0.6096  -0.2696  -0.1843   0.2022   0.7313   0.9516
     1.2930   2.3997   8.4618   8.6146  10.0593  10.3705  10.4636  10.4751
    11.0244

          k = 0.3333-0.1000 0.0000 ( 20257 PWs)   bands (ev):

   -14.6965 -13.6944 -12.0433 -11.6274 -10.4939  -9.4023  -9.0692  -8.8086
    -8.7717  -7.4145  -6.7283  -6.2138  -5.7184  -5.3557  -4.8876  -4.3585
    -4.0829  -3.9068  -3.4498  -2.7797  -2.7425  -2.0853  -1.4965  -1.2368
    -1.0747  -0.9690  -0.6548  -0.4391  -0.2620   0.1609   0.3070   0.7701
     1.2076   1.7670   8.6107   8.8007   9.5197   9.8679  10.3874  10.8699
    10.9522

          k = 0.3333-0.2000 0.0000 ( 20240 PWs)   bands (ev):

   -14.2777 -13.5740 -12.7387 -11.9641 -10.9649  -9.7940  -8.8568  -8.6940
    -7.7437  -7.3978  -6.7837  -6.1261  -5.3933  -4.8117  -4.4175  -4.3699
    -4.0418  -3.5740  -3.1318  -3.0114  -2.8090  -2.3022  -2.0607  -1.6416
    -1.2043  -0.8350  -0.5987  -0.4647  -0.2344   0.0389   0.1880   0.6049
     0.8185   0.9580   8.6441   8.8337   9.3058   9.7830   9.8190  10.3092
    10.7966

          k = 0.4444-0.0000 0.0000 ( 20318 PWs)   bands (ev):

   -13.3438 -12.3886 -11.6212 -10.2585 -10.2348  -8.9861  -8.9309  -8.1148
    -8.0716  -7.8838  -7.5991  -7.2349  -7.0888  -6.2822  -6.2590  -5.4861
    -4.2643  -3.7869  -3.7672  -2.7259  -2.7234  -2.3959  -2.2154  -2.0216
    -1.8701  -1.0752  -1.0471  -0.7566  -0.5765   0.2535   0.4500   0.9850
     1.5410   1.8198   9.5619   9.7644   9.8803  10.0001  10.1694  10.4987
    11.4123

          k = 0.4444-0.1000 0.0000 ( 20269 PWs)   bands (ev):

   -13.1874 -12.2763 -11.4742 -10.4808 -10.2027 -10.0215  -9.2326  -8.8184
    -7.7792  -7.4177  -7.3527  -7.0652  -6.8748  -5.9172  -5.7335  -5.3929
    -4.2467  -3.9147  -3.7318  -2.7656  -2.6558  -2.1029  -1.8867  -1.8403
    -1.7497  -1.1131  -1.0166  -0.6219  -0.5302   0.0951   0.2257   0.4249
     0.8982   1.0678   9.1585   9.8431   9.9907  10.0838  10.3613  11.0232
    11.2042

          k = 0.4444-0.2000 0.0000 ( 20233 PWs)   bands (ev):

   -12.7747 -12.1206 -11.3205 -11.0752 -10.4227 -10.0936  -9.7683  -9.6555
    -7.7968  -7.6108  -7.1454  -6.7162  -6.3294  -6.0199  -4.9563  -4.6474
    -3.9481  -3.4835  -3.1927  -2.8692  -2.5815  -2.0631  -1.8581  -1.5771
    -1.2618  -1.0053  -0.9514  -0.8831  -0.6955  -0.4641  -0.2637  -0.1749
     0.0442   0.0773   9.1083   9.4653   9.9267  10.0982  10.5552  10.6374
    10.9021

     the Fermi energy is     5.0225 ev

!    total energy              =    -299.60706446 Ry
     estimated scf accuracy    <          8.6E-12 Ry
     smearing contrib. (-TS)   =      -0.00000000 Ry
     internal energy E=F+TS    =    -299.60706446 Ry

     The total energy is F=E-TS. E is the sum of the following terms:
     one-electron contribution =   -1768.84302248 Ry
     hartree contribution      =     913.90902585 Ry
     xc contribution           =     -77.52265382 Ry
     ewald contribution        =     731.45996076 Ry
     one-center paw contrib.   =     -98.61037476 Ry

     convergence has been achieved in   8 iterations

     negative rho (up, down):  4.323E-06 0.000E+00

     Forces acting on atoms (cartesian axes, Ry/au):

     atom    1 type  1   force =     0.00000000   -0.00011730    0.00020378
     atom    2 type  1   force =     0.00000000    0.00011842   -0.00005304
     atom    3 type  1   force =    -0.00000000    0.00032676    0.00003791
     atom    4 type  1   force =     0.00000000    0.00010476   -0.00003464
     atom    5 type  1   force =     0.00000000    0.00000584   -0.00007776
     atom    6 type  1   force =     0.00000000   -0.00018166   -0.00013067
     atom    7 type  1   force =     0.00000000   -0.00027003   -0.00006812
     atom    8 type  1   force =     0.00000000    0.00003387    0.00020407
     atom    9 type  1   force =     0.00000000   -0.00003387   -0.00020407
     atom   10 type  1   force =     0.00000000    0.00027003    0.00006812
     atom   11 type  1   force =     0.00000000    0.00018166    0.00013067
     atom   12 type  1   force =    -0.00000000   -0.00000584    0.00007776
     atom   13 type  1   force =    -0.00000000   -0.00010476    0.00003464
     atom   14 type  1   force =     0.00000000   -0.00032676   -0.00003791
     atom   15 type  1   force =     0.00000000   -0.00011842    0.00005304
     atom   16 type  1   force =     0.00000000    0.00011730   -0.00020378
     atom   17 type  2   force =     0.00000000    0.00025820    0.00042926
     atom   18 type  2   force =     0.00000000   -0.00008809   -0.00039276
     atom   19 type  2   force =     0.00000000    0.00008809    0.00039276
     atom   20 type  2   force =     0.00000000   -0.00025820   -0.00042926

     Total force =     0.001251     Total SCF correction =     0.000005
     Energy error            =      3.6E-06 Ry
     Gradient error          =      4.3E-04 Ry/Bohr

     number of scf cycles    =  16
     number of bfgs steps    =  15

     energy             old  =    -299.6070608287 Ry
     energy             new  =    -299.6070644551 Ry

     CASE: energy            _new < energy            _old

     new trust radius        =       0.0015663959 bohr
     new conv_thr            =            1.0E-10 Ry


ATOMIC_POSITIONS (angstrom)
C                0.0000000000       -0.8083389791       11.2063708074
C                1.2634728900       -1.1751613562       10.3990491739
C                1.2634728900       -0.0214597159        9.3908230940
C               -0.0000000000       -0.0188640676        8.5361692131
C               -0.0000000000       -1.2769640468        7.6390901579
C                1.2634728900       -1.2758187899        6.7096604531
C                1.2634728900        0.0933241375        5.9118867097
C                0.0000000000        0.4487534414        5.0974745593
C               -0.0000000000       -4.2391721214       11.1906460307
C                1.2634728900       -3.8837428175       10.3762338803
C                1.2634728900       -2.5145998801        9.5784601369
C               -0.0000000000       -2.5134546232        8.6490304321
C               -0.0000000000       -3.7715546124        7.7519513769
C                1.2634728900       -3.7689589641        6.8972974960
C                1.2634728900       -2.6152573138        5.8890714161
C               -0.0000000000       -2.9820797009        5.0817497826
H                0.0000000000       -1.2296087616       12.2223778316
H                0.0000000000       -3.8005508979       12.1996942790
H               -0.0000000000        0.0101322179        4.0884263010
H               -0.0000000000       -2.5608099084        4.0657427484



     Writing config-only to output data dir /tmp/qe/slab.save/ :
     XML data file
     NEW-OLD atomic charge density approx. for the potential

     negative rho (up, down):  4.304E-06 0.000E+00

     total cpu time spent up to now is      349.8 secs

     Self-consistent Calculation

     iteration #  1     ecut=    90.00 Ry     beta= 0.30
     Davidson diagonalization with overlap
     ethr =  1.00E-06,  avg # of iterations =  2.0

     Threshold (ethr) on eigenvalues was too large:
     Diagonalizing with lowered threshold

     Davidson diagonalization with overlap
     ethr =  1.85E-09,  avg # of iterations =  5.0

     negative rho (up, down):  4.304E-06 0.000E+00

     total cpu time spent up to now is      354.9 secs

     total energy              =    -299.60706661 Ry
     estimated scf accuracy    <       0.00000183 Ry

     iteration #  2     ecut=    90.00 Ry     beta= 0.30
     Davidson diagonalization with overlap
     ethr =  2.70E-09,  avg # of iterations =  1.0

     negative rho (up, down):  4.312E-06 0.000E+00

     total cpu time spent up to now is      356.8 secs

     total energy              =    -299.60706652 Ry
     estimated scf accuracy    <       0.00000061 Ry

     iteration #  3     ecut=    90.00 Ry     beta= 0.30
     Davidson diagonalization with overlap
     ethr =  9.02E-10,  avg # of iterations =  2.0

     negative rho (up, down):  4.315E-06 0.000E+00

     total cpu time spent up to now is      358.9 secs

     total energy              =    -299.60706658 Ry
     estimated scf accuracy    <       0.00000007 Ry

     iteration #  4     ecut=    90.00 Ry     beta= 0.30
     Davidson diagonalization with overlap
     ethr =  9.82E-11,  avg # of iterations =  2.0

     negative rho (up, down):  4.315E-06 0.000E+00

     total cpu time spent up to now is      361.1 secs

     total energy              =    -299.60706658 Ry
     estimated scf accuracy    <          7.4E-09 Ry

     iteration #  5     ecut=    90.00 Ry     beta= 0.30
     Davidson diagonalization with overlap
     ethr =  1.09E-11,  avg # of iterations =  2.3

     negative rho (up, down):  4.313E-06 0.000E+00

     total cpu time spent up to now is      363.3 secs

     total energy              =    -299.60706659 Ry
     estimated scf accuracy    <          2.0E-09 Ry

     iteration #  6     ecut=    90.00 Ry     beta= 0.30
     Davidson diagonalization with overlap
     ethr =  2.89E-12,  avg # of iterations =  2.1

     negative rho (up, down):  4.313E-06 0.000E+00

     total cpu time spent up to now is      365.6 secs

     total energy              =    -299.60706659 Ry
     estimated scf accuracy    <          4.0E-10 Ry

     iteration #  7     ecut=    90.00 Ry     beta= 0.30
     Davidson diagonalization with overlap
     ethr =  5.90E-13,  avg # of iterations =  2.3

     negative rho (up, down):  4.312E-06 0.000E+00

     total cpu time spent up to now is      368.0 secs

     End of self-consistent calculation

          k = 0.0000-0.0000 0.0000 ( 20251 PWs)   bands (ev):

   -16.8670 -15.7798 -13.8301 -12.3112 -12.2195 -11.2968 -11.1107 -10.8392
    -8.1137  -7.7601  -7.6981  -5.4415  -5.4209  -5.0857  -2.7202  -2.7173
    -2.0276  -1.8096  -1.4746  -0.7950  -0.3007   0.0629   0.4665   0.9217
     0.9283   1.3325   1.3940   1.4229   1.5631   2.0312   2.0316   2.6983
     3.0237   3.1929   6.5669   7.0579   8.5029   8.5589   9.0080   9.3319
     9.5991

          k = 0.0000-0.1000 0.0000 ( 20237 PWs)   bands (ev):

   -16.7053 -15.6719 -13.9653 -13.5176 -12.3093 -11.0193 -10.6186 -10.4593
    -8.0351  -7.6109  -7.1528  -5.5260  -5.3657  -4.8607  -2.7886  -2.6437
    -2.2277  -2.0412  -1.6833  -0.7250  -0.6768  -0.0231   0.3332   0.5047
     0.6134   0.9035   1.4141   1.4438   1.6415   2.1181   2.3822   2.4977
     2.8393   3.1103   6.7875   7.2671   8.7601   9.2362   9.3372   9.5813
     9.6699

          k = 0.0000-0.2000 0.0000 ( 20225 PWs)   bands (ev):

   -16.2786 -15.5546 -14.7024 -13.8679 -12.7809 -11.4605 -10.1598  -9.5776
    -7.5974  -6.9084  -6.4894  -5.6987  -5.0724  -4.5084  -3.7575  -3.1985
    -2.7510  -1.9292  -1.3717  -1.1798  -0.6883  -0.4183   0.0110   0.0865
     0.6294   0.6754   1.2902   1.4812   1.5517   2.0885   2.1168   2.4586
     2.8291   3.2172   7.4120   7.8267   8.4315   8.7481   9.2872   9.5274
     9.5685

          k = 0.1111-0.0000 0.0000 ( 20245 PWs)   bands (ev):

   -16.6409 -15.5561 -13.6131 -12.0975 -12.0067 -11.0891 -10.9058 -10.6381
    -8.0031  -7.5704  -7.5215  -5.3004  -5.2712  -5.0176  -3.1660  -2.6769
    -2.5786  -2.0142  -1.8956  -1.3071  -0.3353  -0.2815   0.0767   0.3279
     0.5933   0.6278   0.7531   0.9952   1.0334   1.3874   1.4692   2.2320
     2.6868   2.9311   6.7834   7.2763   9.0983   9.1436   9.6011   9.8021
     9.8803

          k = 0.1111-0.1000 0.0000 ( 20228 PWs)   bands (ev):

   -16.4794 -15.4485 -13.7460 -13.3015 -12.0995 -10.8183 -10.4112 -10.2588
    -7.9154  -7.4363  -6.9788  -5.4250  -5.1886  -4.7821  -3.0575  -2.6942
    -2.5091  -2.0882  -2.0317  -1.7717  -0.6507  -0.4859  -0.3538   0.0324
     0.3348   0.5201   0.5927   1.1614   1.3988   1.4503   1.5586   1.9386
     2.6933   2.7666   7.0027   7.4850   9.1403   9.7300   9.7667  10.0378
    10.0915

          k = 0.1111-0.2000 0.0000 ( 20228 PWs)   bands (ev):

   -16.0536 -15.3313 -14.4806 -13.6505 -12.5701 -11.2580  -9.9646  -9.3778
    -7.4857  -6.7741  -6.3286  -5.5404  -4.9317  -4.3494  -3.6110  -3.1462
    -2.7424  -2.5666  -2.0308  -1.6501  -1.0927  -1.0620  -0.5867  -0.3121
     0.0796   0.2294   0.6831   0.9791   1.3504   1.6345   1.9401   2.0144
     2.4866   2.5218   7.6289   8.0364   8.6401   8.9178   9.2969   9.6912
    10.2832

          k = 0.2222-0.0000 0.0000 ( 20222 PWs)   bands (ev):

   -15.9657 -14.8898 -12.9708 -11.4611 -11.3733 -10.4762 -10.2962 -10.0489
    -7.9810  -7.0520  -7.0323  -5.5490  -4.9817  -4.9325  -4.8997  -3.6592
    -3.3144  -2.5511  -2.5373  -1.6112  -1.5670  -1.0048  -0.9243  -0.8299
    -0.7369  -0.7331  -0.0947   0.2268   0.5083   0.6403   1.0949   1.5448
     1.8493   2.6614   7.4222   7.7928   9.8345   9.8626  10.1713  10.3252
    10.5351

          k = 0.2222-0.1000 0.0000 ( 20228 PWs)   bands (ev):

   -15.8053 -14.7826 -13.0943 -12.6597 -11.4785 -10.2298  -9.7932  -9.6721
    -7.8561  -6.9908  -6.5194  -5.5489  -4.9342  -4.8219  -4.7097  -3.6594
    -3.2951  -2.7066  -2.5716  -1.8546  -1.7148  -1.4453  -1.2345  -0.9349
    -0.5169  -0.4773  -0.3199   0.1957   0.3807   0.6926   1.0438   1.1698
     1.9226   2.3898   7.6183   7.9982   9.4894   9.9790  10.0315  10.2417
    10.7660

          k = 0.2222-0.2000 0.0000 ( 20215 PWs)   bands (ev):

   -15.3821 -14.6652 -13.8199 -13.0050 -11.9471 -10.6653  -9.4051  -8.7902
    -7.4382  -6.6090  -5.9587  -5.2906  -4.7216  -4.5175  -4.1214  -3.7936
    -3.4649  -3.3279  -2.8096  -2.4826  -2.3631  -1.8214  -1.3796  -1.3412
    -0.4956  -0.3517  -0.2012   0.1571   0.3753   0.5317   1.0696   1.3350
     1.8008   1.9120   8.1395   8.5495   8.8669   9.1694   9.3215   9.8484
    10.2291

          k = 0.3333-0.0000 0.0000 ( 20254 PWs)   bands (ev):

   -14.8544 -13.8002 -11.9567 -10.4222 -10.3460  -9.5555  -9.3200  -9.1846
    -9.1830  -7.4809  -6.5525  -6.3923  -6.0072  -5.2184  -5.1432  -4.7864
    -3.9620  -3.4909  -3.4864  -2.7663  -2.7622  -2.5758  -1.4914  -1.4547
    -1.1483  -0.6469  -0.6096  -0.2688  -0.1839   0.2027   0.7311   0.9517
     1.2930   2.3999   8.4618   8.6145  10.0608  10.3717  10.4615  10.4743
    11.0248

          k = 0.3333-0.1000 0.0000 ( 20257 PWs)   bands (ev):

   -14.6956 -13.6933 -12.0424 -11.6266 -10.4943  -9.4012  -9.0682  -8.8085
    -8.7714  -7.4134  -6.7286  -6.2130  -5.7183  -5.3556  -4.8867  -4.3584
    -4.0818  -3.9071  -3.4499  -2.7792  -2.7419  -2.0858  -1.4965  -1.2368
    -1.0746  -0.9689  -0.6553  -0.4391  -0.2613   0.1616   0.3069   0.7701
     1.2076   1.7672   8.6107   8.8006   9.5195   9.8682  10.3860  10.8688
    10.9516

          k = 0.3333-0.2000 0.0000 ( 20240 PWs)   bands (ev):

   -14.2768 -13.5723 -12.7388 -11.9628 -10.9655  -9.7933  -8.8559  -8.6930
    -7.7436  -7.3970  -6.7840  -6.1250  -5.3932  -4.8106  -4.4174  -4.3688
    -4.0421  -3.5736  -3.1317  -3.0109  -2.8089  -2.3021  -2.0608  -1.6414
    -1.2044  -0.8349  -0.5986  -0.4651  -0.2335   0.0388   0.1875   0.6056
     0.8187   0.9583   8.6444   8.8327   9.3054   9.7829   9.8178  10.3078
    10.7963

          k = 0.4444-0.0000 0.0000 ( 20318 PWs)   bands (ev):

   -13.3429 -12.3876 -11.6205 -10.2571 -10.2334  -8.9850  -8.9308  -8.1147
    -8.0709  -7.8839  -7.5978  -7.2352  -7.0882  -6.2821  -6.2595  -5.4852
    -4.2636  -3.7870  -3.7667  -2.7260  -2.7232  -2.3955  -2.2157  -2.0218
    -1.8699  -1.0754  -1.0477  -0.7562  -0.5754   0.2535   0.4500   0.9854
     1.5411   1.8200   9.5626   9.7640   9.8809   9.9984  10.1705  10.4966
    11.4125

          k = 0.4444-0.1000 0.0000 ( 20269 PWs)   bands (ev):

   -13.1865 -12.2753 -11.4734 -10.4801 -10.2012 -10.0203  -9.2327  -8.8180
    -7.7782  -7.4170  -7.3528  -7.0650  -6.8751  -5.9170  -5.7332  -5.3923
    -4.2460  -3.9147  -3.7318  -2.7651  -2.6556  -2.1030  -1.8867  -1.8406
    -1.7497  -1.1135  -1.0170  -0.6211  -0.5292   0.0955   0.2258   0.4252
     0.8983   1.0680   9.1584   9.8434   9.9903  10.0848  10.3596  11.0220
    11.2028

          k = 0.4444-0.2000 0.0000 ( 20233 PWs)   bands (ev):

   -12.7738 -12.1190 -11.3205 -11.0743 -10.4219 -10.0920  -9.7677  -9.6552
    -7.7961  -7.6105  -7.1458  -6.7161  -6.3290  -6.0190  -4.9563  -4.6471
    -3.9474  -3.4831  -3.1930  -2.8687  -2.5810  -2.0636  -1.8579  -1.5773
    -1.2618  -1.0049  -0.9516  -0.8832  -0.6953  -0.4637  -0.2632  -0.1743
     0.0445   0.0777   9.1084   9.4659   9.9254  10.0968  10.5536  10.6372
    10.9007

     the Fermi energy is     5.0229 ev

!    total energy              =    -299.60706659 Ry
     estimated scf accuracy    <          5.8E-11 Ry
     smearing contrib. (-TS)   =      -0.00000000 Ry
     internal energy E=F+TS    =    -299.60706659 Ry

     The total energy is F=E-TS. E is the sum of the following terms:
     one-electron contribution =   -1768.64080489 Ry
     hartree contribution      =     913.80800817 Ry
     xc contribution           =     -77.52151858 Ry
     ewald contribution        =     731.35759762 Ry
     one-center paw contrib.   =     -98.61034890 Ry

     convergence has been achieved in   7 iterations

     negative rho (up, down):  4.312E-06 0.000E+00

     Forces acting on atoms (cartesian axes, Ry/au):

     atom    1 type  1   force =     0.00000000   -0.00001647    0.00001423
     atom    2 type  1   force =     0.00000000    0.00009934   -0.00001217
     atom    3 type  1   force =     0.00000000    0.00013874   -0.00002073
     atom    4 type  1   force =     0.00000000    0.00004057    0.00003395
     atom    5 type  1   force =     0.00000000   -0.00004175   -0.00002623
     atom    6 type  1   force =     0.00000000   -0.00012805   -0.00003599
     atom    7 type  1   force =     0.00000000   -0.00002054   -0.00006222
     atom    8 type  1   force =     0.00000000    0.00024385    0.00008581
     atom    9 type  1   force =     0.00000000   -0.00024385   -0.00008581
     atom   10 type  1   force =     0.00000000    0.00002054    0.00006222
     atom   11 type  1   force =     0.00000000    0.00012805    0.00003599
     atom   12 type  1   force =     0.00000000    0.00004175    0.00002623
     atom   13 type  1   force =     0.00000000   -0.00004057   -0.00003395
     atom   14 type  1   force =     0.00000000   -0.00013874    0.00002073
     atom   15 type  1   force =     0.00000000   -0.00009934    0.00001217
     atom   16 type  1   force =     0.00000000    0.00001647   -0.00001423
     atom   17 type  2   force =     0.00000000    0.00037134    0.00025403
     atom   18 type  2   force =     0.00000000   -0.00003946   -0.00029221
     atom   19 type  2   force =     0.00000000    0.00003946    0.00029221
     atom   20 type  2   force =     0.00000000   -0.00037134   -0.00025403

     Total force =     0.000909     Total SCF correction =     0.000015
     Energy error            =      2.1E-06 Ry
     Gradient error          =      3.7E-04 Ry/Bohr

     number of scf cycles    =  17
     number of bfgs steps    =  16

     energy             old  =    -299.6070644551 Ry
     energy             new  =    -299.6070665853 Ry

     CASE: energy            _new < energy            _old

     new trust radius        =       0.0012939125 bohr
     new conv_thr            =            1.0E-10 Ry


ATOMIC_POSITIONS (angstrom)
C                0.0000000000       -0.8081475626       11.2066340751
C                1.2634728900       -1.1748702509       10.3992049638
C                1.2634728900       -0.0211666122        9.3908957539
C               -0.0000000000       -0.0187868732        8.5362081297
C               -0.0000000000       -1.2770596172        7.6390463493
C                1.2634728900       -1.2760980019        6.7095799250
C                1.2634728900        0.0929874512        5.9118508910
C                0.0000000000        0.4485333935        5.0975427391
C               -0.0000000000       -4.2389520735       11.1905778509
C                1.2634728900       -3.8834061312       10.3762696990
C                1.2634728900       -2.5143206681        9.5785406650
C               -0.0000000000       -2.5133590528        8.6490742407
C               -0.0000000000       -3.7716318068        7.7519124603
C                1.2634728900       -3.7692520678        6.8972248361
C                1.2634728900       -2.6155484191        5.8889156262
C               -0.0000000000       -2.9822711174        5.0814865149
H                0.0000000000       -1.2291618281       12.2228965578
H                0.0000000000       -3.8002603107       12.1994484601
H               -0.0000000000        0.0098416307        4.0886721199
H               -0.0000000000       -2.5612568419        4.0652240222



     Writing config-only to output data dir /tmp/qe/slab.save/ :
     XML data file
     NEW-OLD atomic charge density approx. for the potential

     negative rho (up, down):  4.300E-06 0.000E+00

     total cpu time spent up to now is      368.9 secs

     Self-consistent Calculation

     iteration #  1     ecut=    90.00 Ry     beta= 0.30
     Davidson diagonalization with overlap
     ethr =  1.00E-06,  avg # of iterations =  2.0

     Threshold (ethr) on eigenvalues was too large:
     Diagonalizing with lowered threshold

     Davidson diagonalization with overlap
     ethr =  5.38E-10,  avg # of iterations =  5.1

     negative rho (up, down):  4.301E-06 0.000E+00

     total cpu time spent up to now is      374.1 secs

     total energy              =    -299.60706773 Ry
     estimated scf accuracy    <       0.00000061 Ry

     iteration #  2     ecut=    90.00 Ry     beta= 0.30
     Davidson diagonalization with overlap
     ethr =  9.01E-10,  avg # of iterations =  1.2

     negative rho (up, down):  4.305E-06 0.000E+00

     total cpu time spent up to now is      375.9 secs

     total energy              =    -299.60706771 Ry
     estimated scf accuracy    <       0.00000020 Ry

     iteration #  3     ecut=    90.00 Ry     beta= 0.30
     Davidson diagonalization with overlap
     ethr =  2.92E-10,  avg # of iterations =  2.0

     negative rho (up, down):  4.306E-06 0.000E+00

     total cpu time spent up to now is      378.0 secs

     total energy              =    -299.60706773 Ry
     estimated scf accuracy    <       0.00000003 Ry

     iteration #  4     ecut=    90.00 Ry     beta= 0.30
     Davidson diagonalization with overlap
     ethr =  3.83E-11,  avg # of iterations =  2.0

     negative rho (up, down):  4.306E-06 0.000E+00

     total cpu time spent up to now is      380.1 secs

     total energy              =    -299.60706773 Ry
     estimated scf accuracy    <          3.8E-09 Ry

     iteration #  5     ecut=    90.00 Ry     beta= 0.30
     Davidson diagonalization with overlap
     ethr =  5.66E-12,  avg # of iterations =  2.0

     negative rho (up, down):  4.306E-06 0.000E+00

     total cpu time spent up to now is      382.4 secs

     total energy              =    -299.60706773 Ry
     estimated scf accuracy    <          6.7E-10 Ry

     iteration #  6     ecut=    90.00 Ry     beta= 0.30
     Davidson diagonalization with overlap
     ethr =  9.84E-13,  avg # of iterations =  2.1

     negative rho (up, down):  4.305E-06 0.000E+00

     total cpu time spent up to now is      384.6 secs

     End of self-consistent calculation

          k = 0.0000-0.0000 0.0000 ( 20251 PWs)   bands (ev):

   -16.8665 -15.7795 -13.8298 -12.3102 -12.2196 -11.2965 -11.1110 -10.8389
    -8.1138  -7.7599  -7.6977  -5.4409  -5.4214  -5.0859  -2.7197  -2.7176
    -2.0279  -1.8090  -1.4739  -0.7947  -0.3012   0.0634   0.4667   0.9216
     0.9286   1.3337   1.3939   1.4229   1.5629   2.0312   2.0316   2.6986
     3.0239   3.1925   6.5668   7.0579   8.5033   8.5595   9.0083   9.3322
     9.5988

          k = 0.0000-0.1000 0.0000 ( 20237 PWs)   bands (ev):

   -16.7047 -15.6715 -13.9649 -13.5171 -12.3094 -11.0189 -10.6183 -10.4592
    -8.0352  -7.6106  -7.1525  -5.5261  -5.3655  -4.8608  -2.7885  -2.6434
    -2.2280  -2.0408  -1.6828  -0.7247  -0.6764  -0.0232   0.3333   0.5040
     0.6138   0.9039   1.4142   1.4441   1.6418   2.1184   2.3822   2.4978
     2.8390   3.1105   6.7874   7.2671   8.7604   9.2368   9.3374   9.5814
     9.6695

          k = 0.0000-0.2000 0.0000 ( 20225 PWs)   bands (ev):

   -16.2781 -15.5540 -14.7022 -13.8672 -12.7811 -11.4601 -10.1599  -9.5774
    -7.5974  -6.9081  -6.4892  -5.6985  -5.0721  -4.5083  -3.7574  -3.1983
    -2.7510  -1.9287  -1.3712  -1.1801  -0.6876  -0.4181   0.0103   0.0866
     0.6298   0.6761   1.2899   1.4807   1.5522   2.0890   2.1166   2.4587
     2.8292   3.2174   7.4119   7.8267   8.4313   8.7480   9.2873   9.5271
     9.5687

          k = 0.1111-0.0000 0.0000 ( 20245 PWs)   bands (ev):

   -16.6403 -15.5558 -13.6128 -12.0964 -12.0068 -11.0888 -10.9060 -10.6378
    -8.0032  -7.5701  -7.5211  -5.2998  -5.2717  -5.0177  -3.1656  -2.6770
    -2.5780  -2.0142  -1.8959  -1.3065  -0.3346  -0.2819   0.0767   0.3286
     0.5932   0.6285   0.7528   0.9951   1.0336   1.3876   1.4692   2.2320
     2.6871   2.9308   6.7833   7.2763   9.0985   9.1442   9.6013   9.8020
     9.8804

          k = 0.1111-0.1000 0.0000 ( 20228 PWs)   bands (ev):

   -16.4789 -15.4481 -13.7456 -13.3009 -12.0996 -10.8180 -10.4109 -10.2588
    -7.9155  -7.4359  -6.9785  -5.4251  -5.1884  -4.7822  -3.0572  -2.6942
    -2.5087  -2.0878  -2.0318  -1.7716  -0.6504  -0.4855  -0.3534   0.0325
     0.3348   0.5197   0.5927   1.1616   1.3989   1.4505   1.5589   1.9387
     2.6931   2.7666   7.0027   7.4850   9.1403   9.7297   9.7670  10.0377
    10.0921

          k = 0.1111-0.2000 0.0000 ( 20228 PWs)   bands (ev):

   -16.0531 -15.3306 -14.4805 -13.6499 -12.5703 -11.2575  -9.9647  -9.3776
    -7.4857  -6.7737  -6.3284  -5.5402  -4.9314  -4.3492  -3.6110  -3.1461
    -2.7422  -2.5663  -2.0302  -1.6497  -1.0925  -1.0624  -0.5863  -0.3116
     0.0792   0.2294   0.6833   0.9792   1.3505   1.6346   1.9401   2.0146
     2.4868   2.5218   7.6288   8.0364   8.6399   8.9176   9.2967   9.6908
    10.2832

          k = 0.2222-0.0000 0.0000 ( 20222 PWs)   bands (ev):

   -15.9652 -14.8895 -12.9704 -11.4600 -11.3734 -10.4759 -10.2965 -10.0487
    -7.9809  -7.0517  -7.0320  -5.5488  -4.9813  -4.9329  -4.8991  -3.6591
    -3.3142  -2.5506  -2.5374  -1.6107  -1.5669  -1.0050  -0.9240  -0.8293
    -0.7370  -0.7331  -0.0950   0.2269   0.5088   0.6406   1.0951   1.5446
     1.8490   2.6618   7.4221   7.7928   9.8346   9.8632  10.1712  10.3252
    10.5351

          k = 0.2222-0.1000 0.0000 ( 20228 PWs)   bands (ev):

   -15.8047 -14.7823 -13.0939 -12.6591 -11.4786 -10.2295  -9.7929  -9.6720
    -7.8560  -6.9905  -6.5191  -5.5488  -4.9342  -4.8216  -4.7094  -3.6592
    -3.2948  -2.7062  -2.5716  -1.8541  -1.7147  -1.4451  -1.2345  -0.9347
    -0.5168  -0.4774  -0.3195   0.1957   0.3806   0.6927   1.0436   1.1702
     1.9225   2.3901   7.6183   7.9981   9.4894   9.9790  10.0316  10.2414
    10.7660

          k = 0.2222-0.2000 0.0000 ( 20215 PWs)   bands (ev):

   -15.3817 -14.6646 -13.8198 -13.0043 -11.9473 -10.6649  -9.4052  -8.7900
    -7.4382  -6.6086  -5.9585  -5.2904  -4.7214  -4.5172  -4.1209  -3.7932
    -3.4646  -3.3277  -2.8093  -2.4825  -2.3630  -1.8215  -1.3793  -1.3408
    -0.4957  -0.3517  -0.2010   0.1572   0.3750   0.5317   1.0697   1.3353
     1.8010   1.9120   8.1394   8.5494   8.8667   9.1691   9.3215   9.8483
    10.2291

          k = 0.3333-0.0000 0.0000 ( 20254 PWs)   bands (ev):

   -14.8538 -13.7999 -11.9563 -10.4212 -10.3461  -9.5553  -9.3202  -9.1843
    -9.1827  -7.4805  -6.5524  -6.3917  -6.0069  -5.2183  -5.1429  -4.7863
    -3.9617  -3.4903  -3.4867  -2.7663  -2.7618  -2.5759  -1.4911  -1.4549
    -1.1485  -0.6468  -0.6095  -0.2686  -0.1837   0.2034   0.7309   0.9515
     1.2933   2.4003   8.4617   8.6145  10.0615  10.3720  10.4604  10.4739
    11.0251

          k = 0.3333-0.1000 0.0000 ( 20257 PWs)   bands (ev):

   -14.6950 -13.6929 -12.0421 -11.6260 -10.4943  -9.4008  -9.0679  -8.8085
    -8.7710  -7.4129  -6.7285  -6.2125  -5.7181  -5.3553  -4.8865  -4.3582
    -4.0814  -3.9070  -3.4500  -2.7791  -2.7416  -2.0857  -1.4964  -1.2371
    -1.0744  -0.9686  -0.6554  -0.4390  -0.2609   0.1620   0.3069   0.7699
     1.2075   1.7676   8.6106   8.8005   9.5195   9.8683  10.3854  10.8690
    10.9511

          k = 0.3333-0.2000 0.0000 ( 20240 PWs)   bands (ev):

   -14.2763 -13.5716 -12.7386 -11.9621 -10.9657  -9.7929  -8.8557  -8.6928
    -7.7434  -7.3965  -6.7841  -6.1243  -5.3933  -4.8103  -4.4172  -4.3684
    -4.0421  -3.5733  -3.1317  -3.0105  -2.8087  -2.3020  -2.0609  -1.6412
    -1.2045  -0.8346  -0.5986  -0.4653  -0.2331   0.0387   0.1874   0.6060
     0.8190   0.9584   8.6444   8.8324   9.3053   9.7830   9.8173  10.3077
    10.7959

          k = 0.4444-0.0000 0.0000 ( 20318 PWs)   bands (ev):

   -13.3423 -12.3873 -11.6199 -10.2568 -10.2332  -8.9839  -8.9310  -8.1145
    -8.0706  -7.8840  -7.5969  -7.2354  -7.0877  -6.2819  -6.2595  -5.4850
    -4.2636  -3.7868  -3.7663  -2.7260  -2.7229  -2.3956  -2.2158  -2.0218
    -1.8698  -1.0753  -1.0477  -0.7560  -0.5751   0.2534   0.4498   0.9861
     1.5413   1.8206   9.5629   9.7636   9.8812   9.9977  10.1712  10.4955
    11.4129

          k = 0.4444-0.1000 0.0000 ( 20269 PWs)   bands (ev):

   -13.1860 -12.2750 -11.4729 -10.4797 -10.2009 -10.0199  -9.2326  -8.8176
    -7.7778  -7.4165  -7.3528  -7.0649  -6.8751  -5.9168  -5.7328  -5.3922
    -4.2459  -3.9145  -3.7316  -2.7649  -2.6556  -2.1032  -1.8868  -1.8404
    -1.7494  -1.1136  -1.0170  -0.6209  -0.5289   0.0956   0.2256   0.4256
     0.8984   1.0685   9.1583   9.8434   9.9901  10.0851  10.3588  11.0217
    11.2023

          k = 0.4444-0.2000 0.0000 ( 20233 PWs)   bands (ev):

   -12.7733 -12.1184 -11.3203 -11.0738 -10.4215 -10.0915  -9.7677  -9.6551
    -7.7957  -7.6102  -7.1459  -6.7161  -6.3287  -6.0185  -4.9564  -4.6468
    -3.9474  -3.4829  -3.1928  -2.8685  -2.5807  -2.0636  -1.8577  -1.5774
    -1.2616  -1.0046  -0.9517  -0.8831  -0.6951  -0.4632  -0.2632  -0.1740
     0.0445   0.0778   9.1083   9.4660   9.9250  10.0964  10.5532  10.6370
    10.9003

     the Fermi energy is     5.0234 ev

!    total energy              =    -299.60706773 Ry
     estimated scf accuracy    <          7.8E-11 Ry
     smearing contrib. (-TS)   =      -0.00000000 Ry
     internal energy E=F+TS    =    -299.60706773 Ry

     The total energy is F=E-TS. E is the sum of the following terms:
     one-electron contribution =   -1768.52268642 Ry
     hartree contribution      =     913.74907647 Ry
     xc contribution           =     -77.52108683 Ry
     ewald contribution        =     731.29796744 Ry
     one-center paw contrib.   =     -98.61033839 Ry

     convergence has been achieved in   6 iterations

     negative rho (up, down):  4.305E-06 0.000E+00

     Forces acting on atoms (cartesian axes, Ry/au):

     atom    1 type  1   force =     0.00000000    0.00006381   -0.00004500
     atom    2 type  1   force =     0.00000000    0.00001864    0.00001581
     atom    3 type  1   force =     0.00000000   -0.00003965   -0.00003698
     atom    4 type  1   force =     0.00000000   -0.00002938    0.00000224
     atom    5 type  1   force =     0.00000000   -0.00002302    0.00004938
     atom    6 type  1   force =     0.00000000   -0.00004218    0.00001627
     atom    7 type  1   force =     0.00000000    0.00012788   -0.00000154
     atom    8 type  1   force =     0.00000000    0.00020561    0.00005335
     atom    9 type  1   force =     0.00000000   -0.00020561   -0.00005335
     atom   10 type  1   force =     0.00000000   -0.00012788    0.00000154
     atom   11 type  1   force =     0.00000000    0.00004218   -0.00001627
     atom   12 type  1   force =     0.00000000    0.00002302   -0.00004938
     atom   13 type  1   force =     0.00000000    0.00002938   -0.00000224
     atom   14 type  1   force =     0.00000000    0.00003965    0.00003698
     atom   15 type  1   force =     0.00000000   -0.00001864   -0.00001581
     atom   16 type  1   force =     0.00000000   -0.00006381    0.00004500
     atom   17 type  2   force =     0.00000000    0.00040362    0.00006991
     atom   18 type  2   force =     0.00000000    0.00002040   -0.00012592
     atom   19 type  2   force =     0.00000000   -0.00002040    0.00012592
     atom   20 type  2   force =     0.00000000   -0.00040362   -0.00006991

     Total force =     0.000723     Total SCF correction =     0.000021
     Energy error            =      1.1E-06 Ry
     Gradient error          =      4.0E-04 Ry/Bohr

     number of scf cycles    =  18
     number of bfgs steps    =  17

     energy             old  =    -299.6070665853 Ry
     energy             new  =    -299.6070677308 Ry

     CASE: energy            _new < energy            _old

     new trust radius        =       0.0012947906 bohr
     new conv_thr            =            1.0E-10 Ry


ATOMIC_POSITIONS (angstrom)
C                0.0000000000       -0.8080015654       11.2067747173
C                1.2634728900       -1.1746984102       10.3992944683
C                1.2634728900       -0.0210041289        9.3909078391
C               -0.0000000000       -0.0187582419        8.5362116337
C               -0.0000000000       -1.2771286514        7.6390366433
C                1.2634728900       -1.2762892307        6.7095261978
C                1.2634728900        0.0928574737        5.9118573104
C                0.0000000000        0.4485272638        5.0976512976
C               -0.0000000000       -4.2389459438       11.1904692924
C                1.2634728900       -3.8832761537       10.3762632796
C                1.2634728900       -2.5141294393        9.5785943922
C               -0.0000000000       -2.5132900186        8.6490839467
C               -0.0000000000       -3.7716604381        7.7519089563
C                1.2634728900       -3.7694145511        6.8972127509
C                1.2634728900       -2.6157202598        5.8888261217
C               -0.0000000000       -2.9824171146        5.0813458727
H                0.0000000000       -1.2285891691       12.2232727554
H                0.0000000000       -3.8000842010       12.1991583068
H               -0.0000000000        0.0096655210        4.0889622732
H               -0.0000000000       -2.5618295009        4.0648478246



     Writing config-only to output data dir /tmp/qe/slab.save/ :
     XML data file
     NEW-OLD atomic charge density approx. for the potential

     negative rho (up, down):  4.300E-06 0.000E+00

     total cpu time spent up to now is      385.5 secs

     Self-consistent Calculation

     iteration #  1     ecut=    90.00 Ry     beta= 0.30
     Davidson diagonalization with overlap
     ethr =  1.00E-06,  avg # of iterations =  2.0

     Threshold (ethr) on eigenvalues was too large:
     Diagonalizing with lowered threshold

     Davidson diagonalization with overlap
     ethr =  2.64E-10,  avg # of iterations =  5.0

     negative rho (up, down):  4.301E-06 0.000E+00

     total cpu time spent up to now is      390.6 secs

     total energy              =    -299.60706855 Ry
     estimated scf accuracy    <       0.00000033 Ry

     iteration #  2     ecut=    90.00 Ry     beta= 0.30
     Davidson diagonalization with overlap
     ethr =  4.82E-10,  avg # of iterations =  1.2

     negative rho (up, down):  4.302E-06 0.000E+00

     total cpu time spent up to now is      392.5 secs

     total energy              =    -299.60706854 Ry
     estimated scf accuracy    <       0.00000010 Ry

     iteration #  3     ecut=    90.00 Ry     beta= 0.30
     Davidson diagonalization with overlap
     ethr =  1.51E-10,  avg # of iterations =  2.0

     negative rho (up, down):  4.302E-06 0.000E+00

     total cpu time spent up to now is      394.6 secs

     total energy              =    -299.60706855 Ry
     estimated scf accuracy    <       0.00000001 Ry

     iteration #  4     ecut=    90.00 Ry     beta= 0.30
     Davidson diagonalization with overlap
     ethr =  2.20E-11,  avg # of iterations =  2.0

     negative rho (up, down):  4.302E-06 0.000E+00

     total cpu time spent up to now is      396.6 secs

     total energy              =    -299.60706855 Ry
     estimated scf accuracy    <          1.7E-09 Ry

     iteration #  5     ecut=    90.00 Ry     beta= 0.30
     Davidson diagonalization with overlap
     ethr =  2.45E-12,  avg # of iterations =  2.0

     negative rho (up, down):  4.302E-06 0.000E+00

     total cpu time spent up to now is      398.9 secs

     total energy              =    -299.60706855 Ry
     estimated scf accuracy    <          3.4E-10 Ry

     iteration #  6     ecut=    90.00 Ry     beta= 0.30
     Davidson diagonalization with overlap
     ethr =  5.07E-13,  avg # of iterations =  2.0

     negative rho (up, down):  4.302E-06 0.000E+00

     total cpu time spent up to now is      401.2 secs

     End of self-consistent calculation

          k = 0.0000-0.0000 0.0000 ( 20251 PWs)   bands (ev):

   -16.8663 -15.7796 -13.8300 -12.3094 -12.2197 -11.2964 -11.1108 -10.8389
    -8.1141  -7.7597  -7.6975  -5.4405  -5.4218  -5.0861  -2.7194  -2.7179
    -2.0282  -1.8088  -1.4735  -0.7948  -0.3014   0.0635   0.4669   0.9217
     0.9285   1.3345   1.3939   1.4230   1.5627   2.0314   2.0319   2.6988
     3.0240   3.1923   6.5667   7.0577   8.5035   8.5597   9.0083   9.3323
     9.5994

          k = 0.0000-0.1000 0.0000 ( 20237 PWs)   bands (ev):

   -16.7046 -15.6717 -13.9650 -13.5168 -12.3093 -11.0189 -10.6180 -10.4591
    -8.0355  -7.6104  -7.1522  -5.5265  -5.3653  -4.8607  -2.7886  -2.6432
    -2.2282  -2.0408  -1.6826  -0.7247  -0.6758  -0.0232   0.3333   0.5033
     0.6142   0.9039   1.4144   1.4443   1.6422   2.1186   2.3825   2.4977
     2.8388   3.1106   6.7873   7.2670   8.7606   9.2368   9.3379   9.5815
     9.6696

          k = 0.0000-0.2000 0.0000 ( 20225 PWs)   bands (ev):

   -16.2780 -15.5540 -14.7021 -13.8670 -12.7813 -11.4599 -10.1600  -9.5771
    -7.5977  -6.9081  -6.4889  -5.6986  -5.0717  -4.5085  -3.7574  -3.1982
    -2.7511  -1.9286  -1.3711  -1.1802  -0.6875  -0.4177   0.0098   0.0868
     0.6297   0.6765   1.2898   1.4805   1.5528   2.0892   2.1165   2.4586
     2.8294   3.2177   7.4118   7.8267   8.4312   8.7480   9.2875   9.5276
     9.5691

          k = 0.1111-0.0000 0.0000 ( 20245 PWs)   bands (ev):

   -16.6402 -15.5560 -13.6130 -12.0957 -12.0069 -11.0887 -10.9058 -10.6378
    -8.0035  -7.5700  -7.5209  -5.2994  -5.2721  -5.0178  -3.1655  -2.6772
    -2.5775  -2.0144  -1.8962  -1.3061  -0.3343  -0.2818   0.0764   0.3291
     0.5932   0.6289   0.7525   0.9952   1.0339   1.3879   1.4693   2.2321
     2.6872   2.9307   6.7832   7.2762   9.0986   9.1444   9.6014   9.8025
     9.8806

          k = 0.1111-0.1000 0.0000 ( 20228 PWs)   bands (ev):

   -16.4787 -15.4483 -13.7457 -13.3006 -12.0995 -10.8179 -10.4107 -10.2586
    -7.9159  -7.4357  -6.9782  -5.4254  -5.1883  -4.7821  -3.0572  -2.6944
    -2.5083  -2.0877  -2.0320  -1.7717  -0.6499  -0.4853  -0.3533   0.0325
     0.3348   0.5193   0.5928   1.1618   1.3989   1.4508   1.5592   1.9389
     2.6930   2.7667   7.0025   7.4849   9.1406   9.7297   9.7675  10.0376
    10.0922

          k = 0.1111-0.2000 0.0000 ( 20228 PWs)   bands (ev):

   -16.0531 -15.3307 -14.4804 -13.6496 -12.5705 -11.2573  -9.9648  -9.3773
    -7.4859  -6.7738  -6.3281  -5.5403  -4.9310  -4.3494  -3.6109  -3.1460
    -2.7421  -2.5662  -2.0302  -1.6496  -1.0922  -1.0625  -0.5862  -0.3112
     0.0789   0.2295   0.6831   0.9792   1.3507   1.6349   1.9400   2.0149
     2.4869   2.5219   7.6287   8.0365   8.6398   8.9176   9.2972   9.6913
    10.2832

          k = 0.2222-0.0000 0.0000 ( 20222 PWs)   bands (ev):

   -15.9650 -14.8896 -12.9706 -11.4592 -11.3736 -10.4759 -10.2963 -10.0487
    -7.9812  -7.0515  -7.0318  -5.5491  -4.9814  -4.9332  -4.8985  -3.6593
    -3.3145  -2.5502  -2.5376  -1.6102  -1.5667  -1.0053  -0.9241  -0.8289
    -0.7368  -0.7329  -0.0949   0.2268   0.5090   0.6409   1.0952   1.5445
     1.8489   2.6620   7.4220   7.7927   9.8347   9.8635  10.1710  10.3256
    10.5351

          k = 0.2222-0.1000 0.0000 ( 20228 PWs)   bands (ev):

   -15.8046 -14.7824 -13.0940 -12.6588 -11.4785 -10.2294  -9.7926  -9.6719
    -7.8563  -6.9903  -6.5188  -5.5490  -4.9340  -4.8217  -4.7092  -3.6594
    -3.2950  -2.7059  -2.5715  -1.8538  -1.7145  -1.4451  -1.2347  -0.9347
    -0.5166  -0.4773  -0.3190   0.1957   0.3806   0.6927   1.0434   1.1705
     1.9225   2.3902   7.6181   7.9981   9.4897   9.9790  10.0317  10.2413
    10.7664

          k = 0.2222-0.2000 0.0000 ( 20215 PWs)   bands (ev):

   -15.3816 -14.6646 -13.8196 -13.0041 -11.9474 -10.6647  -9.4053  -8.7897
    -7.4384  -6.6086  -5.9583  -5.2905  -4.7211  -4.5172  -4.1208  -3.7932
    -3.4647  -3.3275  -2.8090  -2.4823  -2.3631  -1.8217  -1.3793  -1.3407
    -0.4956  -0.3515  -0.2007   0.1574   0.3745   0.5315   1.0701   1.3354
     1.8011   1.9122   8.1394   8.5495   8.8669   9.1691   9.3216   9.8485
    10.2296

          k = 0.3333-0.0000 0.0000 ( 20254 PWs)   bands (ev):

   -14.8537 -13.8000 -11.9565 -10.4204 -10.3462  -9.5554  -9.3200  -9.1843
    -9.1826  -7.4805  -6.5525  -6.3913  -6.0070  -5.2184  -5.1425  -4.7864
    -3.9618  -3.4898  -3.4869  -2.7663  -2.7614  -2.5761  -1.4908  -1.4548
    -1.1490  -0.6463  -0.6094  -0.2689  -0.1837   0.2038   0.7307   0.9513
     1.2935   2.4006   8.4617   8.6144  10.0622  10.3719  10.4599  10.4736
    11.0252

          k = 0.3333-0.1000 0.0000 ( 20257 PWs)   bands (ev):

   -14.6949 -13.6931 -12.0421 -11.6257 -10.4942  -9.4009  -9.0680  -8.8084
    -8.7707  -7.4129  -6.7284  -6.2124  -5.7180  -5.3551  -4.8866  -4.3581
    -4.0814  -3.9068  -3.4499  -2.7790  -2.7416  -2.0854  -1.4964  -1.2374
    -1.0743  -0.9684  -0.6552  -0.4388  -0.2609   0.1621   0.3070   0.7699
     1.2076   1.7679   8.6105   8.8004   9.5196   9.8685  10.3852  10.8697
    10.9509

          k = 0.3333-0.2000 0.0000 ( 20240 PWs)   bands (ev):

   -14.2763 -13.5717 -12.7385 -11.9619 -10.9658  -9.7927  -8.8559  -8.6929
    -7.7432  -7.3962  -6.7842  -6.1241  -5.3933  -4.8103  -4.4170  -4.3684
    -4.0420  -3.5732  -3.1316  -3.0104  -2.8084  -2.3019  -2.0610  -1.6410
    -1.2046  -0.8344  -0.5987  -0.4653  -0.2330   0.0386   0.1875   0.6060
     0.8192   0.9585   8.6445   8.8325   9.3053   9.7832   9.8173  10.3084
    10.7955

          k = 0.4444-0.0000 0.0000 ( 20318 PWs)   bands (ev):

   -13.3422 -12.3874 -11.6198 -10.2572 -10.2335  -8.9831  -8.9311  -8.1143
    -8.0705  -7.8840  -7.5965  -7.2356  -7.0873  -6.2817  -6.2592  -5.4851
    -4.2640  -3.7867  -3.7660  -2.7258  -2.7227  -2.3959  -2.2158  -2.0216
    -1.8698  -1.0751  -1.0474  -0.7561  -0.5754   0.2532   0.4496   0.9864
     1.5416   1.8208   9.5630   9.7633   9.8814   9.9974  10.1719  10.4950
    11.4133

          k = 0.4444-0.1000 0.0000 ( 20269 PWs)   bands (ev):

   -13.1859 -12.2750 -11.4727 -10.4797 -10.2011 -10.0200  -9.2325  -8.8173
    -7.7777  -7.4162  -7.3527  -7.0648  -6.8749  -5.9165  -5.7326  -5.3922
    -4.2461  -3.9143  -3.7314  -2.7650  -2.6555  -2.1034  -1.8868  -1.8401
    -1.7490  -1.1135  -1.0168  -0.6211  -0.5291   0.0957   0.2256   0.4257
     0.8986   1.0687   9.1582   9.8434   9.9902  10.0855  10.3586  11.0216
    11.2024

          k = 0.4444-0.2000 0.0000 ( 20233 PWs)   bands (ev):

   -12.7732 -12.1184 -11.3201 -11.0736 -10.4214 -10.0915  -9.7679  -9.6552
    -7.7954  -7.6099  -7.1460  -6.7161  -6.3284  -6.0182  -4.9564  -4.6466
    -3.9477  -3.4829  -3.1925  -2.8686  -2.5805  -2.0634  -1.8577  -1.5775
    -1.2615  -1.0044  -0.9517  -0.8830  -0.6950  -0.4630  -0.2633  -0.1739
     0.0446   0.0778   9.1083   9.4661   9.9252  10.0968  10.5536  10.6371
    10.9007

     the Fermi energy is     5.0237 ev

!    total energy              =    -299.60706855 Ry
     estimated scf accuracy    <          5.8E-11 Ry
     smearing contrib. (-TS)   =      -0.00000000 Ry
     internal energy E=F+TS    =    -299.60706855 Ry

     The total energy is F=E-TS. E is the sum of the following terms:
     one-electron contribution =   -1768.49218854 Ry
     hartree contribution      =     913.73402483 Ry
     xc contribution           =     -77.52117396 Ry
     ewald contribution        =     731.28260819 Ry
     one-center paw contrib.   =     -98.61033906 Ry

     convergence has been achieved in   6 iterations

     negative rho (up, down):  4.302E-06 0.000E+00

     Forces acting on atoms (cartesian axes, Ry/au):

     atom    1 type  1   force =     0.00000000    0.00009793   -0.00008945
     atom    2 type  1   force =     0.00000000   -0.00005506    0.00003791
     atom    3 type  1   force =     0.00000000   -0.00016250   -0.00004096
     atom    4 type  1   force =     0.00000000   -0.00005433   -0.00000446
     atom    5 type  1   force =     0.00000000   -0.00001135    0.00003769
     atom    6 type  1   force =     0.00000000    0.00007036    0.00005161
     atom    7 type  1   force =     0.00000000    0.00015508    0.00007492
     atom    8 type  1   force =     0.00000000    0.00006192    0.00002727
     atom    9 type  1   force =     0.00000000   -0.00006192   -0.00002727
     atom   10 type  1   force =     0.00000000   -0.00015508   -0.00007492
     atom   11 type  1   force =     0.00000000   -0.00007036   -0.00005161
     atom   12 type  1   force =     0.00000000    0.00001135   -0.00003769
     atom   13 type  1   force =     0.00000000    0.00005433    0.00000446
     atom   14 type  1   force =     0.00000000    0.00016250    0.00004096
     atom   15 type  1   force =     0.00000000    0.00005506   -0.00003791
     atom   16 type  1   force =     0.00000000   -0.00009793    0.00008945
     atom   17 type  2   force =     0.00000000    0.00036469   -0.00002718
     atom   18 type  2   force =     0.00000000    0.00004877    0.00000717
     atom   19 type  2   force =     0.00000000   -0.00004877   -0.00000717
     atom   20 type  2   force =     0.00000000   -0.00036469    0.00002718

     Total force =     0.000682     Total SCF correction =     0.000021
     Energy error            =      8.2E-07 Ry
     Gradient error          =      3.6E-04 Ry/Bohr

     number of scf cycles    =  19
     number of bfgs steps    =  18

     energy             old  =    -299.6070677308 Ry
     energy             new  =    -299.6070685503 Ry

     CASE: energy            _new < energy            _old

     new trust radius        =       0.0017873834 bohr
     new conv_thr            =            1.0E-10 Ry


ATOMIC_POSITIONS (angstrom)
C                0.0000000000       -0.8077791358       11.2068489308
C                1.2634728900       -1.1745601732       10.3993874485
C                1.2634728900       -0.0209403169        9.3908766789
C               -0.0000000000       -0.0187610050        8.5362002868
C               -0.0000000000       -1.2772110753        7.6390284502
C                1.2634728900       -1.2764307689        6.7095037919
C                1.2634728900        0.0928054983        5.9119532046
C                0.0000000000        0.4485365432        5.0978203133
C               -0.0000000000       -4.2389552232       11.1903002767
C                1.2634728900       -3.8832241783       10.3761673854
C                1.2634728900       -2.5139879011        9.5786167981
C               -0.0000000000       -2.5132075947        8.6490921398
C               -0.0000000000       -3.7716576750        7.7519203032
C                1.2634728900       -3.7694783631        6.8972439111
C                1.2634728900       -2.6158584968        5.8887331415
C               -0.0000000000       -2.9826395442        5.0812716592
H                0.0000000000       -1.2277142033       12.2236319949
H                0.0000000000       -3.7998031498       12.1987855905
H               -0.0000000000        0.0093844698        4.0893349895
H               -0.0000000000       -2.5627044667        4.0644885851



     Writing config-only to output data dir /tmp/qe/slab.save/ :
     XML data file
     NEW-OLD atomic charge density approx. for the potential

     negative rho (up, down):  4.300E-06 0.000E+00

     total cpu time spent up to now is      402.1 secs

     Self-consistent Calculation

     iteration #  1     ecut=    90.00 Ry     beta= 0.30
     Davidson diagonalization with overlap
     ethr =  1.00E-06,  avg # of iterations =  2.0

     Threshold (ethr) on eigenvalues was too large:
     Diagonalizing with lowered threshold

     Davidson diagonalization with overlap
     ethr =  4.23E-10,  avg # of iterations =  4.9

     negative rho (up, down):  4.301E-06 0.000E+00

     total cpu time spent up to now is      407.0 secs

     total energy              =    -299.60706943 Ry
     estimated scf accuracy    <       0.00000049 Ry

     iteration #  2     ecut=    90.00 Ry     beta= 0.30
     Davidson diagonalization with overlap
     ethr =  7.22E-10,  avg # of iterations =  1.2

     negative rho (up, down):  4.301E-06 0.000E+00

     total cpu time spent up to now is      409.0 secs

     total energy              =    -299.60706942 Ry
     estimated scf accuracy    <       0.00000016 Ry

     iteration #  3     ecut=    90.00 Ry     beta= 0.30
     Davidson diagonalization with overlap
     ethr =  2.36E-10,  avg # of iterations =  2.0

     negative rho (up, down):  4.300E-06 0.000E+00

     total cpu time spent up to now is      411.2 secs

     total energy              =    -299.60706943 Ry
     estimated scf accuracy    <       0.00000002 Ry

     iteration #  4     ecut=    90.00 Ry     beta= 0.30
     Davidson diagonalization with overlap
     ethr =  3.30E-11,  avg # of iterations =  2.0

     negative rho (up, down):  4.300E-06 0.000E+00

     total cpu time spent up to now is      413.2 secs

     total energy              =    -299.60706944 Ry
     estimated scf accuracy    <          1.4E-09 Ry

     iteration #  5     ecut=    90.00 Ry     beta= 0.30
     Davidson diagonalization with overlap
     ethr =  2.05E-12,  avg # of iterations =  2.7

     negative rho (up, down):  4.300E-06 0.000E+00

     total cpu time spent up to now is      415.6 secs

     total energy              =    -299.60706944 Ry
     estimated scf accuracy    <          3.5E-10 Ry

     iteration #  6     ecut=    90.00 Ry     beta= 0.30
     Davidson diagonalization with overlap
     ethr =  5.20E-13,  avg # of iterations =  2.4

     negative rho (up, down):  4.300E-06 0.000E+00

     total cpu time spent up to now is      417.9 secs

     End of self-consistent calculation

          k = 0.0000-0.0000 0.0000 ( 20251 PWs)   bands (ev):

   -16.8665 -15.7800 -13.8305 -12.3090 -12.2199 -11.2963 -11.1106 -10.8392
    -8.1145  -7.7596  -7.6973  -5.4400  -5.4220  -5.0863  -2.7189  -2.7184
    -2.0285  -1.8090  -1.4733  -0.7951  -0.3012   0.0632   0.4671   0.9219
     0.9281   1.3349   1.3938   1.4234   1.5624   2.0317   2.0321   2.6991
     3.0238   3.1922   6.5665   7.0575   8.5035   8.5595   9.0081   9.3324
     9.6005

          k = 0.0000-0.1000 0.0000 ( 20237 PWs)   bands (ev):

   -16.7047 -15.6721 -13.9654 -13.5167 -12.3091 -11.0190 -10.6179 -10.4590
    -8.0361  -7.6102  -7.1520  -5.5270  -5.3651  -4.8605  -2.7889  -2.6429
    -2.2285  -2.0409  -1.6827  -0.7251  -0.6752  -0.0229   0.3330   0.5025
     0.6144   0.9036   1.4145   1.4447   1.6427   2.1187   2.3826   2.4976
     2.8388   3.1106   6.7871   7.2668   8.7607   9.2367   9.3385   9.5816
     9.6697

          k = 0.0000-0.2000 0.0000 ( 20225 PWs)   bands (ev):

   -16.2783 -15.5545 -14.7022 -13.8669 -12.7814 -11.4598 -10.1601  -9.5769
    -7.5981  -6.9083  -6.4886  -5.6989  -5.0711  -4.5087  -3.7575  -3.1980
    -2.7512  -1.9287  -1.3714  -1.1801  -0.6878  -0.4173   0.0094   0.0868
     0.6293   0.6766   1.2897   1.4806   1.5536   2.0892   2.1163   2.4585
     2.8294   3.2179   7.4117   7.8268   8.4311   8.7481   9.2879   9.5286
     9.5697

          k = 0.1111-0.0000 0.0000 ( 20245 PWs)   bands (ev):

   -16.6403 -15.5564 -13.6135 -12.0953 -12.0070 -11.0887 -10.9056 -10.6381
    -8.0040  -7.5699  -7.5206  -5.2991  -5.2723  -5.0179  -3.1658  -2.6775
    -2.5769  -2.0150  -1.8968  -1.3059  -0.3343  -0.2813   0.0758   0.3294
     0.5930   0.6292   0.7520   0.9955   1.0342   1.3885   1.4694   2.2319
     2.6875   2.9306   6.7830   7.2760   9.0986   9.1443   9.6013   9.8035
     9.8807

          k = 0.1111-0.1000 0.0000 ( 20228 PWs)   bands (ev):

   -16.4789 -15.4487 -13.7461 -13.3005 -12.0994 -10.8181 -10.4105 -10.2585
    -7.9164  -7.4355  -6.9780  -5.4259  -5.1881  -4.7818  -3.0574  -2.6947
    -2.5078  -2.0879  -2.0323  -1.7721  -0.6494  -0.4853  -0.3533   0.0328
     0.3347   0.5188   0.5927   1.1619   1.3991   1.4510   1.5596   1.9390
     2.6930   2.7667   7.0024   7.4847   9.1411   9.7299   9.7680  10.0374
    10.0919

          k = 0.1111-0.2000 0.0000 ( 20228 PWs)   bands (ev):

   -16.0533 -15.3311 -14.4805 -13.6496 -12.5706 -11.2572  -9.9649  -9.3771
    -7.4863  -6.7739  -6.3278  -5.5407  -4.9304  -4.3495  -3.6111  -3.1460
    -2.7421  -2.5662  -2.0305  -1.6498  -1.0922  -1.0625  -0.5861  -0.3108
     0.0785   0.2297   0.6826   0.9791   1.3510   1.6352   1.9400   2.0151
     2.4869   2.5220   7.6287   8.0365   8.6397   8.9177   9.2981   9.6923
    10.2831

          k = 0.2222-0.0000 0.0000 ( 20222 PWs)   bands (ev):

   -15.9652 -14.8900 -12.9711 -11.4588 -11.3737 -10.4759 -10.2961 -10.0490
    -7.9817  -7.0514  -7.0315  -5.5495  -4.9817  -4.9333  -4.8977  -3.6597
    -3.3150  -2.5498  -2.5380  -1.6098  -1.5666  -1.0057  -0.9245  -0.8287
    -0.7364  -0.7326  -0.0945   0.2262   0.5091   0.6414   1.0954   1.5443
     1.8487   2.6623   7.4218   7.7926   9.8347   9.8636  10.1709  10.3264
    10.5350

          k = 0.2222-0.1000 0.0000 ( 20228 PWs)   bands (ev):

   -15.8047 -14.7829 -13.0944 -12.6587 -11.4784 -10.2296  -9.7925  -9.6718
    -7.8569  -6.9902  -6.5186  -5.5494  -4.9337  -4.8221  -4.7088  -3.6598
    -3.2955  -2.7057  -2.5714  -1.8537  -1.7143  -1.4454  -1.2349  -0.9348
    -0.5164  -0.4771  -0.3185   0.1956   0.3807   0.6926   1.0432   1.1708
     1.9225   2.3904   7.6180   7.9980   9.4903   9.9790  10.0318  10.2413
    10.7670

          k = 0.2222-0.2000 0.0000 ( 20215 PWs)   bands (ev):

   -15.3819 -14.6651 -13.8197 -13.0040 -11.9475 -10.6646  -9.4054  -8.7895
    -7.4388  -6.6087  -5.9581  -5.2908  -4.7208  -4.5175  -4.1208  -3.7934
    -3.4650  -3.3275  -2.8088  -2.4820  -2.3632  -1.8219  -1.3794  -1.3407
    -0.4953  -0.3513  -0.2004   0.1576   0.3738   0.5313   1.0706   1.3355
     1.8011   1.9123   8.1394   8.5495   8.8673   9.1692   9.3217   9.8488
    10.2306

          k = 0.3333-0.0000 0.0000 ( 20254 PWs)   bands (ev):

   -14.8538 -13.8004 -11.9569 -10.4200 -10.3464  -9.5556  -9.3198  -9.1847
    -9.1827  -7.4809  -6.5525  -6.3910  -6.0074  -5.2185  -5.1422  -4.7865
    -3.9623  -3.4895  -3.4872  -2.7662  -2.7611  -2.5764  -1.4905  -1.4547
    -1.1495  -0.6454  -0.6094  -0.2695  -0.1835   0.2038   0.7306   0.9511
     1.2937   2.4008   8.4616   8.6143  10.0631  10.3717  10.4597  10.4733
    11.0252

          k = 0.3333-0.1000 0.0000 ( 20257 PWs)   bands (ev):

   -14.6950 -13.6935 -12.0426 -11.6255 -10.4941  -9.4012  -9.0685  -8.8083
    -8.7706  -7.4132  -6.7284  -6.2125  -5.7180  -5.3549  -4.8869  -4.3579
    -4.0818  -3.9067  -3.4499  -2.7791  -2.7418  -2.0849  -1.4963  -1.2377
    -1.0742  -0.9684  -0.6549  -0.4386  -0.2613   0.1621   0.3071   0.7698
     1.2076   1.7680   8.6105   8.8003   9.5199   9.8689  10.3851  10.8708
    10.9508

          k = 0.3333-0.2000 0.0000 ( 20240 PWs)   bands (ev):

   -14.2765 -13.5721 -12.7386 -11.9618 -10.9658  -9.7927  -8.8565  -8.6933
    -7.7429  -7.3960  -6.7844  -6.1240  -5.3935  -4.8105  -4.4169  -4.3687
    -4.0420  -3.5732  -3.1316  -3.0104  -2.8082  -2.3018  -2.0611  -1.6408
    -1.2046  -0.8341  -0.5990  -0.4652  -0.2331   0.0384   0.1878   0.6058
     0.8193   0.9586   8.6444   8.8331   9.3054   9.7835   9.8175  10.3093
    10.7953

          k = 0.4444-0.0000 0.0000 ( 20318 PWs)   bands (ev):

   -13.3423 -12.3877 -11.6198 -10.2580 -10.2342  -8.9826  -8.9313  -8.1143
    -8.0703  -7.8842  -7.5965  -7.2358  -7.0872  -6.2814  -6.2589  -5.4854
    -4.2646  -3.7866  -3.7658  -2.7257  -2.7226  -2.3961  -2.2159  -2.0212
    -1.8698  -1.0750  -1.0469  -0.7560  -0.5759   0.2530   0.4493   0.9865
     1.5418   1.8210   9.5631   9.7631   9.8816   9.9974  10.1727  10.4949
    11.4136

          k = 0.4444-0.1000 0.0000 ( 20269 PWs)   bands (ev):

   -13.1860 -12.2754 -11.4728 -10.4800 -10.2018 -10.0204  -9.2324  -8.8173
    -7.7779  -7.4160  -7.3527  -7.0647  -6.8747  -5.9164  -5.7324  -5.3924
    -4.2467  -3.9141  -3.7314  -2.7653  -2.6555  -2.1036  -1.8869  -1.8397
    -1.7486  -1.1134  -1.0165  -0.6213  -0.5294   0.0956   0.2254   0.4257
     0.8987   1.0689   9.1583   9.8434   9.9903  10.0860  10.3587  11.0216
    11.2028

          k = 0.4444-0.2000 0.0000 ( 20233 PWs)   bands (ev):

   -12.7735 -12.1188 -11.3202 -11.0736 -10.4214 -10.0920  -9.7683  -9.6555
    -7.7952  -7.6098  -7.1460  -6.7162  -6.3282  -6.0182  -4.9564  -4.6464
    -3.9481  -3.4830  -3.1924  -2.8690  -2.5805  -2.0630  -1.8576  -1.5777
    -1.2613  -1.0041  -0.9517  -0.8830  -0.6950  -0.4629  -0.2634  -0.1740
     0.0446   0.0776   9.1084   9.4660   9.9256  10.0978  10.5543  10.6372
    10.9014

     the Fermi energy is     5.0239 ev

!    total energy              =    -299.60706944 Ry
     estimated scf accuracy    <          7.1E-11 Ry
     smearing contrib. (-TS)   =      -0.00000000 Ry
     internal energy E=F+TS    =    -299.60706944 Ry

     The total energy is F=E-TS. E is the sum of the following terms:
     one-electron contribution =   -1768.52508264 Ry
     hartree contribution      =     913.75071051 Ry
     xc contribution           =     -77.52158177 Ry
     ewald contribution        =     731.29923152 Ry
     one-center paw contrib.   =     -98.61034705 Ry

     convergence has been achieved in   6 iterations

     negative rho (up, down):  4.300E-06 0.000E+00

     Forces acting on atoms (cartesian axes, Ry/au):

     atom    1 type  1   force =     0.00000000    0.00008657   -0.00008280
     atom    2 type  1   force =     0.00000000   -0.00013023    0.00003226
     atom    3 type  1   force =     0.00000000   -0.00020443   -0.00003493
     atom    4 type  1   force =     0.00000000   -0.00007370   -0.00003419
     atom    5 type  1   force =     0.00000000    0.00002962    0.00002085
     atom    6 type  1   force =     0.00000000    0.00015160    0.00004987
     atom    7 type  1   force =     0.00000000    0.00011953    0.00012438
     atom    8 type  1   force =     0.00000000   -0.00011681    0.00002435
     atom    9 type  1   force =    -0.00000000    0.00011681   -0.00002435
     atom   10 type  1   force =     0.00000000   -0.00011953   -0.00012438
     atom   11 type  1   force =     0.00000000   -0.00015160   -0.00004987
     atom   12 type  1   force =     0.00000000   -0.00002962   -0.00002085
     atom   13 type  1   force =     0.00000000    0.00007370    0.00003419
     atom   14 type  1   force =     0.00000000    0.00020443    0.00003493
     atom   15 type  1   force =     0.00000000    0.00013023   -0.00003226
     atom   16 type  1   force =     0.00000000   -0.00008657    0.00008280
     atom   17 type  2   force =     0.00000000    0.00027282   -0.00008703
     atom   18 type  2   force =     0.00000000    0.00005038    0.00011350
     atom   19 type  2   force =     0.00000000   -0.00005038   -0.00011350
     atom   20 type  2   force =     0.00000000   -0.00027282    0.00008703

     Total force =     0.000707     Total SCF correction =     0.000013
     Energy error            =      8.9E-07 Ry
     Gradient error          =      2.7E-04 Ry/Bohr

     number of scf cycles    =  20
     number of bfgs steps    =  19

     energy             old  =    -299.6070685503 Ry
     energy             new  =    -299.6070694360 Ry

     CASE: energy            _new < energy            _old

     new trust radius        =       0.0022162093 bohr
     new conv_thr            =            1.0E-10 Ry


ATOMIC_POSITIONS (angstrom)
C                0.0000000000       -0.8074754244       11.2068682808
C                1.2634728900       -1.1744895026       10.3994876048
C                1.2634728900       -0.0209877320        9.3908085896
C               -0.0000000000       -0.0188141014        8.5361595940
C               -0.0000000000       -1.2772748118        7.6390313140
C                1.2634728900       -1.2764936736        6.7095135250
C                1.2634728900        0.0928053310        5.9121487826
C                0.0000000000        0.4484458446        5.0980432138
C               -0.0000000000       -4.2388645246       11.1900773762
C                1.2634728900       -3.8832240110       10.3759718074
C                1.2634728900       -2.5139249964        9.5786070650
C               -0.0000000000       -2.5131438582        8.6490892760
C               -0.0000000000       -3.7716045786        7.7519609960
C                1.2634728900       -3.7694309480        6.8973120004
C                1.2634728900       -2.6159291674        5.8886329852
C               -0.0000000000       -2.9829432556        5.0812523092
H                0.0000000000       -1.2265838563       12.2239445634
H                0.0000000000       -3.7993918053       12.1984114643
H               -0.0000000000        0.0089731253        4.0897091157
H               -0.0000000000       -2.5638348137        4.0641760166



     Writing config-only to output data dir /tmp/qe/slab.save/ :
     XML data file
     NEW-OLD atomic charge density approx. for the potential

     negative rho (up, down):  4.299E-06 0.000E+00

     total cpu time spent up to now is      418.8 secs

     Self-consistent Calculation

     iteration #  1     ecut=    90.00 Ry     beta= 0.30
     Davidson diagonalization with overlap
     ethr =  1.00E-06,  avg # of iterations =  2.0

     Threshold (ethr) on eigenvalues was too large:
     Diagonalizing with lowered threshold

     Davidson diagonalization with overlap
     ethr =  7.17E-10,  avg # of iterations =  4.2

     negative rho (up, down):  4.300E-06 0.000E+00

     total cpu time spent up to now is      423.5 secs

     total energy              =    -299.60707031 Ry
     estimated scf accuracy    <       0.00000069 Ry

     iteration #  2     ecut=    90.00 Ry     beta= 0.30
     Davidson diagonalization with overlap
     ethr =  1.01E-09,  avg # of iterations =  1.0

     negative rho (up, down):  4.298E-06 0.000E+00

     total cpu time spent up to now is      425.4 secs

     total energy              =    -299.60707028 Ry
     estimated scf accuracy    <       0.00000025 Ry

     iteration #  3     ecut=    90.00 Ry     beta= 0.30
     Davidson diagonalization with overlap
     ethr =  3.61E-10,  avg # of iterations =  2.0

     negative rho (up, down):  4.297E-06 0.000E+00

     total cpu time spent up to now is      427.5 secs

     total energy              =    -299.60707030 Ry
     estimated scf accuracy    <       0.00000003 Ry

     iteration #  4     ecut=    90.00 Ry     beta= 0.30
     Davidson diagonalization with overlap
     ethr =  3.97E-11,  avg # of iterations =  2.0

     negative rho (up, down):  4.297E-06 0.000E+00

     total cpu time spent up to now is      429.6 secs

     total energy              =    -299.60707031 Ry
     estimated scf accuracy    <          1.9E-09 Ry

     iteration #  5     ecut=    90.00 Ry     beta= 0.30
     Davidson diagonalization with overlap
     ethr =  2.82E-12,  avg # of iterations =  2.4

     negative rho (up, down):  4.298E-06 0.000E+00

     total cpu time spent up to now is      431.9 secs

     total energy              =    -299.60707031 Ry
     estimated scf accuracy    <          4.1E-10 Ry

     iteration #  6     ecut=    90.00 Ry     beta= 0.30
     Davidson diagonalization with overlap
     ethr =  6.00E-13,  avg # of iterations =  2.3

     negative rho (up, down):  4.298E-06 0.000E+00

     total cpu time spent up to now is      434.3 secs

     End of self-consistent calculation

          k = 0.0000-0.0000 0.0000 ( 20251 PWs)   bands (ev):

   -16.8668 -15.7804 -13.8311 -12.3092 -12.2198 -11.2962 -11.1106 -10.8394
    -8.1150  -7.7598  -7.6970  -5.4396  -5.4222  -5.0864  -2.7189  -2.7181
    -2.0289  -1.8093  -1.4734  -0.7956  -0.3006   0.0624   0.4674   0.9221
     0.9277   1.3348   1.3936   1.4242   1.5618   2.0319   2.0323   2.6992
     3.0235   3.1922   6.5663   7.0573   8.5034   8.5590   9.0080   9.3324
     9.6016

          k = 0.0000-0.1000 0.0000 ( 20237 PWs)   bands (ev):

   -16.7051 -15.6726 -13.9660 -13.5167 -12.3091 -11.0192 -10.6180 -10.4589
    -8.0367  -7.6101  -7.1519  -5.5275  -5.3648  -4.8601  -2.7892  -2.6424
    -2.2286  -2.0414  -1.6831  -0.7256  -0.6749  -0.0220   0.3325   0.5018
     0.6142   0.9033   1.4145   1.4450   1.6436   2.1188   2.3826   2.4974
     2.8388   3.1105   6.7869   7.2667   8.7609   9.2363   9.3389   9.5817
     9.6699

          k = 0.0000-0.2000 0.0000 ( 20225 PWs)   bands (ev):

   -16.2787 -15.5550 -14.7026 -13.8669 -12.7815 -11.4598 -10.1601  -9.5768
    -7.5985  -6.9085  -6.4885  -5.6995  -5.0704  -4.5088  -3.7577  -3.1979
    -2.7512  -1.9290  -1.3718  -1.1797  -0.6882  -0.4168   0.0090   0.0864
     0.6286   0.6767   1.2894   1.4811   1.5545   2.0892   2.1161   2.4584
     2.8294   3.2180   7.4116   7.8268   8.4309   8.7481   9.2884   9.5295
     9.5702

          k = 0.1111-0.0000 0.0000 ( 20245 PWs)   bands (ev):

   -16.6406 -15.5568 -13.6141 -12.0955 -12.0070 -11.0886 -10.9057 -10.6383
    -8.0045  -7.5701  -7.5203  -5.2988  -5.2725  -5.0179  -3.1661  -2.6779
    -2.5761  -2.0155  -1.8973  -1.3060  -0.3344  -0.2805   0.0751   0.3294
     0.5926   0.6295   0.7515   0.9957   1.0345   1.3893   1.4693   2.2317
     2.6875   2.9306   6.7828   7.2758   9.0987   9.1439   9.6011   9.8045
     9.8809

          k = 0.1111-0.1000 0.0000 ( 20228 PWs)   bands (ev):

   -16.4792 -15.4492 -13.7467 -13.3005 -12.0993 -10.8183 -10.4106 -10.2584
    -7.9171  -7.4354  -6.9779  -5.4264  -5.1878  -4.7814  -3.0578  -2.6952
    -2.5072  -2.0882  -2.0327  -1.7726  -0.6490  -0.4855  -0.3533   0.0332
     0.3345   0.5182   0.5926   1.1619   1.3992   1.4510   1.5603   1.9390
     2.6931   2.7666   7.0022   7.4845   9.1417   9.7303   9.7685  10.0372
    10.0915

          k = 0.1111-0.2000 0.0000 ( 20228 PWs)   bands (ev):

   -16.0538 -15.3316 -14.4808 -13.6496 -12.5707 -11.2572  -9.9649  -9.3770
    -7.4867  -6.7742  -6.3277  -5.5412  -4.9298  -4.3496  -3.6113  -3.1461
    -2.7422  -2.5664  -2.0310  -1.6501  -1.0924  -1.0623  -0.5860  -0.3106
     0.0783   0.2297   0.6818   0.9791   1.3513   1.6358   1.9400   2.0153
     2.4868   2.5221   7.6286   8.0366   8.6396   8.9177   9.2989   9.6933
    10.2831

          k = 0.2222-0.0000 0.0000 ( 20222 PWs)   bands (ev):

   -15.9655 -14.8905 -12.9717 -11.4590 -11.3736 -10.4758 -10.2961 -10.0492
    -7.9822  -7.0516  -7.0312  -5.5500  -4.9823  -4.9334  -4.8970  -3.6601
    -3.3155  -2.5492  -2.5385  -1.6097  -1.5667  -1.0061  -0.9250  -0.8287
    -0.7361  -0.7325  -0.0939   0.2253   0.5093   0.6422   1.0953   1.5442
     1.8487   2.6623   7.4217   7.7925   9.8349   9.8634  10.1707  10.3277
    10.5346

          k = 0.2222-0.1000 0.0000 ( 20228 PWs)   bands (ev):

   -15.8051 -14.7834 -13.0950 -12.6587 -11.4783 -10.2298  -9.7926  -9.6717
    -7.8574  -6.9902  -6.5186  -5.5499  -4.9334  -4.8226  -4.7085  -3.6603
    -3.2959  -2.7056  -2.5714  -1.8538  -1.7141  -1.4458  -1.2353  -0.9350
    -0.5163  -0.4769  -0.3181   0.1957   0.3807   0.6925   1.0430   1.1711
     1.9227   2.3904   7.6179   7.9979   9.4910   9.9791  10.0321  10.2415
    10.7675

          k = 0.2222-0.2000 0.0000 ( 20215 PWs)   bands (ev):

   -15.3823 -14.6656 -13.8201 -13.0040 -11.9477 -10.6646  -9.4056  -8.7894
    -7.4391  -6.6089  -5.9581  -5.2912  -4.7205  -4.5179  -4.1209  -3.7937
    -3.4652  -3.3278  -2.8087  -2.4819  -2.3634  -1.8222  -1.3795  -1.3408
    -0.4950  -0.3512  -0.2001   0.1576   0.3730   0.5311   1.0712   1.3355
     1.8010   1.9127   8.1395   8.5495   8.8678   9.1694   9.3218   9.8490
    10.2317

          k = 0.3333-0.0000 0.0000 ( 20254 PWs)   bands (ev):

   -14.8541 -13.8008 -11.9575 -10.4202 -10.3463  -9.5558  -9.3199  -9.1852
    -9.1827  -7.4813  -6.5526  -6.3909  -6.0079  -5.2186  -5.1420  -4.7864
    -3.9629  -3.4894  -3.4874  -2.7660  -2.7611  -2.5766  -1.4900  -1.4547
    -1.1499  -0.6445  -0.6096  -0.2701  -0.1830   0.2036   0.7306   0.9509
     1.2938   2.4007   8.4615   8.6143  10.0643  10.3716  10.4597  10.4731
    11.0253

          k = 0.3333-0.1000 0.0000 ( 20257 PWs)   bands (ev):

   -14.6954 -13.6940 -12.0432 -11.6255 -10.4940  -9.4016  -9.0690  -8.8083
    -8.7706  -7.4135  -6.7286  -6.2128  -5.7179  -5.3548  -4.8872  -4.3577
    -4.0824  -3.9068  -3.4499  -2.7791  -2.7420  -2.0845  -1.4962  -1.2380
    -1.0741  -0.9687  -0.6545  -0.4382  -0.2618   0.1622   0.3072   0.7697
     1.2076   1.7680   8.6103   8.8003   9.5202   9.8696  10.3851  10.8718
    10.9508

          k = 0.3333-0.2000 0.0000 ( 20240 PWs)   bands (ev):

   -14.2769 -13.5726 -12.7390 -11.9618 -10.9660  -9.7927  -8.8570  -8.6937
    -7.7427  -7.3959  -6.7848  -6.1240  -5.3936  -4.8108  -4.4168  -4.3692
    -4.0421  -3.5734  -3.1315  -3.0104  -2.8080  -2.3018  -2.0614  -1.6407
    -1.2045  -0.8339  -0.5994  -0.4652  -0.2333   0.0383   0.1882   0.6057
     0.8194   0.9588   8.6443   8.8341   9.3054   9.7840   9.8178  10.3100
    10.7952

          k = 0.4444-0.0000 0.0000 ( 20318 PWs)   bands (ev):

   -13.3426 -12.3881 -11.6201 -10.2588 -10.2349  -8.9828  -8.9314  -8.1147
    -8.0699  -7.8844  -7.5969  -7.2358  -7.0874  -6.2811  -6.2587  -5.4858
    -4.2651  -3.7867  -3.7657  -2.7258  -2.7227  -2.3963  -2.2158  -2.0208
    -1.8698  -1.0751  -1.0464  -0.7554  -0.5763   0.2529   0.4491   0.9863
     1.5418   1.8209   9.5633   9.7631   9.8818   9.9976  10.1736  10.4949
    11.4138

          k = 0.4444-0.1000 0.0000 ( 20269 PWs)   bands (ev):

   -13.1863 -12.2758 -11.4731 -10.4805 -10.2024 -10.0209  -9.2324  -8.8175
    -7.7782  -7.4160  -7.3528  -7.0647  -6.8746  -5.9162  -5.7324  -5.3926
    -4.2472  -3.9140  -3.7314  -2.7656  -2.6556  -2.1037  -1.8870  -1.8393
    -1.7483  -1.1133  -1.0162  -0.6212  -0.5297   0.0956   0.2253   0.4256
     0.8988   1.0688   9.1585   9.8434   9.9903  10.0868  10.3588  11.0215
    11.2034

          k = 0.4444-0.2000 0.0000 ( 20233 PWs)   bands (ev):

   -12.7738 -12.1193 -11.3206 -11.0737 -10.4215 -10.0926  -9.7688  -9.6561
    -7.7952  -7.6097  -7.1461  -6.7162  -6.3281  -6.0183  -4.9563  -4.6464
    -3.9485  -3.4834  -3.1924  -2.8694  -2.5806  -2.0627  -1.8574  -1.5780
    -1.2612  -1.0038  -0.9518  -0.8829  -0.6951  -0.4629  -0.2633  -0.1741
     0.0449   0.0773   9.1086   9.4661   9.9262  10.0989  10.5549  10.6374
    10.9021

     the Fermi energy is     5.0240 ev

!    total energy              =    -299.60707031 Ry
     estimated scf accuracy    <          9.7E-11 Ry
     smearing contrib. (-TS)   =      -0.00000000 Ry
     internal energy E=F+TS    =    -299.60707031 Ry

     The total energy is F=E-TS. E is the sum of the following terms:
     one-electron contribution =   -1768.61133225 Ry
     hartree contribution      =     913.79400225 Ry
     xc contribution           =     -77.52214873 Ry
     ewald contribution        =     731.34276795 Ry
     one-center paw contrib.   =     -98.61035952 Ry

     convergence has been achieved in   6 iterations

     negative rho (up, down):  4.298E-06 0.000E+00

     Forces acting on atoms (cartesian axes, Ry/au):

     atom    1 type  1   force =     0.00000000    0.00003856   -0.00006026
     atom    2 type  1   force =     0.00000000   -0.00013811    0.00000985
     atom    3 type  1   force =     0.00000000   -0.00016809   -0.00002210
     atom    4 type  1   force =     0.00000000   -0.00004318   -0.00004048
     atom    5 type  1   force =     0.00000000    0.00004260   -0.00002243
     atom    6 type  1   force =    -0.00000000    0.00017344    0.00003171
     atom    7 type  1   force =     0.00000000    0.00002917    0.00012571
     atom    8 type  1   force =     0.00000000   -0.00022048    0.00001971
     atom    9 type  1   force =     0.00000000    0.00022048   -0.00001971
     atom   10 type  1   force =    -0.00000000   -0.00002917   -0.00012571
     atom   11 type  1   force =     0.00000000   -0.00017344   -0.00003171
     atom   12 type  1   force =     0.00000000   -0.00004260    0.00002243
     atom   13 type  1   force =     0.00000000    0.00004318    0.00004048
     atom   14 type  1   force =     0.00000000    0.00016809    0.00002210
     atom   15 type  1   force =     0.00000000    0.00013811   -0.00000985
     atom   16 type  1   force =     0.00000000   -0.00003856    0.00006026
     atom   17 type  2   force =     0.00000000    0.00013542   -0.00008316
     atom   18 type  2   force =     0.00000000    0.00002528    0.00014588
     atom   19 type  2   force =     0.00000000   -0.00002528   -0.00014588
     atom   20 type  2   force =     0.00000000   -0.00013542    0.00008316

     Total force =     0.000637     Total SCF correction =     0.000026
     Energy error            =      8.7E-07 Ry
     Gradient error          =      2.2E-04 Ry/Bohr

     number of scf cycles    =  21
     number of bfgs steps    =  20

     energy             old  =    -299.6070694360 Ry
     energy             new  =    -299.6070703061 Ry

     CASE: energy            _new < energy            _old

     new trust radius        =       0.0016648993 bohr
     new conv_thr            =            1.0E-10 Ry


ATOMIC_POSITIONS (angstrom)
C                0.0000000000       -0.8072305590       11.2068376355
C                1.2634728900       -1.1745021820       10.3995577776
C                1.2634728900       -0.0211129836        9.3907446737
C               -0.0000000000       -0.0188717444        8.5361165851
C               -0.0000000000       -1.2772965343        7.6390257354
C                1.2634728900       -1.2764473847        6.7095491301
C                1.2634728900        0.0928083537        5.9123513246
C                0.0000000000        0.4482450769        5.0982127037
C               -0.0000000000       -4.2386637569       11.1899078863
C                1.2634728900       -3.8832270337       10.3757692654
C                1.2634728900       -2.5139712853        9.5785714599
C               -0.0000000000       -2.5131221357        8.6490948546
C               -0.0000000000       -3.7715469356        7.7520040049
C                1.2634728900       -3.7693056964        6.8973759163
C                1.2634728900       -2.6159164880        5.8885628124
C               -0.0000000000       -2.9831881210        5.0812829545
H                0.0000000000       -1.2257172849       12.2241035046
H                0.0000000000       -3.7990366379       12.1982300390
H               -0.0000000000        0.0086179579        4.0898905410
H               -0.0000000000       -2.5647013851        4.0640170754



     Writing config-only to output data dir /tmp/qe/slab.save/ :
     XML data file
     NEW-OLD atomic charge density approx. for the potential

     negative rho (up, down):  4.297E-06 0.000E+00

     total cpu time spent up to now is      435.2 secs

     Self-consistent Calculation

     iteration #  1     ecut=    90.00 Ry     beta= 0.30
     Davidson diagonalization with overlap
     ethr =  1.00E-06,  avg # of iterations =  2.0

     Threshold (ethr) on eigenvalues was too large:
     Diagonalizing with lowered threshold

     Davidson diagonalization with overlap
     ethr =  4.33E-10,  avg # of iterations =  5.0

     negative rho (up, down):  4.297E-06 0.000E+00

     total cpu time spent up to now is      440.1 secs

     total energy              =    -299.60707082 Ry
     estimated scf accuracy    <       0.00000041 Ry

     iteration #  2     ecut=    90.00 Ry     beta= 0.30
     Davidson diagonalization with overlap
     ethr =  6.03E-10,  avg # of iterations =  1.0

     negative rho (up, down):  4.296E-06 0.000E+00

     total cpu time spent up to now is      442.0 secs

     total energy              =    -299.60707080 Ry
     estimated scf accuracy    <       0.00000016 Ry

     iteration #  3     ecut=    90.00 Ry     beta= 0.30
     Davidson diagonalization with overlap
     ethr =  2.29E-10,  avg # of iterations =  2.0

     negative rho (up, down):  4.295E-06 0.000E+00

     total cpu time spent up to now is      444.0 secs

     total energy              =    -299.60707081 Ry
     estimated scf accuracy    <       0.00000001 Ry

     iteration #  4     ecut=    90.00 Ry     beta= 0.30
     Davidson diagonalization with overlap
     ethr =  1.79E-11,  avg # of iterations =  2.0

     negative rho (up, down):  4.295E-06 0.000E+00

     total cpu time spent up to now is      446.2 secs

     total energy              =    -299.60707082 Ry
     estimated scf accuracy    <          1.7E-09 Ry

     iteration #  5     ecut=    90.00 Ry     beta= 0.30
     Davidson diagonalization with overlap
     ethr =  2.44E-12,  avg # of iterations =  2.4

     negative rho (up, down):  4.296E-06 0.000E+00

     total cpu time spent up to now is      448.6 secs

     total energy              =    -299.60707082 Ry
     estimated scf accuracy    <          3.3E-10 Ry

     iteration #  6     ecut=    90.00 Ry     beta= 0.30
     Davidson diagonalization with overlap
     ethr =  4.85E-13,  avg # of iterations =  2.2

     negative rho (up, down):  4.296E-06 0.000E+00

     total cpu time spent up to now is      450.8 secs

     End of self-consistent calculation

          k = 0.0000-0.0000 0.0000 ( 20251 PWs)   bands (ev):

   -16.8671 -15.7806 -13.8313 -12.3100 -12.2196 -11.2960 -11.1110 -10.8394
    -8.1151  -7.7602  -7.6968  -5.4393  -5.4222  -5.0865  -2.7191  -2.7172
    -2.0292  -1.8097  -1.4738  -0.7958  -0.3000   0.0616   0.4678   0.9223
     0.9275   1.3341   1.3934   1.4251   1.5614   2.0318   2.0321   2.6991
     3.0233   3.1923   6.5662   7.0572   8.5033   8.5586   9.0079   9.3324
     9.6019

          k = 0.0000-0.1000 0.0000 ( 20237 PWs)   bands (ev):

   -16.7054 -15.6728 -13.9664 -13.5168 -12.3092 -11.0193 -10.6182 -10.4589
    -8.0370  -7.6100  -7.1519  -5.5278  -5.3646  -4.8598  -2.7894  -2.6419
    -2.2287  -2.0418  -1.6835  -0.7258  -0.6750  -0.0209   0.3319   0.5013
     0.6136   0.9032   1.4142   1.4452   1.6445   2.1187   2.3824   2.4972
     2.8389   3.1103   6.7868   7.2666   8.7611   9.2361   9.3388   9.5816
     9.6698

          k = 0.0000-0.2000 0.0000 ( 20225 PWs)   bands (ev):

   -16.2790 -15.5551 -14.7031 -13.8670 -12.7817 -11.4598 -10.1601  -9.5768
    -7.5985  -6.9087  -6.4886  -5.7000  -5.0701  -4.5085  -3.7579  -3.1980
    -2.7513  -1.9292  -1.3721  -1.1793  -0.6884  -0.4167   0.0090   0.0858
     0.6282   0.6767   1.2890   1.4818   1.5549   2.0891   2.1160   2.4585
     2.8292   3.2178   7.4115   7.8269   8.4307   8.7480   9.2886   9.5297
     9.5702

          k = 0.1111-0.0000 0.0000 ( 20245 PWs)   bands (ev):

   -16.6410 -15.5570 -13.6143 -12.0962 -12.0068 -11.0884 -10.9061 -10.6384
    -8.0046  -7.5704  -7.5201  -5.2986  -5.2725  -5.0179  -3.1665  -2.6781
    -2.5754  -2.0159  -1.8976  -1.3064  -0.3346  -0.2800   0.0746   0.3291
     0.5922   0.6297   0.7512   0.9957   1.0346   1.3900   1.4691   2.2315
     2.6875   2.9305   6.7828   7.2757   9.0989   9.1434   9.6008   9.8050
     9.8809

          k = 0.1111-0.1000 0.0000 ( 20228 PWs)   bands (ev):

   -16.4796 -15.4494 -13.7471 -13.3006 -12.0995 -10.8184 -10.4108 -10.2584
    -7.9173  -7.4353  -6.9779  -5.4267  -5.1876  -4.7811  -3.0581  -2.6954
    -2.5067  -2.0885  -2.0328  -1.7730  -0.6492  -0.4859  -0.3532   0.0337
     0.3343   0.5178   0.5925   1.1618   1.3992   1.4508   1.5609   1.9390
     2.6932   2.7664   7.0022   7.4845   9.1421   9.7304   9.7687  10.0369
    10.0911

          k = 0.1111-0.2000 0.0000 ( 20228 PWs)   bands (ev):

   -16.0541 -15.3318 -14.4814 -13.6496 -12.5709 -11.2573  -9.9649  -9.3770
    -7.4868  -6.7743  -6.3279  -5.5417  -4.9295  -4.3494  -3.6115  -3.1462
    -2.7422  -2.5666  -2.0312  -1.6504  -1.0929  -1.0621  -0.5858  -0.3106
     0.0783   0.2295   0.6814   0.9793   1.3515   1.6361   1.9400   2.0152
     2.4868   2.5223   7.6285   8.0366   8.6395   8.9176   9.2992   9.6935
    10.2830

          k = 0.2222-0.0000 0.0000 ( 20222 PWs)   bands (ev):

   -15.9658 -14.8906 -12.9719 -11.4598 -11.3735 -10.4756 -10.2965 -10.0492
    -7.9825  -7.0519  -7.0309  -5.5502  -4.9828  -4.9332  -4.8966  -3.6603
    -3.3156  -2.5487  -2.5388  -1.6099  -1.5670  -1.0064  -0.9252  -0.8290
    -0.7360  -0.7326  -0.0933   0.2246   0.5096   0.6430   1.0951   1.5440
     1.8489   2.6621   7.4217   7.7924   9.8351   9.8631  10.1707  10.3287
    10.5342

          k = 0.2222-0.1000 0.0000 ( 20228 PWs)   bands (ev):

   -15.8054 -14.7835 -13.0954 -12.6588 -11.4785 -10.2299  -9.7928  -9.6717
    -7.8576  -6.9903  -6.5186  -5.5501  -4.9333  -4.8230  -4.7083  -3.6606
    -3.2960  -2.7057  -2.5714  -1.8541  -1.7140  -1.4461  -1.2355  -0.9350
    -0.5164  -0.4769  -0.3182   0.1960   0.3807   0.6926   1.0429   1.1714
     1.9229   2.3903   7.6179   7.9978   9.4913   9.9791  10.0323  10.2417
    10.7674

          k = 0.2222-0.2000 0.0000 ( 20215 PWs)   bands (ev):

   -15.3826 -14.6657 -13.8206 -13.0040 -11.9479 -10.6646  -9.4056  -8.7894
    -7.4392  -6.6091  -5.9583  -5.2916  -4.7204  -4.5182  -4.1209  -3.7939
    -3.4653  -3.3282  -2.8088  -2.4820  -2.3636  -1.8224  -1.3794  -1.3410
    -0.4947  -0.3511  -0.2000   0.1575   0.3724   0.5312   1.0717   1.3356
     1.8009   1.9131   8.1395   8.5495   8.8680   9.1695   9.3218   9.8489
    10.2323

          k = 0.3333-0.0000 0.0000 ( 20254 PWs)   bands (ev):

   -14.8544 -13.8010 -11.9577 -10.4209 -10.3462  -9.5558  -9.3203  -9.1854
    -9.1827  -7.4816  -6.5525  -6.3912  -6.0082  -5.2186  -5.1421  -4.7862
    -3.9633  -3.4895  -3.4876  -2.7658  -2.7615  -2.5765  -1.4897  -1.4549
    -1.1501  -0.6440  -0.6100  -0.2701  -0.1821   0.2032   0.7307   0.9509
     1.2936   2.4005   8.4615   8.6142  10.0651  10.3717  10.4599  10.4730
    11.0254

          k = 0.3333-0.1000 0.0000 ( 20257 PWs)   bands (ev):

   -14.6957 -13.6941 -12.0436 -11.6256 -10.4942  -9.4017  -9.0692  -8.8083
    -8.7708  -7.4137  -6.7288  -6.2130  -5.7179  -5.3548  -4.8874  -4.3576
    -4.0828  -3.9071  -3.4499  -2.7790  -2.7422  -2.0845  -1.4961  -1.2382
    -1.0740  -0.9690  -0.6544  -0.4378  -0.2621   0.1626   0.3072   0.7697
     1.2076   1.7679   8.6102   8.8003   9.5205   9.8702  10.3850  10.8722
    10.9509

          k = 0.3333-0.2000 0.0000 ( 20240 PWs)   bands (ev):

   -14.2772 -13.5728 -12.7395 -11.9619 -10.9662  -9.7929  -8.8572  -8.6939
    -7.7427  -7.3959  -6.7851  -6.1242  -5.3936  -4.8110  -4.4169  -4.3696
    -4.0425  -3.5736  -3.1314  -3.0104  -2.8080  -2.3019  -2.0616  -1.6408
    -1.2045  -0.8338  -0.5996  -0.4651  -0.2333   0.0382   0.1885   0.6059
     0.8194   0.9591   8.6441   8.8348   9.3053   9.7843   9.8179  10.3100
    10.7952

          k = 0.4444-0.0000 0.0000 ( 20318 PWs)   bands (ev):

   -13.3429 -12.3882 -11.6203 -10.2591 -10.2351  -8.9835  -8.9312  -8.1151
    -8.0696  -7.8845  -7.5975  -7.2357  -7.0878  -6.2808  -6.2587  -5.4860
    -4.2654  -3.7870  -3.7657  -2.7259  -2.7229  -2.3962  -2.2158  -2.0207
    -1.8698  -1.0754  -1.0463  -0.7544  -0.5761   0.2529   0.4490   0.9859
     1.5416   1.8206   9.5635   9.7632   9.8821   9.9978  10.1742  10.4951
    11.4138

          k = 0.4444-0.1000 0.0000 ( 20269 PWs)   bands (ev):

   -13.1866 -12.2760 -11.4733 -10.4809 -10.2026 -10.0211  -9.2326  -8.8179
    -7.7783  -7.4162  -7.3530  -7.0647  -6.8746  -5.9163  -5.7326  -5.3927
    -4.2475  -3.9141  -3.7316  -2.7658  -2.6556  -2.1038  -1.8870  -1.8392
    -1.7482  -1.1133  -1.0161  -0.6207  -0.5294   0.0955   0.2252   0.4254
     0.8986   1.0686   9.1588   9.8434   9.9903  10.0874  10.3589  11.0215
    11.2038

          k = 0.4444-0.2000 0.0000 ( 20233 PWs)   bands (ev):

   -12.7741 -12.1195 -11.3211 -11.0738 -10.4217 -10.0928  -9.7690  -9.6564
    -7.7952  -7.6098  -7.1462  -6.7162  -6.3283  -6.0184  -4.9563  -4.6465
    -3.9487  -3.4836  -3.1926  -2.8698  -2.5807  -2.0627  -1.8573  -1.5783
    -1.2611  -1.0037  -0.9520  -0.8829  -0.6952  -0.4629  -0.2628  -0.1739
     0.0451   0.0773   9.1087   9.4662   9.9265  10.0994  10.5550  10.6376
    10.9022

     the Fermi energy is     5.0238 ev

!    total energy              =    -299.60707082 Ry
     estimated scf accuracy    <          9.1E-11 Ry
     smearing contrib. (-TS)   =      -0.00000000 Ry
     internal energy E=F+TS    =    -299.60707082 Ry

     The total energy is F=E-TS. E is the sum of the following terms:
     one-electron contribution =   -1768.69720094 Ry
     hartree contribution      =     913.83695543 Ry
     xc contribution           =     -77.52250603 Ry
     ewald contribution        =     731.38604957 Ry
     one-center paw contrib.   =     -98.61036885 Ry

     convergence has been achieved in   6 iterations

     negative rho (up, down):  4.296E-06 0.000E+00

     Forces acting on atoms (cartesian axes, Ry/au):

     atom    1 type  1   force =     0.00000000   -0.00000209   -0.00002283
     atom    2 type  1   force =     0.00000000   -0.00008083   -0.00001503
     atom    3 type  1   force =    -0.00000000   -0.00005592   -0.00000821
     atom    4 type  1   force =     0.00000000   -0.00002013   -0.00003245
     atom    5 type  1   force =     0.00000000    0.00003700   -0.00002720
     atom    6 type  1   force =    -0.00000000    0.00009298    0.00000477
     atom    7 type  1   force =     0.00000000   -0.00002797    0.00006403
     atom    8 type  1   force =     0.00000000   -0.00016794    0.00001582
     atom    9 type  1   force =     0.00000000    0.00016794   -0.00001582
     atom   10 type  1   force =     0.00000000    0.00002797   -0.00006403
     atom   11 type  1   force =     0.00000000   -0.00009298   -0.00000477
     atom   12 type  1   force =     0.00000000   -0.00003700    0.00002720
     atom   13 type  1   force =     0.00000000    0.00002013    0.00003245
     atom   14 type  1   force =     0.00000000    0.00005592    0.00000821
     atom   15 type  1   force =     0.00000000    0.00008083    0.00001503
     atom   16 type  1   force =     0.00000000    0.00000209    0.00002283
     atom   17 type  2   force =     0.00000000    0.00002532   -0.00004163
     atom   18 type  2   force =     0.00000000   -0.00000726    0.00009000
     atom   19 type  2   force =     0.00000000    0.00000726   -0.00009000
     atom   20 type  2   force =     0.00000000   -0.00002532    0.00004163

     Total force =     0.000365     Total SCF correction =     0.000017
     Energy error            =      5.1E-07 Ry
     Gradient error          =      1.7E-04 Ry/Bohr

     number of scf cycles    =  22
     number of bfgs steps    =  21

     energy             old  =    -299.6070703061 Ry
     energy             new  =    -299.6070708154 Ry

     CASE: energy            _new < energy            _old

     new trust radius        =       0.0003743631 bohr
     new conv_thr            =            1.0E-10 Ry


ATOMIC_POSITIONS (angstrom)
C                0.0000000000       -0.8071741851       11.2068066613
C                1.2634728900       -1.1745519285       10.3995661719
C                1.2634728900       -0.0211827376        9.3907259611
C               -0.0000000000       -0.0189007647        8.5360962601
C               -0.0000000000       -1.2772760028        7.6390210816
C                1.2634728900       -1.2763811996        6.7095710332
C                1.2634728900        0.0928021678        5.9124227165
C                0.0000000000        0.4481055012        5.0982500094
C               -0.0000000000       -4.2385241812       11.1898705806
C                1.2634728900       -3.8832208478       10.3756978735
C                1.2634728900       -2.5140374704        9.5785495568
C               -0.0000000000       -2.5131426672        8.6490995084
C               -0.0000000000       -3.7715179153        7.7520243299
C                1.2634728900       -3.7692359424        6.8973946289
C                1.2634728900       -2.6158667415        5.8885544181
C                0.0000000000       -2.9832444949        5.0813139287
H                0.0000000000       -1.2255192154       12.2240997895
H                0.0000000000       -3.7989570343       12.1982702655
H               -0.0000000000        0.0085383543        4.0898503145
H               -0.0000000000       -2.5648994546        4.0640207905



     Writing config-only to output data dir /tmp/qe/slab.save/ :
     XML data file
     NEW-OLD atomic charge density approx. for the potential

     negative rho (up, down):  4.295E-06 0.000E+00

     total cpu time spent up to now is      451.7 secs

     Self-consistent Calculation

     iteration #  1     ecut=    90.00 Ry     beta= 0.30
     Davidson diagonalization with overlap
     ethr =  1.00E-06,  avg # of iterations =  2.0

     Threshold (ethr) on eigenvalues was too large:
     Diagonalizing with lowered threshold

     Davidson diagonalization with overlap
     ethr =  5.15E-11,  avg # of iterations =  5.0

     negative rho (up, down):  4.294E-06 0.000E+00

     total cpu time spent up to now is      456.8 secs

     total energy              =    -299.60707094 Ry
     estimated scf accuracy    <       0.00000005 Ry

     iteration #  2     ecut=    90.00 Ry     beta= 0.30
     Davidson diagonalization with overlap
     ethr =  6.90E-11,  avg # of iterations =  1.3

     negative rho (up, down):  4.294E-06 0.000E+00

     total cpu time spent up to now is      458.7 secs

     total energy              =    -299.60707094 Ry
     estimated scf accuracy    <       0.00000002 Ry

     iteration #  3     ecut=    90.00 Ry     beta= 0.30
     Davidson diagonalization with overlap
     ethr =  2.22E-11,  avg # of iterations =  2.1

     negative rho (up, down):  4.294E-06 0.000E+00

     total cpu time spent up to now is      460.9 secs

     total energy              =    -299.60707094 Ry
     estimated scf accuracy    <          2.0E-09 Ry

     iteration #  4     ecut=    90.00 Ry     beta= 0.30
     Davidson diagonalization with overlap
     ethr =  3.00E-12,  avg # of iterations =  2.0

     negative rho (up, down):  4.294E-06 0.000E+00

     total cpu time spent up to now is      462.9 secs

     total energy              =    -299.60707094 Ry
     estimated scf accuracy    <          1.8E-10 Ry

     iteration #  5     ecut=    90.00 Ry     beta= 0.30
     Davidson diagonalization with overlap
     ethr =  2.60E-13,  avg # of iterations =  2.5

     negative rho (up, down):  4.294E-06 0.000E+00

     total cpu time spent up to now is      465.3 secs

     End of self-consistent calculation

          k = 0.0000-0.0000 0.0000 ( 20251 PWs)   bands (ev):

   -16.8672 -15.7805 -13.8311 -12.3106 -12.2195 -11.2959 -11.1114 -10.8393
    -8.1151  -7.7604  -7.6966  -5.4393  -5.4222  -5.0865  -2.7190  -2.7169
    -2.0292  -1.8098  -1.4741  -0.7958  -0.2998   0.0614   0.4680   0.9223
     0.9275   1.3337   1.3934   1.4255   1.5613   2.0317   2.0319   2.6989
     3.0233   3.1923   6.5662   7.0573   8.5033   8.5584   9.0080   9.3324
     9.6015

          k = 0.0000-0.1000 0.0000 ( 20237 PWs)   bands (ev):

   -16.7055 -15.6726 -13.9664 -13.5169 -12.3094 -11.0192 -10.6183 -10.4589
    -8.0370  -7.6099  -7.1520  -5.5278  -5.3645  -4.8598  -2.7894  -2.6417
    -2.2287  -2.0420  -1.6836  -0.7257  -0.6753  -0.0203   0.3318   0.5013
     0.6133   0.9033   1.4139   1.4451   1.6448   2.1186   2.3822   2.4971
     2.8389   3.1103   6.7869   7.2666   8.7612   9.2361   9.3386   9.5816
     9.6696

          k = 0.0000-0.2000 0.0000 ( 20225 PWs)   bands (ev):

   -16.2791 -15.5549 -14.7034 -13.8670 -12.7818 -11.4598 -10.1601  -9.5768
    -7.5984  -6.9087  -6.4888  -5.7002  -5.0701  -4.5083  -3.7580  -3.1981
    -2.7513  -1.9292  -1.3722  -1.1792  -0.6883  -0.4168   0.0090   0.0854
     0.6283   0.6768   1.2887   1.4821   1.5548   2.0891   2.1161   2.4587
     2.8291   3.2177   7.4115   7.8269   8.4307   8.7478   9.2886   9.5294
     9.5699

          k = 0.1111-0.0000 0.0000 ( 20245 PWs)   bands (ev):

   -16.6410 -15.5569 -13.6141 -12.0968 -12.0067 -11.0882 -10.9064 -10.6382
    -8.0046  -7.5706  -7.5199  -5.2986  -5.2724  -5.0179  -3.1666  -2.6780
    -2.5751  -2.0158  -1.8976  -1.3066  -0.3347  -0.2799   0.0745   0.3288
     0.5920   0.6299   0.7512   0.9955   1.0345   1.3902   1.4689   2.2315
     2.6873   2.9306   6.7828   7.2758   9.0990   9.1432   9.6007   9.8048
     9.8810

          k = 0.1111-0.1000 0.0000 ( 20228 PWs)   bands (ev):

   -16.4796 -15.4492 -13.7471 -13.3007 -12.0996 -10.8183 -10.4110 -10.2584
    -7.9173  -7.4353  -6.9780  -5.4267  -5.1875  -4.7811  -3.0582  -2.6954
    -2.5065  -2.0885  -2.0328  -1.7730  -0.6494  -0.4862  -0.3530   0.0338
     0.3342   0.5177   0.5924   1.1618   1.3992   1.4507   1.5610   1.9389
     2.6932   2.7664   7.0022   7.4845   9.1421   9.7304   9.7686  10.0368
    10.0911

          k = 0.1111-0.2000 0.0000 ( 20228 PWs)   bands (ev):

   -16.0541 -15.3316 -14.4816 -13.6496 -12.5710 -11.2573  -9.9649  -9.3770
    -7.4866  -6.7743  -6.3280  -5.5419  -4.9295  -4.3491  -3.6117  -3.1463
    -2.7422  -2.5666  -2.0311  -1.6504  -1.0933  -1.0621  -0.5857  -0.3107
     0.0783   0.2293   0.6814   0.9795   1.3514   1.6362   1.9401   2.0151
     2.4868   2.5223   7.6285   8.0366   8.6394   8.9175   9.2990   9.6932
    10.2830

          k = 0.2222-0.0000 0.0000 ( 20222 PWs)   bands (ev):

   -15.9659 -14.8905 -12.9717 -11.4604 -11.3733 -10.4755 -10.2969 -10.0491
    -7.9824  -7.0522  -7.0308  -5.5501  -4.9829  -4.9331  -4.8967  -3.6603
    -3.3154  -2.5485  -2.5388  -1.6101  -1.5672  -1.0064  -0.9252  -0.8293
    -0.7362  -0.7328  -0.0931   0.2244   0.5098   0.6433   1.0950   1.5440
     1.8490   2.6619   7.4217   7.7924   9.8352   9.8630  10.1708  10.3289
    10.5340

          k = 0.2222-0.1000 0.0000 ( 20228 PWs)   bands (ev):

   -15.8055 -14.7834 -13.0954 -12.6589 -11.4786 -10.2298  -9.7930  -9.6717
    -7.8575  -6.9904  -6.5187  -5.5500  -4.9333  -4.8230  -4.7083  -3.6606
    -3.2958  -2.7058  -2.5714  -1.8543  -1.7140  -1.4462  -1.2355  -0.9349
    -0.5166  -0.4770  -0.3184   0.1962   0.3807   0.6927   1.0429   1.1714
     1.9230   2.3901   7.6179   7.9978   9.4912   9.9790  10.0324  10.2418
    10.7671

          k = 0.2222-0.2000 0.0000 ( 20215 PWs)   bands (ev):

   -15.3826 -14.6655 -13.8209 -13.0040 -11.9480 -10.6647  -9.4055  -8.7894
    -7.4390  -6.6091  -5.9585  -5.2917  -4.7204  -4.5182  -4.1209  -3.7938
    -3.4651  -3.3284  -2.8089  -2.4822  -2.3637  -1.8225  -1.3793  -1.3410
    -0.4946  -0.3512  -0.2001   0.1573   0.3724   0.5314   1.0718   1.3357
     1.8009   1.9133   8.1394   8.5495   8.8679   9.1695   9.3217   9.8486
    10.2321

          k = 0.3333-0.0000 0.0000 ( 20254 PWs)   bands (ev):

   -14.8545 -13.8009 -11.9575 -10.4215 -10.3460  -9.5557  -9.3206  -9.1854
    -9.1825  -7.4815  -6.5524  -6.3915  -6.0082  -5.2186  -5.1423  -4.7861
    -3.9633  -3.4897  -3.4876  -2.7658  -2.7618  -2.5763  -1.4897  -1.4552
    -1.1499  -0.6442  -0.6102  -0.2698  -0.1816   0.2030   0.7309   0.9509
     1.2934   2.4003   8.4615   8.6142  10.0653  10.3719  10.4600  10.4730
    11.0254

          k = 0.3333-0.1000 0.0000 ( 20257 PWs)   bands (ev):

   -14.6958 -13.6940 -12.0436 -11.6258 -10.4944  -9.4016  -9.0691  -8.8084
    -8.7709  -7.4136  -6.7290  -6.2131  -5.7180  -5.3549  -4.8873  -4.3576
    -4.0829  -3.9074  -3.4500  -2.7788  -2.7422  -2.0847  -1.4960  -1.2382
    -1.0740  -0.9693  -0.6545  -0.4376  -0.2621   0.1630   0.3073   0.7697
     1.2076   1.7677   8.6102   8.8002   9.5206   9.8704  10.3849  10.8720
    10.9509

          k = 0.3333-0.2000 0.0000 ( 20240 PWs)   bands (ev):

   -14.2773 -13.5726 -12.7398 -11.9618 -10.9663  -9.7929  -8.8570  -8.6938
    -7.7428  -7.3959  -6.7853  -6.1243  -5.3936  -4.8109  -4.4170  -4.3696
    -4.0427  -3.5737  -3.1314  -3.0104  -2.8081  -2.3020  -2.0617  -1.6409
    -1.2045  -0.8339  -0.5996  -0.4652  -0.2332   0.0383   0.1886   0.6062
     0.8193   0.9592   8.6439   8.8349   9.3052   9.7843   9.8178  10.3095
    10.7952

          k = 0.4444-0.0000 0.0000 ( 20318 PWs)   bands (ev):

   -13.3430 -12.3881 -11.6204 -10.2589 -10.2349  -8.9841  -8.9311  -8.1153
    -8.0695  -7.8846  -7.5977  -7.2357  -7.0881  -6.2808  -6.2588  -5.4859
    -4.2654  -3.7871  -3.7658  -2.7260  -2.7232  -2.3960  -2.2158  -2.0208
    -1.8698  -1.0756  -1.0464  -0.7538  -0.5757   0.2531   0.4490   0.9857
     1.5414   1.8204   9.5637   9.7632   9.8823   9.9979  10.1742  10.4951
    11.4137

          k = 0.4444-0.1000 0.0000 ( 20269 PWs)   bands (ev):

   -13.1867 -12.2758 -11.4734 -10.4810 -10.2025 -10.0209  -9.2327  -8.8181
    -7.7783  -7.4162  -7.3532  -7.0647  -6.8747  -5.9163  -5.7328  -5.3927
    -4.2475  -3.9143  -3.7317  -2.7658  -2.6557  -2.1038  -1.8869  -1.8393
    -1.7484  -1.1134  -1.0162  -0.6201  -0.5290   0.0956   0.2251   0.4254
     0.8985   1.0684   9.1589   9.8433   9.9903  10.0876  10.3589  11.0215
    11.2037

          k = 0.4444-0.2000 0.0000 ( 20233 PWs)   bands (ev):

   -12.7742 -12.1193 -11.3214 -11.0739 -10.4218 -10.0927  -9.7689  -9.6565
    -7.7953  -7.6098  -7.1463  -6.7161  -6.3284  -6.0184  -4.9563  -4.6467
    -3.9486  -3.4837  -3.1928  -2.8699  -2.5808  -2.0628  -1.8573  -1.5784
    -1.2611  -1.0038  -0.9520  -0.8830  -0.6952  -0.4630  -0.2625  -0.1737
     0.0453   0.0773   9.1088   9.4664   9.9264  10.0992  10.5547  10.6377
    10.9018

     the Fermi energy is     5.0237 ev

!    total energy              =    -299.60707094 Ry
     estimated scf accuracy    <          4.6E-11 Ry
     smearing contrib. (-TS)   =      -0.00000000 Ry
     internal energy E=F+TS    =    -299.60707094 Ry

     The total energy is F=E-TS. E is the sum of the following terms:
     one-electron contribution =   -1768.72444899 Ry
     hartree contribution      =     913.85051863 Ry
     xc contribution           =     -77.52250710 Ry
     ewald contribution        =     731.39973678 Ry
     one-center paw contrib.   =     -98.61037025 Ry

     convergence has been achieved in   5 iterations

     negative rho (up, down):  4.294E-06 0.000E+00

     Forces acting on atoms (cartesian axes, Ry/au):

     atom    1 type  1   force =     0.00000000   -0.00000694   -0.00001014
     atom    2 type  1   force =     0.00000000   -0.00001244   -0.00001572
     atom    3 type  1   force =     0.00000000   -0.00000158   -0.00000496
     atom    4 type  1   force =     0.00000000    0.00000609   -0.00000990
     atom    5 type  1   force =     0.00000000    0.00000781   -0.00001527
     atom    6 type  1   force =    -0.00000000    0.00001913   -0.00000114
     atom    7 type  1   force =     0.00000000   -0.00003179    0.00001522
     atom    8 type  1   force =     0.00000000   -0.00005641    0.00000744
     atom    9 type  1   force =     0.00000000    0.00005641   -0.00000744
     atom   10 type  1   force =     0.00000000    0.00003179   -0.00001522
     atom   11 type  1   force =     0.00000000   -0.00001913    0.00000114
     atom   12 type  1   force =     0.00000000   -0.00000781    0.00001527
     atom   13 type  1   force =     0.00000000   -0.00000609    0.00000990
     atom   14 type  1   force =     0.00000000    0.00000158    0.00000496
     atom   15 type  1   force =     0.00000000    0.00001244    0.00001572
     atom   16 type  1   force =     0.00000000    0.00000694    0.00001014
     atom   17 type  2   force =     0.00000000   -0.00000142   -0.00001178
     atom   18 type  2   force =     0.00000000   -0.00001636    0.00002629
     atom   19 type  2   force =     0.00000000    0.00001636   -0.00002629
     atom   20 type  2   force =     0.00000000    0.00000142    0.00001178

     Total force =     0.000118     Total SCF correction =     0.000013
     SCF correction compared to forces is large: reduce conv_thr to get better values
     Energy error            =      1.2E-07 Ry
     Gradient error          =      5.6E-05 Ry/Bohr

     bfgs converged in  23 scf cycles and  22 bfgs steps
     (criteria: energy <  1.0E-05 Ry, force <  1.0E-04 Ry/Bohr)

     End of BFGS Geometry Optimization

     Final energy             =    -299.6070709383 Ry

     File /tmp/qe/slab.bfgs deleted, as requested
Begin final coordinates

ATOMIC_POSITIONS (angstrom)
C                0.0000000000       -0.8071741851       11.2068066613
C                1.2634728900       -1.1745519285       10.3995661719
C                1.2634728900       -0.0211827376        9.3907259611
C               -0.0000000000       -0.0189007647        8.5360962601
C               -0.0000000000       -1.2772760028        7.6390210816
C                1.2634728900       -1.2763811996        6.7095710332
C                1.2634728900        0.0928021678        5.9124227165
C                0.0000000000        0.4481055012        5.0982500094
C               -0.0000000000       -4.2385241812       11.1898705806
C                1.2634728900       -3.8832208478       10.3756978735
C                1.2634728900       -2.5140374704        9.5785495568
C               -0.0000000000       -2.5131426672        8.6490995084
C               -0.0000000000       -3.7715179153        7.7520243299
C                1.2634728900       -3.7692359424        6.8973946289
C                1.2634728900       -2.6158667415        5.8885544181
C                0.0000000000       -2.9832444949        5.0813139287
H                0.0000000000       -1.2255192154       12.2240997895
H                0.0000000000       -3.7989570343       12.1982702655
H               -0.0000000000        0.0085383543        4.0898503145
H               -0.0000000000       -2.5648994546        4.0640207905
End final coordinates



     Writing all to output data dir /tmp/qe/slab.save/ :
     XML data file, charge density, pseudopotentials, collected wavefunctions

     init_run     :      1.47s CPU      1.68s WALL (       1 calls)
     electrons    :    439.74s CPU    444.17s WALL (      23 calls)
     update_pot   :      3.99s CPU      4.02s WALL (      22 calls)
     forces       :     11.05s CPU     11.31s WALL (      23 calls)

     Called by init_run:
     wfcinit      :      1.08s CPU      1.18s WALL (       1 calls)
     potinit      :      0.18s CPU      0.21s WALL (       1 calls)
     hinit0       :      0.06s CPU      0.12s WALL (       1 calls)

     Called by electrons:
     c_bands      :    333.35s CPU    336.19s WALL (     186 calls)
     sum_band     :     68.73s CPU     69.33s WALL (     186 calls)
     v_of_rho     :     14.24s CPU     14.41s WALL (     195 calls)
     newd         :      7.96s CPU      8.02s WALL (     195 calls)
     PAW_pot      :     19.95s CPU     20.02s WALL (     217 calls)
     mix_rho      :      1.05s CPU      1.07s WALL (     186 calls)

     Called by c_bands:
     init_us_2    :     11.24s CPU     11.36s WALL (    6270 calls)
     cegterg      :    315.56s CPU    318.22s WALL (    2790 calls)

     Called by *egterg:
     cdiaghg      :     14.44s CPU     14.61s WALL (    9914 calls)
     h_psi        :    237.04s CPU    239.30s WALL (   10469 calls)
     s_psi        :     15.78s CPU     15.86s WALL (   10469 calls)
     g_psi        :      1.66s CPU      1.68s WALL (    7664 calls)

     Called by h_psi:
     h_psi:calbec :     15.76s CPU     15.87s WALL (   10469 calls)
     vloc_psi     :    201.97s CPU    204.01s WALL (   10469 calls)
     add_vuspsi   :     17.48s CPU     17.57s WALL (   10469 calls)

     General routines
     calbec       :     24.17s CPU     24.34s WALL (   14969 calls)
     fft          :      7.24s CPU      7.47s WALL (    2778 calls)
     ffts         :      0.20s CPU      0.21s WALL (     381 calls)
     fftw         :    176.35s CPU    177.92s WALL (  719296 calls)
     interpolate  :      0.52s CPU      0.55s WALL (     195 calls)

     Parallel routines

     PWSCF        :   7m40.94s CPU   7m46.11s WALL


   This run was terminated on:  13:14:58   1Aug2026            

=------------------------------------------------------------------------------=
   JOB DONE.
=------------------------------------------------------------------------------=
Note: The following floating-point exceptions are signalling: IEEE_UNDERFLOW_FLAG IEEE_DENORMAL
Note: The following floating-point exceptions are signalling: IEEE_UNDERFLOW_FLAG IEEE_DENORMAL
Note: The following floating-point exceptions are signalling: IEEE_UNDERFLOW_FLAG IEEE_DENORMAL
Note: The following floating-point exceptions are signalling: IEEE_UNDERFLOW_FLAG IEEE_DENORMAL
Note: The following floating-point exceptions are signalling: IEEE_UNDERFLOW_FLAG IEEE_DENORMAL
Note: The following floating-point exceptions are signalling: IEEE_UNDERFLOW_FLAG IEEE_DENORMAL
Note: The following floating-point exceptions are signalling: IEEE_UNDERFLOW_FLAG IEEE_DENORMAL
Note: The following floating-point exceptions are signalling: IEEE_UNDERFLOW_FLAG IEEE_DENORMAL
