
     Program PWSCF v.7.5 starts on  7Jul2026 at 13:37:28 

     This program is part of the open-source Quantum ESPRESSO suite
     for quantum simulation of materials; please cite
         "P. Giannozzi et al., J. Phys.:Condens. Matter 21 395502 (2009);
         "P. Giannozzi et al., J. Phys.:Condens. Matter 29 465901 (2017);
         "P. Giannozzi et al., J. Chem. Phys. 152 154105 (2020);
          URL http://www.quantum-espresso.org", 
     in publications or presentations arising from this work. More details at
     http://www.quantum-espresso.org/quote

     Serial version
     0 MiB available memory on the printing compute node when the environment starts

     Waiting for input...
     Reading input from standard input

     Current dimensions of program PWSCF are:
     Max number of different atomic species (ntypx) = 10
     Max number of k-points (npk) =  40000
     Max angular momentum in pseudopotentials (lmaxx) =  4
     file C.pbe-n-kjpaw_psl.1.0.0.UPF: wavefunction(s)  2S 2P renormalized
     Message from routine setup:
     using ibrav=0 with symmetry is DISCOURAGED, use correct ibrav instead


     G-vector sticks info
     --------------------
     sticks:   dense  smooth     PW     G-vecs:    dense   smooth      PW
     Sum         745     379    121                98259    34753    6089

     Using Slab Decomposition



     bravais-lattice index     =            0
     lattice parameter (alat)  =       4.7752  a.u.
     unit-cell volume          =     553.1394 (a.u.)^3
     number of atoms/cell      =            8
     number of atomic types    =            2
     number of electrons       =        26.00
     number of Kohn-Sham states=           17
     kinetic-energy cutoff     =      60.0000  Ry
     charge density cutoff     =     480.0000  Ry
     scf convergence threshold =      1.0E-08
     mixing beta               =       0.3000
     number of iterations used =            8  plain     mixing
     Exchange-correlation= PBE
                           (   1   4   3   4   0   0   0)

     celldm(1)=   4.775235  celldm(2)=   0.000000  celldm(3)=   0.000000
     celldm(4)=   0.000000  celldm(5)=   0.000000  celldm(6)=   0.000000

     crystal axes: (cart. coord. in units of alat)
               a(1) = (   1.000000   0.000000   0.000000 )  
               a(2) = (   0.500000   0.866025   0.000000 )  
               a(3) = (   0.000000   0.000000   5.865696 )  

     reciprocal axes: (cart. coord. in units 2 pi/alat)
               b(1) = (  1.000000 -0.577350  0.000000 )  
               b(2) = (  0.000000  1.154701  0.000000 )  
               b(3) = (  0.000000  0.000000  0.170483 )  


     PseudoPot. # 1 for C  read from file:
     ./C.pbe-n-kjpaw_psl.1.0.0.UPF
     MD5 check sum: 5d2aebdfa2cae82b50a7e79e9516da0f
     Pseudo is Projector augmented-wave + core cor, Zval =  4.0
     Generated using "atomic" code by A. Dal Corso  v.5.1
     Shape of augmentation charge: PSQ
     Using radial grid of 1073 points,  4 beta functions with: 
                l(1) =   0
                l(2) =   0
                l(3) =   1
                l(4) =   1
     Q(r) pseudized with 0 coefficients 


     PseudoPot. # 2 for H  read from file:
     ./H_ONCV_PBE-1.0.oncvpsp.upf
     MD5 check sum: 1790becc920ee074925cf490c71280fe
     Pseudo is Norm-conserving, Zval =  1.0
     Generated using ONCVPSP code by D. R. Hamann
     Using radial grid of 1166 points,  2 beta functions with: 
                l(1) =   0
                l(2) =   0

     atomic species   valence    mass     pseudopotential
     C                 4.00    12.01100     C ( 1.00)
     H                 1.00     1.00800     H ( 1.00)

     12 Sym. Ops., with inversion, found ( 6 have fractional translation)



   Cartesian axes

     site n.     atom                  positions (alat units)
         1        C      tau(   1) = (   0.5000000   0.2886751   3.8425963  )
         2        C      tau(   2) = (   1.0000000   0.5773503   3.6495395  )
         3        C      tau(   3) = (   1.0000000   0.5773503   3.0344995  )
         4        C      tau(   4) = (   0.0000000   0.0000000   2.8311966  )
         5        C      tau(   5) = (   0.0000000   0.0000000   2.2161565  )
         6        C      tau(   6) = (   0.5000000   0.2886751   2.0230997  )
         7        H      tau(   7) = (   0.5000000   0.2886751   4.2814431  )
         8        H      tau(   8) = (   0.5000000   0.2886751   1.5842529  )

     number of k points=    12  Marzari-Vanderbilt smearing, width (Ry)=  0.0100
                       cart. coord. in units 2pi/alat
        k(    1) = (   0.0000000   0.0000000   0.0000000), wk =   0.0246914
        k(    2) = (   0.0000000   0.1283001   0.0000000), wk =   0.1481481
        k(    3) = (   0.0000000   0.2566001   0.0000000), wk =   0.1481481
        k(    4) = (   0.0000000   0.3849002   0.0000000), wk =   0.1481481
        k(    5) = (   0.0000000   0.5132002   0.0000000), wk =   0.1481481
        k(    6) = (   0.1111111   0.1924501   0.0000000), wk =   0.1481481
        k(    7) = (   0.1111111   0.3207501   0.0000000), wk =   0.2962963
        k(    8) = (   0.1111111   0.4490502   0.0000000), wk =   0.2962963
        k(    9) = (   0.1111111  -0.5773503   0.0000000), wk =   0.1481481
        k(   10) = (   0.2222222   0.3849002   0.0000000), wk =   0.1481481
        k(   11) = (   0.2222222  -0.6415003   0.0000000), wk =   0.2962963
        k(   12) = (   0.3333333  -0.5773503   0.0000000), wk =   0.0493827

     Dense  grid:    98259 G-vectors     FFT dimensions: (  36,  36, 200)

     Smooth grid:    34753 G-vectors     FFT dimensions: (  24,  24, 144)

     Estimated max dynamical RAM per process >     169.47 MB

     Check: negative core charge=   -0.000002

     Initial potential from superposition of free atoms

     starting charge      25.9997, renormalised to      26.0000

     negative rho (up, down):  3.740E-07 0.000E+00
     Starting wfcs are   26 randomized atomic wfcs

     total cpu time spent up to now is        0.6 secs

     Self-consistent Calculation

     iteration #  1     ecut=    60.00 Ry     beta= 0.30
     Davidson diagonalization with overlap
     ethr =  1.00E-02,  avg # of iterations =  2.9

     negative rho (up, down):  1.637E-06 0.000E+00

     total cpu time spent up to now is        1.4 secs

     total energy              =    -113.01525934 Ry
     estimated scf accuracy    <       0.60933176 Ry

     iteration #  2     ecut=    60.00 Ry     beta= 0.30
     Davidson diagonalization with overlap
     ethr =  2.34E-03,  avg # of iterations =  3.3

     negative rho (up, down):  4.616E-06 0.000E+00

     total cpu time spent up to now is        2.1 secs

     total energy              =    -112.97730014 Ry
     estimated scf accuracy    <       0.18424411 Ry

     iteration #  3     ecut=    60.00 Ry     beta= 0.30
     Davidson diagonalization with overlap
     ethr =  7.09E-04,  avg # of iterations =  4.4

     negative rho (up, down):  4.554E-06 0.000E+00

     total cpu time spent up to now is        2.8 secs

     total energy              =    -112.98296129 Ry
     estimated scf accuracy    <       0.02657920 Ry

     iteration #  4     ecut=    60.00 Ry     beta= 0.30
     Davidson diagonalization with overlap
     ethr =  1.02E-04,  avg # of iterations =  4.5

     negative rho (up, down):  3.489E-06 0.000E+00

     total cpu time spent up to now is        3.5 secs

     total energy              =    -112.98392335 Ry
     estimated scf accuracy    <       0.00318428 Ry

     iteration #  5     ecut=    60.00 Ry     beta= 0.30
     Davidson diagonalization with overlap
     ethr =  1.22E-05,  avg # of iterations =  5.4

     negative rho (up, down):  2.467E-06 0.000E+00

     total cpu time spent up to now is        4.3 secs

     total energy              =    -112.98432924 Ry
     estimated scf accuracy    <       0.00023506 Ry

     iteration #  6     ecut=    60.00 Ry     beta= 0.30
     Davidson diagonalization with overlap
     ethr =  9.04E-07,  avg # of iterations =  3.2

     negative rho (up, down):  2.277E-06 0.000E+00

     total cpu time spent up to now is        5.1 secs

     total energy              =    -112.98435973 Ry
     estimated scf accuracy    <       0.00007397 Ry

     iteration #  7     ecut=    60.00 Ry     beta= 0.30
     Davidson diagonalization with overlap
     ethr =  2.85E-07,  avg # of iterations =  2.2

     negative rho (up, down):  2.089E-06 0.000E+00

     total cpu time spent up to now is        5.8 secs

     total energy              =    -112.98437437 Ry
     estimated scf accuracy    <       0.00002646 Ry

     iteration #  8     ecut=    60.00 Ry     beta= 0.30
     Davidson diagonalization with overlap
     ethr =  1.02E-07,  avg # of iterations =  1.7

     negative rho (up, down):  2.018E-06 0.000E+00

     total cpu time spent up to now is        6.3 secs

     total energy              =    -112.98437665 Ry
     estimated scf accuracy    <       0.00000267 Ry

     iteration #  9     ecut=    60.00 Ry     beta= 0.30
     Davidson diagonalization with overlap
     ethr =  1.03E-08,  avg # of iterations =  2.3

     negative rho (up, down):  1.986E-06 0.000E+00

     total cpu time spent up to now is        7.0 secs

     total energy              =    -112.98437711 Ry
     estimated scf accuracy    <       0.00000022 Ry

     iteration # 10     ecut=    60.00 Ry     beta= 0.30
     Davidson diagonalization with overlap
     ethr =  8.54E-10,  avg # of iterations =  2.7

     negative rho (up, down):  1.969E-06 0.000E+00

     total cpu time spent up to now is        7.7 secs

     total energy              =    -112.98437715 Ry
     estimated scf accuracy    <       0.00000004 Ry

     iteration # 11     ecut=    60.00 Ry     beta= 0.30
     Davidson diagonalization with overlap
     ethr =  1.69E-10,  avg # of iterations =  2.3

     negative rho (up, down):  1.969E-06 0.000E+00

     total cpu time spent up to now is        8.5 secs

     total energy              =    -112.98437717 Ry
     estimated scf accuracy    <       0.00000001 Ry

     iteration # 12     ecut=    60.00 Ry     beta= 0.30
     Davidson diagonalization with overlap
     ethr =  4.17E-11,  avg # of iterations =  1.8

     negative rho (up, down):  1.984E-06 0.000E+00

     total cpu time spent up to now is        9.1 secs

     End of self-consistent calculation

          k = 0.0000 0.0000 0.0000 (  4299 PWs)   bands (ev):

   -16.9006 -15.4126 -13.1813  -8.3572  -5.2781  -1.3841   1.5202   1.5202
     2.1020   2.3777   2.3777   3.4628   3.4628   6.4009   6.6354   9.2023
    10.3608

          k = 0.0000 0.1283 0.0000 (  4286 PWs)   bands (ev):

   -16.5999 -15.1181 -12.8993  -8.0874  -5.0520  -1.2603   0.1119   0.8987
     1.0292   1.8503   1.9931   2.3220   3.0226   6.6525   6.9632   9.2055
    10.4098

          k = 0.0000 0.2566 0.0000 (  4312 PWs)   bands (ev):

   -15.7041 -14.2421 -12.0633  -7.3367  -4.4677  -2.8581  -1.7449  -0.9212
    -0.3209  -0.2713   0.7723   1.7880   2.0467   7.4124   7.8481   9.3354
    10.2788

          k = 0.0000 0.3849 0.0000 (  4350 PWs)   bands (ev):

   -14.2382 -12.8184 -10.7248  -6.8327  -5.7717  -4.5142  -3.8740  -2.6477
    -1.2651  -0.8472  -0.1809   1.0913   1.1425   8.5255   8.9144   9.6268
    10.4391

          k = 0.0000 0.5132 0.0000 (  4370 PWs)   bands (ev):

   -12.3024 -11.0852  -9.6921  -8.2215  -8.0213  -6.1785  -3.8776  -2.5961
    -1.8064  -1.4390  -0.7071   0.5573   0.6351   8.9336   9.6574  10.3039
    10.8044

          k = 0.1111 0.1925 0.0000 (  4292 PWs)   bands (ev):

   -16.0015 -14.5327 -12.3400  -7.5731  -4.6375  -1.6626  -1.0666  -0.9751
    -0.0612   0.2275   1.3329   1.3495   2.3156   7.1952   7.5744   9.6432
    10.4948

          k = 0.1111 0.3208 0.0000 (  4352 PWs)   bands (ev):

   -14.8195 -13.3802 -11.2458  -6.7551  -4.4945  -3.9446  -3.0897  -2.3375
    -1.2142  -0.7931  -0.5566   0.4078   1.6961   8.3035   8.6059  10.1908
    10.9548

          k = 0.1111 0.4491 0.0000 (  4346 PWs)   bands (ev):

   -13.1013 -11.7351  -9.7707  -7.6241  -6.7174  -4.9222  -4.3371  -2.6624
    -2.4449  -1.6679  -0.9761  -0.1578   0.8293   9.3406   9.9472  10.6992
    11.4625

          k = 0.1111-0.5774 0.0000 (  4360 PWs)   bands (ev):

   -11.3242 -10.7881  -9.5692  -8.6354  -7.5059  -6.9488  -3.3404  -3.0450
    -2.6099  -1.6815  -1.6239  -0.2001   0.3319   9.6312  10.5071  11.3692
    11.6409

          k = 0.2222 0.3849 0.0000 (  4348 PWs)   bands (ev):

   -13.3787 -11.9890  -9.9497  -6.8199  -5.6164  -4.8433  -3.9811  -3.4197
    -2.7419  -1.9227  -1.6999  -0.6484   0.9199   9.5289   9.8239  11.1751
    11.7598

          k = 0.2222-0.6415 0.0000 (  4358 PWs)   bands (ev):

   -11.4950 -10.3245  -8.9516  -7.9881  -7.4273  -6.1475  -4.4595  -4.0852
    -3.0403  -2.6455  -1.7409  -0.9209  -0.0634  10.1622  10.8190  12.0197
    12.1521

          k = 0.3333-0.5774 0.0000 (  4356 PWs)   bands (ev):

    -9.8889  -9.8889  -8.7794  -8.4756  -7.0500  -7.0500  -4.9300  -4.6321
    -4.6321  -1.8896  -1.3096  -1.3096  -1.0008  10.7661  10.7661  11.4186
    13.1181

     the Fermi energy is     4.2475 ev

!    total energy              =    -112.98437717 Ry
     estimated scf accuracy    <          5.6E-09 Ry
     smearing contrib. (-TS)   =       0.00000000 Ry
     internal energy E=F+TS    =    -112.98437717 Ry

     The total energy is F=E-TS. E is the sum of the following terms:
     one-electron contribution =    -588.52409709 Ry
     hartree contribution      =     305.25495922 Ry
     xc contribution           =     -29.50814491 Ry
     ewald contribution        =     236.77085212 Ry
     one-center paw contrib.   =     -36.97794651 Ry

     convergence has been achieved in  12 iterations

     negative rho (up, down):  1.984E-06 0.000E+00

     Forces acting on atoms (cartesian axes, Ry/au):

     atom    1 type  1   force =     0.00000000    0.00000000   -0.00001238
     atom    2 type  1   force =     0.00000000    0.00000000    0.00000870
     atom    3 type  1   force =     0.00000000    0.00000000   -0.00007878
     atom    4 type  1   force =    -0.00000000   -0.00000000    0.00007878
     atom    5 type  1   force =     0.00000000    0.00000000   -0.00000870
     atom    6 type  1   force =     0.00000000    0.00000000    0.00001238
     atom    7 type  2   force =     0.00000000    0.00000000    0.00004515
     atom    8 type  2   force =     0.00000000    0.00000000   -0.00004515

     Total force =     0.000130     Total SCF correction =     0.000085
     SCF correction compared to forces is large: reduce conv_thr to get better values


     Computing stress (Cartesian axis) and pressure


     negative rho (up, down):  1.984E-06 0.000E+00
          total   stress  (Ry/bohr**3)                   (kbar)     P=        1.31
   0.00002169  -0.00000000   0.00000000            3.19       -0.00        0.00
  -0.00000000   0.00002169  -0.00000000           -0.00        3.19       -0.00
   0.00000000   0.00000000  -0.00001663            0.00        0.00       -2.45


     Writing all to output data dir ./tmp/slab.save/ :
     XML data file, charge density, pseudopotentials, collected wavefunctions

     init_run     :      0.53s CPU      0.56s WALL (       1 calls)
     electrons    :      7.79s CPU      8.47s WALL (       1 calls)
     forces       :      0.13s CPU      0.15s WALL (       1 calls)
     stress       :      0.37s CPU      0.41s WALL (       1 calls)

     Called by init_run:
     wfcinit      :      0.25s CPU      0.26s WALL (       1 calls)
     potinit      :      0.13s CPU      0.14s WALL (       1 calls)
     hinit0       :      0.12s CPU      0.12s WALL (       1 calls)

     Called by electrons:
     c_bands      :      5.07s CPU      5.57s WALL (      12 calls)
     sum_band     :      1.10s CPU      1.17s WALL (      12 calls)
     v_of_rho     :      0.47s CPU      0.51s WALL (      13 calls)
     newd         :      0.23s CPU      0.27s WALL (      13 calls)
     PAW_pot      :      0.95s CPU      1.01s WALL (      13 calls)
     mix_rho      :      0.05s CPU      0.06s WALL (      12 calls)

     Called by c_bands:
     init_us_2    :      0.11s CPU      0.12s WALL (     324 calls)
     cegterg      :      4.89s CPU      5.37s WALL (     144 calls)

     Called by *egterg:
     cdiaghg      :      0.09s CPU      0.10s WALL (     587 calls)
     h_psi        :      4.07s CPU      4.25s WALL (     599 calls)
     s_psi        :      0.20s CPU      0.28s WALL (     599 calls)
     g_psi        :      0.02s CPU      0.02s WALL (     443 calls)

     Called by h_psi:
     h_psi:calbec :      0.26s CPU      0.32s WALL (     599 calls)
     vloc_psi     :      3.56s CPU      3.60s WALL (     599 calls)
                                        0.00s GPU  (     599 calls)
     add_vuspsi   :      0.24s CPU      0.31s WALL (     599 calls)

     General routines
     calbec       :      0.46s CPU      0.57s WALL (     947 calls)
     fft          :      0.26s CPU      0.26s WALL (     192 calls)
     ffts         :      0.01s CPU      0.01s WALL (      25 calls)
     fftw         :      3.77s CPU      3.78s WALL (   15608 calls)
     interpolate  :      0.03s CPU      0.03s WALL (      13 calls)


     PWSCF        :      8.84s CPU      9.63s WALL


   This run was terminated on:  13:37:38   7Jul2026            

=------------------------------------------------------------------------------=
   JOB DONE.
=------------------------------------------------------------------------------=
Note: The following floating-point exceptions are signalling: IEEE_INVALID_FLAG IEEE_DIVIDE_BY_ZERO IEEE_OVERFLOW_FLAG IEEE_UNDERFLOW_FLAG
