
     Program PWSCF v.7.3.1 starts on  2Aug2026 at 14:21:24 

     This program is part of the open-source Quantum ESPRESSO suite
     for quantum simulation of materials; please cite
         "P. Giannozzi et al., J. Phys.:Condens. Matter 21 395502 (2009);
         "P. Giannozzi et al., J. Phys.:Condens. Matter 29 465901 (2017);
         "P. Giannozzi et al., J. Chem. Phys. 152 154105 (2020);
          URL http://www.quantum-espresso.org", 
     in publications or presentations arising from this work. More details at
     http://www.quantum-espresso.org/quote

     Parallel version (MPI), running on     8 processors

     MPI processes distributed on     1 nodes
     188134 MiB available memory on the printing compute node when the environment starts

     Reading input from pw.in

     Current dimensions of program PWSCF are:
     Max number of different atomic species (ntypx) = 10
     Max number of k-points (npk) =  40000
     Max angular momentum in pseudopotentials (lmaxx) =  4
     file C.pbe-n-kjpaw_psl.1.0.0.UPF: wavefunction(s)  2S 2P renormalized
     Message from routine setup:
     using ibrav=0 with symmetry is DISCOURAGED, use correct ibrav instead

     R & G space division:  proc/nbgrp/npool/nimage =       8
     Subspace diagonalization in iterative solution of the eigenvalue problem:
     a serial algorithm will be used


     Parallelization info
     --------------------
     sticks:   dense  smooth     PW     G-vecs:    dense   smooth      PW
     Min         141      69     20                25707     9051    1488
     Max         142      70     21                25732     9084    1519
     Sum        1135     559    163               205803    72619   11991

     Using Slab Decomposition



     bravais-lattice index     =            0
     lattice parameter (alat)  =       4.7740  a.u.
     unit-cell volume          =     629.7379 (a.u.)^3
     number of atoms/cell      =           10
     number of atomic types    =            2
     number of electrons       =        34.00
     number of Kohn-Sham states=           21
     kinetic-energy cutoff     =      90.0000  Ry
     charge density cutoff     =     720.0000  Ry
     scf convergence threshold =      1.0E-09
     mixing beta               =       0.3000
     number of iterations used =            8  plain     mixing
     energy convergence thresh.=      1.0E-05
     force convergence thresh. =      1.0E-04
     press convergence thresh. =      1.0E-01
     Exchange-correlation= PBE
                           (   1   4   3   4   0   0   0)
     nstep                     =           50


     celldm(1)=   4.773978  celldm(2)=   0.000000  celldm(3)=   0.000000
     celldm(4)=   0.000000  celldm(5)=   0.000000  celldm(6)=   0.000000

     crystal axes: (cart. coord. in units of alat)
               a(1) = (   1.000000   0.000000   0.000000 )  
               a(2) = (   0.500000   0.866025   0.000000 )  
               a(3) = (   0.000000   0.000000   6.683254 )  

     reciprocal axes: (cart. coord. in units 2 pi/alat)
               b(1) = (  1.000000 -0.577350  0.000000 )  
               b(2) = (  0.000000  1.154701  0.000000 )  
               b(3) = (  0.000000  0.000000  0.149628 )  


     PseudoPot. # 1 for C  read from file:
     ./C.pbe-n-kjpaw_psl.1.0.0.UPF
     MD5 check sum: 5d2aebdfa2cae82b50a7e79e9516da0f
     Pseudo is Projector augmented-wave + core cor, Zval =  4.0
     Generated using "atomic" code by A. Dal Corso  v.5.1
     Shape of augmentation charge: PSQ
     Using radial grid of 1073 points,  4 beta functions with: 
                l(1) =   0
                l(2) =   0
                l(3) =   1
                l(4) =   1
     Q(r) pseudized with 0 coefficients 


     PseudoPot. # 2 for H  read from file:
     ./H_ONCV_PBE-1.0.oncvpsp.upf
     MD5 check sum: 1790becc920ee074925cf490c71280fe
     Pseudo is Norm-conserving, Zval =  1.0
     Generated using ONCVPSP code by D. R. Hamann
     Using radial grid of 1166 points,  2 beta functions with: 
                l(1) =   0
                l(2) =   0

     atomic species   valence    mass     pseudopotential
     C                 4.00    12.01100     C ( 1.00)
     H                 1.00     1.00800     H ( 1.00)

     12 Sym. Ops., with inversion, found



   Cartesian axes

     site n.     atom                  positions (alat units)
         1        C      tau(   1) = (   0.5000000   0.2886751   4.6684338  )
         2        C      tau(   2) = (   1.0000000   0.5773503   4.4643097  )
         3        C      tau(   3) = (   1.0000000   0.5773503   3.8519372  )
         4        C      tau(   4) = (   0.0000000   0.0000000   3.6478131  )
         5        C      tau(   5) = (   0.0000000   0.0000000   3.0354406  )
         6        C      tau(   6) = (   0.5000000   0.2886751   2.8313164  )
         7        C      tau(   7) = (   0.5000000   0.2886751   2.2189440  )
         8        C      tau(   8) = (   1.0000000   0.5773503   2.0148199  )
         9        H      tau(   9) = (   0.5000000   0.2886751   5.0998982  )
        10        H      tau(  10) = (   1.0000000   0.5773503   1.5833555  )

     number of k points=    14  Marzari-Vanderbilt smearing, width (Ry)=  0.0100
                       cart. coord. in units 2pi/alat
        k(    1) = (   0.0000000   0.0000000   0.0000000), wk =   0.0200000
        k(    2) = (   0.0000000   0.1154701   0.0000000), wk =   0.1200000
        k(    3) = (   0.0000000   0.2309401   0.0000000), wk =   0.1200000
        k(    4) = (   0.0000000   0.3464102   0.0000000), wk =   0.1200000
        k(    5) = (   0.0000000   0.4618802   0.0000000), wk =   0.1200000
        k(    6) = (   0.0000000  -0.5773503   0.0000000), wk =   0.0600000
        k(    7) = (   0.1000000   0.1732051   0.0000000), wk =   0.1200000
        k(    8) = (   0.1000000   0.2886751   0.0000000), wk =   0.2400000
        k(    9) = (   0.1000000   0.4041452   0.0000000), wk =   0.2400000
        k(   10) = (   0.1000000  -0.6350853   0.0000000), wk =   0.2400000
        k(   11) = (   0.2000000   0.3464102   0.0000000), wk =   0.1200000
        k(   12) = (   0.2000000  -0.6928203   0.0000000), wk =   0.2400000
        k(   13) = (   0.2000000  -0.5773503   0.0000000), wk =   0.1200000
        k(   14) = (   0.3000000  -0.6350853   0.0000000), wk =   0.1200000

     Dense  grid:   205803 G-vectors     FFT dimensions: (  45,  45, 288)

     Smooth grid:    72619 G-vectors     FFT dimensions: (  30,  30, 200)

     Estimated max dynamical RAM per process >      51.18 MB

     Estimated total dynamical RAM >     409.42 MB

     Initial potential from superposition of free atoms

     starting charge      33.9996, renormalised to      34.0000
     Starting wfcs are   34 randomized atomic wfcs
     Checking if some PAW data can be deallocated... 

     total cpu time spent up to now is        0.9 secs

     Self-consistent Calculation

     iteration #  1     ecut=    90.00 Ry     beta= 0.30
     Davidson diagonalization with overlap
     ethr =  1.00E-02,  avg # of iterations =  2.6

     total cpu time spent up to now is        1.6 secs

     total energy              =    -149.90200647 Ry
     estimated scf accuracy    <       0.71633975 Ry

     iteration #  2     ecut=    90.00 Ry     beta= 0.30
     Davidson diagonalization with overlap
     ethr =  2.11E-03,  avg # of iterations =  3.9

     negative rho (up, down):  1.377E-07 0.000E+00

     total cpu time spent up to now is        2.2 secs

     total energy              =    -149.83932962 Ry
     estimated scf accuracy    <       0.23652143 Ry

     iteration #  3     ecut=    90.00 Ry     beta= 0.30
     Davidson diagonalization with overlap
     ethr =  6.96E-04,  avg # of iterations =  4.4

     negative rho (up, down):  4.021E-08 0.000E+00

     total cpu time spent up to now is        2.8 secs

     total energy              =    -149.85072719 Ry
     estimated scf accuracy    <       0.02725987 Ry

     iteration #  4     ecut=    90.00 Ry     beta= 0.30
     Davidson diagonalization with overlap
     ethr =  8.02E-05,  avg # of iterations =  5.6

     negative rho (up, down):  1.570E-08 0.000E+00

     total cpu time spent up to now is        3.4 secs

     total energy              =    -149.85208845 Ry
     estimated scf accuracy    <       0.00364531 Ry

     iteration #  5     ecut=    90.00 Ry     beta= 0.30
     Davidson diagonalization with overlap
     ethr =  1.07E-05,  avg # of iterations =  5.0

     total cpu time spent up to now is        4.1 secs

     total energy              =    -149.85256991 Ry
     estimated scf accuracy    <       0.00027391 Ry

     iteration #  6     ecut=    90.00 Ry     beta= 0.30
     Davidson diagonalization with overlap
     ethr =  8.06E-07,  avg # of iterations =  3.7

     total cpu time spent up to now is        4.7 secs

     total energy              =    -149.85261113 Ry
     estimated scf accuracy    <       0.00007763 Ry

     iteration #  7     ecut=    90.00 Ry     beta= 0.30
     Davidson diagonalization with overlap
     ethr =  2.28E-07,  avg # of iterations =  2.1

     total cpu time spent up to now is        5.3 secs

     total energy              =    -149.85261741 Ry
     estimated scf accuracy    <       0.00002119 Ry

     iteration #  8     ecut=    90.00 Ry     beta= 0.30
     Davidson diagonalization with overlap
     ethr =  6.23E-08,  avg # of iterations =  2.1

     total cpu time spent up to now is        5.8 secs

     total energy              =    -149.85262171 Ry
     estimated scf accuracy    <       0.00000098 Ry

     iteration #  9     ecut=    90.00 Ry     beta= 0.30
     Davidson diagonalization with overlap
     ethr =  2.89E-09,  avg # of iterations =  2.6

     total cpu time spent up to now is        6.5 secs

     total energy              =    -149.85262182 Ry
     estimated scf accuracy    <       0.00000135 Ry

     iteration # 10     ecut=    90.00 Ry     beta= 0.30
     Davidson diagonalization with overlap
     ethr =  2.89E-09,  avg # of iterations =  2.0

     total cpu time spent up to now is        7.0 secs

     total energy              =    -149.85262188 Ry
     estimated scf accuracy    <       0.00000041 Ry

     iteration # 11     ecut=    90.00 Ry     beta= 0.30
     Davidson diagonalization with overlap
     ethr =  1.19E-09,  avg # of iterations =  2.0

     total cpu time spent up to now is        7.6 secs

     total energy              =    -149.85262191 Ry
     estimated scf accuracy    <       0.00000005 Ry

     iteration # 12     ecut=    90.00 Ry     beta= 0.30
     Davidson diagonalization with overlap
     ethr =  1.57E-10,  avg # of iterations =  2.4

     total cpu time spent up to now is        8.2 secs

     total energy              =    -149.85262190 Ry
     estimated scf accuracy    <       0.00000002 Ry

     iteration # 13     ecut=    90.00 Ry     beta= 0.30
     Davidson diagonalization with overlap
     ethr =  7.10E-11,  avg # of iterations =  3.1

     total cpu time spent up to now is        8.8 secs

     total energy              =    -149.85262191 Ry
     estimated scf accuracy    <          9.3E-09 Ry

     iteration # 14     ecut=    90.00 Ry     beta= 0.30
     Davidson diagonalization with overlap
     ethr =  2.72E-11,  avg # of iterations =  2.7

     total cpu time spent up to now is        9.4 secs

     total energy              =    -149.85262191 Ry
     estimated scf accuracy    <       0.00000001 Ry

     iteration # 15     ecut=    90.00 Ry     beta= 0.30
     Davidson diagonalization with overlap
     ethr =  2.72E-11,  avg # of iterations =  2.5

     total cpu time spent up to now is       10.0 secs

     total energy              =    -149.85262191 Ry
     estimated scf accuracy    <          4.9E-09 Ry

     iteration # 16     ecut=    90.00 Ry     beta= 0.30
     Davidson diagonalization with overlap
     ethr =  1.43E-11,  avg # of iterations =  2.1

     total cpu time spent up to now is       10.5 secs

     End of self-consistent calculation

          k = 0.0000 0.0000 0.0000 (  9007 PWs)   bands (ev):

   -15.9087 -14.9227 -13.4285 -11.6347  -7.4662  -5.1538  -2.1534   0.9529
     2.6046   2.6046   3.2569   3.2569   3.6861   4.1266   4.1266   4.8744
     4.8744   7.4319   7.8747  10.2325  11.2612

          k = 0.0000 0.1155 0.0000 (  9091 PWs)   bands (ev):

   -15.6643 -14.6809 -13.1919 -11.4079  -7.2476  -4.9611  -2.0086   0.9880
     1.4284   2.0796   2.1413   2.7915   3.0070   3.5709   3.7256   3.9225
     4.5195   7.6487   8.1213  10.2838  11.2734

          k = 0.0000 0.2309 0.0000 (  9065 PWs)   bands (ev):

   -14.9353 -13.9600 -12.4877 -10.7339  -6.6259  -4.4290  -1.7213  -1.0665
    -0.4173   0.6641   1.0322   1.1885   1.6317   1.8078   2.8208   3.2865
     3.6814   8.3326   8.7864  10.4129  11.0291

          k = 0.0000 0.3464 0.0000 (  9068 PWs)   bands (ev):

   -13.7362 -12.7776 -11.3388  -9.6430  -5.8608  -4.2698  -3.5736  -3.0523
    -1.8320  -1.3893  -0.4950   0.0584   0.8649   1.0202   1.9188   2.6122
     2.8169   9.4991   9.5205  10.4269  11.1824

          k = 0.0000 0.4619 0.0000 (  9102 PWs)   bands (ev):

   -12.1100 -11.1947  -9.8586  -8.3785  -6.7790  -6.4027  -5.1468  -3.8270
    -3.2949  -1.9151  -0.8637  -0.5882   0.2319   0.4839   1.3040   2.0006
     2.2191   9.7768  10.7499  10.9185  11.3774

          k = 0.0000-0.5774 0.0000 (  9104 PWs)   bands (ev):

   -10.4513 -10.1358  -9.4139  -8.4518  -7.4488  -7.1674  -5.9644  -5.6979
    -2.3504  -1.7624  -1.4185  -0.8120   0.0119   0.2207   1.0892   1.7671
     2.0092  10.1586  10.3842  11.0154  11.7967

          k = 0.1000 0.1732 0.0000 (  9079 PWs)   bands (ev):

   -15.1776 -14.1995 -12.7214 -10.9573  -6.8257  -4.5960  -1.7618  -0.0237
     0.2553   0.9908   1.0809   1.5539   1.9556   2.3928   2.9507   3.2233
     3.8787   8.1196   8.5874  10.6709  11.3299

          k = 0.1000 0.2887 0.0000 (  9056 PWs)   bands (ev):

   -14.2131 -13.2471 -11.7933 -10.0718  -6.0845  -4.0228  -2.5752  -1.8093
    -1.4432  -0.7998  -0.2674   0.2420   0.9343   1.2429   1.4713   2.2779
     3.2775   9.0861   9.4067  11.0346  11.5872

          k = 0.1000 0.4041 0.0000 (  9070 PWs)   bands (ev):

   -12.7960 -11.8554 -10.4539  -8.8214  -5.9384  -5.2348  -4.0050  -3.6586
    -2.5101  -2.1343  -0.9809  -0.5913  -0.4312   0.4972   1.0304   1.5447
     2.4677  10.1520  10.4669  11.1849  12.1106

          k = 0.1000-0.6351 0.0000 (  9098 PWs)   bands (ev):

   -11.0183 -10.2015  -9.1981  -8.1656  -7.2600  -6.7167  -6.0541  -4.7439
    -2.7205  -1.7238  -1.4733  -1.2627  -0.7667   0.1591   0.4651   1.3306
     1.7867  10.4689  11.3770  11.8437  12.1534

          k = 0.2000 0.3464 0.0000 (  9033 PWs)   bands (ev):

   -13.0284 -12.0816 -10.6659  -9.0062  -5.6207  -4.2262  -3.6364  -2.8713
    -2.7952  -2.1541  -1.0937  -0.8679  -0.5899   0.1829   0.2638   1.1502
     2.6191  10.2791  10.3587  11.8388  12.3662

          k = 0.2000-0.6928 0.0000 (  9089 PWs)   bands (ev):

   -11.4301 -10.5325  -9.2299  -7.7737  -6.5471  -6.0096  -4.9819  -4.0826
    -3.0351  -2.6638  -2.1138  -1.8118  -1.1343  -0.6828  -0.0165   0.6390
     1.6927  10.9562  11.5839  12.2062  12.7352

          k = 0.2000-0.5774 0.0000 (  9114 PWs)   bands (ev):

    -9.8102  -9.5126  -8.8282  -7.8529  -6.9808  -6.8050  -5.5578  -5.5003
    -3.2974  -2.8678  -2.3732  -1.5445  -1.0150  -0.9151  -0.4451   0.6545
     1.0828  10.9905  11.9630  12.8955  12.9364

          k = 0.3000-0.6351 0.0000 (  9105 PWs)   bands (ev):

    -9.7556  -9.0396  -8.3098  -7.3357  -7.2330  -6.0940  -6.0161  -5.2697
    -3.8762  -3.4859  -2.9584  -2.5275  -1.3842  -0.4166  -0.0849  -0.0569
     0.6733  11.5363  11.6859  12.5815  12.8866

     the Fermi energy is     6.4054 ev

!    total energy              =    -149.85262191 Ry
     estimated scf accuracy    <          1.5E-10 Ry
     smearing contrib. (-TS)   =      -0.00000000 Ry
     internal energy E=F+TS    =    -149.85262191 Ry

     The total energy is F=E-TS. E is the sum of the following terms:
     one-electron contribution =    -880.53036260 Ry
     hartree contribution      =     456.17215395 Ry
     xc contribution           =     -38.87590868 Ry
     ewald contribution        =     362.68547233 Ry
     one-center paw contrib.   =     -49.30397691 Ry

     convergence has been achieved in  16 iterations

     Forces acting on atoms (cartesian axes, Ry/au):

     atom    1 type  1   force =     0.00000000    0.00000000   -0.05256884
     atom    2 type  1   force =     0.00000000    0.00000000    0.03238110
     atom    3 type  1   force =     0.00000000    0.00000000    0.00011844
     atom    4 type  1   force =     0.00000000    0.00000000    0.00081701
     atom    5 type  1   force =     0.00000000    0.00000000   -0.00081701
     atom    6 type  1   force =     0.00000000    0.00000000   -0.00011844
     atom    7 type  1   force =     0.00000000    0.00000000   -0.03238110
     atom    8 type  1   force =     0.00000000    0.00000000    0.05256884
     atom    9 type  2   force =     0.00000000    0.00000000    0.01926637
     atom   10 type  2   force =     0.00000000    0.00000000   -0.01926637

     Total force =     0.091476     Total SCF correction =     0.000032


     Computing stress (Cartesian axis) and pressure

          total   stress  (Ry/bohr**3)                   (kbar)     P=        2.95
   0.00002463   0.00000000   0.00000000            3.62        0.00        0.00
   0.00000000   0.00002463   0.00000000            0.00        3.62        0.00
   0.00000000   0.00000000   0.00001096            0.00        0.00        1.61


     BFGS Geometry Optimization
     Energy error            =      0.0E+00 Ry
     Gradient error          =      5.3E-02 Ry/Bohr
     Cell gradient error     =      3.6E+00 kbar

     number of scf cycles    =   1
     number of bfgs steps    =   0

     enthalpy           new  =    -149.8526219070 Ry

     new trust radius        =       0.0525688379 bohr
     new conv_thr            =       0.0000000010 Ry

     new unit-cell volume =    630.51355 a.u.^3 (    93.43247 Ang^3 )
     density =      1.74356 g/cm^3

CELL_PARAMETERS (angstrom)
   2.527835726  -0.000000000   0.000000000
   1.263917863   2.189169952   0.000000000
   0.000000000   0.000000000  16.883772750

ATOMIC_POSITIONS (crystal)
C                0.3333333300        0.3333333300        0.6968794688
C                0.6666666700        0.6666666700        0.6689993699
C                0.6666666700        0.6666666700        0.5763602922
C                0.0000000000        0.0000000000        0.5458395569
C                0.0000000000        0.0000000000        0.4541604431
C                0.3333333300        0.3333333300        0.4236397078
C                0.3333333300        0.3333333300        0.3310006301
C                0.6666666700        0.6666666700        0.3031205312
H                0.3333333300        0.3333333300        0.7636899834
H                0.6666666700        0.6666666700        0.2363100166



     Writing config-only to output data dir /tmp/qe/slab.save/ :
     XML data file
     NEW-OLD atomic charge density approx. for the potential

     total cpu time spent up to now is       11.7 secs

     Self-consistent Calculation

     iteration #  1     ecut=    90.00 Ry     beta= 0.30
     Davidson diagonalization with overlap
     ethr =  1.00E-06,  avg # of iterations =  9.3

     total cpu time spent up to now is       12.8 secs

     total energy              =    -149.85374276 Ry
     estimated scf accuracy    <       0.00123317 Ry

     iteration #  2     ecut=    90.00 Ry     beta= 0.30
     Davidson diagonalization with overlap
     ethr =  3.63E-06,  avg # of iterations =  1.9

     total cpu time spent up to now is       13.3 secs

     total energy              =    -149.85368901 Ry
     estimated scf accuracy    <       0.00035539 Ry

     iteration #  3     ecut=    90.00 Ry     beta= 0.30
     Davidson diagonalization with overlap
     ethr =  1.05E-06,  avg # of iterations =  3.6

     total cpu time spent up to now is       13.9 secs

     total energy              =    -149.85372075 Ry
     estimated scf accuracy    <       0.00004281 Ry

     iteration #  4     ecut=    90.00 Ry     beta= 0.30
     Davidson diagonalization with overlap
     ethr =  1.26E-07,  avg # of iterations =  1.5

     total cpu time spent up to now is       14.4 secs

     total energy              =    -149.85372332 Ry
     estimated scf accuracy    <       0.00000721 Ry

     iteration #  5     ecut=    90.00 Ry     beta= 0.30
     Davidson diagonalization with overlap
     ethr =  2.12E-08,  avg # of iterations =  2.1

     total cpu time spent up to now is       15.0 secs

     total energy              =    -149.85372461 Ry
     estimated scf accuracy    <       0.00000069 Ry

     iteration #  6     ecut=    90.00 Ry     beta= 0.30
     Davidson diagonalization with overlap
     ethr =  2.04E-09,  avg # of iterations =  2.6

     total cpu time spent up to now is       15.6 secs

     total energy              =    -149.85372475 Ry
     estimated scf accuracy    <       0.00000025 Ry

     iteration #  7     ecut=    90.00 Ry     beta= 0.30
     Davidson diagonalization with overlap
     ethr =  7.38E-10,  avg # of iterations =  2.0

     total cpu time spent up to now is       16.1 secs

     total energy              =    -149.85372478 Ry
     estimated scf accuracy    <       0.00000008 Ry

     iteration #  8     ecut=    90.00 Ry     beta= 0.30
     Davidson diagonalization with overlap
     ethr =  2.45E-10,  avg # of iterations =  1.4

     total cpu time spent up to now is       16.6 secs

     total energy              =    -149.85372478 Ry
     estimated scf accuracy    <       0.00000002 Ry

     iteration #  9     ecut=    90.00 Ry     beta= 0.30
     Davidson diagonalization with overlap
     ethr =  5.98E-11,  avg # of iterations =  3.6

     total cpu time spent up to now is       17.3 secs

     total energy              =    -149.85372478 Ry
     estimated scf accuracy    <       0.00000002 Ry

     iteration # 10     ecut=    90.00 Ry     beta= 0.30
     Davidson diagonalization with overlap
     ethr =  5.25E-11,  avg # of iterations =  2.0

     total cpu time spent up to now is       17.8 secs

     total energy              =    -149.85372478 Ry
     estimated scf accuracy    <          1.7E-09 Ry

     iteration # 11     ecut=    90.00 Ry     beta= 0.30
     Davidson diagonalization with overlap
     ethr =  5.12E-12,  avg # of iterations =  4.4

     total cpu time spent up to now is       18.5 secs

     total energy              =    -149.85372478 Ry
     estimated scf accuracy    <          5.6E-09 Ry

     iteration # 12     ecut=    90.00 Ry     beta= 0.30
     Davidson diagonalization with overlap
     ethr =  5.12E-12,  avg # of iterations =  3.4

     total cpu time spent up to now is       19.2 secs

     End of self-consistent calculation

          k = 0.0000 0.0000 0.0000 (  9007 PWs)   bands (ev):

   -15.9990 -15.0851 -13.6016 -11.7145  -7.4287  -5.1035  -2.0652   1.1463
     2.4720   2.4720   2.9800   2.9800   3.7280   3.7751   3.7751   4.6643
     4.6643   7.5146   7.8538  10.1741  11.2209

          k = 0.0000 0.1154 0.0000 (  9091 PWs)   bands (ev):

   -15.7550 -14.8440 -13.3661 -11.4884  -7.2080  -4.9068  -1.9181   1.1642
     1.3088   1.8812   1.9441   2.5102   2.7008   3.3778   3.5278   3.7926
     4.3155   7.7123   8.0993  10.2056  11.2237

          k = 0.0000 0.2308 0.0000 (  9065 PWs)   bands (ev):

   -15.0269 -14.1251 -12.6651 -10.8163  -6.5800  -4.3629  -1.6613  -1.1598
    -0.6498   0.3748   0.8940   1.3684   1.4574   1.5215   2.4767   3.3385
     3.4840   8.3417   8.7459  10.3161  10.9960

          k = 0.0000 0.3462 0.0000 (  9068 PWs)   bands (ev):

   -13.8292 -12.9452 -11.5210  -9.7278  -5.8215  -4.3493  -3.5460  -3.2772
    -2.0774  -1.3822  -0.5672  -0.0810   0.5758   1.2105   1.5761   2.6228
     2.6782   9.4017   9.4775  10.3651  11.0391

          k = 0.0000 0.4616 0.0000 (  9102 PWs)   bands (ev):

   -12.2038 -11.3625 -10.0428  -8.4683  -6.8696  -6.5614  -5.3576  -3.8555
    -3.3794  -1.8809  -0.8082  -0.7281  -0.0587   0.6594   0.9616   2.0265
     2.0665   9.6856  10.6150  10.8256  11.2296

          k =-0.0000-0.5770 0.0000 (  9104 PWs)   bands (ev):

   -10.5306 -10.2613  -9.5964  -8.6198  -7.5914  -7.3743  -6.0615  -5.8473
    -2.2777  -1.7804  -1.3112  -0.9521  -0.2792   0.3849   0.7469   1.8171
     1.8253  10.0145  10.3351  10.7955  11.7225

          k = 0.0999 0.1731 0.0000 (  9079 PWs)   bands (ev):

   -15.2689 -14.3639 -12.8978 -11.0391  -6.7819  -4.5334  -1.6687  -0.1411
     0.0833   0.7048   1.1026   1.4768   1.7337   2.0624   2.8932   2.9511
     3.8170   8.1512   8.5557  10.5836  11.2630

          k = 0.0999 0.2885 0.0000 (  9056 PWs)   bands (ev):

   -14.3055 -13.4138 -11.9737 -10.1557  -6.0345  -3.9598  -2.6619  -2.0351
    -1.5191  -0.8982  -0.4625   0.0504   0.7713   1.0645   1.5033   2.0868
     3.2728   9.0653   9.3454  10.9518  11.5558

          k = 0.0999 0.4039 0.0000 (  9070 PWs)   bands (ev):

   -12.8897 -12.0241 -10.6389  -8.9075  -5.9771  -5.3633  -4.1865  -3.6753
    -2.6793  -2.1567  -1.1231  -0.6660  -0.5365   0.2557   1.1067   1.3878
     2.4750  10.0870  10.3827  11.1086  11.9294

          k = 0.0999-0.6347 0.0000 (  9098 PWs)   bands (ev):

   -11.1109 -10.3597  -9.3648  -8.2959  -7.4375  -6.7752  -6.2994  -4.8518
    -2.7040  -1.7836  -1.4619  -1.3586  -0.9120   0.0151   0.4064   1.2252
     1.8009  10.4299  11.2780  11.7499  11.9480

          k = 0.1999 0.3462 0.0000 (  9033 PWs)   bands (ev):

   -13.1220 -12.2503 -10.8506  -9.0921  -5.6041  -4.3270  -3.6887  -3.1320
    -2.7777  -2.3642  -1.2959  -1.0258  -0.6483   0.0528   0.0717   1.2905
     2.6317  10.2299  10.2640  11.7812  12.3358

          k = 0.1999-0.6924 0.0000 (  9089 PWs)   bands (ev):

   -11.5242 -10.7002  -9.4151  -7.8648  -6.6237  -6.1737  -5.1890  -4.2031
    -3.0861  -2.7998  -2.2492  -1.9892  -1.2335  -0.7365  -0.0708   0.7679
     1.7079  10.9202  11.4889  12.2345  12.6316

          k = 0.1999-0.5770 0.0000 (  9114 PWs)   bands (ev):

    -9.8905  -9.6360  -9.0029  -8.0276  -7.1574  -6.9515  -5.7046  -5.6327
    -3.3860  -3.0725  -2.5723  -1.4619  -1.0853  -1.0574  -0.4048   0.7293
     1.0865  10.9871  12.0359  12.7476  12.9179

          k = 0.2998-0.6347 0.0000 (  9105 PWs)   bands (ev):

    -9.8474  -9.1881  -8.4412  -7.4953  -7.3902  -6.2076  -6.2021  -5.4525
    -3.9682  -3.7892  -2.9931  -2.7837  -1.3586  -0.3127  -0.0611  -0.0269
     0.7046  11.6310  11.6925  12.4427  12.9980

     the Fermi energy is     6.4291 ev

!    total energy              =    -149.85372478 Ry
     estimated scf accuracy    <          1.1E-10 Ry
     smearing contrib. (-TS)   =      -0.00000000 Ry
     internal energy E=F+TS    =    -149.85372478 Ry

     The total energy is F=E-TS. E is the sum of the following terms:
     one-electron contribution =    -881.57947927 Ry
     hartree contribution      =     456.55175212 Ry
     xc contribution           =     -38.85089318 Ry
     ewald contribution        =     363.32855982 Ry
     one-center paw contrib.   =     -49.30366427 Ry

     convergence has been achieved in  12 iterations

     Forces acting on atoms (cartesian axes, Ry/au):

     atom    1 type  1   force =     0.00000000    0.00000000    0.03567335
     atom    2 type  1   force =     0.00000000    0.00000000   -0.02236607
     atom    3 type  1   force =     0.00000000    0.00000000    0.00157361
     atom    4 type  1   force =     0.00000000    0.00000000    0.00296797
     atom    5 type  1   force =     0.00000000    0.00000000   -0.00296797
     atom    6 type  1   force =     0.00000000    0.00000000   -0.00157361
     atom    7 type  1   force =     0.00000000    0.00000000    0.02236607
     atom    8 type  1   force =     0.00000000    0.00000000   -0.03567335
     atom    9 type  2   force =     0.00000000    0.00000000   -0.01787654
     atom   10 type  2   force =     0.00000000    0.00000000    0.01787654

     Total force =     0.064864     Total SCF correction =     0.000041


     Computing stress (Cartesian axis) and pressure

          total   stress  (Ry/bohr**3)                   (kbar)     P=       -3.91
   0.00002232   0.00000000   0.00000000            3.28        0.00        0.00
   0.00000000   0.00002232   0.00000000            0.00        3.28        0.00
   0.00000000   0.00000000  -0.00012443            0.00        0.00      -18.30

     Energy error            =      1.1E-03 Ry
     Gradient error          =      3.6E-02 Ry/Bohr
     Cell gradient error     =      3.3E+00 kbar

     number of scf cycles    =   2
     number of bfgs steps    =   1

     enthalpy           old  =    -149.8526219070 Ry
     enthalpy           new  =    -149.8537247782 Ry

     CASE: enthalpy          _new < enthalpy          _old

     new trust radius        =       0.0207294461 bohr
     new conv_thr            =       0.0000000010 Ry

     new unit-cell volume =    630.93162 a.u.^3 (    93.49442 Ang^3 )
     density =      1.74241 g/cm^3

CELL_PARAMETERS (angstrom)
   2.528673648  -0.000000000   0.000000000
   1.264336824   2.189895614   0.000000000
   0.000000000   0.000000000  16.883772750

ATOMIC_POSITIONS (crystal)
C                0.3333333300        0.3333333300        0.6975291785
C                0.6666666700        0.6666666700        0.6685919317
C                0.6666666700        0.6666666700        0.5763893341
C                0.0000000000        0.0000000000        0.5458944254
C                0.0000000000        0.0000000000        0.4541055746
C                0.3333333300        0.3333333300        0.4236106659
C                0.3333333300        0.3333333300        0.3314080683
C                0.6666666700        0.6666666700        0.3024708215
H                0.3333333300        0.3333333300        0.7633632934
H                0.6666666700        0.6666666700        0.2366367066



     Writing config-only to output data dir /tmp/qe/slab.save/ :
     XML data file
     NEW-OLD atomic charge density approx. for the potential

     total cpu time spent up to now is       20.4 secs

     Self-consistent Calculation

     iteration #  1     ecut=    90.00 Ry     beta= 0.30
     Davidson diagonalization with overlap
     ethr =  1.00E-06,  avg # of iterations =  6.9

     total cpu time spent up to now is       21.3 secs

     total energy              =    -149.85502172 Ry
     estimated scf accuracy    <       0.00022969 Ry

     iteration #  2     ecut=    90.00 Ry     beta= 0.30
     Davidson diagonalization with overlap
     ethr =  6.76E-07,  avg # of iterations =  1.7

     total cpu time spent up to now is       21.8 secs

     total energy              =    -149.85501059 Ry
     estimated scf accuracy    <       0.00006857 Ry

     iteration #  3     ecut=    90.00 Ry     beta= 0.30
     Davidson diagonalization with overlap
     ethr =  2.02E-07,  avg # of iterations =  2.3

     total cpu time spent up to now is       22.3 secs

     total energy              =    -149.85501780 Ry
     estimated scf accuracy    <       0.00000865 Ry

     iteration #  4     ecut=    90.00 Ry     beta= 0.30
     Davidson diagonalization with overlap
     ethr =  2.55E-08,  avg # of iterations =  2.0

     total cpu time spent up to now is       22.9 secs

     total energy              =    -149.85501837 Ry
     estimated scf accuracy    <       0.00000214 Ry

     iteration #  5     ecut=    90.00 Ry     beta= 0.30
     Davidson diagonalization with overlap
     ethr =  6.28E-09,  avg # of iterations =  2.3

     total cpu time spent up to now is       23.4 secs

     total energy              =    -149.85501865 Ry
     estimated scf accuracy    <       0.00000029 Ry

     iteration #  6     ecut=    90.00 Ry     beta= 0.30
     Davidson diagonalization with overlap
     ethr =  8.50E-10,  avg # of iterations =  2.4

     total cpu time spent up to now is       24.0 secs

     total energy              =    -149.85501871 Ry
     estimated scf accuracy    <       0.00000008 Ry

     iteration #  7     ecut=    90.00 Ry     beta= 0.30
     Davidson diagonalization with overlap
     ethr =  2.42E-10,  avg # of iterations =  2.9

     total cpu time spent up to now is       24.6 secs

     total energy              =    -149.85501872 Ry
     estimated scf accuracy    <       0.00000005 Ry

     iteration #  8     ecut=    90.00 Ry     beta= 0.30
     Davidson diagonalization with overlap
     ethr =  1.47E-10,  avg # of iterations =  2.1

     total cpu time spent up to now is       25.1 secs

     total energy              =    -149.85501873 Ry
     estimated scf accuracy    <          4.8E-09 Ry

     iteration #  9     ecut=    90.00 Ry     beta= 0.30
     Davidson diagonalization with overlap
     ethr =  1.41E-11,  avg # of iterations =  3.7

     total cpu time spent up to now is       25.8 secs

     total energy              =    -149.85501873 Ry
     estimated scf accuracy    <          1.1E-09 Ry

     iteration # 10     ecut=    90.00 Ry     beta= 0.30
     Davidson diagonalization with overlap
     ethr =  3.10E-12,  avg # of iterations =  1.9

     total cpu time spent up to now is       26.3 secs

     End of self-consistent calculation

          k = 0.0000 0.0000 0.0000 (  9007 PWs)   bands (ev):

   -15.9544 -15.0187 -13.5255 -11.6797  -7.4410  -5.1255  -2.0951   1.0664
     2.5171   2.5171   3.0797   3.0797   3.7145   3.9015   3.9015   4.7299
     4.7299   7.4713   7.8582  10.1926  11.2230

          k = 0.0000 0.1154 0.0000 (  9091 PWs)   bands (ev):

   -15.7106 -14.7776 -13.2899 -11.4536  -7.2215  -4.9310  -1.9494   1.0941
     1.3460   1.9738   1.9910   2.6120   2.8146   3.5039   3.5461   3.8246
     4.3799   7.6770   8.1035  10.2306  11.2304

          k = 0.0000 0.2307 0.0000 (  9065 PWs)   bands (ev):

   -14.9830 -14.0587 -12.5885 -10.7816  -6.5975  -4.3938  -1.6810  -1.1282
    -0.5655   0.4819   0.9433   1.2912   1.5134   1.6263   2.6032   3.3148
     3.5479   8.3302   8.7565  10.3437  10.9955

          k = 0.0000 0.3461 0.0000 (  9068 PWs)   bands (ev):

   -13.7862 -12.8793 -11.4440  -9.6938  -5.8397  -4.3223  -3.5606  -3.1927
    -1.9825  -1.3891  -0.5434  -0.0298   0.6830   1.1250   1.7036   2.6469
     2.6870   9.4374   9.4845  10.3788  11.0782

          k = 0.0000 0.4614 0.0000 (  9102 PWs)   bands (ev):

   -12.1626 -11.2987  -9.9676  -8.4353  -6.8316  -6.5037  -5.2758  -3.8464
    -3.3507  -1.9004  -0.8320  -0.6758   0.0499   0.5784   1.0900   2.0351
     2.0911   9.7122  10.6619  10.8506  11.2780

          k =-0.0000-0.5768 0.0000 (  9104 PWs)   bands (ev):

   -10.4975 -10.2149  -9.5270  -8.5569  -7.5299  -7.2909  -6.0276  -5.7900
    -2.3137  -1.7676  -1.3651  -0.8994  -0.1701   0.3084   0.8755   1.7981
     1.8819  10.0557  10.3554  10.8640  11.7679

          k = 0.0999 0.1730 0.0000 (  9079 PWs)   bands (ev):

   -15.2248 -14.2976 -12.8213 -11.0044  -6.7980  -4.5622  -1.7022  -0.1000
     0.1470   0.8087   1.1041   1.4838   1.8088   2.1873   2.9083   3.0457
     3.8315   8.1297   8.5630  10.6121  11.2747

          k = 0.0999 0.2884 0.0000 (  9056 PWs)   bands (ev):

   -14.2622 -13.3477 -11.8968 -10.1213  -6.0555  -3.9919  -2.6293  -1.9511
    -1.4820  -0.8716  -0.3945   0.1221   0.8473   1.1322   1.4614   2.1504
     3.2669   9.0667   9.3639  10.9732  11.5567

          k = 0.0999 0.4038 0.0000 (  9070 PWs)   bands (ev):

   -12.8477 -11.9590 -10.5621  -8.8744  -5.9644  -5.3172  -4.1152  -3.6727
    -2.6184  -2.1541  -1.0685  -0.5986  -0.5361   0.3471   1.0663   1.4353
     2.4637  10.1069  10.4111  11.1309  11.9836

          k = 0.0999-0.6345 0.0000 (  9098 PWs)   bands (ev):

   -11.0718 -10.3013  -9.2989  -8.2471  -7.3677  -6.7529  -6.2024  -4.8133
    -2.7135  -1.7537  -1.4796  -1.3170  -0.8618   0.0769   0.4074   1.2546
     1.7880  10.4433  11.3117  11.7765  12.0174

          k = 0.1998 0.3461 0.0000 (  9033 PWs)   bands (ev):

   -13.0797 -12.1848 -10.7735  -9.0586  -5.6153  -4.2944  -3.6686  -3.0333
    -2.7892  -2.2891  -1.2168  -0.9321  -0.6644   0.1128   0.1317   1.2217
     2.6196  10.2430  10.2973  11.8019  12.3350

          k = 0.1998-0.6922 0.0000 (  9089 PWs)   bands (ev):

   -11.4838 -10.6373  -9.3403  -7.8324  -6.5961  -6.1127  -5.1096  -4.1600
    -3.0643  -2.7454  -2.1998  -1.9202  -1.2048  -0.7192  -0.0557   0.7060
     1.6948  10.9328  11.5270  12.2184  12.6699

          k = 0.1998-0.5768 0.0000 (  9114 PWs)   bands (ev):

    -9.8575  -9.5914  -8.9371  -7.9632  -7.0896  -6.8895  -5.6503  -5.5853
    -3.3479  -2.9916  -2.4957  -1.5045  -1.0388  -1.0248  -0.4314   0.6890
     1.0803  10.9898  12.0065  12.8312  12.9005

          k = 0.2997-0.6345 0.0000 (  9105 PWs)   bands (ev):

    -9.8103  -9.1356  -8.3891  -7.4383  -7.3344  -6.1661  -6.1276  -5.3823
    -3.9290  -3.6668  -2.9840  -2.6861  -1.3736  -0.3611  -0.0618  -0.0578
     0.6833  11.6202  11.6586  12.5033  12.9470

     the Fermi energy is     6.4019 ev

!    total energy              =    -149.85501873 Ry
     estimated scf accuracy    <          1.6E-10 Ry
     smearing contrib. (-TS)   =      -0.00000000 Ry
     internal energy E=F+TS    =    -149.85501873 Ry

     The total energy is F=E-TS. E is the sum of the following terms:
     one-electron contribution =    -880.21069218 Ry
     hartree contribution      =     455.91641141 Ry
     xc contribution           =     -38.85501550 Ry
     ewald contribution        =     362.59785006 Ry
     one-center paw contrib.   =     -49.30357251 Ry

     convergence has been achieved in  10 iterations

     Forces acting on atoms (cartesian axes, Ry/au):

     atom    1 type  1   force =     0.00000000    0.00000000    0.00074495
     atom    2 type  1   force =     0.00000000    0.00000000   -0.00062772
     atom    3 type  1   force =     0.00000000    0.00000000    0.00095664
     atom    4 type  1   force =     0.00000000    0.00000000   -0.00000930
     atom    5 type  1   force =     0.00000000    0.00000000    0.00000930
     atom    6 type  1   force =     0.00000000    0.00000000   -0.00095664
     atom    7 type  1   force =     0.00000000    0.00000000    0.00062772
     atom    8 type  1   force =     0.00000000    0.00000000   -0.00074495
     atom    9 type  2   force =     0.00000000    0.00000000   -0.00288078
     atom   10 type  2   force =     0.00000000    0.00000000    0.00288078

     Total force =     0.004508     Total SCF correction =     0.000046


     Computing stress (Cartesian axis) and pressure

          total   stress  (Ry/bohr**3)                   (kbar)     P=       -3.41
  -0.00000144  -0.00000000   0.00000000           -0.21       -0.00        0.00
  -0.00000000  -0.00000144   0.00000000           -0.00       -0.21        0.00
   0.00000000   0.00000000  -0.00006664            0.00        0.00       -9.80

     Energy error            =      1.3E-03 Ry
     Gradient error          =      2.9E-03 Ry/Bohr
     Cell gradient error     =      2.1E-01 kbar

     number of scf cycles    =   3
     number of bfgs steps    =   2

     enthalpy           old  =    -149.8537247782 Ry
     enthalpy           new  =    -149.8550187251 Ry

     CASE: enthalpy          _new < enthalpy          _old

     new trust radius        =       0.0027354619 bohr
     new conv_thr            =       0.0000000003 Ry

     new unit-cell volume =    630.87574 a.u.^3 (    93.48614 Ang^3 )
     density =      1.74256 g/cm^3

CELL_PARAMETERS (angstrom)
   2.528561657  -0.000000000   0.000000000
   1.264280829   2.189798627   0.000000000
   0.000000000   0.000000000  16.883772750

ATOMIC_POSITIONS (crystal)
C                0.3333333300        0.3333333300        0.6975354455
C                0.6666666700        0.6666666700        0.6685827038
C                0.6666666700        0.6666666700        0.5764200305
C                0.0000000000        0.0000000000        0.5458928855
C                0.0000000000        0.0000000000        0.4541071145
C                0.3333333300        0.3333333300        0.4235799695
C                0.3333333300        0.3333333300        0.3314172962
C                0.6666666700        0.6666666700        0.3024645545
H                0.3333333300        0.3333333300        0.7632775576
H                0.6666666700        0.6666666700        0.2367224424



     Writing config-only to output data dir /tmp/qe/slab.save/ :
     XML data file
     NEW-OLD atomic charge density approx. for the potential

     total cpu time spent up to now is       27.5 secs

     Self-consistent Calculation

     iteration #  1     ecut=    90.00 Ry     beta= 0.30
     Davidson diagonalization with overlap
     ethr =  1.00E-06,  avg # of iterations =  2.0

     Threshold (ethr) on eigenvalues was too large:
     Diagonalizing with lowered threshold

     Davidson diagonalization with overlap
     ethr =  7.62E-09,  avg # of iterations =  2.2

     total cpu time spent up to now is       28.5 secs

     total energy              =    -149.85503097 Ry
     estimated scf accuracy    <       0.00000293 Ry

     iteration #  2     ecut=    90.00 Ry     beta= 0.30
     Davidson diagonalization with overlap
     ethr =  8.63E-09,  avg # of iterations =  1.5

     total cpu time spent up to now is       29.0 secs

     total energy              =    -149.85503093 Ry
     estimated scf accuracy    <       0.00000070 Ry

     iteration #  3     ecut=    90.00 Ry     beta= 0.30
     Davidson diagonalization with overlap
     ethr =  2.06E-09,  avg # of iterations =  2.0

     total cpu time spent up to now is       29.6 secs

     total energy              =    -149.85503099 Ry
     estimated scf accuracy    <       0.00000013 Ry

     iteration #  4     ecut=    90.00 Ry     beta= 0.30
     Davidson diagonalization with overlap
     ethr =  3.85E-10,  avg # of iterations =  1.1

     total cpu time spent up to now is       30.1 secs

     total energy              =    -149.85503099 Ry
     estimated scf accuracy    <       0.00000004 Ry

     iteration #  5     ecut=    90.00 Ry     beta= 0.30
     Davidson diagonalization with overlap
     ethr =  1.19E-10,  avg # of iterations =  2.0

     total cpu time spent up to now is       30.6 secs

     total energy              =    -149.85503099 Ry
     estimated scf accuracy    <          4.5E-09 Ry

     iteration #  6     ecut=    90.00 Ry     beta= 0.30
     Davidson diagonalization with overlap
     ethr =  1.34E-11,  avg # of iterations =  2.1

     total cpu time spent up to now is       31.2 secs

     total energy              =    -149.85503099 Ry
     estimated scf accuracy    <          6.1E-10 Ry

     iteration #  7     ecut=    90.00 Ry     beta= 0.30
     Davidson diagonalization with overlap
     ethr =  1.78E-12,  avg # of iterations =  2.3

     total cpu time spent up to now is       31.7 secs

     End of self-consistent calculation

          k = 0.0000 0.0000 0.0000 (  9007 PWs)   bands (ev):

   -15.9507 -15.0180 -13.5235 -11.6776  -7.4433  -5.1295  -2.0956   1.0661
     2.5233   2.5233   3.0837   3.0837   3.7144   3.9073   3.9073   4.7376
     4.7376   7.4700   7.8604  10.1950  11.2253

          k = 0.0000 0.1154 0.0000 (  9091 PWs)   bands (ev):

   -15.7068 -14.7769 -13.2878 -11.4514  -7.2239  -4.9350  -1.9502   1.0937
     1.3518   1.9776   1.9972   2.6160   2.8198   3.5096   3.5481   3.8298
     4.3875   7.6763   8.1056  10.2336  11.2336

          k = 0.0000 0.2307 0.0000 (  9065 PWs)   bands (ev):

   -14.9791 -14.0580 -12.5864 -10.7794  -6.6000  -4.3982  -1.6808  -1.1239
    -0.5623   0.4867   0.9495   1.2900   1.5198   1.6301   2.6089   3.3143
     3.5554   8.3312   8.7589  10.3482  10.9974

          k = 0.0000 0.3461 0.0000 (  9068 PWs)   bands (ev):

   -13.7822 -12.8785 -11.4418  -9.6914  -5.8418  -4.3211  -3.5608  -3.1902
    -1.9790  -1.3881  -0.5401  -0.0237   0.6867   1.1224   1.7093   2.6460
     2.6944   9.4419   9.4869  10.3832  11.0823

          k = 0.0000 0.4615 0.0000 (  9102 PWs)   bands (ev):

   -12.1585 -11.2977  -9.9652  -8.4329  -6.8271  -6.5026  -5.2735  -3.8451
    -3.3495  -1.9027  -0.8334  -0.6697   0.0535   0.5752   1.0956   2.0340
     2.0984   9.7174  10.6667  10.8557  11.2832

          k =-0.0000-0.5768 0.0000 (  9104 PWs)   bands (ev):

   -10.4928 -10.2127  -9.5255  -8.5557  -7.5250  -7.2898  -6.0241  -5.7866
    -2.3174  -1.7663  -1.3696  -0.8934  -0.1665   0.3048   0.8811   1.7971
     1.8892  10.0629  10.3591  10.8689  11.7726

          k = 0.0999 0.1730 0.0000 (  9079 PWs)   bands (ev):

   -15.2210 -14.2968 -12.8192 -11.0022  -6.8005  -4.5664  -1.7032  -0.0940
     0.1511   0.8128   1.1047   1.4869   1.8156   2.1914   2.9119   3.0522
     3.8349   8.1299   8.5652  10.6155  11.2788

          k = 0.0999 0.2884 0.0000 (  9056 PWs)   bands (ev):

   -14.2582 -13.3468 -11.8946 -10.1190  -6.0580  -3.9963  -2.6242  -1.9480
    -1.4807  -0.8693  -0.3896   0.1271   0.8517   1.1348   1.4623   2.1561
     3.2683   9.0687   9.3669  10.9778  11.5585

          k = 0.0999 0.4038 0.0000 (  9070 PWs)   bands (ev):

   -12.8436 -11.9581 -10.5598  -8.8719  -5.9628  -5.3155  -4.1138  -3.6724
    -2.6147  -2.1542  -1.0630  -0.5968  -0.5353   0.3506   1.0653   1.4409
     2.4646  10.1107  10.4155  11.1355  11.9886

          k = 0.0999-0.6345 0.0000 (  9098 PWs)   bands (ev):

   -11.0676 -10.3002  -9.2963  -8.2450  -7.3651  -6.7498  -6.1995  -4.8100
    -2.7151  -1.7496  -1.4819  -1.3157  -0.8603   0.0791   0.4078   1.2597
     1.7880  10.4472  11.3182  11.7810  12.0232

          k = 0.1998 0.3461 0.0000 (  9033 PWs)   bands (ev):

   -13.0756 -12.1839 -10.7712  -9.0561  -5.6164  -4.2944  -3.6644  -3.0306
    -2.7886  -2.2861  -1.2118  -0.9303  -0.6642   0.1180   0.1371   1.2196
     2.6203  10.2460  10.3016  11.8054  12.3384

          k = 0.1998-0.6922 0.0000 (  9089 PWs)   bands (ev):

   -11.4797 -10.6363  -9.3378  -7.8302  -6.5932  -6.1102  -5.1068  -4.1566
    -3.0620  -2.7432  -2.1978  -1.9189  -1.2035  -0.7172  -0.0541   0.7037
     1.6951  10.9360  11.5324  12.2207  12.6762

          k = 0.1998-0.5768 0.0000 (  9114 PWs)   bands (ev):

    -9.8528  -9.5892  -8.9353  -7.9623  -7.0888  -6.8845  -5.6460  -5.5820
    -3.3428  -2.9889  -2.4945  -1.5080  -1.0372  -1.0213  -0.4333   0.6888
     1.0800  10.9930  12.0088  12.8391  12.9027

          k = 0.2997-0.6345 0.0000 (  9105 PWs)   bands (ev):

    -9.8060  -9.1343  -8.3853  -7.4376  -7.3340  -6.1620  -6.1229  -5.3780
    -3.9250  -3.6644  -2.9806  -2.6826  -1.3754  -0.3643  -0.0635  -0.0575
     0.6832  11.6207  11.6623  12.5087  12.9483

     the Fermi energy is     6.4039 ev

!    total energy              =    -149.85503099 Ry
     estimated scf accuracy    <          1.9E-10 Ry
     smearing contrib. (-TS)   =      -0.00000000 Ry
     internal energy E=F+TS    =    -149.85503099 Ry

     The total energy is F=E-TS. E is the sum of the following terms:
     one-electron contribution =    -880.36219077 Ry
     hartree contribution      =     455.99635303 Ry
     xc contribution           =     -38.85765910 Ry
     ewald contribution        =     362.67208435 Ry
     one-center paw contrib.   =     -49.30361849 Ry

     convergence has been achieved in   7 iterations

     Forces acting on atoms (cartesian axes, Ry/au):

     atom    1 type  1   force =     0.00000000    0.00000000   -0.00094629
     atom    2 type  1   force =     0.00000000    0.00000000   -0.00024764
     atom    3 type  1   force =     0.00000000    0.00000000   -0.00003646
     atom    4 type  1   force =     0.00000000    0.00000000    0.00038014
     atom    5 type  1   force =     0.00000000    0.00000000   -0.00038014
     atom    6 type  1   force =     0.00000000    0.00000000    0.00003646
     atom    7 type  1   force =     0.00000000    0.00000000    0.00024764
     atom    8 type  1   force =     0.00000000    0.00000000    0.00094629
     atom    9 type  2   force =     0.00000000    0.00000000   -0.00118575
     atom   10 type  2   force =     0.00000000    0.00000000    0.00118575

     Total force =     0.002240     Total SCF correction =     0.000024


     Computing stress (Cartesian axis) and pressure

          total   stress  (Ry/bohr**3)                   (kbar)     P=       -2.64
   0.00000042   0.00000000   0.00000000            0.06        0.00        0.00
  -0.00000000   0.00000042   0.00000000           -0.00        0.06        0.00
   0.00000000   0.00000000  -0.00005461            0.00        0.00       -8.03

     Energy error            =      1.2E-05 Ry
     Gradient error          =      1.2E-03 Ry/Bohr
     Cell gradient error     =      6.2E-02 kbar

     number of scf cycles    =   4
     number of bfgs steps    =   3

     enthalpy           old  =    -149.8550187251 Ry
     enthalpy           new  =    -149.8550309917 Ry

     CASE: enthalpy          _new < enthalpy          _old

     new trust radius        =       0.0028392248 bohr
     new conv_thr            =            1.2E-11 Ry

     new unit-cell volume =    630.88139 a.u.^3 (    93.48698 Ang^3 )
     density =      1.74255 g/cm^3

CELL_PARAMETERS (angstrom)
   2.528572989  -0.000000000   0.000000000
   1.264286494   2.189808440   0.000000000
   0.000000000   0.000000000  16.883772750

ATOMIC_POSITIONS (crystal)
C                0.3333333300        0.3333333300        0.6974976006
C                0.6666666700        0.6666666700        0.6685649860
C                0.6666666700        0.6666666700        0.5764296299
C                0.0000000000        0.0000000000        0.5459108359
C                0.0000000000        0.0000000000        0.4540891641
C                0.3333333300        0.3333333300        0.4235703701
C                0.3333333300        0.3333333300        0.3314350140
C                0.6666666700        0.6666666700        0.3025023994
H                0.3333333300        0.3333333300        0.7631885696
H                0.6666666700        0.6666666700        0.2368114304



     Writing config-only to output data dir /tmp/qe/slab.save/ :
     XML data file
     NEW-OLD atomic charge density approx. for the potential

     total cpu time spent up to now is       32.9 secs

     Self-consistent Calculation

     iteration #  1     ecut=    90.00 Ry     beta= 0.30
     Davidson diagonalization with overlap
     ethr =  1.00E-06,  avg # of iterations =  2.0

     Threshold (ethr) on eigenvalues was too large:
     Diagonalizing with lowered threshold

     Davidson diagonalization with overlap
     ethr =  4.88E-09,  avg # of iterations =  2.7

     total cpu time spent up to now is       34.0 secs

     total energy              =    -149.85503774 Ry
     estimated scf accuracy    <       0.00000223 Ry

     iteration #  2     ecut=    90.00 Ry     beta= 0.30
     Davidson diagonalization with overlap
     ethr =  6.56E-09,  avg # of iterations =  1.6

     total cpu time spent up to now is       34.5 secs

     total energy              =    -149.85503780 Ry
     estimated scf accuracy    <       0.00000049 Ry

     iteration #  3     ecut=    90.00 Ry     beta= 0.30
     Davidson diagonalization with overlap
     ethr =  1.43E-09,  avg # of iterations =  2.1

     total cpu time spent up to now is       35.0 secs

     total energy              =    -149.85503785 Ry
     estimated scf accuracy    <       0.00000012 Ry

     iteration #  4     ecut=    90.00 Ry     beta= 0.30
     Davidson diagonalization with overlap
     ethr =  3.55E-10,  avg # of iterations =  1.0

     total cpu time spent up to now is       35.5 secs

     total energy              =    -149.85503785 Ry
     estimated scf accuracy    <       0.00000004 Ry

     iteration #  5     ecut=    90.00 Ry     beta= 0.30
     Davidson diagonalization with overlap
     ethr =  1.19E-10,  avg # of iterations =  2.1

     total cpu time spent up to now is       36.2 secs

     total energy              =    -149.85503785 Ry
     estimated scf accuracy    <          3.9E-09 Ry

     iteration #  6     ecut=    90.00 Ry     beta= 0.30
     Davidson diagonalization with overlap
     ethr =  1.13E-11,  avg # of iterations =  2.3

     total cpu time spent up to now is       36.8 secs

     total energy              =    -149.85503785 Ry
     estimated scf accuracy    <          5.0E-10 Ry

     iteration #  7     ecut=    90.00 Ry     beta= 0.30
     Davidson diagonalization with overlap
     ethr =  1.47E-12,  avg # of iterations =  2.1

     total cpu time spent up to now is       37.4 secs

     total energy              =    -149.85503785 Ry
     estimated scf accuracy    <          8.9E-11 Ry

     iteration #  8     ecut=    90.00 Ry     beta= 0.30
     Davidson diagonalization with overlap
     ethr =  2.61E-13,  avg # of iterations =  2.2

     total cpu time spent up to now is       38.0 secs

     total energy              =    -149.85503785 Ry
     estimated scf accuracy    <          1.8E-11 Ry

     iteration #  9     ecut=    90.00 Ry     beta= 0.30
     Davidson diagonalization with overlap
     ethr =  1.00E-13,  avg # of iterations =  2.4

     total cpu time spent up to now is       38.5 secs

     End of self-consistent calculation

          k = 0.0000 0.0000 0.0000 (  9007 PWs)   bands (ev):

   -15.9506 -15.0212 -13.5233 -11.6780  -7.4446  -5.1319  -2.0931   1.0681
     2.5231   2.5231   3.0809   3.0809   3.7188   3.9066   3.9066   4.7372
     4.7372   7.4701   7.8617  10.1960  11.2265

          k = 0.0000 0.1154 0.0000 (  9091 PWs)   bands (ev):

   -15.7067 -14.7801 -13.2877 -11.4518  -7.2252  -4.9375  -1.9477   1.0951
     1.3517   1.9750   1.9969   2.6131   2.8197   3.5091   3.5503   3.8309
     4.3871   7.6765   8.1068  10.2347  11.2340

          k = 0.0000 0.2307 0.0000 (  9065 PWs)   bands (ev):

   -14.9791 -14.0612 -12.5862 -10.7798  -6.6013  -4.4010  -1.6789  -1.1241
    -0.5651   0.4865   0.9491   1.2910   1.5197   1.6272   2.6085   3.3172
     3.5551   8.3320   8.7602  10.3495  10.9970

          k = 0.0000 0.3461 0.0000 (  9068 PWs)   bands (ev):

   -13.7822 -12.8817 -11.4417  -9.6918  -5.8432  -4.3235  -3.5618  -3.1926
    -1.9790  -1.3884  -0.5387  -0.0241   0.6836   1.1222   1.7089   2.6480
     2.6941   9.4440   9.4880  10.3846  11.0815

          k = 0.0000 0.4615 0.0000 (  9102 PWs)   bands (ev):

   -12.1585 -11.3010  -9.9652  -8.4338  -6.8270  -6.5058  -5.2743  -3.8468
    -3.3495  -1.9046  -0.8328  -0.6701   0.0505   0.5743   1.0952   2.0354
     2.0982   9.7188  10.6675  10.8566  11.2851

          k =-0.0000-0.5768 0.0000 (  9104 PWs)   bands (ev):

   -10.4920 -10.2150  -9.5277  -8.5586  -7.5242  -7.2912  -6.0248  -5.7870
    -2.3199  -1.7644  -1.3724  -0.8938  -0.1696   0.3036   0.8808   1.7987
     1.8889  10.0630  10.3623  10.8674  11.7754

          k = 0.0999 0.1730 0.0000 (  9079 PWs)   bands (ev):

   -15.2209 -14.3000 -12.8190 -11.0026  -6.8018  -4.5691  -1.7010  -0.0941
     0.1493   0.8110   1.1041   1.4861   1.8165   2.1901   2.9127   3.0518
     3.8369   8.1304   8.5665  10.6168  11.2793

          k = 0.0999 0.2884 0.0000 (  9056 PWs)   bands (ev):

   -14.2582 -13.3501 -11.8945 -10.1194  -6.0594  -3.9995  -2.6238  -1.9505
    -1.4804  -0.8693  -0.3900   0.1260   0.8508   1.1342   1.4630   2.1561
     3.2702   9.0700   9.3685  10.9791  11.5587

          k = 0.0999 0.4038 0.0000 (  9070 PWs)   bands (ev):

   -12.8436 -11.9613 -10.5597  -8.8725  -5.9636  -5.3181  -4.1151  -3.6740
    -2.6150  -2.1553  -1.0637  -0.5970  -0.5367   0.3500   1.0649   1.4409
     2.4658  10.1126  10.4179  11.1373  11.9878

          k = 0.0999-0.6345 0.0000 (  9098 PWs)   bands (ev):

   -11.0676 -10.3033  -9.2966  -8.2465  -7.3671  -6.7499  -6.2001  -4.8108
    -2.7162  -1.7500  -1.4843  -1.3160  -0.8626   0.0784   0.4071   1.2598
     1.7891  10.4502  11.3203  11.7810  12.0238

          k = 0.1998 0.3461 0.0000 (  9033 PWs)   bands (ev):

   -13.0756 -12.1872 -10.7711  -9.0567  -5.6177  -4.2977  -3.6642  -3.0322
    -2.7899  -2.2881  -1.2118  -0.9312  -0.6653   0.1193   0.1368   1.2193
     2.6217  10.2477  10.3040  11.8087  12.3387

          k = 0.1998-0.6922 0.0000 (  9089 PWs)   bands (ev):

   -11.4797 -10.6396  -9.3379  -7.8313  -6.5938  -6.1126  -5.1077  -4.1578
    -3.0625  -2.7443  -2.1995  -1.9208  -1.2044  -0.7176  -0.0530   0.7028
     1.6960  10.9390  11.5359  12.2223  12.6809

          k = 0.1998-0.5768 0.0000 (  9114 PWs)   bands (ev):

    -9.8519  -9.5916  -8.9373  -7.9654  -7.0906  -6.8837  -5.6462  -5.5829
    -3.3431  -2.9909  -2.4958  -1.5112  -1.0360  -1.0217  -0.4348   0.6882
     1.0812  10.9964  12.0123  12.8456  12.9052

          k = 0.2997-0.6345 0.0000 (  9105 PWs)   bands (ev):

    -9.8059  -9.1376  -8.3847  -7.4405  -7.3369  -6.1632  -6.1225  -5.3779
    -3.9258  -3.6659  -2.9817  -2.6834  -1.3766  -0.3663  -0.0647  -0.0558
     0.6832  11.6215  11.6668  12.5146  12.9525

     the Fermi energy is     6.4070 ev

!    total energy              =    -149.85503786 Ry
     estimated scf accuracy    <          5.7E-12 Ry
     smearing contrib. (-TS)   =      -0.00000000 Ry
     internal energy E=F+TS    =    -149.85503786 Ry

     The total energy is F=E-TS. E is the sum of the following terms:
     one-electron contribution =    -880.64976055 Ry
     hartree contribution      =     456.14065558 Ry
     xc contribution           =     -38.85976627 Ry
     ewald contribution        =     362.81749110 Ry
     one-center paw contrib.   =     -49.30365772 Ry

     convergence has been achieved in   9 iterations

     Forces acting on atoms (cartesian axes, Ry/au):

     atom    1 type  1   force =     0.00000000    0.00000000   -0.00127359
     atom    2 type  1   force =     0.00000000    0.00000000   -0.00040973
     atom    3 type  1   force =     0.00000000    0.00000000   -0.00036632
     atom    4 type  1   force =     0.00000000    0.00000000   -0.00029263
     atom    5 type  1   force =     0.00000000    0.00000000    0.00029263
     atom    6 type  1   force =     0.00000000    0.00000000    0.00036632
     atom    7 type  1   force =     0.00000000    0.00000000    0.00040973
     atom    8 type  1   force =     0.00000000    0.00000000    0.00127359
     atom    9 type  2   force =     0.00000000    0.00000000   -0.00017708
     atom   10 type  2   force =     0.00000000    0.00000000    0.00017708

     Total force =     0.002020     Total SCF correction =     0.000007


     Computing stress (Cartesian axis) and pressure

          total   stress  (Ry/bohr**3)                   (kbar)     P=       -2.01
   0.00000092  -0.00000000   0.00000000            0.13       -0.00        0.00
   0.00000000   0.00000092   0.00000000            0.00        0.13        0.00
   0.00000000   0.00000000  -0.00004279            0.00        0.00       -6.29

     Energy error            =      6.9E-06 Ry
     Gradient error          =      1.3E-03 Ry/Bohr
     Cell gradient error     =      1.3E-01 kbar

     number of scf cycles    =   5
     number of bfgs steps    =   4

     enthalpy           old  =    -149.8550309917 Ry
     enthalpy           new  =    -149.8550378552 Ry

     CASE: enthalpy          _new < enthalpy          _old

     new trust radius        =       0.0031009380 bohr
     new conv_thr            =            1.0E-11 Ry

     new unit-cell volume =    630.92378 a.u.^3 (    93.49326 Ang^3 )
     density =      1.74243 g/cm^3

CELL_PARAMETERS (angstrom)
   2.528657926  -0.000000000   0.000000000
   1.264328963   2.189881998   0.000000000
   0.000000000   0.000000000  16.883772750

ATOMIC_POSITIONS (crystal)
C                0.3333333300        0.3333333300        0.6974239480
C                0.6666666700        0.6666666700        0.6685211708
C                0.6666666700        0.6666666700        0.5764268721
C                0.0000000000        0.0000000000        0.5459062918
C                0.0000000000        0.0000000000        0.4540937082
C                0.3333333300        0.3333333300        0.4235731279
C                0.3333333300        0.3333333300        0.3314788292
C                0.6666666700        0.6666666700        0.3025760520
H                0.3333333300        0.3333333300        0.7630913789
H                0.6666666700        0.6666666700        0.2369086211



     Writing config-only to output data dir /tmp/qe/slab.save/ :
     XML data file
     NEW-OLD atomic charge density approx. for the potential

     total cpu time spent up to now is       39.7 secs

     Self-consistent Calculation

     iteration #  1     ecut=    90.00 Ry     beta= 0.30
     Davidson diagonalization with overlap
     ethr =  1.00E-06,  avg # of iterations =  2.0

     Threshold (ethr) on eigenvalues was too large:
     Diagonalizing with lowered threshold

     Davidson diagonalization with overlap
     ethr =  6.03E-09,  avg # of iterations =  3.1

     total cpu time spent up to now is       40.8 secs

     total energy              =    -149.85504386 Ry
     estimated scf accuracy    <       0.00000310 Ry

     iteration #  2     ecut=    90.00 Ry     beta= 0.30
     Davidson diagonalization with overlap
     ethr =  9.11E-09,  avg # of iterations =  2.0

     total cpu time spent up to now is       41.3 secs

     total energy              =    -149.85504407 Ry
     estimated scf accuracy    <       0.00000069 Ry

     iteration #  3     ecut=    90.00 Ry     beta= 0.30
     Davidson diagonalization with overlap
     ethr =  2.04E-09,  avg # of iterations =  1.4

     total cpu time spent up to now is       41.8 secs

     total energy              =    -149.85504408 Ry
     estimated scf accuracy    <       0.00000024 Ry

     iteration #  4     ecut=    90.00 Ry     beta= 0.30
     Davidson diagonalization with overlap
     ethr =  7.15E-10,  avg # of iterations =  1.8

     total cpu time spent up to now is       42.3 secs

     total energy              =    -149.85504410 Ry
     estimated scf accuracy    <       0.00000003 Ry

     iteration #  5     ecut=    90.00 Ry     beta= 0.30
     Davidson diagonalization with overlap
     ethr =  8.57E-11,  avg # of iterations =  2.1

     total cpu time spent up to now is       42.9 secs

     total energy              =    -149.85504410 Ry
     estimated scf accuracy    <          3.3E-09 Ry

     iteration #  6     ecut=    90.00 Ry     beta= 0.30
     Davidson diagonalization with overlap
     ethr =  9.79E-12,  avg # of iterations =  2.6

     total cpu time spent up to now is       43.5 secs

     total energy              =    -149.85504410 Ry
     estimated scf accuracy    <          2.9E-10 Ry

     iteration #  7     ecut=    90.00 Ry     beta= 0.30
     Davidson diagonalization with overlap
     ethr =  8.64E-13,  avg # of iterations =  2.6

     total cpu time spent up to now is       44.0 secs

     total energy              =    -149.85504410 Ry
     estimated scf accuracy    <          1.1E-10 Ry

     iteration #  8     ecut=    90.00 Ry     beta= 0.30
     Davidson diagonalization with overlap
     ethr =  3.11E-13,  avg # of iterations =  3.4

     total cpu time spent up to now is       44.7 secs

     total energy              =    -149.85504410 Ry
     estimated scf accuracy    <          5.1E-11 Ry

     iteration #  9     ecut=    90.00 Ry     beta= 0.30
     Davidson diagonalization with overlap
     ethr =  1.51E-13,  avg # of iterations =  3.1

     total cpu time spent up to now is       45.3 secs

     total energy              =    -149.85504410 Ry
     estimated scf accuracy    <          1.4E-11 Ry

     iteration # 10     ecut=    90.00 Ry     beta= 0.30
     Davidson diagonalization with overlap
     ethr =  1.00E-13,  avg # of iterations =  1.6

     total cpu time spent up to now is       45.8 secs

     End of self-consistent calculation

          k = 0.0000 0.0000 0.0000 (  9007 PWs)   bands (ev):

   -15.9531 -15.0257 -13.5247 -11.6772  -7.4474  -5.1332  -2.0903   1.0709
     2.5202   2.5202   3.0758   3.0758   3.7201   3.9034   3.9034   4.7366
     4.7366   7.4703   7.8627  10.1954  11.2244

          k = 0.0000 0.1154 0.0000 (  9091 PWs)   bands (ev):

   -15.7092 -14.7846 -13.2891 -11.4511  -7.2280  -4.9389  -1.9451   1.0968
     1.3491   1.9703   1.9940   2.6079   2.8168   3.5061   3.5506   3.8311
     4.3868   7.6766   8.1077  10.2340  11.2339

          k = 0.0000 0.2307 0.0000 (  9065 PWs)   bands (ev):

   -14.9816 -14.0658 -12.5877 -10.7792  -6.6044  -4.4028  -1.6778  -1.1260
    -0.5699   0.4842   0.9462   1.2924   1.5198   1.6220   2.6059   3.3170
     3.5551   8.3323   8.7604  10.3498  10.9957

          k = 0.0000 0.3461 0.0000 (  9068 PWs)   bands (ev):

   -13.7849 -12.8865 -11.4433  -9.6914  -5.8469  -4.3273  -3.5632  -3.1967
    -1.9807  -1.3882  -0.5371  -0.0270   0.6785   1.1219   1.7064   2.6473
     2.6944   9.4444   9.4881  10.3852  11.0794

          k = 0.0000 0.4614 0.0000 (  9102 PWs)   bands (ev):

   -12.1613 -11.3060  -9.9673  -8.4344  -6.8287  -6.5109  -5.2770  -3.8478
    -3.3511  -1.9055  -0.8333  -0.6730   0.0454   0.5735   1.0929   2.0348
     2.0986   9.7189  10.6664  10.8560  11.2852

          k =-0.0000-0.5768 0.0000 (  9104 PWs)   bands (ev):

   -10.4945 -10.2197  -9.5321  -8.5623  -7.5250  -7.2947  -6.0250  -5.7868
    -2.3231  -1.7653  -1.3738  -0.8967  -0.1746   0.3027   0.8784   1.7983
     1.8893  10.0604  10.3661  10.8638  11.7780

          k = 0.0999 0.1730 0.0000 (  9079 PWs)   bands (ev):

   -15.2235 -14.3046 -12.8205 -11.0019  -6.8048  -4.5707  -1.6988  -0.0966
     0.1451   0.8067   1.1028   1.4847   1.8158   2.1862   2.9125   3.0508
     3.8373   8.1307   8.5670  10.6164  11.2794

          k = 0.0999 0.2884 0.0000 (  9056 PWs)   bands (ev):

   -14.2608 -13.3548 -11.8961 -10.1189  -6.0628  -4.0021  -2.6258  -1.9549
    -1.4819  -0.8698  -0.3919   0.1229   0.8495   1.1320   1.4632   2.1556
     3.2701   9.0705   9.3685  10.9800  11.5578

          k = 0.0999 0.4038 0.0000 (  9070 PWs)   bands (ev):

   -12.8463 -11.9662 -10.5616  -8.8723  -5.9672  -5.3226  -4.1182  -3.6762
    -2.6159  -2.1563  -1.0662  -0.5986  -0.5386   0.3475   1.0641   1.4410
     2.4655  10.1134  10.4187  11.1383  11.9854

          k = 0.0999-0.6345 0.0000 (  9098 PWs)   bands (ev):

   -11.0704 -10.3085  -9.2996  -8.2488  -7.3711  -6.7503  -6.2024  -4.8110
    -2.7188  -1.7524  -1.4860  -1.3187  -0.8661   0.0766   0.4057   1.2605
     1.7887  10.4535  11.3205  11.7797  12.0224

          k = 0.1998 0.3461 0.0000 (  9033 PWs)   bands (ev):

   -13.0783 -12.1920 -10.7729  -9.0564  -5.6218  -4.3024  -3.6657  -3.0361
    -2.7912  -2.2916  -1.2132  -0.9342  -0.6663   0.1204   0.1366   1.2188
     2.6213  10.2482  10.3045  11.8112  12.3409

          k = 0.1998-0.6922 0.0000 (  9089 PWs)   bands (ev):

   -11.4825 -10.6447  -9.3401  -7.8321  -6.5967  -6.1168  -5.1106  -4.1596
    -3.0647  -2.7472  -2.2017  -1.9238  -1.2055  -0.7177  -0.0526   0.7018
     1.6954  10.9415  11.5374  12.2245  12.6845

          k = 0.1998-0.5768 0.0000 (  9114 PWs)   bands (ev):

    -9.8545  -9.5964  -8.9417  -7.9694  -7.0944  -6.8845  -5.6466  -5.5836
    -3.3449  -2.9947  -2.4993  -1.5139  -1.0367  -1.0229  -0.4355   0.6885
     1.0802  11.0006  12.0157  12.8481  12.9076

          k = 0.2997-0.6345 0.0000 (  9105 PWs)   bands (ev):

    -9.8089  -9.1430  -8.3877  -7.4447  -7.3409  -6.1648  -6.1241  -5.3788
    -3.9273  -3.6701  -2.9822  -2.6846  -1.3789  -0.3668  -0.0672  -0.0557
     0.6827  11.6244  11.6705  12.5175  12.9563

     the Fermi energy is     6.4092 ev

!    total energy              =    -149.85504410 Ry
     estimated scf accuracy    <          4.5E-13 Ry
     smearing contrib. (-TS)   =      -0.00000000 Ry
     internal energy E=F+TS    =    -149.85504410 Ry

     The total energy is F=E-TS. E is the sum of the following terms:
     one-electron contribution =    -881.16959809 Ry
     hartree contribution      =     456.39941275 Ry
     xc contribution           =     -38.86178296 Ry
     ewald contribution        =     363.08062275 Ry
     one-center paw contrib.   =     -49.30369855 Ry

     convergence has been achieved in  10 iterations

     Forces acting on atoms (cartesian axes, Ry/au):

     atom    1 type  1   force =     0.00000000    0.00000000   -0.00088935
     atom    2 type  1   force =     0.00000000    0.00000000   -0.00057528
     atom    3 type  1   force =     0.00000000    0.00000000   -0.00091471
     atom    4 type  1   force =     0.00000000    0.00000000   -0.00035629
     atom    5 type  1   force =     0.00000000    0.00000000    0.00035629
     atom    6 type  1   force =     0.00000000    0.00000000    0.00091471
     atom    7 type  1   force =     0.00000000    0.00000000    0.00057528
     atom    8 type  1   force =     0.00000000    0.00000000    0.00088935
     atom    9 type  2   force =     0.00000000    0.00000000    0.00032379
     atom   10 type  2   force =     0.00000000    0.00000000   -0.00032379

     Total force =     0.002093     Total SCF correction =     0.000001


     Computing stress (Cartesian axis) and pressure

          total   stress  (Ry/bohr**3)                   (kbar)     P=       -1.40
   0.00000034  -0.00000000   0.00000000            0.05       -0.00        0.00
  -0.00000000   0.00000034   0.00000000           -0.00        0.05        0.00
   0.00000000   0.00000000  -0.00002913            0.00        0.00       -4.29

     Energy error            =      6.2E-06 Ry
     Gradient error          =      9.1E-04 Ry/Bohr
     Cell gradient error     =      5.0E-02 kbar

     number of scf cycles    =   6
     number of bfgs steps    =   5

     enthalpy           old  =    -149.8550378552 Ry
     enthalpy           new  =    -149.8550441009 Ry

     CASE: enthalpy          _new < enthalpy          _old

     new trust radius        =       0.0037966131 bohr
     new conv_thr            =            1.0E-11 Ry

     new unit-cell volume =    630.96567 a.u.^3 (    93.49947 Ang^3 )
     density =      1.74232 g/cm^3

CELL_PARAMETERS (angstrom)
   2.528741878  -0.000000000   0.000000000
   1.264370939   2.189954702   0.000000000
   0.000000000   0.000000000  16.883772750

ATOMIC_POSITIONS (crystal)
C                0.3333333300        0.3333333300        0.6973136375
C                0.6666666700        0.6666666700        0.6684380103
C                0.6666666700        0.6666666700        0.5763832355
C                0.0000000000        0.0000000000        0.5458895793
C                0.0000000000        0.0000000000        0.4541104207
C                0.3333333300        0.3333333300        0.4236167645
C                0.3333333300        0.3333333300        0.3315619897
C                0.6666666700        0.6666666700        0.3026863625
H                0.3333333300        0.3333333300        0.7629723841
H                0.6666666700        0.6666666700        0.2370276159



     Writing config-only to output data dir /tmp/qe/slab.save/ :
     XML data file
     NEW-OLD atomic charge density approx. for the potential

     total cpu time spent up to now is       47.0 secs

     Self-consistent Calculation

     iteration #  1     ecut=    90.00 Ry     beta= 0.30
     Davidson diagonalization with overlap
     ethr =  1.00E-06,  avg # of iterations =  2.6

     Threshold (ethr) on eigenvalues was too large:
     Diagonalizing with lowered threshold

     Davidson diagonalization with overlap
     ethr =  1.23E-08,  avg # of iterations =  4.0

     total cpu time spent up to now is       48.2 secs

     total energy              =    -149.85505047 Ry
     estimated scf accuracy    <       0.00000637 Ry

     iteration #  2     ecut=    90.00 Ry     beta= 0.30
     Davidson diagonalization with overlap
     ethr =  1.87E-08,  avg # of iterations =  2.0

     total cpu time spent up to now is       48.7 secs

     total energy              =    -149.85505090 Ry
     estimated scf accuracy    <       0.00000161 Ry

     iteration #  3     ecut=    90.00 Ry     beta= 0.30
     Davidson diagonalization with overlap
     ethr =  4.75E-09,  avg # of iterations =  1.1

     total cpu time spent up to now is       49.2 secs

     total energy              =    -149.85505089 Ry
     estimated scf accuracy    <       0.00000060 Ry

     iteration #  4     ecut=    90.00 Ry     beta= 0.30
     Davidson diagonalization with overlap
     ethr =  1.75E-09,  avg # of iterations =  1.8

     total cpu time spent up to now is       49.7 secs

     total energy              =    -149.85505093 Ry
     estimated scf accuracy    <       0.00000004 Ry

     iteration #  5     ecut=    90.00 Ry     beta= 0.30
     Davidson diagonalization with overlap
     ethr =  1.17E-10,  avg # of iterations =  2.3

     total cpu time spent up to now is       50.3 secs

     total energy              =    -149.85505094 Ry
     estimated scf accuracy    <          9.2E-09 Ry

     iteration #  6     ecut=    90.00 Ry     beta= 0.30
     Davidson diagonalization with overlap
     ethr =  2.71E-11,  avg # of iterations =  2.8

     total cpu time spent up to now is       50.9 secs

     total energy              =    -149.85505094 Ry
     estimated scf accuracy    <          1.9E-09 Ry

     iteration #  7     ecut=    90.00 Ry     beta= 0.30
     Davidson diagonalization with overlap
     ethr =  5.62E-12,  avg # of iterations =  2.1

     total cpu time spent up to now is       51.4 secs

     total energy              =    -149.85505094 Ry
     estimated scf accuracy    <          2.3E-10 Ry

     iteration #  8     ecut=    90.00 Ry     beta= 0.30
     Davidson diagonalization with overlap
     ethr =  6.72E-13,  avg # of iterations =  3.1

     total cpu time spent up to now is       52.1 secs

     total energy              =    -149.85505094 Ry
     estimated scf accuracy    <          6.3E-11 Ry

     iteration #  9     ecut=    90.00 Ry     beta= 0.30
     Davidson diagonalization with overlap
     ethr =  1.84E-13,  avg # of iterations =  2.7

     total cpu time spent up to now is       52.7 secs

     End of self-consistent calculation

          k = 0.0000 0.0000 0.0000 (  9007 PWs)   bands (ev):

   -15.9597 -15.0311 -13.5274 -11.6769  -7.4509  -5.1326  -2.0869   1.0746
     2.5131   2.5131   3.0696   3.0696   3.7232   3.8989   3.8989   4.7334
     4.7334   7.4711   7.8639  10.1943  11.2216

          k = 0.0000 0.1154 0.0000 (  9091 PWs)   bands (ev):

   -15.7159 -14.7900 -13.2918 -11.4508  -7.2316  -4.9384  -1.9419   1.0992
     1.3427   1.9647   1.9867   2.6018   2.8127   3.5019   3.5513   3.8300
     4.3840   7.6773   8.1086  10.2326  11.2334

          k = 0.0000 0.2307 0.0000 (  9065 PWs)   bands (ev):

   -14.9883 -14.0713 -12.5905 -10.7789  -6.6082  -4.4027  -1.6777  -1.1307
    -0.5757   0.4807   0.9388   1.2947   1.5180   1.6159   2.6019   3.3179
     3.5528   8.3329   8.7607  10.3495  10.9939

          k = 0.0000 0.3461 0.0000 (  9068 PWs)   bands (ev):

   -13.7917 -12.8921 -11.4463  -9.6914  -5.8517  -4.3326  -3.5659  -3.2015
    -1.9830  -1.3886  -0.5361  -0.0344   0.6725   1.1224   1.7027   2.6473
     2.6923   9.4445   9.4882  10.3847  11.0764

          k = 0.0000 0.4614 0.0000 (  9102 PWs)   bands (ev):

   -12.1682 -11.3118  -9.9707  -8.4359  -6.8340  -6.5170  -5.2805  -3.8495
    -3.3535  -1.9054  -0.8339  -0.6804   0.0394   0.5732   1.0891   2.0351
     2.0966   9.7178  10.6647  10.8538  11.2848

          k =-0.0000-0.5768 0.0000 (  9104 PWs)   bands (ev):

   -10.5015 -10.2266  -9.5377  -8.5667  -7.5290  -7.2987  -6.0263  -5.7872
    -2.3260  -1.7675  -1.3739  -0.9041  -0.1807   0.3027   0.8747   1.7988
     1.8873  10.0537  10.3715  10.8594  11.7809

          k = 0.0999 0.1730 0.0000 (  9079 PWs)   bands (ev):

   -15.2301 -14.3101 -12.8233 -11.0017  -6.8085  -4.5705  -1.6963  -0.1033
     0.1386   0.8011   1.1014   1.4823   1.8124   2.1820   2.9112   3.0482
     3.8375   8.1313   8.5675  10.6154  11.2792

          k = 0.0999 0.2884 0.0000 (  9056 PWs)   bands (ev):

   -14.2676 -13.3603 -11.8990 -10.1188  -6.0670  -4.0031  -2.6320  -1.9602
    -1.4841  -0.8712  -0.3956   0.1171   0.8471   1.1292   1.4632   2.1536
     3.2702   9.0712   9.3685  10.9807  11.5567

          k = 0.0999 0.4038 0.0000 (  9070 PWs)   bands (ev):

   -12.8532 -11.9719 -10.5647  -8.8727  -5.9735  -5.3286  -4.1219  -3.6797
    -2.6176  -2.1574  -1.0723  -0.6012  -0.5407   0.3443   1.0634   1.4395
     2.4652  10.1144  10.4193  11.1386  11.9821

          k = 0.0999-0.6345 0.0000 (  9098 PWs)   bands (ev):

   -11.0775 -10.3146  -9.3045  -8.2526  -7.3769  -6.7529  -6.2052  -4.8121
    -2.7219  -1.7586  -1.4867  -1.3225  -0.8703   0.0744   0.4042   1.2596
     1.7886  10.4577  11.3185  11.7771  12.0203

          k = 0.1998 0.3461 0.0000 (  9033 PWs)   bands (ev):

   -13.0852 -12.1977 -10.7760  -9.0566  -5.6274  -4.3076  -3.6713  -3.0404
    -2.7941  -2.2958  -1.2167  -0.9374  -0.6678   0.1198   0.1353   1.2188
     2.6211  10.2488  10.3048  11.8144  12.3448

          k = 0.1998-0.6921 0.0000 (  9089 PWs)   bands (ev):

   -11.4895 -10.6506  -9.3437  -7.8339  -6.6025  -6.1225  -5.1147  -4.1633
    -3.0695  -2.7517  -2.2050  -1.9268  -1.2069  -0.7183  -0.0529   0.7012
     1.6950  10.9451  11.5388  12.2281  12.6886

          k = 0.1998-0.5768 0.0000 (  9114 PWs)   bands (ev):

    -9.8616  -9.6035  -8.9476  -7.9738  -7.0989  -6.8884  -5.6484  -5.5850
    -3.3508  -2.9996  -2.5033  -1.5162  -1.0381  -1.0248  -0.4358   0.6888
     1.0795  11.0066  12.0195  12.8512  12.9116

          k = 0.2997-0.6345 0.0000 (  9105 PWs)   bands (ev):

    -9.8161  -9.1495  -8.3940  -7.4496  -7.3453  -6.1682  -6.1284  -5.3814
    -3.9319  -3.6746  -2.9848  -2.6859  -1.3813  -0.3663  -0.0693  -0.0560
     0.6823  11.6291  11.6756  12.5222  12.9613

     the Fermi energy is     6.4114 ev

!    total energy              =    -149.85505093 Ry
     estimated scf accuracy    <          9.4E-12 Ry
     smearing contrib. (-TS)   =      -0.00000000 Ry
     internal energy E=F+TS    =    -149.85505093 Ry

     The total energy is F=E-TS. E is the sum of the following terms:
     one-electron contribution =    -882.07417162 Ry
     hartree contribution      =     456.84945221 Ry
     xc contribution           =     -38.86447321 Ry
     ewald contribution        =     363.53790013 Ry
     one-center paw contrib.   =     -49.30375844 Ry

     convergence has been achieved in   9 iterations

     Forces acting on atoms (cartesian axes, Ry/au):

     atom    1 type  1   force =     0.00000000    0.00000000   -0.00029580
     atom    2 type  1   force =     0.00000000    0.00000000   -0.00057997
     atom    3 type  1   force =     0.00000000    0.00000000   -0.00076088
     atom    4 type  1   force =     0.00000000    0.00000000   -0.00060943
     atom    5 type  1   force =     0.00000000    0.00000000    0.00060943
     atom    6 type  1   force =     0.00000000    0.00000000    0.00076088
     atom    7 type  1   force =     0.00000000    0.00000000    0.00057997
     atom    8 type  1   force =     0.00000000    0.00000000    0.00029580
     atom    9 type  2   force =     0.00000000    0.00000000    0.00053740
     atom   10 type  2   force =     0.00000000    0.00000000   -0.00053740

     Total force =     0.001824     Total SCF correction =     0.000006


     Computing stress (Cartesian axis) and pressure

          total   stress  (Ry/bohr**3)                   (kbar)     P=       -0.56
   0.00000009   0.00000000   0.00000000            0.01        0.00        0.00
   0.00000000   0.00000009   0.00000000            0.00        0.01        0.00
   0.00000000   0.00000000  -0.00001166            0.00        0.00       -1.72

     Energy error            =      6.8E-06 Ry
     Gradient error          =      7.6E-04 Ry/Bohr
     Cell gradient error     =      1.3E-02 kbar

     number of scf cycles    =   7
     number of bfgs steps    =   6

     enthalpy           old  =    -149.8550441009 Ry
     enthalpy           new  =    -149.8550509349 Ry

     CASE: enthalpy          _new < enthalpy          _old

     new trust radius        =       0.0025366531 bohr
     new conv_thr            =            1.0E-11 Ry

     new unit-cell volume =    630.99323 a.u.^3 (    93.50355 Ang^3 )
     density =      1.74224 g/cm^3

CELL_PARAMETERS (angstrom)
   2.528797095  -0.000000000   0.000000000
   1.264398547   2.190002522   0.000000000
   0.000000000   0.000000000  16.883772750

ATOMIC_POSITIONS (crystal)
C                0.3333333300        0.3333333300        0.6972341328
C                0.6666666700        0.6666666700        0.6683615717
C                0.6666666700        0.6666666700        0.5763324527
C                0.0000000000        0.0000000000        0.5458554327
C                0.0000000000        0.0000000000        0.4541445673
C                0.3333333300        0.3333333300        0.4236675473
C                0.3333333300        0.3333333300        0.3316384283
C                0.6666666700        0.6666666700        0.3027658672
H                0.3333333300        0.3333333300        0.7629056866
H                0.6666666700        0.6666666700        0.2370943134



     Writing config-only to output data dir /tmp/qe/slab.save/ :
     XML data file
     NEW-OLD atomic charge density approx. for the potential

     total cpu time spent up to now is       53.9 secs

     Self-consistent Calculation

     iteration #  1     ecut=    90.00 Ry     beta= 0.30
     Davidson diagonalization with overlap
     ethr =  1.00E-06,  avg # of iterations =  2.0

     Threshold (ethr) on eigenvalues was too large:
     Diagonalizing with lowered threshold

     Davidson diagonalization with overlap
     ethr =  7.60E-09,  avg # of iterations =  4.3

     total cpu time spent up to now is       55.0 secs

     total energy              =    -149.85505437 Ry
     estimated scf accuracy    <       0.00000410 Ry

     iteration #  2     ecut=    90.00 Ry     beta= 0.30
     Davidson diagonalization with overlap
     ethr =  1.21E-08,  avg # of iterations =  2.0

     total cpu time spent up to now is       55.6 secs

     total energy              =    -149.85505458 Ry
     estimated scf accuracy    <       0.00000112 Ry

     iteration #  3     ecut=    90.00 Ry     beta= 0.30
     Davidson diagonalization with overlap
     ethr =  3.31E-09,  avg # of iterations =  1.0

     total cpu time spent up to now is       56.1 secs

     total energy              =    -149.85505457 Ry
     estimated scf accuracy    <       0.00000040 Ry

     iteration #  4     ecut=    90.00 Ry     beta= 0.30
     Davidson diagonalization with overlap
     ethr =  1.18E-09,  avg # of iterations =  2.0

     total cpu time spent up to now is       56.6 secs

     total energy              =    -149.85505460 Ry
     estimated scf accuracy    <       0.00000003 Ry

     iteration #  5     ecut=    90.00 Ry     beta= 0.30
     Davidson diagonalization with overlap
     ethr =  7.79E-11,  avg # of iterations =  2.7

     total cpu time spent up to now is       57.2 secs

     total energy              =    -149.85505461 Ry
     estimated scf accuracy    <          8.6E-09 Ry

     iteration #  6     ecut=    90.00 Ry     beta= 0.30
     Davidson diagonalization with overlap
     ethr =  2.52E-11,  avg # of iterations =  2.2

     total cpu time spent up to now is       57.7 secs

     total energy              =    -149.85505461 Ry
     estimated scf accuracy    <          7.7E-10 Ry

     iteration #  7     ecut=    90.00 Ry     beta= 0.30
     Davidson diagonalization with overlap
     ethr =  2.26E-12,  avg # of iterations =  2.3

     total cpu time spent up to now is       58.3 secs

     total energy              =    -149.85505461 Ry
     estimated scf accuracy    <          5.4E-11 Ry

     iteration #  8     ecut=    90.00 Ry     beta= 0.30
     Davidson diagonalization with overlap
     ethr =  1.59E-13,  avg # of iterations =  3.2

     total cpu time spent up to now is       58.9 secs

     total energy              =    -149.85505461 Ry
     estimated scf accuracy    <          1.3E-11 Ry

     iteration #  9     ecut=    90.00 Ry     beta= 0.30
     Davidson diagonalization with overlap
     ethr =  1.00E-13,  avg # of iterations =  1.3

     total cpu time spent up to now is       59.4 secs

     End of self-consistent calculation

          k = 0.0000 0.0000 0.0000 (  9007 PWs)   bands (ev):

   -15.9660 -15.0335 -13.5297 -11.6757  -7.4540  -5.1307  -2.0860   1.0764
     2.5070   2.5070   3.0668   3.0668   3.7228   3.8964   3.8964   4.7321
     4.7321   7.4716   7.8644  10.1929  11.2180

          k = 0.0000 0.1154 0.0000 (  9091 PWs)   bands (ev):

   -15.7222 -14.7925 -13.2942 -11.4497  -7.2348  -4.9366  -1.9412   1.1000
     1.3371   1.9623   1.9806   2.5992   2.8100   3.4996   3.5507   3.8289
     4.3829   7.6777   8.1089  10.2311  11.2332

          k = 0.0000 0.2307 0.0000 (  9065 PWs)   bands (ev):

   -14.9947 -14.0738 -12.5929 -10.7779  -6.6116  -4.4011  -1.6794  -1.1346
    -0.5783   0.4785   0.9326   1.2957   1.5176   1.6134   2.5998   3.3163
     3.5521   8.3331   8.7604  10.3491  10.9928

          k = 0.0000 0.3461 0.0000 (  9068 PWs)   bands (ev):

   -13.7981 -12.8946 -11.4488  -9.6906  -5.8560  -4.3360  -3.5681  -3.2035
    -1.9843  -1.3888  -0.5358  -0.0406   0.6701   1.1223   1.7006   2.6454
     2.6918   9.4438   9.4880  10.3838  11.0751

          k = 0.0000 0.4614 0.0000 (  9102 PWs)   bands (ev):

   -12.1748 -11.3144  -9.9737  -8.4364  -6.8389  -6.5200  -5.2827  -3.8496
    -3.3557  -1.9041  -0.8355  -0.6867   0.0369   0.5729   1.0871   2.0338
     2.0962   9.7164  10.6636  10.8519  11.2841

          k =-0.0000-0.5768 0.0000 (  9104 PWs)   bands (ev):

   -10.5087 -10.2313  -9.5412  -8.5683  -7.5330  -7.3010  -6.0264  -5.7864
    -2.3278  -1.7713  -1.3727  -0.9103  -0.1831   0.3029   0.8727   1.7976
     1.8870  10.0479  10.3753  10.8572  11.7824

          k = 0.0999 0.1730 0.0000 (  9079 PWs)   bands (ev):

   -15.2365 -14.3125 -12.8257 -11.0006  -6.8118  -4.5688  -1.6961  -0.1091
     0.1343   0.7981   1.1006   1.4811   1.8095   2.1801   2.9098   3.0474
     3.8366   8.1316   8.5675  10.6141  11.2794

          k = 0.0999 0.2884 0.0000 (  9056 PWs)   bands (ev):

   -14.2740 -13.3628 -11.9014 -10.1179  -6.0707  -4.0021  -2.6379  -1.9627
    -1.4864  -0.8721  -0.3979   0.1132   0.8464   1.1276   1.4627   2.1529
     3.2690   9.0713   9.3678  10.9811  11.5558

          k = 0.0999 0.4037 0.0000 (  9070 PWs)   bands (ev):

   -12.8597 -11.9745 -10.5673  -8.8721  -5.9791  -5.3322  -4.1239  -3.6821
    -2.6182  -2.1577  -1.0771  -0.6029  -0.5418   0.3425   1.0626   1.4391
     2.4641  10.1148  10.4189  11.1382  11.9807

          k = 0.0999-0.6345 0.0000 (  9098 PWs)   bands (ev):

   -11.0841 -10.3176  -9.3088  -8.2547  -7.3803  -6.7549  -6.2066  -4.8119
    -2.7246  -1.7642  -1.4858  -1.3258  -0.8722   0.0733   0.4034   1.2595
     1.7876  10.4603  11.3157  11.7754  12.0191

          k = 0.1998 0.3461 0.0000 (  9033 PWs)   bands (ev):

   -13.0917 -12.2003 -10.7786  -9.0559  -5.6325  -4.3099  -3.6767  -3.0426
    -2.7962  -2.2976  -1.2193  -0.9392  -0.6684   0.1191   0.1354   1.2185
     2.6197  10.2488  10.3041  11.8157  12.3495

          k = 0.1998-0.6921 0.0000 (  9089 PWs)   bands (ev):

   -11.4961 -10.6533  -9.3468  -7.8343  -6.6074  -6.1257  -5.1174  -4.1653
    -3.0738  -2.7547  -2.2065  -1.9276  -1.2071  -0.7182  -0.0538   0.7007
     1.6937  10.9470  11.5385  12.2311  12.6902

          k = 0.1998-0.5768 0.0000 (  9114 PWs)   bands (ev):

    -9.8689  -9.6082  -8.9515  -7.9752  -7.1014  -6.8923  -5.6491  -5.5850
    -3.3558  -3.0021  -2.5059  -1.5168  -1.0403  -1.0255  -0.4354   0.6895
     1.0776  11.0105  12.0207  12.8508  12.9141

          k = 0.2997-0.6345 0.0000 (  9105 PWs)   bands (ev):

    -9.8229  -9.1530  -8.4004  -7.4518  -7.3470  -6.1697  -6.1323  -5.3833
    -3.9353  -3.6769  -2.9861  -2.6854  -1.3832  -0.3650  -0.0709  -0.0579
     0.6817  11.6333  11.6780  12.5234  12.9631

     the Fermi energy is     6.4111 ev

!    total energy              =    -149.85505461 Ry
     estimated scf accuracy    <          6.8E-12 Ry
     smearing contrib. (-TS)   =      -0.00000000 Ry
     internal energy E=F+TS    =    -149.85505461 Ry

     The total energy is F=E-TS. E is the sum of the following terms:
     one-electron contribution =    -882.81335892 Ry
     hartree contribution      =     457.21733853 Ry
     xc contribution           =     -38.86605553 Ry
     ewald contribution        =     363.91081890 Ry
     one-center paw contrib.   =     -49.30379759 Ry

     convergence has been achieved in   9 iterations

     Forces acting on atoms (cartesian axes, Ry/au):

     atom    1 type  1   force =     0.00000000    0.00000000    0.00010613
     atom    2 type  1   force =     0.00000000    0.00000000   -0.00028131
     atom    3 type  1   force =     0.00000000    0.00000000   -0.00044059
     atom    4 type  1   force =     0.00000000    0.00000000   -0.00022319
     atom    5 type  1   force =     0.00000000    0.00000000    0.00022319
     atom    6 type  1   force =     0.00000000    0.00000000    0.00044059
     atom    7 type  1   force =     0.00000000    0.00000000    0.00028131
     atom    8 type  1   force =     0.00000000    0.00000000   -0.00010613
     atom    9 type  2   force =     0.00000000    0.00000000    0.00029202
     atom   10 type  2   force =     0.00000000    0.00000000   -0.00029202

     Total force =     0.000916     Total SCF correction =     0.000008


     Computing stress (Cartesian axis) and pressure

          total   stress  (Ry/bohr**3)                   (kbar)     P=       -0.06
  -0.00000023  -0.00000000   0.00000000           -0.03       -0.00        0.00
  -0.00000000  -0.00000023   0.00000000           -0.00       -0.03        0.00
   0.00000000   0.00000000  -0.00000082            0.00        0.00       -0.12

     Energy error            =      3.7E-06 Ry
     Gradient error          =      4.4E-04 Ry/Bohr
     Cell gradient error     =      3.5E-02 kbar

     number of scf cycles    =   8
     number of bfgs steps    =   7

     enthalpy           old  =    -149.8550509349 Ry
     enthalpy           new  =    -149.8550546069 Ry

     CASE: enthalpy          _new < enthalpy          _old

     new trust radius        =       0.0007707735 bohr
     new conv_thr            =            1.0E-11 Ry

     new unit-cell volume =    630.98727 a.u.^3 (    93.50267 Ang^3 )
     density =      1.74226 g/cm^3

CELL_PARAMETERS (angstrom)
   2.528785156  -0.000000000   0.000000000
   1.264392578   2.189992182   0.000000000
   0.000000000   0.000000000  16.883772750

ATOMIC_POSITIONS (crystal)
C                0.3333333300        0.3333333300        0.6972235024
C                0.6666666700        0.6666666700        0.6683402528
C                0.6666666700        0.6666666700        0.5763082948
C                0.0000000000        0.0000000000        0.5458422720
C                0.0000000000        0.0000000000        0.4541577280
C                0.3333333300        0.3333333300        0.4236917052
C                0.3333333300        0.3333333300        0.3316597472
C                0.6666666700        0.6666666700        0.3027764976
H                0.3333333300        0.3333333300        0.7629058966
H                0.6666666700        0.6666666700        0.2370941034



     Writing config-only to output data dir /tmp/qe/slab.save/ :
     XML data file
     NEW-OLD atomic charge density approx. for the potential

     total cpu time spent up to now is       60.6 secs

     Self-consistent Calculation

     iteration #  1     ecut=    90.00 Ry     beta= 0.30
     Davidson diagonalization with overlap
     ethr =  1.00E-06,  avg # of iterations =  2.0

     Threshold (ethr) on eigenvalues was too large:
     Diagonalizing with lowered threshold

     Davidson diagonalization with overlap
     ethr =  8.39E-10,  avg # of iterations =  4.6

     total cpu time spent up to now is       61.8 secs

     total energy              =    -149.85505527 Ry
     estimated scf accuracy    <       0.00000032 Ry

     iteration #  2     ecut=    90.00 Ry     beta= 0.30
     Davidson diagonalization with overlap
     ethr =  9.38E-10,  avg # of iterations =  2.0

     total cpu time spent up to now is       62.3 secs

     total energy              =    -149.85505528 Ry
     estimated scf accuracy    <       0.00000009 Ry

     iteration #  3     ecut=    90.00 Ry     beta= 0.30
     Davidson diagonalization with overlap
     ethr =  2.67E-10,  avg # of iterations =  1.3

     total cpu time spent up to now is       62.8 secs

     total energy              =    -149.85505528 Ry
     estimated scf accuracy    <       0.00000002 Ry

     iteration #  4     ecut=    90.00 Ry     beta= 0.30
     Davidson diagonalization with overlap
     ethr =  7.29E-11,  avg # of iterations =  1.9

     total cpu time spent up to now is       63.4 secs

     total energy              =    -149.85505528 Ry
     estimated scf accuracy    <          2.9E-09 Ry

     iteration #  5     ecut=    90.00 Ry     beta= 0.30
     Davidson diagonalization with overlap
     ethr =  8.52E-12,  avg # of iterations =  2.1

     total cpu time spent up to now is       63.9 secs

     total energy              =    -149.85505528 Ry
     estimated scf accuracy    <          4.0E-10 Ry

     iteration #  6     ecut=    90.00 Ry     beta= 0.30
     Davidson diagonalization with overlap
     ethr =  1.16E-12,  avg # of iterations =  2.4

     total cpu time spent up to now is       64.5 secs

     total energy              =    -149.85505528 Ry
     estimated scf accuracy    <          5.1E-11 Ry

     iteration #  7     ecut=    90.00 Ry     beta= 0.30
     Davidson diagonalization with overlap
     ethr =  1.51E-13,  avg # of iterations =  2.9

     total cpu time spent up to now is       65.1 secs

     total energy              =    -149.85505528 Ry
     estimated scf accuracy    <          2.0E-11 Ry

     iteration #  8     ecut=    90.00 Ry     beta= 0.30
     Davidson diagonalization with overlap
     ethr =  1.00E-13,  avg # of iterations =  1.7

     total cpu time spent up to now is       65.7 secs

     End of self-consistent calculation

          k = 0.0000 0.0000 0.0000 (  9007 PWs)   bands (ev):

   -15.9681 -15.0329 -13.5303 -11.6755  -7.4545  -5.1294  -2.0866   1.0763
     2.5052   2.5052   3.0676   3.0676   3.7226   3.8967   3.8967   4.7316
     4.7316   7.4718   7.8644  10.1926  11.2173

          k = 0.0000 0.1154 0.0000 (  9091 PWs)   bands (ev):

   -15.7243 -14.7919 -13.2947 -11.4494  -7.2352  -4.9353  -1.9417   1.0998
     1.3354   1.9630   1.9788   2.5999   2.8101   3.4998   3.5506   3.8285
     4.3825   7.6779   8.1089  10.2307  11.2333

          k = 0.0000 0.2307 0.0000 (  9065 PWs)   bands (ev):

   -14.9968 -14.0732 -12.5934 -10.7777  -6.6121  -4.3998  -1.6806  -1.1358
    -0.5776   0.4786   0.9308   1.2957   1.5173   1.6143   2.5999   3.3160
     3.5517   8.3331   8.7603  10.3489  10.9929

          k = 0.0000 0.3461 0.0000 (  9068 PWs)   bands (ev):

   -13.8002 -12.8940 -11.4493  -9.6904  -5.8567  -4.3361  -3.5688  -3.2029
    -1.9841  -1.3890  -0.5362  -0.0425   0.6709   1.1223   1.7007   2.6450
     2.6914   9.4436   9.4881  10.3833  11.0754

          k = 0.0000 0.4614 0.0000 (  9102 PWs)   bands (ev):

   -12.1768 -11.3138  -9.9741  -8.4364  -6.8407  -6.5196  -5.2827  -3.8495
    -3.3561  -1.9032  -0.8361  -0.6886   0.0378   0.5730   1.0872   2.0336
     2.0958   9.7159  10.6637  10.8513  11.2840

          k =-0.0000-0.5768 0.0000 (  9104 PWs)   bands (ev):

   -10.5112 -10.2317  -9.5411  -8.5676  -7.5346  -7.3007  -6.0265  -5.7860
    -2.3274  -1.7726  -1.3717  -0.9122  -0.1822   0.3032   0.8729   1.7974
     1.8866  10.0461  10.3759  10.8577  11.7823

          k = 0.0999 0.1730 0.0000 (  9079 PWs)   bands (ev):

   -15.2386 -14.3119 -12.8262 -11.0004  -6.8123  -4.5675  -1.6967  -0.1109
     0.1338   0.7985   1.1008   1.4809   1.8084   2.1808   2.9093   3.0474
     3.8362   8.1317   8.5674  10.6138  11.2796

          k = 0.0999 0.2884 0.0000 (  9056 PWs)   bands (ev):

   -14.2760 -13.3622 -11.9019 -10.1177  -6.0712  -4.0008  -2.6400  -1.9622
    -1.4868  -0.8723  -0.3983   0.1125   0.8467   1.1278   1.4623   2.1527
     3.2687   9.0713   9.3677  10.9811  11.5559

          k = 0.0999 0.4037 0.0000 (  9070 PWs)   bands (ev):

   -12.8618 -11.9739 -10.5678  -8.8720  -5.9804  -5.3323  -4.1236  -3.6825
    -2.6181  -2.1575  -1.0785  -0.6029  -0.5417   0.3427   1.0626   1.4389
     2.4638  10.1148  10.4187  11.1378  11.9811

          k = 0.0999-0.6345 0.0000 (  9098 PWs)   bands (ev):

   -11.0862 -10.3171  -9.3097  -8.2548  -7.3805  -6.7558  -6.2063  -4.8118
    -2.7248  -1.7660  -1.4849  -1.3262  -0.8718   0.0735   0.4036   1.2591
     1.7874  10.4605  11.3145  11.7753  12.0192

          k = 0.1998 0.3461 0.0000 (  9033 PWs)   bands (ev):

   -13.0938 -12.1996 -10.7790  -9.0557  -5.6333  -4.3092  -3.6787  -3.0420
    -2.7968  -2.2971  -1.2199  -0.9388  -0.6685   0.1183   0.1356   1.2185
     2.6194  10.2487  10.3038  11.8156  12.3508

          k = 0.1998-0.6921 0.0000 (  9089 PWs)   bands (ev):

   -11.4982 -10.6527  -9.3473  -7.8343  -6.6086  -6.1257  -5.1175  -4.1657
    -3.0750  -2.7550  -2.2064  -1.9268  -1.2069  -0.7181  -0.0543   0.7008
     1.6935  10.9472  11.5382  12.2317  12.6900

          k = 0.1998-0.5768 0.0000 (  9114 PWs)   bands (ev):

    -9.8714  -9.6086  -8.9516  -7.9744  -7.1012  -6.8938  -5.6493  -5.5847
    -3.3577  -3.0018  -2.5057  -1.5162  -1.0409  -1.0254  -0.4351   0.6896
     1.0773  11.0111  12.0201  12.8504  12.9146

          k = 0.2997-0.6345 0.0000 (  9105 PWs)   bands (ev):

    -9.8250  -9.1525  -8.4022  -7.4513  -7.3463  -6.1700  -6.1334  -5.3837
    -3.9365  -3.6763  -2.9867  -2.6846  -1.3832  -0.3643  -0.0707  -0.0588
     0.6817  11.6341  11.6780  12.5235  12.9628

     the Fermi energy is     6.4104 ev

!    total energy              =    -149.85505528 Ry
     estimated scf accuracy    <          9.6E-13 Ry
     smearing contrib. (-TS)   =      -0.00000000 Ry
     internal energy E=F+TS    =    -149.85505528 Ry

     The total energy is F=E-TS. E is the sum of the following terms:
     one-electron contribution =    -882.98710254 Ry
     hartree contribution      =     457.30399734 Ry
     xc contribution           =     -38.86619752 Ry
     ewald contribution        =     363.99805117 Ry
     one-center paw contrib.   =     -49.30380373 Ry

     convergence has been achieved in   8 iterations

     Forces acting on atoms (cartesian axes, Ry/au):

     atom    1 type  1   force =     0.00000000    0.00000000    0.00006772
     atom    2 type  1   force =     0.00000000    0.00000000   -0.00005878
     atom    3 type  1   force =     0.00000000    0.00000000   -0.00004219
     atom    4 type  1   force =     0.00000000    0.00000000   -0.00008615
     atom    5 type  1   force =     0.00000000    0.00000000    0.00008615
     atom    6 type  1   force =     0.00000000    0.00000000    0.00004219
     atom    7 type  1   force =     0.00000000    0.00000000    0.00005878
     atom    8 type  1   force =     0.00000000    0.00000000   -0.00006772
     atom    9 type  2   force =     0.00000000    0.00000000    0.00006336
     atom   10 type  2   force =     0.00000000    0.00000000   -0.00006336

     Total force =     0.000206     Total SCF correction =     0.000001


     Computing stress (Cartesian axis) and pressure

          total   stress  (Ry/bohr**3)                   (kbar)     P=       -0.01
  -0.00000004  -0.00000000   0.00000000           -0.01       -0.00        0.00
  -0.00000000  -0.00000004   0.00000000           -0.00       -0.01        0.00
   0.00000000   0.00000000  -0.00000016            0.00        0.00       -0.02

     Energy error            =      6.8E-07 Ry
     Gradient error          =      8.6E-05 Ry/Bohr
     Cell gradient error     =      6.0E-03 kbar

     bfgs converged in   9 scf cycles and   8 bfgs steps
     (criteria: energy <  1.0E-05 Ry, force <  1.0E-04 Ry/Bohr, cell <  1.0E-01 kbar)

     End of BFGS Geometry Optimization

     Final enthalpy           =    -149.8550552830 Ry

     File /tmp/qe/slab.bfgs deleted, as requested
Begin final coordinates
     new unit-cell volume =    630.98727 a.u.^3 (    93.50267 Ang^3 )
     density =      1.74226 g/cm^3

CELL_PARAMETERS (angstrom)
   2.528785156  -0.000000000   0.000000000
   1.264392578   2.189992182   0.000000000
   0.000000000   0.000000000  16.883772750

ATOMIC_POSITIONS (crystal)
C                0.3333333300        0.3333333300        0.6972235024
C                0.6666666700        0.6666666700        0.6683402528
C                0.6666666700        0.6666666700        0.5763082948
C                0.0000000000        0.0000000000        0.5458422720
C                0.0000000000        0.0000000000        0.4541577280
C                0.3333333300        0.3333333300        0.4236917052
C                0.3333333300        0.3333333300        0.3316597472
C                0.6666666700        0.6666666700        0.3027764976
H                0.3333333300        0.3333333300        0.7629058966
H                0.6666666700        0.6666666700        0.2370941034
End final coordinates



     Writing config-only to output data dir /tmp/qe/slab.save/ :
     XML data file

     Final scf calculation at the relaxed structure.
     The G-vectors are recalculated for the final unit cell
     Results may differ from those at the preceding step.

     Parallelization info
     --------------------
     sticks:   dense  smooth     PW     G-vecs:    dense   smooth      PW
     Min         141      70     20                25735     9106    1488
     Max         142      74     21                25764     9113    1519
     Sum        1135     571    163               206055    72871   11991

     Using Slab Decomposition



     bravais-lattice index     =            0
     lattice parameter (alat)  =       4.7740  a.u.
     unit-cell volume          =     630.9873 (a.u.)^3
     number of atoms/cell      =           10
     number of atomic types    =            2
     number of electrons       =        34.00
     number of Kohn-Sham states=           21
     kinetic-energy cutoff     =      90.0000  Ry
     charge density cutoff     =     720.0000  Ry
     scf convergence threshold =      1.0E-11
     mixing beta               =       0.3000
     number of iterations used =            8  plain     mixing
     press convergence thresh. =      1.0E-01
     Exchange-correlation= PBE
                           (   1   4   3   4   0   0   0)

     celldm(1)=   4.773978  celldm(2)=   0.000000  celldm(3)=   0.000000
     celldm(4)=   0.000000  celldm(5)=   0.000000  celldm(6)=   0.000000

     crystal axes: (cart. coord. in units of alat)
               a(1) = (   1.000991  -0.000000   0.000000 )  
               a(2) = (   0.500496   0.866884   0.000000 )  
               a(3) = (   0.000000   0.000000   6.683254 )  

     reciprocal axes: (cart. coord. in units 2 pi/alat)
               b(1) = (  0.999010 -0.576778  0.000000 )  
               b(2) = (  0.000000  1.153557 -0.000000 )  
               b(3) = ( -0.000000  0.000000  0.149628 )  


     PseudoPot. # 1 for C  read from file:
     ./C.pbe-n-kjpaw_psl.1.0.0.UPF
     MD5 check sum: 5d2aebdfa2cae82b50a7e79e9516da0f
     Pseudo is Projector augmented-wave + core cor, Zval =  4.0
     Generated using "atomic" code by A. Dal Corso  v.5.1
     Shape of augmentation charge: PSQ
     Using radial grid of 1073 points,  4 beta functions with: 
                l(1) =   0
                l(2) =   0
                l(3) =   1
                l(4) =   1
     Q(r) pseudized with 0 coefficients 


     PseudoPot. # 2 for H  read from file:
     ./H_ONCV_PBE-1.0.oncvpsp.upf
     MD5 check sum: 1790becc920ee074925cf490c71280fe
     Pseudo is Norm-conserving, Zval =  1.0
     Generated using ONCVPSP code by D. R. Hamann
     Using radial grid of 1166 points,  2 beta functions with: 
                l(1) =   0
                l(2) =   0

     atomic species   valence    mass     pseudopotential
     C                 4.00    12.01100     C ( 1.00)
     H                 1.00     1.00800     H ( 1.00)

     12 Sym. Ops., with inversion, found



   Cartesian axes

     site n.     atom                  positions (alat units)
         1        C      tau(   1) = (   0.5004957   0.2889613   4.6597215  )
         2        C      tau(   2) = (   1.0009915   0.5779227   4.4666874  )
         3        C      tau(   3) = (   1.0009915   0.5779227   3.8516145  )
         4        C      tau(   4) = (   0.0000000   0.0000000   3.6480024  )
         5        C      tau(   5) = (   0.0000000   0.0000000   3.0352513  )
         6        C      tau(   6) = (   0.5004957   0.2889613   2.8316391  )
         7        C      tau(   7) = (   0.5004957   0.2889613   2.2165662  )
         8        C      tau(   8) = (   1.0009915   0.5779227   2.0235321  )
         9        H      tau(   9) = (   0.5004957   0.2889613   5.0986936  )
        10        H      tau(  10) = (   1.0009915   0.5779227   1.5845600  )

     number of k points=    14  Marzari-Vanderbilt smearing, width (Ry)=  0.0100
                       cart. coord. in units 2pi/alat
        k(    1) = (   0.0000000   0.0000000   0.0000000), wk =   0.0200000
        k(    2) = (   0.0000000   0.1153557   0.0000000), wk =   0.1200000
        k(    3) = (   0.0000000   0.2307114   0.0000000), wk =   0.1200000
        k(    4) = (   0.0000000   0.3460670   0.0000000), wk =   0.1200000
        k(    5) = (   0.0000000   0.4614227   0.0000000), wk =   0.1200000
        k(    6) = (  -0.0000000  -0.5767784   0.0000000), wk =   0.0600000
        k(    7) = (   0.0999010   0.1730335   0.0000000), wk =   0.1200000
        k(    8) = (   0.0999010   0.2883892   0.0000000), wk =   0.2400000
        k(    9) = (   0.0999010   0.4037449   0.0000000), wk =   0.2400000
        k(   10) = (   0.0999010  -0.6344562   0.0000000), wk =   0.2400000
        k(   11) = (   0.1998019   0.3460670   0.0000000), wk =   0.1200000
        k(   12) = (   0.1998019  -0.6921341   0.0000000), wk =   0.2400000
        k(   13) = (   0.1998019  -0.5767784   0.0000000), wk =   0.1200000
        k(   14) = (   0.2997029  -0.6344562   0.0000000), wk =   0.1200000

     Dense  grid:   206055 G-vectors     FFT dimensions: (  45,  45, 288)

     Smooth grid:    72871 G-vectors     FFT dimensions: (  30,  30, 200)

     Estimated max dynamical RAM per process >      51.63 MB

     Estimated total dynamical RAM >     413.01 MB

     Initial potential from superposition of free atoms

     starting charge      33.9996, renormalised to      34.0000
     Starting wfcs are   34 randomized atomic wfcs
     Checking if some PAW data can be deallocated... 

     total cpu time spent up to now is       67.1 secs

     Self-consistent Calculation

     iteration #  1     ecut=    90.00 Ry     beta= 0.30
     Davidson diagonalization with overlap
     c_bands:  1 eigenvalues not converged
     c_bands:  1 eigenvalues not converged
     c_bands:  1 eigenvalues not converged
     c_bands:  1 eigenvalues not converged
     c_bands:  2 eigenvalues not converged
     c_bands:  1 eigenvalues not converged
     c_bands:  1 eigenvalues not converged
     c_bands:  2 eigenvalues not converged
     c_bands:  1 eigenvalues not converged
     c_bands:  2 eigenvalues not converged
     c_bands:  1 eigenvalues not converged
     c_bands:  2 eigenvalues not converged
     c_bands:  1 eigenvalues not converged
     ethr =  1.00E-06,  avg # of iterations = 19.8

     negative rho (up, down):  1.051E-08 0.000E+00

     total cpu time spent up to now is       68.7 secs

     total energy              =    -149.89579141 Ry
     estimated scf accuracy    <       0.75067539 Ry

     iteration #  2     ecut=    90.00 Ry     beta= 0.30
     Davidson diagonalization with overlap
     ethr =  2.21E-03,  avg # of iterations =  2.1

     negative rho (up, down):  1.978E-07 0.000E+00

     total cpu time spent up to now is       69.3 secs

     total energy              =    -149.84382762 Ry
     estimated scf accuracy    <       0.22579898 Ry

     iteration #  3     ecut=    90.00 Ry     beta= 0.30
     Davidson diagonalization with overlap
     ethr =  6.64E-04,  avg # of iterations =  4.6

     negative rho (up, down):  5.770E-08 0.000E+00

     total cpu time spent up to now is       69.8 secs

     total energy              =    -149.85396606 Ry
     estimated scf accuracy    <       0.02767455 Ry

     iteration #  4     ecut=    90.00 Ry     beta= 0.30
     Davidson diagonalization with overlap
     ethr =  8.14E-05,  avg # of iterations =  4.2

     negative rho (up, down):  1.836E-08 0.000E+00

     total cpu time spent up to now is       70.4 secs

     total energy              =    -149.85463682 Ry
     estimated scf accuracy    <       0.00384198 Ry

     iteration #  5     ecut=    90.00 Ry     beta= 0.30
     Davidson diagonalization with overlap
     ethr =  1.13E-05,  avg # of iterations =  4.6

     total cpu time spent up to now is       71.0 secs

     total energy              =    -149.85500537 Ry
     estimated scf accuracy    <       0.00024546 Ry

     iteration #  6     ecut=    90.00 Ry     beta= 0.30
     Davidson diagonalization with overlap
     ethr =  7.22E-07,  avg # of iterations =  3.5

     total cpu time spent up to now is       71.6 secs

     total energy              =    -149.85504741 Ry
     estimated scf accuracy    <       0.00005515 Ry

     iteration #  7     ecut=    90.00 Ry     beta= 0.30
     Davidson diagonalization with overlap
     ethr =  1.62E-07,  avg # of iterations =  2.1

     total cpu time spent up to now is       72.2 secs

     total energy              =    -149.85505337 Ry
     estimated scf accuracy    <       0.00001396 Ry

     iteration #  8     ecut=    90.00 Ry     beta= 0.30
     Davidson diagonalization with overlap
     ethr =  4.10E-08,  avg # of iterations =  2.1

     total cpu time spent up to now is       72.8 secs

     total energy              =    -149.85505620 Ry
     estimated scf accuracy    <       0.00000092 Ry

     iteration #  9     ecut=    90.00 Ry     beta= 0.30
     Davidson diagonalization with overlap
     ethr =  2.70E-09,  avg # of iterations =  3.1

     total cpu time spent up to now is       73.4 secs

     total energy              =    -149.85505652 Ry
     estimated scf accuracy    <       0.00000037 Ry

     iteration # 10     ecut=    90.00 Ry     beta= 0.30
     Davidson diagonalization with overlap
     ethr =  1.08E-09,  avg # of iterations =  2.0

     total cpu time spent up to now is       74.0 secs

     total energy              =    -149.85505651 Ry
     estimated scf accuracy    <       0.00000012 Ry

     iteration # 11     ecut=    90.00 Ry     beta= 0.30
     Davidson diagonalization with overlap
     ethr =  3.57E-10,  avg # of iterations =  2.9

     total cpu time spent up to now is       74.6 secs

     total energy              =    -149.85505655 Ry
     estimated scf accuracy    <       0.00000006 Ry

     iteration # 12     ecut=    90.00 Ry     beta= 0.30
     Davidson diagonalization with overlap
     ethr =  1.74E-10,  avg # of iterations =  2.0

     total cpu time spent up to now is       75.1 secs

     total energy              =    -149.85505655 Ry
     estimated scf accuracy    <       0.00000002 Ry

     iteration # 13     ecut=    90.00 Ry     beta= 0.30
     Davidson diagonalization with overlap
     ethr =  4.48E-11,  avg # of iterations =  3.5

     total cpu time spent up to now is       75.8 secs

     total energy              =    -149.85505656 Ry
     estimated scf accuracy    <          3.2E-09 Ry

     iteration # 14     ecut=    90.00 Ry     beta= 0.30
     Davidson diagonalization with overlap
     ethr =  9.32E-12,  avg # of iterations =  2.6

     total cpu time spent up to now is       76.3 secs

     total energy              =    -149.85505656 Ry
     estimated scf accuracy    <          1.3E-10 Ry

     iteration # 15     ecut=    90.00 Ry     beta= 0.30
     Davidson diagonalization with overlap
     ethr =  3.97E-13,  avg # of iterations =  3.6

     total cpu time spent up to now is       77.0 secs

     total energy              =    -149.85505656 Ry
     estimated scf accuracy    <          4.5E-11 Ry

     iteration # 16     ecut=    90.00 Ry     beta= 0.30
     Davidson diagonalization with overlap
     ethr =  1.32E-13,  avg # of iterations =  1.9

     total cpu time spent up to now is       77.5 secs

     End of self-consistent calculation

          k = 0.0000 0.0000 0.0000 (  9079 PWs)   bands (ev):

   -15.9681 -15.0329 -13.5303 -11.6755  -7.4545  -5.1294  -2.0866   1.0763
     2.5052   2.5052   3.0676   3.0676   3.7226   3.8967   3.8967   4.7316
     4.7316   7.4719   7.8644  10.1926  11.2173

          k = 0.0000 0.1154 0.0000 (  9103 PWs)   bands (ev):

   -15.7243 -14.7919 -13.2947 -11.4495  -7.2352  -4.9353  -1.9417   1.0998
     1.3354   1.9630   1.9788   2.5999   2.8101   3.4998   3.5506   3.8285
     4.3825   7.6779   8.1089  10.2308  11.2333

          k = 0.0000 0.2307 0.0000 (  9079 PWs)   bands (ev):

   -14.9968 -14.0732 -12.5934 -10.7777  -6.6121  -4.3998  -1.6806  -1.1358
    -0.5776   0.4786   0.9308   1.2957   1.5173   1.6143   2.5999   3.3160
     3.5517   8.3332   8.7604  10.3489  10.9930

          k = 0.0000 0.3461 0.0000 (  9076 PWs)   bands (ev):

   -13.8002 -12.8940 -11.4493  -9.6904  -5.8567  -4.3361  -3.5688  -3.2029
    -1.9841  -1.3890  -0.5362  -0.0425   0.6709   1.1223   1.7007   2.6450
     2.6914   9.4436   9.4881  10.3833  11.0754

          k = 0.0000 0.4614 0.0000 (  9122 PWs)   bands (ev):

   -12.1768 -11.3138  -9.9742  -8.4364  -6.8407  -6.5196  -5.2827  -3.8495
    -3.3561  -1.9032  -0.8361  -0.6886   0.0378   0.5730   1.0872   2.0336
     2.0958   9.7159  10.6637  10.8513  11.2840

          k =-0.0000-0.5768 0.0000 (  9112 PWs)   bands (ev):

   -10.5112 -10.2317  -9.5411  -8.5676  -7.5346  -7.3007  -6.0265  -5.7860
    -2.3274  -1.7726  -1.3717  -0.9122  -0.1822   0.3032   0.8728   1.7974
     1.8866  10.0461  10.3759  10.8577  11.7823

          k = 0.0999 0.1730 0.0000 (  9103 PWs)   bands (ev):

   -15.2386 -14.3119 -12.8262 -11.0004  -6.8123  -4.5675  -1.6968  -0.1109
     0.1338   0.7985   1.1008   1.4809   1.8084   2.1808   2.9093   3.0474
     3.8362   8.1318   8.5674  10.6139  11.2796

          k = 0.0999 0.2884 0.0000 (  9077 PWs)   bands (ev):

   -14.2760 -13.3622 -11.9019 -10.1177  -6.0712  -4.0008  -2.6400  -1.9622
    -1.4868  -0.8723  -0.3983   0.1125   0.8467   1.1278   1.4623   2.1527
     3.2687   9.0714   9.3677  10.9811  11.5560

          k = 0.0999 0.4037 0.0000 (  9088 PWs)   bands (ev):

   -12.8618 -11.9739 -10.5678  -8.8720  -5.9804  -5.3323  -4.1237  -3.6825
    -2.6181  -2.1575  -1.0785  -0.6029  -0.5417   0.3427   1.0626   1.4389
     2.4638  10.1148  10.4187  11.1378  11.9811

          k = 0.0999-0.6345 0.0000 (  9114 PWs)   bands (ev):

   -11.0862 -10.3171  -9.3097  -8.2548  -7.3805  -6.7558  -6.2063  -4.8118
    -2.7248  -1.7660  -1.4849  -1.3262  -0.8718   0.0735   0.4036   1.2591
     1.7874  10.4605  11.3145  11.7753  12.0192

          k = 0.1998 0.3461 0.0000 (  9065 PWs)   bands (ev):

   -13.0938 -12.1996 -10.7790  -9.0557  -5.6333  -4.3092  -3.6787  -3.0420
    -2.7968  -2.2971  -1.2199  -0.9388  -0.6685   0.1183   0.1356   1.2185
     2.6194  10.2487  10.3038  11.8156  12.3508

          k = 0.1998-0.6921 0.0000 (  9101 PWs)   bands (ev):

   -11.4982 -10.6527  -9.3473  -7.8343  -6.6086  -6.1257  -5.1175  -4.1657
    -3.0750  -2.7550  -2.2064  -1.9268  -1.2069  -0.7181  -0.0543   0.7008
     1.6935  10.9472  11.5382  12.2317  12.6900

          k = 0.1998-0.5768 0.0000 (  9130 PWs)   bands (ev):

    -9.8714  -9.6086  -8.9516  -7.9744  -7.1012  -6.8938  -5.6493  -5.5847
    -3.3577  -3.0018  -2.5057  -1.5162  -1.0409  -1.0254  -0.4351   0.6895
     1.0773  11.0110  12.0201  12.8504  12.9146

          k = 0.2997-0.6345 0.0000 (  9129 PWs)   bands (ev):

    -9.8250  -9.1525  -8.4022  -7.4513  -7.3463  -6.1700  -6.1334  -5.3837
    -3.9365  -3.6763  -2.9867  -2.6846  -1.3832  -0.3643  -0.0707  -0.0588
     0.6817  11.6341  11.6780  12.5235  12.9628

     the Fermi energy is     6.4104 ev

!    total energy              =    -149.85505656 Ry
     estimated scf accuracy    <          2.4E-12 Ry
     smearing contrib. (-TS)   =      -0.00000000 Ry
     internal energy E=F+TS    =    -149.85505656 Ry

     The total energy is F=E-TS. E is the sum of the following terms:
     one-electron contribution =    -882.98713522 Ry
     hartree contribution      =     457.30402863 Ry
     xc contribution           =     -38.86619780 Ry
     ewald contribution        =     363.99805117 Ry
     one-center paw contrib.   =     -49.30380333 Ry

     convergence has been achieved in  16 iterations

     Forces acting on atoms (cartesian axes, Ry/au):

     atom    1 type  1   force =     0.00000000    0.00000000    0.00006723
     atom    2 type  1   force =     0.00000000    0.00000000   -0.00005939
     atom    3 type  1   force =     0.00000000    0.00000000   -0.00004239
     atom    4 type  1   force =     0.00000000    0.00000000   -0.00008583
     atom    5 type  1   force =     0.00000000    0.00000000    0.00008583
     atom    6 type  1   force =     0.00000000    0.00000000    0.00004239
     atom    7 type  1   force =     0.00000000    0.00000000    0.00005939
     atom    8 type  1   force =     0.00000000    0.00000000   -0.00006723
     atom    9 type  2   force =     0.00000000    0.00000000    0.00006330
     atom   10 type  2   force =     0.00000000    0.00000000   -0.00006330

     Total force =     0.000206     Total SCF correction =     0.000004


     Computing stress (Cartesian axis) and pressure

          total   stress  (Ry/bohr**3)                   (kbar)     P=       -0.01
  -0.00000003   0.00000000   0.00000000           -0.00        0.00        0.00
   0.00000000  -0.00000003   0.00000000            0.00       -0.00        0.00
   0.00000000   0.00000000  -0.00000016            0.00        0.00       -0.02


     Writing all to output data dir /tmp/qe/slab.save/ :
     XML data file, charge density, pseudopotentials, collected wavefunctions

     init_run     :      0.91s CPU      1.14s WALL (       2 calls)
     electrons    :     64.90s CPU     65.93s WALL (      10 calls)
     update_pot   :      0.83s CPU      0.84s WALL (       8 calls)
     forces       :      1.22s CPU      1.24s WALL (      10 calls)
     stress       :      8.39s CPU      8.41s WALL (      10 calls)

     Called by init_run:
     wfcinit      :      0.47s CPU      0.56s WALL (       2 calls)
     potinit      :      0.21s CPU      0.24s WALL (       2 calls)
     hinit0       :      0.11s CPU      0.19s WALL (       2 calls)

     Called by electrons:
     c_bands      :     41.85s CPU     42.48s WALL (     112 calls)
     sum_band     :     10.47s CPU     10.62s WALL (     112 calls)
     v_of_rho     :      3.97s CPU      4.03s WALL (     116 calls)
     newd         :      1.98s CPU      2.02s WALL (     116 calls)
     PAW_pot      :      7.64s CPU      7.67s WALL (     124 calls)
     mix_rho      :      0.30s CPU      0.31s WALL (     112 calls)

     Called by c_bands:
     init_us_2    :      1.33s CPU      1.36s WALL (    3556 calls)
     cegterg      :     39.76s CPU     40.34s WALL (    1568 calls)

     Called by *egterg:
     cdiaghg      :      2.32s CPU      2.44s WALL (    5709 calls)
     h_psi        :     32.55s CPU     33.04s WALL (    5933 calls)
     s_psi        :      1.05s CPU      1.06s WALL (    5933 calls)
     g_psi        :      0.21s CPU      0.22s WALL (    4337 calls)

     Called by h_psi:
     h_psi:calbec :      1.33s CPU      1.37s WALL (    5933 calls)
     vloc_psi     :     29.89s CPU     30.32s WALL (    5933 calls)
     add_vuspsi   :      1.15s CPU      1.17s WALL (    5933 calls)

     General routines
     calbec       :      2.14s CPU      2.19s WALL (    8313 calls)
     fft          :      1.68s CPU      1.83s WALL (    1752 calls)
     ffts         :      0.06s CPU      0.08s WALL (     228 calls)
     fftw         :     26.82s CPU     27.18s WALL (  205636 calls)
     interpolate  :      0.14s CPU      0.16s WALL (     116 calls)

     Parallel routines

     PWSCF        :   1m17.13s CPU   1m18.59s WALL


   This run was terminated on:  14:22:43   2Aug2026            

=------------------------------------------------------------------------------=
   JOB DONE.
=------------------------------------------------------------------------------=
Note: The following floating-point exceptions are signalling: IEEE_UNDERFLOW_FLAG IEEE_DENORMAL
Note: The following floating-point exceptions are signalling: IEEE_UNDERFLOW_FLAG IEEE_DENORMAL
Note: The following floating-point exceptions are signalling: IEEE_UNDERFLOW_FLAG IEEE_DENORMAL
Note: The following floating-point exceptions are signalling: IEEE_UNDERFLOW_FLAG IEEE_DENORMAL
Note: The following floating-point exceptions are signalling: IEEE_UNDERFLOW_FLAG IEEE_DENORMAL
Note: The following floating-point exceptions are signalling: IEEE_UNDERFLOW_FLAG IEEE_DENORMAL
Note: The following floating-point exceptions are signalling: IEEE_UNDERFLOW_FLAG IEEE_DENORMAL
Note: The following floating-point exceptions are signalling: IEEE_UNDERFLOW_FLAG IEEE_DENORMAL
