
     Program PWSCF v.7.3.1 starts on  1Aug2026 at 18:41:15 

     This program is part of the open-source Quantum ESPRESSO suite
     for quantum simulation of materials; please cite
         "P. Giannozzi et al., J. Phys.:Condens. Matter 21 395502 (2009);
         "P. Giannozzi et al., J. Phys.:Condens. Matter 29 465901 (2017);
         "P. Giannozzi et al., J. Chem. Phys. 152 154105 (2020);
          URL http://www.quantum-espresso.org", 
     in publications or presentations arising from this work. More details at
     http://www.quantum-espresso.org/quote

     Parallel version (MPI), running on     8 processors

     MPI processes distributed on     1 nodes
     185796 MiB available memory on the printing compute node when the environment starts

     Reading input from pw.in

     Current dimensions of program PWSCF are:
     Max number of different atomic species (ntypx) = 10
     Max number of k-points (npk) =  40000
     Max angular momentum in pseudopotentials (lmaxx) =  4
     file C.pbe-n-kjpaw_psl.1.0.0.UPF: wavefunction(s)  2S 2P renormalized
     Message from routine volume:
     axis vectors are left-handed
     Message from routine setup:
     using ibrav=0 with symmetry is DISCOURAGED, use correct ibrav instead

     R & G space division:  proc/nbgrp/npool/nimage =       8
     Subspace diagonalization in iterative solution of the eigenvalue problem:
     a serial algorithm will be used


     Parallelization info
     --------------------
     sticks:   dense  smooth     PW     G-vecs:    dense   smooth      PW
     Min         230     115     32                58836    20797    3204
     Max         231     116     33                58867    20826    3231
     Sum        1845     921    263               470831   166459   25763

     Using Slab Decomposition



     bravais-lattice index     =            0
     lattice parameter (alat)  =       4.7752  a.u.
     unit-cell volume          =    1442.9506 (a.u.)^3
     number of atoms/cell      =           28
     number of atomic types    =            2
     number of electrons       =       100.00
     number of Kohn-Sham states=           60
     kinetic-energy cutoff     =      90.0000  Ry
     charge density cutoff     =     720.0000  Ry
     scf convergence threshold =      1.0E-08
     mixing beta               =       0.3000
     number of iterations used =            8  plain     mixing
     Exchange-correlation= PBE
                           (   1   4   3   4   0   0   0)

     celldm(1)=   4.775235  celldm(2)=   0.000000  celldm(3)=   0.000000
     celldm(4)=   0.000000  celldm(5)=   0.000000  celldm(6)=   0.000000

     crystal axes: (cart. coord. in units of alat)
               a(1) = (   1.000000   0.000000   0.000000 )  
               a(2) = (   0.000000  -1.414214   0.000000 )  
               a(3) = (   0.000000   0.000000   9.370270 )  

     reciprocal axes: (cart. coord. in units 2 pi/alat)
               b(1) = (  1.000000 -0.000000 -0.000000 )  
               b(2) = ( -0.000000 -0.707107 -0.000000 )  
               b(3) = ( -0.000000 -0.000000  0.106721 )  


     PseudoPot. # 1 for C  read from file:
     ./C.pbe-n-kjpaw_psl.1.0.0.UPF
     MD5 check sum: 5d2aebdfa2cae82b50a7e79e9516da0f
     Pseudo is Projector augmented-wave + core cor, Zval =  4.0
     Generated using "atomic" code by A. Dal Corso  v.5.1
     Shape of augmentation charge: PSQ
     Using radial grid of 1073 points,  4 beta functions with: 
                l(1) =   0
                l(2) =   0
                l(3) =   1
                l(4) =   1
     Q(r) pseudized with 0 coefficients 


     PseudoPot. # 2 for H  read from file:
     ./H_ONCV_PBE-1.0.oncvpsp.upf
     MD5 check sum: 1790becc920ee074925cf490c71280fe
     Pseudo is Norm-conserving, Zval =  1.0
     Generated using ONCVPSP code by D. R. Hamann
     Using radial grid of 1166 points,  2 beta functions with: 
                l(1) =   0
                l(2) =   0

     atomic species   valence    mass     pseudopotential
     C                 4.00    12.01100     C ( 1.00)
     H                 1.00     1.00800     H ( 1.00)

      8 Sym. Ops., with inversion, found ( 6 have fractional translation)



   Cartesian axes

     site n.     atom                  positions (alat units)
         1        C      tau(   1) = (  -0.0000000  -0.3611547   7.4243532  )
         2        C      tau(   2) = (   0.5000000  -0.6995055   7.4243532  )
         3        C      tau(   3) = (   0.5000000  -1.0618182   6.9356696  )
         4        C      tau(   4) = (   0.0000000   0.0011581   6.9356696  )
         5        C      tau(   5) = (   0.0000000  -0.3533238   6.4346733  )
         6        C      tau(   6) = (   0.5000000  -0.7073364   6.4346733  )
         7        C      tau(   7) = (   0.5000000  -1.0606458   5.9348423  )
         8        C      tau(   8) = (  -0.0000000  -0.0000144   5.9348423  )
         9        C      tau(   9) = (   0.5000000  -0.7070982   5.4349236  )
        10        C      tau(  10) = (   0.0000000  -0.3535620   5.4349236  )
        11        C      tau(  11) = (   0.0000000   0.0000095   4.9350560  )
        12        C      tau(  12) = (   0.5000000  -1.0606696   4.9350560  )
        13        C      tau(  13) = (   0.5000000  -0.7070973   4.4352140  )
        14        C      tau(  14) = (   0.0000000  -0.3535629   4.4352140  )
        15        C      tau(  15) = (   0.5000000  -1.0606688   3.9353465  )
        16        C      tau(  16) = (   0.0000000   0.0000086   3.9353465  )
        17        C      tau(  17) = (  -0.0000000  -0.3535390   3.4354278  )
        18        C      tau(  18) = (   0.5000000  -0.7071212   3.4354278  )
        19        C      tau(  19) = (   0.5000000  -1.0604306   2.9355967  )
        20        C      tau(  20) = (  -0.0000000  -0.0002296   2.9355967  )
        21        C      tau(  21) = (   0.0000000  -0.3547115   2.4346005  )
        22        C      tau(  22) = (   0.5000000  -0.7059487   2.4346005  )
        23        C      tau(  23) = (   0.5000000  -1.0682614   1.9459169  )
        24        C      tau(  24) = (  -0.0000000   0.0076013   1.9459169  )
        25        H      tau(  25) = (   0.0000000  -0.1238783   7.7889189  )
        26        H      tau(  26) = (   0.5000000  -0.9367818   7.7889189  )
        27        H      tau(  27) = (   0.5000000  -0.8309851   1.5813512  )
        28        H      tau(  28) = (  -0.0000000  -0.2296751   1.5813512  )

     number of k points=    20  Marzari-Vanderbilt smearing, width (Ry)=  0.0100
                       cart. coord. in units 2pi/alat
        k(    1) = (   0.0000000  -0.0000000   0.0000000), wk =   0.0317460
        k(    2) = (   0.0000000  -0.1010153   0.0000000), wk =   0.0634921
        k(    3) = (   0.0000000  -0.2020305   0.0000000), wk =   0.0634921
        k(    4) = (   0.0000000  -0.3030458   0.0000000), wk =   0.0634921
        k(    5) = (   0.1111111  -0.0000000   0.0000000), wk =   0.0634921
        k(    6) = (   0.1111111  -0.1010153   0.0000000), wk =   0.1269841
        k(    7) = (   0.1111111  -0.2020305   0.0000000), wk =   0.1269841
        k(    8) = (   0.1111111  -0.3030458   0.0000000), wk =   0.1269841
        k(    9) = (   0.2222222  -0.0000000   0.0000000), wk =   0.0634921
        k(   10) = (   0.2222222  -0.1010153   0.0000000), wk =   0.1269841
        k(   11) = (   0.2222222  -0.2020305   0.0000000), wk =   0.1269841
        k(   12) = (   0.2222222  -0.3030458   0.0000000), wk =   0.1269841
        k(   13) = (   0.3333333  -0.0000000   0.0000000), wk =   0.0634921
        k(   14) = (   0.3333333  -0.1010153   0.0000000), wk =   0.1269841
        k(   15) = (   0.3333333  -0.2020305   0.0000000), wk =   0.1269841
        k(   16) = (   0.3333333  -0.3030458   0.0000000), wk =   0.1269841
        k(   17) = (   0.4444444  -0.0000000   0.0000000), wk =   0.0634921
        k(   18) = (   0.4444444  -0.1010153   0.0000000), wk =   0.1269841
        k(   19) = (   0.4444444  -0.2020305   0.0000000), wk =   0.1269841
        k(   20) = (   0.4444444  -0.3030458   0.0000000), wk =   0.1269841

     Dense  grid:   470831 G-vectors     FFT dimensions: (  48,  60, 384)

     Smooth grid:   166459 G-vectors     FFT dimensions: (  30,  48, 288)

     Estimated max dynamical RAM per process >     196.60 MB

     Estimated total dynamical RAM >       1.54 GB

     Check: negative core charge=   -0.000001

     Initial potential from superposition of free atoms

     starting charge      99.9990, renormalised to     100.0000
     Starting wfcs are  100 randomized atomic wfcs
     Checking if some PAW data can be deallocated... 

     total cpu time spent up to now is        3.0 secs

     Self-consistent Calculation

     iteration #  1     ecut=    90.00 Ry     beta= 0.30
     Davidson diagonalization with overlap
     ethr =  1.00E-02,  avg # of iterations =  2.6

     total cpu time spent up to now is        8.5 secs

     total energy              =    -447.31162666 Ry
     estimated scf accuracy    <       1.85192543 Ry

     iteration #  2     ecut=    90.00 Ry     beta= 0.30
     Davidson diagonalization with overlap
     ethr =  1.85E-03,  avg # of iterations =  4.7

     negative rho (up, down):  4.948E-07 0.000E+00

     total cpu time spent up to now is       13.2 secs

     total energy              =    -447.11380182 Ry
     estimated scf accuracy    <       0.65605892 Ry

     iteration #  3     ecut=    90.00 Ry     beta= 0.30
     Davidson diagonalization with overlap
     ethr =  6.56E-04,  avg # of iterations =  6.0

     negative rho (up, down):  1.523E-06 0.000E+00

     total cpu time spent up to now is       18.2 secs

     total energy              =    -447.14533974 Ry
     estimated scf accuracy    <       0.06421455 Ry

     iteration #  4     ecut=    90.00 Ry     beta= 0.30
     Davidson diagonalization with overlap
     ethr =  6.42E-05,  avg # of iterations =  9.3

     negative rho (up, down):  2.124E-06 0.000E+00

     total cpu time spent up to now is       24.5 secs

     total energy              =    -447.15119315 Ry
     estimated scf accuracy    <       0.00733049 Ry

     iteration #  5     ecut=    90.00 Ry     beta= 0.30
     Davidson diagonalization with overlap
     c_bands:  1 eigenvalues not converged
     ethr =  7.33E-06,  avg # of iterations =  8.5

     negative rho (up, down):  2.664E-06 0.000E+00

     total cpu time spent up to now is       30.8 secs

     total energy              =    -447.15206075 Ry
     estimated scf accuracy    <       0.00131105 Ry

     iteration #  6     ecut=    90.00 Ry     beta= 0.30
     Davidson diagonalization with overlap
     ethr =  1.31E-06,  avg # of iterations =  8.0

     negative rho (up, down):  2.899E-06 0.000E+00

     total cpu time spent up to now is       36.3 secs

     total energy              =    -447.15213796 Ry
     estimated scf accuracy    <       0.00032429 Ry

     iteration #  7     ecut=    90.00 Ry     beta= 0.30
     Davidson diagonalization with overlap
     ethr =  3.24E-07,  avg # of iterations =  2.0

     negative rho (up, down):  3.127E-06 0.000E+00

     total cpu time spent up to now is       40.8 secs

     total energy              =    -447.15217564 Ry
     estimated scf accuracy    <       0.00004521 Ry

     iteration #  8     ecut=    90.00 Ry     beta= 0.30
     Davidson diagonalization with overlap
     ethr =  4.52E-08,  avg # of iterations =  2.3

     negative rho (up, down):  3.079E-06 0.000E+00

     total cpu time spent up to now is       45.6 secs

     total energy              =    -447.15218257 Ry
     estimated scf accuracy    <       0.00001105 Ry

     iteration #  9     ecut=    90.00 Ry     beta= 0.30
     Davidson diagonalization with overlap
     ethr =  1.10E-08,  avg # of iterations =  2.0

     negative rho (up, down):  3.115E-06 0.000E+00

     total cpu time spent up to now is       50.5 secs

     total energy              =    -447.15218532 Ry
     estimated scf accuracy    <       0.00000229 Ry

     iteration # 10     ecut=    90.00 Ry     beta= 0.30
     Davidson diagonalization with overlap
     ethr =  2.29E-09,  avg # of iterations =  2.1

     negative rho (up, down):  3.123E-06 0.000E+00

     total cpu time spent up to now is       55.0 secs

     total energy              =    -447.15218581 Ry
     estimated scf accuracy    <       0.00000016 Ry

     iteration # 11     ecut=    90.00 Ry     beta= 0.30
     Davidson diagonalization with overlap
     ethr =  1.59E-10,  avg # of iterations =  3.6

     negative rho (up, down):  3.138E-06 0.000E+00

     total cpu time spent up to now is       60.6 secs

     total energy              =    -447.15218582 Ry
     estimated scf accuracy    <       0.00000015 Ry

     iteration # 12     ecut=    90.00 Ry     beta= 0.30
     Davidson diagonalization with overlap
     ethr =  1.51E-10,  avg # of iterations =  2.1

     negative rho (up, down):  3.192E-06 0.000E+00

     total cpu time spent up to now is       65.1 secs

     End of self-consistent calculation

          k = 0.0000-0.0000 0.0000 ( 20853 PWs)   bands (ev):

   -13.5895 -13.2700 -12.7424 -12.0060 -11.0706  -9.9618  -8.7276  -7.4371
    -6.2057  -5.3001  -4.9854  -4.9761  -4.9285  -4.6469  -4.1813  -3.5258
    -2.6805  -1.8137  -1.7709  -1.6592  -1.0919  -1.0266  -0.4972  -0.1261
     0.0978   0.7698   1.0497   1.0590   1.5224   1.7754   2.1316   2.1860
     2.3564   2.7481   3.4414   3.5810   3.7240   4.2245   5.0344   5.0560
     5.0786   5.8029   6.3261   6.4013   6.4759   7.0188   7.3017   7.3642
     7.4081   7.6347   9.5005   9.9482  12.1682  12.5553  12.8090  13.0938
    13.2220  13.4120  13.4169  13.6008

          k = 0.0000-0.1010 0.0000 ( 20851 PWs)   bands (ev):

   -13.4023 -13.0838 -12.5582 -11.8253 -10.8963  -9.8007  -8.5997  -7.4202
    -7.1035  -6.8827  -6.5451  -6.5398  -4.2140  -3.9071  -3.5797  -3.0115
    -2.8575  -2.6721  -1.8847  -0.9387  -0.8226  -0.3492  -0.1634   0.2399
     0.5003   1.0179   1.2383   1.3673   1.7034   1.9502   2.3492   2.4462
     2.4555   2.8924   3.5557   3.6360   3.9297   4.2917   4.8562   5.0298
     5.3000   5.6954   6.0222   6.2343   6.4039   6.6228   6.8625   6.9272
     6.9791   7.1919   9.7192  10.1625  12.3281  12.3287  12.9409  13.3195
    13.4562  13.7707  13.9156  14.1161

          k = 0.0000-0.2020 0.0000 ( 20798 PWs)   bands (ev):

   -12.8426 -12.5277 -12.0090 -11.2887 -10.3846  -9.3524  -9.0157  -8.7551
    -8.2957  -8.2853  -7.7274  -7.5634  -4.9527  -4.6056  -4.1673  -3.5474
    -2.8479  -2.2327  -1.4584  -0.8092  -0.4629   0.5060   0.8657   1.1581
     1.5346   1.8193   1.9793   2.2401   2.3395   2.4669   2.6924   2.8288
     3.2648   3.3112   3.8788   3.9625   4.1252   4.4674   4.9654   4.9908
     5.0944   5.3751   5.5966   5.6474   5.6834   5.6977   5.6985   6.0281
     6.3219   6.3802  10.3633  10.7457  12.2906  12.6435  13.0455  13.4840
    13.5629  13.7351  14.3061  14.5064

          k = 0.0000-0.3030 0.0000 ( 20770 PWs)   bands (ev):

   -11.9172 -11.6107 -11.1104 -10.6438 -10.4205 -10.3414  -9.8389  -9.5940
    -9.1456  -8.7287  -8.3493  -8.0787  -5.3743  -5.0171  -4.5492  -3.8553
    -3.2189  -2.4295  -1.6927  -0.8600  -0.1257   0.7429   1.3154   2.2180
     2.6477   2.7184   3.1119   3.2394   3.2996   3.5134   3.5889   3.7549
     3.8917   3.9517   4.2778   4.2996   4.3087   4.4405   4.5525   4.5728
     4.6952   4.7309   4.7731   4.9418   4.9450   5.0119   5.0453   5.1995
     5.3018   5.3296  11.3747  11.5852  12.4601  12.5517  12.7560  13.1378
    13.4044  13.8470  14.1550  14.4135

          k = 0.1111-0.0000 0.0000 ( 20803 PWs)   bands (ev):

   -13.3629 -13.0440 -12.5175 -11.7828 -10.8496  -9.7433  -8.5125  -7.2262
    -6.0003  -5.1000  -4.8605  -4.7828  -4.7762  -4.5816  -4.1206  -3.4715
    -2.6346  -1.6237  -1.6103  -1.5791  -0.9198  -0.8220  -0.4744   0.0191
     0.2978   0.4922   0.7561   0.7771   1.1554   1.1843   1.2518   1.7690
     2.1191   2.4014   2.4869   3.2890   3.5454   3.6736   4.1116   4.8754
     4.8781   4.9791   5.5252   5.8989   5.9923   6.2705   6.3401   6.5601
     6.5937   7.2456   9.7298  10.1522  12.3348  13.0248  13.1425  13.2889
    13.5819  13.6336  13.8937  14.0827

          k = 0.1111-0.1010 0.0000 ( 20797 PWs)   bands (ev):

   -13.1761 -12.8584 -12.3339 -11.6028 -10.6761  -9.5834  -8.3862  -7.2130
    -6.9202  -6.6993  -6.3562  -6.3510  -4.0612  -3.7634  -3.4399  -2.8784
    -2.7876  -2.6506  -1.7669  -0.8366  -0.7724  -0.2598  -0.1523   0.2936
     0.5348   0.8018   1.0220   1.0793   1.3045   1.4679   1.4704   2.0173
     2.3911   2.4807   2.6879   3.4073   3.5492   3.8881   4.1297   4.6315
     4.7539   4.9936   5.3181   5.3241   5.3510   5.5955   6.1154   6.4342
     6.9110   7.1518   9.9649  10.3864  12.5982  13.1413  13.7075  13.7466
    13.9265  14.1457  14.2650  14.3411

          k = 0.1111-0.2020 0.0000 ( 20800 PWs)   bands (ev):

   -12.6180 -12.3040 -11.7867 -11.0684 -10.1671  -9.1387  -8.8109  -8.5516
    -8.0952  -8.0777  -7.5297  -7.3637  -4.7604  -4.4203  -3.9794  -3.3746
    -2.6794  -2.0765  -1.3702  -0.7521  -0.6006   0.3305   0.6456   0.9971
     1.0618   1.3905   1.7738   1.8188   1.9926   2.2517   2.4697   2.5995
     2.8052   2.9660   3.3710   3.7287   3.8176   3.8286   4.0957   4.1399
     4.2020   4.3096   4.3622   4.3665   4.8227   5.1638   5.6577   6.2076
     6.6511   6.6779  10.6256  11.0088  13.1314  13.1598  13.8153  14.1889
    14.2999  14.8553  14.8561  15.0101

          k = 0.1111-0.3030 0.0000 ( 20773 PWs)   bands (ev):

   -11.6958 -11.3903 -10.8917 -10.4281 -10.2046 -10.1271  -9.6270  -9.3817
    -8.9372  -8.5213  -8.1455  -7.8767  -5.1712  -4.8156  -4.3555  -3.6628
    -3.0390  -2.2497  -1.5362  -0.7035  -0.0347   0.7543   1.0361   1.5823
     1.8038   2.0140   2.2249   2.4461   2.6435   2.8161   2.9930   3.0050
     3.1226   3.3949   3.4820   3.5721   3.8124   3.8720   3.8934   3.9732
     4.1630   4.3600   4.4546   4.5163   4.7198   5.0646   5.2660   5.4106
     5.5820   5.6228  11.6573  11.9246  13.0690  13.0699  13.3998  13.8606
    13.9769  14.5546  14.9663  15.1849

          k = 0.2222-0.0000 0.0000 ( 20844 PWs)   bands (ev):

   -12.6862 -12.3694 -11.8465 -11.1168 -10.1900  -9.0918  -7.8707  -6.5969
    -5.3868  -4.9699  -4.6947  -4.5017  -4.2397  -4.1783  -4.1771  -3.5993
    -2.7739  -1.7772  -1.2095  -1.0241  -1.0183  -0.9352  -0.6448  -0.4915
    -0.4298  -0.2252   0.1100   0.4177   0.5873   0.8392   0.8821   1.4163
     1.6398   1.8147   1.9066   2.4288   2.4504   3.1154   3.3030   3.4021
     3.6450   4.0011   4.1601   4.1972   4.2936   4.6593   4.7116   4.9130
     5.9543   6.8160  10.4499  10.7937  12.4082  12.4670  12.9488  13.0593
    13.1758  13.8069  14.0049  14.1802

          k = 0.2222-0.1010 0.0000 ( 20776 PWs)   bands (ev):

   -12.5011 -12.1855 -11.6648 -10.9390 -10.0193  -8.9353  -7.7496  -6.6004
    -6.4387  -6.2155  -5.8588  -5.7907  -3.7667  -3.4830  -3.2788  -3.1306
    -3.0498  -2.6107  -1.5673  -1.1558  -1.0337  -0.6953  -0.4785  -0.2554
    -0.2318   0.3987   0.4719   0.7042   1.0469   1.1511   1.2298   1.6152
     1.8802   1.9927   2.2451   2.3374   2.7620   2.8866   3.0054   3.0178
     3.1714   3.2250   3.3734   3.7830   4.3299   4.7582   5.4262   5.5230
     6.0013   6.4397  10.6964  11.0465  13.0645  13.1250  13.2463  13.5768
    13.5884  13.8490  14.0991  14.3771

          k = 0.2222-0.2020 0.0000 ( 20759 PWs)   bands (ev):

   -11.9484 -11.6369 -11.1240 -10.4120  -9.5191  -8.5027  -8.2192  -7.9634
    -7.5150  -7.4615  -6.9537  -6.7736  -4.2378  -3.9170  -3.4871  -2.9138
    -2.4068  -2.2278  -2.0879  -1.6775  -0.9714  -0.5287  -0.2614  -0.2177
     0.2507   0.9058   0.9197   1.2195   1.4275   1.5039   1.8276   1.9026
     2.0288   2.2520   2.3273   2.4342   2.6052   2.6329   2.8427   2.9636
     3.0602   3.1976   3.3797   3.6809   4.3503   4.5643   5.3465   5.4574
     6.0804   6.2344  11.3681  11.6980  13.8951  14.2154  14.2861  14.3073
    14.5918  14.7073  14.8653  14.8983

          k = 0.2222-0.3030 0.0000 ( 20801 PWs)   bands (ev):

   -11.0373 -10.7350 -10.2419  -9.7910  -9.5631  -9.4944  -9.0016  -8.7510
    -8.3220  -7.9056  -7.5420  -7.2759  -4.5932  -4.2396  -3.8129  -3.1193
    -2.5625  -1.7728  -1.3152  -1.2374  -1.0890  -0.3780  -0.1502  -0.0270
     0.1258   0.2776   0.5541   0.8639   1.0411   1.1985   1.5189   1.6046
     1.7268   1.8805   2.2140   2.9330   3.2689   3.5320   3.6096   3.7502
     3.9885   4.0136   4.1649   4.1965   4.2609   4.2776   4.8148   5.2060
     5.4861   5.5329  12.3629  12.5914  13.8298  13.8777  14.7143  14.9596
    15.1404  15.1628  15.2223  15.5668

          k = 0.3333-0.0000 0.0000 ( 20766 PWs)   bands (ev):

   -11.5711 -11.2581 -10.7414 -10.0204  -9.1049  -8.0202  -6.8155  -6.2156
    -5.9294  -5.5613  -5.4567  -4.7944  -4.3747  -3.9470  -3.5107  -3.1877
    -3.1744  -2.9328  -1.7920  -1.5350  -1.2793  -0.8695  -0.5750  -0.3220
    -0.1765  -0.1008   0.2896   0.3238   0.6473   0.7066   0.9458   1.0016
     1.6053   1.6180   1.6540   1.7977   1.9576   2.0229   2.1005   2.2701
     2.4680   2.6896   2.6958   2.8914   2.9447   2.9540   3.0130   4.0734
     5.2189   6.0443  11.5808  11.7358  12.1018  12.2453  12.7647  12.8691
    13.6447  13.9235  14.3470  14.6803

          k = 0.3333-0.1010 0.0000 ( 20794 PWs)   bands (ev):

   -11.3897 -11.0780 -10.5640  -9.8475  -8.9397  -7.8707  -6.7054  -6.4237
    -6.1472  -5.7423  -5.5379  -5.2061  -4.1198  -4.1147  -3.9587  -3.8910
    -3.7717  -3.0410  -1.9580  -1.4179  -1.1136  -0.9479  -0.7938  -0.3826
    -0.1507  -0.1229   0.2591   0.6312   0.6973   0.7483   0.7639   1.0169
     1.0973   1.4844   1.6422   1.7084   1.9300   1.9907   2.0818   2.1838
     2.3147   2.6808   2.8649   2.8731   3.4875   3.8344   3.9468   4.1435
     5.0307   5.8535  11.8553  12.0743  12.7563  12.7631  13.1260  13.1406
    13.5517  13.8394  14.2740  14.4662

          k = 0.3333-0.2020 0.0000 ( 20813 PWs)   bands (ev):

   -10.8497 -10.5427 -10.0376  -9.3367  -8.4582  -7.4826  -7.3991  -7.1618
    -6.7172  -6.4724  -6.1211  -5.8527  -4.3323  -4.0798  -3.8693  -3.6560
    -3.5193  -3.4762  -2.5659  -1.7756  -1.4494  -1.4024  -1.0357  -0.8888
    -0.8370  -0.6735  -0.5873  -0.5380   0.2504   0.3918   0.7675   0.9068
     1.6284   1.8306   2.1079   2.2036   2.4540   2.4841   2.6082   2.7212
     2.8936   2.9212   3.0668   3.3511   3.4397   3.9713   4.5131   4.7468
     5.2167   5.3718  12.4889  12.6925  13.7869  13.7925  14.2015  14.2510
    14.4980  14.6464  14.7578  14.9047

          k = 0.3333-0.3030 0.0000 ( 20863 PWs)   bands (ev):

    -9.9672  -9.6706  -9.1870  -8.7868  -8.5237  -8.4982  -8.0176  -7.7307
    -7.3513  -6.9105  -6.5777  -6.3007  -3.8447  -3.6486  -3.4677  -3.3868
    -3.2551  -2.9614  -2.7268  -2.5201  -2.4345  -2.2661  -1.8954  -1.7440
    -1.1813  -1.0687  -0.4417  -0.4402  -0.2678  -0.1269   0.1977   0.7529
     1.4385   1.9502   2.1865   2.2073   2.6120   2.6170   2.9712   3.4265
     3.5118   3.5188   3.8310   3.9792   4.2409   4.3063   4.4468   4.5070
     5.0523   5.2285  13.2637  13.3614  14.6891  14.7323  14.8941  14.9928
    15.2526  15.5445  15.6585  15.7292

          k = 0.4444-0.0000 0.0000 ( 20772 PWs)   bands (ev):

   -10.0456  -9.7382  -9.2311  -8.5234  -8.1814  -7.8825  -7.6243  -7.3893
    -6.7005  -6.5590  -5.8241  -5.3762  -4.7832  -4.1459  -3.6246  -2.9836
    -2.4137  -2.1392  -1.8157  -1.7874  -1.2586  -0.5396  -0.4127  -0.3249
    -0.0848  -0.0394   0.0083   0.4300   0.8136   0.8831   0.9693   1.0404
     1.0938   1.1901   1.2833   1.3310   1.4120   1.5341   1.5546   1.6764
     1.7103   1.7298   1.7615   1.8824   2.1529   2.9484   3.0735   3.8057
     4.1593   4.9853  12.1990  12.2187  12.7471  12.7701  13.0752  13.0797
    13.3536  13.6068  13.6470  13.7116

          k = 0.4444-0.1010 0.0000 ( 20816 PWs)   bands (ev):

    -9.8736  -9.5680  -9.0642  -8.3619  -8.0487  -7.7528  -7.4717  -7.2649
    -6.5843  -6.4229  -5.7220  -5.2839  -4.6776  -4.1131  -3.5675  -3.2273
    -3.2269  -3.0203  -2.9038  -2.4436  -1.5577  -1.5001  -1.3291  -1.2354
    -0.4670  -0.2225   0.0194   0.3976   0.7477   0.8879   0.9645   0.9955
     1.0833   1.3574   1.4740   1.6518   1.7175   1.8205   1.9099   1.9595
     2.1905   2.2418   2.3675   2.4718   2.6311   3.0778   3.1647   3.8997
     4.1493   4.9664  12.7746  12.8292  12.8591  12.9628  13.0302  13.3049
    13.5437  13.8297  14.0273  14.1567

          k = 0.4444-0.2020 0.0000 ( 20837 PWs)   bands (ev):

    -9.3701  -9.0705  -8.5777  -7.8942  -7.7469  -7.4623  -7.0336  -6.9916
    -6.3388  -6.0466  -5.5267  -5.0976  -4.7821  -4.5384  -4.3784  -4.2301
    -3.9574  -3.8215  -3.4902  -3.2119  -2.9699  -2.7527  -2.5235  -2.3739
    -1.0902  -0.8011  -0.5373   0.0930   0.1140   0.3503   0.5445   0.7551
     1.2270   1.3942   1.5636   1.6995   1.9991   2.3426   2.6264   2.6795
     2.8072   3.0490   3.1026   3.2820   3.5414   3.7697   3.9571   4.1080
     4.1844   4.8851  13.4794  13.5608  13.7829  13.8706  14.0688  14.1423
    14.3573  14.3689  14.6400  14.8803

          k = 0.4444-0.3030 0.0000 ( 20868 PWs)   bands (ev):

    -8.5956  -8.3081  -7.8398  -7.8219  -7.5414  -7.2136  -7.0605  -6.5184
    -6.3252  -5.7591  -5.4691  -5.3562  -5.1176  -5.0555  -4.6554  -4.6118
    -4.3483  -4.2203  -3.9387  -3.8274  -3.8103  -3.5942  -3.3351  -3.1485
    -1.1992  -1.0622  -0.6982  -0.6586  -0.2959   0.1217   0.3985   0.6722
     0.8665   1.2570   1.3763   1.6462   2.1720   2.3789   2.6813   2.6900
     3.3062   3.4245   3.6835   3.8758   4.0728   4.2596   4.4764   4.4885
     4.7159   4.7921  14.0206  14.0336  14.6797  14.6938  15.2402  15.3474
    15.7352  15.8137  15.8440  15.8976

     the Fermi energy is     8.2484 ev

!    total energy              =    -447.15218584 Ry
     estimated scf accuracy    <          5.2E-09 Ry
     smearing contrib. (-TS)   =       0.00000000 Ry
     internal energy E=F+TS    =    -447.15218584 Ry

     The total energy is F=E-TS. E is the sum of the following terms:
     one-electron contribution =   -3125.72135445 Ry
     hartree contribution      =    1619.04388071 Ry
     xc contribution           =    -115.34357253 Ry
     ewald contribution        =    1322.77971635 Ry
     one-center paw contrib.   =    -147.91085592 Ry

     convergence has been achieved in  12 iterations

     negative rho (up, down):  3.192E-06 0.000E+00

     Forces acting on atoms (cartesian axes, Ry/au):

     atom    1 type  1   force =     0.00000000    0.00009059    0.00007074
     atom    2 type  1   force =     0.00000000   -0.00009059    0.00007074
     atom    3 type  1   force =     0.00000000    0.00002170    0.00000031
     atom    4 type  1   force =    -0.00000000   -0.00002170    0.00000031
     atom    5 type  1   force =     0.00000000    0.00000921   -0.00007108
     atom    6 type  1   force =     0.00000000   -0.00000921   -0.00007108
     atom    7 type  1   force =     0.00000000   -0.00001932   -0.00001516
     atom    8 type  1   force =     0.00000000    0.00001932   -0.00001516
     atom    9 type  1   force =     0.00000000    0.00000700    0.00007175
     atom   10 type  1   force =     0.00000000   -0.00000700    0.00007175
     atom   11 type  1   force =     0.00000000   -0.00001519    0.00004674
     atom   12 type  1   force =     0.00000000    0.00001519    0.00004674
     atom   13 type  1   force =     0.00000000   -0.00001519   -0.00004674
     atom   14 type  1   force =     0.00000000    0.00001519   -0.00004674
     atom   15 type  1   force =     0.00000000   -0.00000700   -0.00007175
     atom   16 type  1   force =     0.00000000    0.00000700   -0.00007175
     atom   17 type  1   force =     0.00000000   -0.00001932    0.00001516
     atom   18 type  1   force =     0.00000000    0.00001932    0.00001516
     atom   19 type  1   force =     0.00000000    0.00000921    0.00007108
     atom   20 type  1   force =     0.00000000   -0.00000921    0.00007108
     atom   21 type  1   force =     0.00000000    0.00002170   -0.00000031
     atom   22 type  1   force =     0.00000000   -0.00002170   -0.00000031
     atom   23 type  1   force =     0.00000000    0.00009059   -0.00007074
     atom   24 type  1   force =     0.00000000   -0.00009059   -0.00007074
     atom   25 type  2   force =     0.00000000   -0.00001317   -0.00001732
     atom   26 type  2   force =     0.00000000    0.00001317   -0.00001732
     atom   27 type  2   force =     0.00000000   -0.00001317    0.00001732
     atom   28 type  2   force =     0.00000000    0.00001317    0.00001732

     Total force =     0.000332     Total SCF correction =     0.000107
     SCF correction compared to forces is large: reduce conv_thr to get better values


     Computing stress (Cartesian axis) and pressure


     negative rho (up, down):  3.192E-06 0.000E+00
          total   stress  (Ry/bohr**3)                   (kbar)     P=       17.38
   0.00011226   0.00000000   0.00000000           16.51        0.00        0.00
   0.00000000   0.00024250   0.00000000            0.00       35.67        0.00
   0.00000000   0.00000000  -0.00000023            0.00        0.00       -0.03


     Writing all to output data dir /tmp/qe/slab.save/ :
     XML data file, charge density, pseudopotentials, collected wavefunctions

     init_run     :      2.83s CPU      2.95s WALL (       1 calls)
     electrons    :     61.37s CPU     62.11s WALL (       1 calls)
     forces       :      0.80s CPU      0.82s WALL (       1 calls)
     stress       :     16.63s CPU     16.69s WALL (       1 calls)

     Called by init_run:
     wfcinit      :      2.42s CPU      2.49s WALL (       1 calls)
     potinit      :      0.20s CPU      0.22s WALL (       1 calls)
     hinit0       :      0.07s CPU      0.07s WALL (       1 calls)

     Called by electrons:
     c_bands      :     49.62s CPU     50.03s WALL (      12 calls)
     sum_band     :      8.79s CPU      8.96s WALL (      12 calls)
     v_of_rho     :      0.89s CPU      0.92s WALL (      13 calls)
     newd         :      0.56s CPU      0.67s WALL (      13 calls)
     PAW_pot      :      1.59s CPU      1.60s WALL (      13 calls)
     mix_rho      :      0.08s CPU      0.08s WALL (      12 calls)

     Called by c_bands:
     init_us_2    :      1.42s CPU      1.44s WALL (     540 calls)
     cegterg      :     47.36s CPU     47.75s WALL (     240 calls)

     Called by *egterg:
     cdiaghg      :      3.70s CPU      3.74s WALL (    1307 calls)
     h_psi        :     34.29s CPU     34.65s WALL (    1327 calls)
     s_psi        :      3.13s CPU      3.14s WALL (    1327 calls)
     g_psi        :      0.21s CPU      0.21s WALL (    1067 calls)

     Called by h_psi:
     h_psi:calbec :      2.94s CPU      2.97s WALL (    1327 calls)
     vloc_psi     :     27.84s CPU     28.14s WALL (    1327 calls)
     add_vuspsi   :      3.28s CPU      3.29s WALL (    1327 calls)

     General routines
     calbec       :      4.18s CPU      4.22s WALL (    1667 calls)
     fft          :      0.39s CPU      0.44s WALL (     192 calls)
     ffts         :      0.02s CPU      0.02s WALL (      25 calls)
     fftw         :     24.54s CPU     24.77s WALL (   92574 calls)
     interpolate  :      0.03s CPU      0.04s WALL (      13 calls)

     Parallel routines

     PWSCF        :   1m21.90s CPU   1m23.47s WALL


   This run was terminated on:  18:42:38   1Aug2026            

=------------------------------------------------------------------------------=
   JOB DONE.
=------------------------------------------------------------------------------=
Note: The following floating-point exceptions are signalling: IEEE_UNDERFLOW_FLAG IEEE_DENORMAL
Note: The following floating-point exceptions are signalling: IEEE_UNDERFLOW_FLAG IEEE_DENORMAL
Note: The following floating-point exceptions are signalling: IEEE_UNDERFLOW_FLAG IEEE_DENORMAL
Note: The following floating-point exceptions are signalling: IEEE_UNDERFLOW_FLAG IEEE_DENORMAL
Note: The following floating-point exceptions are signalling: IEEE_UNDERFLOW_FLAG IEEE_DENORMAL
Note: The following floating-point exceptions are signalling: IEEE_UNDERFLOW_FLAG IEEE_DENORMAL
Note: The following floating-point exceptions are signalling: IEEE_UNDERFLOW_FLAG IEEE_DENORMAL
Note: The following floating-point exceptions are signalling: IEEE_UNDERFLOW_FLAG IEEE_DENORMAL
