
     Program PWSCF v.7.5 starts on 23Jun2026 at 13:42:55 

     This program is part of the open-source Quantum ESPRESSO suite
     for quantum simulation of materials; please cite
         "P. Giannozzi et al., J. Phys.:Condens. Matter 21 395502 (2009);
         "P. Giannozzi et al., J. Phys.:Condens. Matter 29 465901 (2017);
         "P. Giannozzi et al., J. Chem. Phys. 152 154105 (2020);
          URL http://www.quantum-espresso.org", 
     in publications or presentations arising from this work. More details at
     http://www.quantum-espresso.org/quote

     Serial version
     0 MiB available memory on the printing compute node when the environment starts

     Waiting for input...
     Reading input from standard input

     Current dimensions of program PWSCF are:
     Max number of different atomic species (ntypx) = 10
     Max number of k-points (npk) =  40000
     Max angular momentum in pseudopotentials (lmaxx) =  4
     file C.pbe-n-kjpaw_psl.1.0.0.UPF: wavefunction(s)  2S 2P renormalized
     Message from routine volume:
     axis vectors are left-handed
     Message from routine setup:
     using ibrav=0 with symmetry is DISCOURAGED, use correct ibrav instead


     G-vector sticks info
     --------------------
     sticks:   dense  smooth     PW     G-vecs:    dense   smooth      PW
     Sum        2307    1151    339               477897   169059   26053

     Using Slab Decomposition



     bravais-lattice index     =            0
     lattice parameter (alat)  =       4.7752  a.u.
     unit-cell volume          =    1747.7211 (a.u.)^3
     number of atoms/cell      =           14
     number of atomic types    =            2
     number of electrons       =        50.00
     number of Kohn-Sham states=           30
     kinetic-energy cutoff     =      80.0000  Ry
     charge density cutoff     =     640.0000  Ry
     scf convergence threshold =      1.0E-08
     mixing beta               =       0.3000
     number of iterations used =            8  plain     mixing
     Exchange-correlation= PBE
                           (   1   4   3   4   0   0   0)

     celldm(1)=   4.775235  celldm(2)=   0.000000  celldm(3)=   0.000000
     celldm(4)=   0.000000  celldm(5)=   0.000000  celldm(6)=   0.000000

     crystal axes: (cart. coord. in units of alat)
               a(1) = (   1.000000   0.000000   0.000000 )  
               a(2) = (   0.000000  -1.980000   0.000000 )  
               a(3) = (   0.000000   0.000000   8.106298 )  

     reciprocal axes: (cart. coord. in units 2 pi/alat)
               b(1) = (  1.000000 -0.000000 -0.000000 )  
               b(2) = ( -0.000000 -0.505051 -0.000000 )  
               b(3) = ( -0.000000 -0.000000  0.123361 )  


     PseudoPot. # 1 for C  read from file:
     ./C.pbe-n-kjpaw_psl.1.0.0.UPF
     MD5 check sum: 5d2aebdfa2cae82b50a7e79e9516da0f
     Pseudo is Projector augmented-wave + core cor, Zval =  4.0
     Generated using "atomic" code by A. Dal Corso  v.5.1
     Shape of augmentation charge: PSQ
     Using radial grid of 1073 points,  4 beta functions with: 
                l(1) =   0
                l(2) =   0
                l(3) =   1
                l(4) =   1
     Q(r) pseudized with 0 coefficients 


     PseudoPot. # 2 for H  read from file:
     ./H_ONCV_PBE-1.0.oncvpsp.upf
     MD5 check sum: 1790becc920ee074925cf490c71280fe
     Pseudo is Norm-conserving, Zval =  1.0
     Generated using ONCVPSP code by D. R. Hamann
     Using radial grid of 1166 points,  2 beta functions with: 
                l(1) =   0
                l(2) =   0

     atomic species   valence    mass     pseudopotential
     C                 4.00    12.01100     C ( 1.00)
     H                 1.00     1.00800     H ( 1.00)

      4 Sym. Ops. (no inversion) found



   Cartesian axes

     site n.     atom                  positions (alat units)
         1        C      tau(   1) = (   0.0000000  -0.3180242   4.7085576  )
         2        C      tau(   2) = (   0.5000000  -0.4596237   4.3876684  )
         3        C      tau(   3) = (   0.5000000   0.0000000   3.9931738  )
         4        C      tau(   4) = (   0.0000000   0.0000000   3.6576303  )
         5        C      tau(   5) = (   0.0000000  -0.4950000   3.3215633  )
         6        C      tau(   6) = (   0.5000000  -0.4950000   2.9680099  )
         7        C      tau(   7) = (   0.0000000  -1.6619758   4.7085576  )
         8        C      tau(   8) = (   0.5000000  -1.5203763   4.3876684  )
         9        C      tau(   9) = (   0.5000000  -0.9900000   4.0662130  )
        10        C      tau(  10) = (   0.0000000  -0.9900000   3.6998598  )
        11        C      tau(  11) = (   0.0000000  -1.4850000   3.3215633  )
        12        C      tau(  12) = (   0.5000000  -1.4850000   2.9680099  )
        13        H      tau(  13) = (   0.0000000  -0.4853768   5.1093667  )
        14        H      tau(  14) = (   0.0000000  -1.4946232   5.1093667  )

     number of k points=    15  Marzari-Vanderbilt smearing, width (Ry)=  0.0100
                       cart. coord. in units 2pi/alat
        k(    1) = (   0.0000000  -0.0000000   0.0000000), wk =   0.0444444
        k(    2) = (   0.0000000  -0.1010101   0.0000000), wk =   0.0888889
        k(    3) = (   0.0000000  -0.2020202   0.0000000), wk =   0.0888889
        k(    4) = (   0.1111111  -0.0000000   0.0000000), wk =   0.0888889
        k(    5) = (   0.1111111  -0.1010101   0.0000000), wk =   0.1777778
        k(    6) = (   0.1111111  -0.2020202   0.0000000), wk =   0.1777778
        k(    7) = (   0.2222222  -0.0000000   0.0000000), wk =   0.0888889
        k(    8) = (   0.2222222  -0.1010101   0.0000000), wk =   0.1777778
        k(    9) = (   0.2222222  -0.2020202   0.0000000), wk =   0.1777778
        k(   10) = (   0.3333333  -0.0000000   0.0000000), wk =   0.0888889
        k(   11) = (   0.3333333  -0.1010101   0.0000000), wk =   0.1777778
        k(   12) = (   0.3333333  -0.2020202   0.0000000), wk =   0.1777778
        k(   13) = (   0.4444444  -0.0000000   0.0000000), wk =   0.0888889
        k(   14) = (   0.4444444  -0.1010101   0.0000000), wk =   0.1777778
        k(   15) = (   0.4444444  -0.2020202   0.0000000), wk =   0.1777778

     Dense  grid:   477897 G-vectors     FFT dimensions: (  40,  80, 320)

     Smooth grid:   169059 G-vectors     FFT dimensions: (  27,  54, 225)

     Estimated max dynamical RAM per process >       1.01 GB

     Initial potential from superposition of free atoms

     starting charge      49.9995, renormalised to      50.0000

     negative rho (up, down):  7.275E-05 0.000E+00
     Starting wfcs are   50 randomized atomic wfcs

     total cpu time spent up to now is        3.8 secs

     Self-consistent Calculation

     iteration #  1     ecut=    80.00 Ry     beta= 0.30
     Davidson diagonalization with overlap
     ethr =  1.00E-02,  avg # of iterations =  2.5
     Minimization algorithm failed to find Fermi energy: reverting to bisection
     Possible cause: smearing is larger than the electronic band-gap.

     negative rho (up, down):  6.974E-05 0.000E+00

     total cpu time spent up to now is       11.1 secs

     total energy              =    -223.07544594 Ry
     estimated scf accuracy    <       0.91997835 Ry

     iteration #  2     ecut=    80.00 Ry     beta= 0.30
     Davidson diagonalization with overlap
     ethr =  1.84E-03,  avg # of iterations =  3.3

     negative rho (up, down):  7.541E-05 0.000E+00

     total cpu time spent up to now is       17.2 secs

     total energy              =    -223.02583659 Ry
     estimated scf accuracy    <       0.29618520 Ry

     iteration #  3     ecut=    80.00 Ry     beta= 0.30
     Davidson diagonalization with overlap
     ethr =  5.92E-04,  avg # of iterations =  5.6

     negative rho (up, down):  8.318E-05 0.000E+00

     total cpu time spent up to now is       24.4 secs

     total energy              =    -223.02892178 Ry
     estimated scf accuracy    <       0.06817750 Ry

     iteration #  4     ecut=    80.00 Ry     beta= 0.30
     Davidson diagonalization with overlap
     ethr =  1.36E-04,  avg # of iterations =  5.1

     negative rho (up, down):  8.750E-05 0.000E+00

     total cpu time spent up to now is       31.6 secs

     total energy              =    -223.03353408 Ry
     estimated scf accuracy    <       0.01044623 Ry

     iteration #  5     ecut=    80.00 Ry     beta= 0.30
     Davidson diagonalization with overlap
     ethr =  2.09E-05,  avg # of iterations =  5.4

     negative rho (up, down):  8.952E-05 0.000E+00

     total cpu time spent up to now is       39.1 secs

     total energy              =    -223.03482950 Ry
     estimated scf accuracy    <       0.00127562 Ry

     iteration #  6     ecut=    80.00 Ry     beta= 0.30
     Davidson diagonalization with overlap
     ethr =  2.55E-06,  avg # of iterations =  6.7

     negative rho (up, down):  8.707E-05 0.000E+00

     total cpu time spent up to now is       47.8 secs

     total energy              =    -223.03497885 Ry
     estimated scf accuracy    <       0.00021836 Ry

     iteration #  7     ecut=    80.00 Ry     beta= 0.30
     Davidson diagonalization with overlap
     ethr =  4.37E-07,  avg # of iterations =  2.5

     negative rho (up, down):  8.734E-05 0.000E+00

     total cpu time spent up to now is       54.3 secs

     total energy              =    -223.03501345 Ry
     estimated scf accuracy    <       0.00005842 Ry

     iteration #  8     ecut=    80.00 Ry     beta= 0.30
     Davidson diagonalization with overlap
     ethr =  1.17E-07,  avg # of iterations =  2.0

     negative rho (up, down):  8.678E-05 0.000E+00

     total cpu time spent up to now is       60.4 secs

     total energy              =    -223.03502024 Ry
     estimated scf accuracy    <       0.00000849 Ry

     iteration #  9     ecut=    80.00 Ry     beta= 0.30
     Davidson diagonalization with overlap
     ethr =  1.70E-08,  avg # of iterations =  2.5

     negative rho (up, down):  8.650E-05 0.000E+00

     total cpu time spent up to now is       67.1 secs

     total energy              =    -223.03502178 Ry
     estimated scf accuracy    <       0.00000098 Ry

     iteration # 10     ecut=    80.00 Ry     beta= 0.30
     Davidson diagonalization with overlap
     ethr =  1.95E-09,  avg # of iterations =  3.9

     negative rho (up, down):  8.628E-05 0.000E+00

     total cpu time spent up to now is       75.0 secs

     total energy              =    -223.03502204 Ry
     estimated scf accuracy    <       0.00000053 Ry

     iteration # 11     ecut=    80.00 Ry     beta= 0.30
     Davidson diagonalization with overlap
     ethr =  1.06E-09,  avg # of iterations =  2.0

     negative rho (up, down):  8.621E-05 0.000E+00

     total cpu time spent up to now is       81.0 secs

     total energy              =    -223.03502209 Ry
     estimated scf accuracy    <       0.00000007 Ry

     iteration # 12     ecut=    80.00 Ry     beta= 0.30
     Davidson diagonalization with overlap
     ethr =  1.33E-10,  avg # of iterations =  4.2

     negative rho (up, down):  8.616E-05 0.000E+00

     total cpu time spent up to now is       89.3 secs

     total energy              =    -223.03502211 Ry
     estimated scf accuracy    <       0.00000002 Ry

     iteration # 13     ecut=    80.00 Ry     beta= 0.30
     Davidson diagonalization with overlap
     ethr =  4.25E-11,  avg # of iterations =  2.0

     negative rho (up, down):  8.613E-05 0.000E+00

     total cpu time spent up to now is       95.3 secs

     End of self-consistent calculation

          k = 0.0000-0.0000 0.0000 ( 21117 PWs)   bands (ev):

   -21.1468 -18.8856 -16.6273 -16.2503 -15.2822 -15.0859 -12.0781 -11.3715
   -10.9516  -8.0861  -7.9455  -7.1957  -6.1241  -5.5093  -4.2734  -4.0989
    -4.0456  -3.2361  -3.1994  -2.6538  -2.5409  -2.4099  -1.5425  -0.9321
    -0.4788   0.0190   2.6683   3.3512   4.3487   4.5327

          k = 0.0000-0.1010 0.0000 ( 21113 PWs)   bands (ev):

   -20.9927 -18.8162 -17.8478 -15.8534 -14.9727 -14.8329 -11.5952 -11.2408
   -10.9111  -8.2492  -7.6122  -7.2815  -6.1377  -6.0076  -4.4919  -4.1314
    -4.0505  -3.7267  -3.5609  -2.8045  -2.5570  -2.1057  -1.4768  -1.0134
    -0.6452   0.3330   2.8851   2.9525   4.6411   5.1134

          k = 0.0000-0.2020 0.0000 ( 21135 PWs)   bands (ev):

   -20.6177 -19.1527 -18.2880 -16.5869 -14.7015 -13.9688 -11.3735 -10.4702
   -10.1645  -8.9544  -7.9963  -7.0751  -6.7132  -5.7436  -5.2865  -4.4214
    -4.3301  -3.8390  -3.3562  -3.2229  -2.8021  -1.7700  -1.3621  -1.0373
    -0.9308   1.0682   2.0656   3.5000   4.4541   5.0604

          k = 0.1111-0.0000 0.0000 ( 21085 PWs)   bands (ev):

   -20.9218 -18.6678 -16.4179 -16.0365 -15.0785 -14.8868 -11.8933 -11.2875
   -10.7721  -7.9781  -7.8866  -7.5062  -6.9432  -5.3614  -5.2690  -4.4204
    -4.1454  -3.8916  -3.4172  -3.4141  -3.3301  -2.5768  -2.3829  -1.0643
    -0.5079   0.0326   2.8858   3.4641   4.9323   5.1229

          k = 0.1111-0.1010 0.0000 ( 21103 PWs)   bands (ev):

   -20.7681 -18.5980 -17.6326 -15.6498 -14.7690 -14.6304 -11.4577 -11.0814
   -10.7625  -8.1862  -7.6271  -7.3833  -6.8722  -6.0410  -5.2047  -4.8559
    -4.3353  -4.1902  -3.4989  -3.3924  -3.0699  -2.9553  -2.2289  -1.0820
    -0.6279   0.3353   3.0265   3.1070   5.1425   5.6039

          k = 0.1111-0.2020 0.0000 ( 21113 PWs)   bands (ev):

   -20.3939 -18.9318 -18.0733 -16.3803 -14.5044 -13.7672 -11.2542 -10.3032
   -10.0506  -8.7930  -7.8712  -7.3453  -6.6666  -6.5082  -5.5760  -5.2791
    -4.9860  -4.3222  -3.8325  -3.2816  -3.0477  -2.6262  -2.3096  -1.0449
    -0.8603   1.0768   2.0922   3.6988   4.6203   5.2742

          k = 0.2222-0.0000 0.0000 ( 21114 PWs)   bands (ev):

   -20.2508 -18.0229 -15.7951 -15.4000 -14.4900 -14.2951 -11.4875 -11.3753
   -10.2760  -9.1455  -8.3826  -7.9451  -7.4489  -6.2792  -6.0759  -5.4003
    -5.2505  -5.1843  -4.9239  -4.0971  -4.0959  -3.0654  -2.4397  -1.4099
    -0.9344  -0.0906   3.4322   3.7309   5.6936   5.7970

          k = 0.2222-0.1010 0.0000 ( 21091 PWs)   bands (ev):

   -20.0981 -17.9513 -16.9930 -15.0513 -14.1779 -14.0278 -11.4349 -10.7373
   -10.3486  -9.0219  -8.4722  -8.0457  -7.2135  -6.4784  -6.1536  -5.6726
    -5.6269  -5.0209  -4.8075  -4.3477  -4.0611  -3.2858  -2.7987  -1.3322
    -0.9076   0.1653   3.1194   3.6651   5.7162   5.8896

          k = 0.2222-0.2020 0.0000 ( 21074 PWs)   bands (ev):

   -19.7264 -18.2740 -17.4373 -15.7732 -13.9401 -13.1657 -11.2306 -10.1387
    -9.7676  -8.8292  -8.4923  -7.8890  -7.5798  -7.1597  -6.5330  -6.0677
    -5.8414  -5.1785  -4.5913  -4.3728  -4.1903  -3.3364  -3.1440  -1.1866
    -0.9829   0.8912   1.9711   4.1861   4.8696   5.3711

          k = 0.3333-0.0000 0.0000 ( 21172 PWs)   bands (ev):

   -19.1487 -16.9986 -14.7926 -14.3603 -13.8852 -13.3383 -12.7269 -11.0789
   -10.6837  -9.8071  -9.0352  -8.9493  -8.1056  -7.6146  -7.1855  -6.8525
    -6.0061  -5.6521  -5.0637  -4.6504  -4.0221  -3.9514  -2.4031  -1.6884
    -1.3308  -0.3266   3.9780   4.3108   5.9405   6.5672

          k = 0.3333-0.1010 0.0000 ( 21131 PWs)   bands (ev):

   -18.9976 -16.9183 -15.9570 -14.1732 -13.5691 -13.0395 -12.5559 -11.0047
   -10.5113  -9.7769  -9.1490  -8.8013  -8.0503  -7.6187  -7.3542  -6.1820
    -6.1154  -5.5586  -5.3113  -4.8432  -4.3920  -3.8971  -3.1188  -1.5799
    -1.3019  -0.1047   3.3105   4.4907   5.5321   6.2929

          k = 0.3333-0.2020 0.0000 ( 21090 PWs)   bands (ev):

   -18.6294 -17.1991 -16.4242 -14.8469 -13.4638 -12.2211 -12.1841 -11.3149
   -10.3996  -9.4259  -8.8352  -8.4326  -7.8504  -7.3313  -7.1929  -7.1021
    -6.2067  -5.5985  -5.4248  -4.9286  -4.6805  -4.0972  -3.7861  -1.4235
    -1.3157   0.6516   1.9332   4.6683   5.0436   5.7676

          k = 0.4444-0.0000 0.0000 ( 21172 PWs)   bands (ev):

   -17.6655 -16.2037 -14.9837 -13.3817 -13.0205 -12.9832 -12.2176 -11.9867
   -11.4864 -10.9058 -10.1258  -9.9208  -8.2208  -7.8746  -7.3852  -7.0985
    -6.3993  -5.7918  -5.5464  -5.3265  -4.4718  -3.2623  -2.6672  -1.8580
    -1.5572  -0.5254   4.1092   5.4086   5.8503   6.4683

          k = 0.4444-0.1010 0.0000 ( 21149 PWs)   bands (ev):

   -17.5163 -16.0601 -14.9941 -14.4872 -13.3835 -12.8672 -11.8208 -11.6154
   -11.4453 -10.6001 -10.0337  -9.7256  -8.2202  -7.7980  -7.6443  -6.4285
    -6.3203  -5.7926  -5.5331  -5.1366  -4.6413  -3.9323  -3.4492  -1.7258
    -1.5596  -0.3101   3.4328   5.2976   5.8388   6.2361

          k = 0.4444-0.2020 0.0000 ( 21096 PWs)   bands (ev):

   -17.1512 -15.8161 -15.5593 -14.6478 -14.3533 -12.5947 -12.2566 -11.1976
   -11.1850 -10.6372  -9.5140  -9.0459  -8.0273  -7.4638  -7.1668  -6.4415
    -5.9840  -5.8130  -5.4388  -5.2485  -5.0469  -4.9316  -4.5564  -1.6292
    -1.5590   0.5599   1.9788   4.9463   5.7736   6.3489

     the Fermi energy is    -0.4861 ev

!    total energy              =    -223.03502211 Ry
     estimated scf accuracy    <          3.3E-09 Ry
     smearing contrib. (-TS)   =      -0.00001299 Ry
     internal energy E=F+TS    =    -223.03500912 Ry

     The total energy is F=E-TS. E is the sum of the following terms:
     one-electron contribution =   -2295.76804445 Ry
     hartree contribution      =    1161.78442577 Ry
     xc contribution           =     -56.79882803 Ry
     ewald contribution        =    1041.72735363 Ry
     one-center paw contrib.   =     -73.97991604 Ry

     convergence has been achieved in  13 iterations

     negative rho (up, down):  8.613E-05 0.000E+00

     Forces acting on atoms (cartesian axes, Ry/au):

     atom    1 type  1   force =     0.00000000   -0.00445193    0.00004040
     atom    2 type  1   force =     0.00000000   -0.00677516    0.00053958
     atom    3 type  1   force =     0.00000000   -0.00000000    0.00070042
     atom    4 type  1   force =     0.00000000   -0.00000000    0.00392821
     atom    5 type  1   force =     0.00000000   -0.03224001   -0.09103849
     atom    6 type  1   force =     0.00000000   -0.00837165    0.08765641
     atom    7 type  1   force =     0.00000000    0.00445193    0.00004040
     atom    8 type  1   force =     0.00000000    0.00677516    0.00053958
     atom    9 type  1   force =     0.00000000    0.00000000   -0.00049307
     atom   10 type  1   force =     0.00000000    0.00000000   -0.00066725
     atom   11 type  1   force =     0.00000000    0.03224001   -0.09103849
     atom   12 type  1   force =     0.00000000    0.00837165    0.08765641
     atom   13 type  2   force =     0.00000000   -0.00221872    0.00106795
     atom   14 type  2   force =     0.00000000    0.00221872    0.00106795

     Total force =     0.012679     Total SCF correction =     0.000120


     Computing stress (Cartesian axis) and pressure


     negative rho (up, down):  8.613E-05 0.000E+00
          total   stress  (Ry/bohr**3)                   (kbar)     P=      -26.32
  -0.00004001   0.00000000   0.00000000           -5.89        0.00        0.00
   0.00000000  -0.00034064   0.00000000            0.00      -50.11        0.00
   0.00000000   0.00000000  -0.00015615            0.00        0.00      -22.97


     Writing all to output data dir ./tmp/slab.save/ :
     XML data file, charge density, pseudopotentials, collected wavefunctions

     init_run     :      3.45s CPU      3.73s WALL (       1 calls)
     electrons    :     82.78s CPU     91.51s WALL (       1 calls)
     forces       :      1.07s CPU      1.24s WALL (       1 calls)
     stress       :      2.97s CPU      3.44s WALL (       1 calls)

     Called by init_run:
     wfcinit      :      2.79s CPU      3.02s WALL (       1 calls)
     potinit      :      0.34s CPU      0.36s WALL (       1 calls)
     hinit0       :      0.15s CPU      0.16s WALL (       1 calls)

     Called by electrons:
     c_bands      :     66.93s CPU     74.24s WALL (      13 calls)
     sum_band     :     10.35s CPU     11.06s WALL (      13 calls)
     v_of_rho     :      2.21s CPU      2.37s WALL (      14 calls)
     newd         :      1.20s CPU      1.53s WALL (      14 calls)
     PAW_pot      :      1.94s CPU      2.12s WALL (      14 calls)
     mix_rho      :      0.32s CPU      0.37s WALL (      13 calls)

     Called by c_bands:
     init_us_2    :      1.06s CPU      1.21s WALL (     435 calls)
     cegterg      :     64.82s CPU     72.03s WALL (     195 calls)

     Called by *egterg:
     cdiaghg      :      0.50s CPU      0.50s WALL (     912 calls)
     h_psi        :     48.35s CPU     51.51s WALL (     927 calls)
     s_psi        :      5.49s CPU      6.50s WALL (     927 calls)
     g_psi        :      0.23s CPU      0.23s WALL (     717 calls)

     Called by h_psi:
     h_psi:calbec :      4.82s CPU      6.07s WALL (     927 calls)
     vloc_psi     :     37.31s CPU     37.86s WALL (     927 calls)
                                        0.00s GPU  (     927 calls)
     add_vuspsi   :      6.01s CPU      7.22s WALL (     927 calls)

     General routines
     calbec       :      7.84s CPU      9.80s WALL (    1377 calls)
     fft          :      1.81s CPU      1.82s WALL (     205 calls)
     ffts         :      0.05s CPU      0.05s WALL (      27 calls)
     fftw         :     39.51s CPU     39.65s WALL (   37904 calls)
     interpolate  :      0.17s CPU      0.18s WALL (      14 calls)


     PWSCF        :   1m30.33s CPU   1m40.02s WALL


   This run was terminated on:  13:44:35  23Jun2026            

=------------------------------------------------------------------------------=
   JOB DONE.
=------------------------------------------------------------------------------=
Note: The following floating-point exceptions are signalling: IEEE_INVALID_FLAG IEEE_DIVIDE_BY_ZERO IEEE_OVERFLOW_FLAG IEEE_UNDERFLOW_FLAG
