
     Program PWSCF v.7.5 starts on 23Jun2026 at 12:17:35 

     This program is part of the open-source Quantum ESPRESSO suite
     for quantum simulation of materials; please cite
         "P. Giannozzi et al., J. Phys.:Condens. Matter 21 395502 (2009);
         "P. Giannozzi et al., J. Phys.:Condens. Matter 29 465901 (2017);
         "P. Giannozzi et al., J. Chem. Phys. 152 154105 (2020);
          URL http://www.quantum-espresso.org", 
     in publications or presentations arising from this work. More details at
     http://www.quantum-espresso.org/quote

     Serial version
     0 MiB available memory on the printing compute node when the environment starts

     Waiting for input...
     Reading input from standard input

     Current dimensions of program PWSCF are:
     Max number of different atomic species (ntypx) = 10
     Max number of k-points (npk) =  40000
     Max angular momentum in pseudopotentials (lmaxx) =  4
     file C.pbe-n-kjpaw_psl.1.0.0.UPF: wavefunction(s)  2S 2P renormalized
     Message from routine volume:
     axis vectors are left-handed
     Message from routine setup:
     using ibrav=0 with symmetry is DISCOURAGED, use correct ibrav instead


     G-vector sticks info
     --------------------
     sticks:   dense  smooth     PW     G-vecs:    dense   smooth      PW
     Sum        2247    1123    327               468213   165567   25573

     Using Slab Decomposition



     bravais-lattice index     =            0
     lattice parameter (alat)  =       4.7036  a.u.
     unit-cell volume          =    1712.8108 (a.u.)^3
     number of atoms/cell      =           14
     number of atomic types    =            2
     number of electrons       =        50.00
     number of Kohn-Sham states=           30
     kinetic-energy cutoff     =      80.0000  Ry
     charge density cutoff     =     640.0000  Ry
     scf convergence threshold =      1.0E-08
     mixing beta               =       0.3000
     number of iterations used =            8  plain     mixing
     Exchange-correlation= PBE
                           (   1   4   3   4   0   0   0)

     celldm(1)=   4.703607  celldm(2)=   0.000000  celldm(3)=   0.000000
     celldm(4)=   0.000000  celldm(5)=   0.000000  celldm(6)=   0.000000

     crystal axes: (cart. coord. in units of alat)
               a(1) = (   1.000000   0.000000   0.000000 )  
               a(2) = (   0.000000  -2.000000   0.000000 )  
               a(3) = (   0.000000   0.000000   8.229744 )  

     reciprocal axes: (cart. coord. in units 2 pi/alat)
               b(1) = (  1.000000 -0.000000 -0.000000 )  
               b(2) = ( -0.000000 -0.500000 -0.000000 )  
               b(3) = ( -0.000000 -0.000000  0.121510 )  


     PseudoPot. # 1 for C  read from file:
     ./C.pbe-n-kjpaw_psl.1.0.0.UPF
     MD5 check sum: 5d2aebdfa2cae82b50a7e79e9516da0f
     Pseudo is Projector augmented-wave + core cor, Zval =  4.0
     Generated using "atomic" code by A. Dal Corso  v.5.1
     Shape of augmentation charge: PSQ
     Using radial grid of 1073 points,  4 beta functions with: 
                l(1) =   0
                l(2) =   0
                l(3) =   1
                l(4) =   1
     Q(r) pseudized with 0 coefficients 


     PseudoPot. # 2 for H  read from file:
     ./H_ONCV_PBE-1.0.oncvpsp.upf
     MD5 check sum: 1790becc920ee074925cf490c71280fe
     Pseudo is Norm-conserving, Zval =  1.0
     Generated using ONCVPSP code by D. R. Hamann
     Using radial grid of 1166 points,  2 beta functions with: 
                l(1) =   0
                l(2) =   0

     atomic species   valence    mass     pseudopotential
     C                 4.00    12.01100     C ( 1.00)
     H                 1.00     1.00800     H ( 1.00)

      4 Sym. Ops. (no inversion) found



   Cartesian axes

     site n.     atom                  positions (alat units)
         1        C      tau(   1) = (   0.0000000  -0.3212366   4.7802616  )
         2        C      tau(   2) = (   0.5000000  -0.4642664   4.4544856  )
         3        C      tau(   3) = (   0.5000000   0.0000000   4.0539836  )
         4        C      tau(   4) = (   0.0000000   0.0000000   3.7133302  )
         5        C      tau(   5) = (   0.0000000  -0.5000000   3.3721454  )
         6        C      tau(   6) = (   0.5000000  -0.5000000   3.0132080  )
         7        C      tau(   7) = (   0.0000000  -1.6787634   4.7802616  )
         8        C      tau(   8) = (   0.5000000  -1.5357336   4.4544856  )
         9        C      tau(   9) = (   0.5000000  -1.0000000   4.1281350  )
        10        C      tau(  10) = (   0.0000000  -1.0000000   3.7562029  )
        11        C      tau(  11) = (   0.0000000  -1.5000000   3.3721454  )
        12        C      tau(  12) = (   0.5000000  -1.5000000   3.0132080  )
        13        H      tau(  13) = (   0.0000000  -0.4902796   5.1871743  )
        14        H      tau(  14) = (   0.0000000  -1.5097204   5.1871743  )

     number of k points=    15  Marzari-Vanderbilt smearing, width (Ry)=  0.0100
                       cart. coord. in units 2pi/alat
        k(    1) = (   0.0000000  -0.0000000   0.0000000), wk =   0.0444444
        k(    2) = (   0.0000000  -0.1000000   0.0000000), wk =   0.0888889
        k(    3) = (   0.0000000  -0.2000000   0.0000000), wk =   0.0888889
        k(    4) = (   0.1111111  -0.0000000   0.0000000), wk =   0.0888889
        k(    5) = (   0.1111111  -0.1000000   0.0000000), wk =   0.1777778
        k(    6) = (   0.1111111  -0.2000000   0.0000000), wk =   0.1777778
        k(    7) = (   0.2222222  -0.0000000   0.0000000), wk =   0.0888889
        k(    8) = (   0.2222222  -0.1000000   0.0000000), wk =   0.1777778
        k(    9) = (   0.2222222  -0.2000000   0.0000000), wk =   0.1777778
        k(   10) = (   0.3333333  -0.0000000   0.0000000), wk =   0.0888889
        k(   11) = (   0.3333333  -0.1000000   0.0000000), wk =   0.1777778
        k(   12) = (   0.3333333  -0.2000000   0.0000000), wk =   0.1777778
        k(   13) = (   0.4444444  -0.0000000   0.0000000), wk =   0.0888889
        k(   14) = (   0.4444444  -0.1000000   0.0000000), wk =   0.1777778
        k(   15) = (   0.4444444  -0.2000000   0.0000000), wk =   0.1777778

     Dense  grid:   468213 G-vectors     FFT dimensions: (  40,  75, 320)

     Smooth grid:   165567 G-vectors     FFT dimensions: (  27,  54, 225)

     Estimated max dynamical RAM per process >    1010.60 MB

     Initial potential from superposition of free atoms

     starting charge      49.9995, renormalised to      50.0000

     negative rho (up, down):  7.171E-05 0.000E+00
     Starting wfcs are   50 randomized atomic wfcs

     total cpu time spent up to now is        4.5 secs

     Self-consistent Calculation

     iteration #  1     ecut=    80.00 Ry     beta= 0.30
     Davidson diagonalization with overlap
     ethr =  1.00E-02,  avg # of iterations =  2.7

     negative rho (up, down):  6.886E-05 0.000E+00

     total cpu time spent up to now is       13.1 secs

     WARNING: integrated charge=    50.00068767, expected=    50.00000000

     total energy              =    -223.07660232 Ry
     estimated scf accuracy    <       0.96783190 Ry

     iteration #  2     ecut=    80.00 Ry     beta= 0.30
     Davidson diagonalization with overlap
     ethr =  1.94E-03,  avg # of iterations =  3.8

     negative rho (up, down):  7.443E-05 0.000E+00

     total cpu time spent up to now is       21.1 secs

     WARNING: integrated charge=    50.00038207, expected=    50.00000000

     total energy              =    -223.02605693 Ry
     estimated scf accuracy    <       0.30694304 Ry

     iteration #  3     ecut=    80.00 Ry     beta= 0.30
     Davidson diagonalization with overlap
     ethr =  6.14E-04,  avg # of iterations =  5.5

     negative rho (up, down):  8.302E-05 0.000E+00

     total cpu time spent up to now is       29.5 secs

     WARNING: integrated charge=    50.00017603, expected=    50.00000000

     total energy              =    -223.02830210 Ry
     estimated scf accuracy    <       0.06908844 Ry

     iteration #  4     ecut=    80.00 Ry     beta= 0.30
     Davidson diagonalization with overlap
     ethr =  1.38E-04,  avg # of iterations =  5.0

     negative rho (up, down):  8.673E-05 0.000E+00

     total cpu time spent up to now is       38.3 secs

     WARNING: integrated charge=    50.00007385, expected=    50.00000000

     total energy              =    -223.03305158 Ry
     estimated scf accuracy    <       0.01024090 Ry

     iteration #  5     ecut=    80.00 Ry     beta= 0.30
     Davidson diagonalization with overlap
     ethr =  2.05E-05,  avg # of iterations =  5.3

     negative rho (up, down):  8.872E-05 0.000E+00

     total cpu time spent up to now is       46.7 secs

     WARNING: integrated charge=    50.00002486, expected=    50.00000000

     total energy              =    -223.03427338 Ry
     estimated scf accuracy    <       0.00126270 Ry

     iteration #  6     ecut=    80.00 Ry     beta= 0.30
     Davidson diagonalization with overlap
     c_bands:  1 eigenvalues not converged
     ethr =  2.53E-06,  avg # of iterations =  6.9

     negative rho (up, down):  8.656E-05 0.000E+00

     total cpu time spent up to now is       57.2 secs

     WARNING: integrated charge=    50.00001714, expected=    50.00000000

     total energy              =    -223.03442479 Ry
     estimated scf accuracy    <       0.00020675 Ry

     iteration #  7     ecut=    80.00 Ry     beta= 0.30
     Davidson diagonalization with overlap
     ethr =  4.13E-07,  avg # of iterations =  2.1

     negative rho (up, down):  8.697E-05 0.000E+00

     total cpu time spent up to now is       65.4 secs

     total energy              =    -223.03445662 Ry
     estimated scf accuracy    <       0.00005194 Ry

     iteration #  8     ecut=    80.00 Ry     beta= 0.30
     Davidson diagonalization with overlap
     ethr =  1.04E-07,  avg # of iterations =  2.0

     negative rho (up, down):  8.622E-05 0.000E+00

     total cpu time spent up to now is       73.6 secs

     total energy              =    -223.03446193 Ry
     estimated scf accuracy    <       0.00000869 Ry

     iteration #  9     ecut=    80.00 Ry     beta= 0.30
     Davidson diagonalization with overlap
     ethr =  1.74E-08,  avg # of iterations =  2.7

     negative rho (up, down):  8.596E-05 0.000E+00

     total cpu time spent up to now is       83.3 secs

     total energy              =    -223.03446358 Ry
     estimated scf accuracy    <       0.00000093 Ry

     iteration # 10     ecut=    80.00 Ry     beta= 0.30
     Davidson diagonalization with overlap
     ethr =  1.86E-09,  avg # of iterations =  4.0

     negative rho (up, down):  8.573E-05 0.000E+00

     total cpu time spent up to now is       95.3 secs

     total energy              =    -223.03446381 Ry
     estimated scf accuracy    <       0.00000055 Ry

     iteration # 11     ecut=    80.00 Ry     beta= 0.30
     Davidson diagonalization with overlap
     ethr =  1.09E-09,  avg # of iterations =  2.1

     negative rho (up, down):  8.566E-05 0.000E+00

     total cpu time spent up to now is      104.9 secs

     total energy              =    -223.03446387 Ry
     estimated scf accuracy    <       0.00000006 Ry

     iteration # 12     ecut=    80.00 Ry     beta= 0.30
     Davidson diagonalization with overlap
     ethr =  1.21E-10,  avg # of iterations =  4.3

     negative rho (up, down):  8.561E-05 0.000E+00

     total cpu time spent up to now is      118.2 secs

     total energy              =    -223.03446389 Ry
     estimated scf accuracy    <       0.00000003 Ry

     iteration # 13     ecut=    80.00 Ry     beta= 0.30
     Davidson diagonalization with overlap
     ethr =  5.60E-11,  avg # of iterations =  2.0

     negative rho (up, down):  8.559E-05 0.000E+00

     total cpu time spent up to now is      128.1 secs

     End of self-consistent calculation

          k = 0.0000-0.0000 0.0000 ( 20689 PWs)   bands (ev):

   -21.2766 -19.0117 -16.7135 -16.3299 -15.3987 -15.1617 -12.1339 -11.4226
   -11.0115  -8.1644  -7.9354  -7.2380  -5.9034  -5.4803  -4.2268  -4.0189
    -3.8824  -3.2396  -2.9746  -2.5648  -2.3159  -2.1889  -1.3326  -0.8801
    -0.4414   0.0537   2.7534   3.4261   4.6348   4.7866

          k = 0.0000-0.1000 0.0000 ( 20721 PWs)   bands (ev):

   -21.1211 -18.9402 -17.9449 -15.9470 -15.0758 -14.9088 -11.6449 -11.2949
   -10.9645  -8.2530  -7.6641  -7.3035  -6.1385  -5.7870  -4.4721  -4.0974
    -3.8319  -3.5180  -3.5009  -2.7592  -2.3363  -1.8867  -1.2643  -0.9784
    -0.6130   0.3905   2.9664   3.0534   4.8862   5.3956

          k = 0.0000-0.2000 0.0000 ( 20784 PWs)   bands (ev):

   -20.7431 -19.2645 -18.4050 -16.6839 -14.8059 -14.0596 -11.4138 -10.5118
   -10.1909  -8.9759  -8.0030  -7.0987  -6.7172  -5.5240  -5.2888  -4.3382
    -4.1895  -3.6248  -3.3541  -3.1421  -2.5800  -1.5597  -1.1441  -1.0092
    -0.9059   1.1538   2.1716   3.5927   4.5510   5.2475

          k = 0.1111-0.0000 0.0000 ( 20739 PWs)   bands (ev):

   -21.0444 -18.7863 -16.4973 -16.1091 -15.1869 -14.9563 -11.9377 -11.3161
   -10.8225  -8.0246  -7.8601  -7.4506  -6.8591  -5.3254  -5.1312  -4.2786
    -4.0883  -3.7860  -3.3597  -3.2522  -3.1435  -2.4777  -2.2720  -1.0029
    -0.4633   0.0895   2.9699   3.5504   5.0444   5.3399

          k = 0.1111-0.1000 0.0000 ( 20714 PWs)   bands (ev):

   -20.8893 -18.7145 -17.7225 -15.7360 -14.8648 -14.6997 -11.4912 -11.1201
   -10.8040  -8.1714  -7.5992  -7.3787  -6.7771  -6.0170  -5.0659  -4.7132
    -4.2703  -4.1258  -3.3667  -3.3058  -2.9479  -2.7951  -2.1073  -1.0336
    -0.5880   0.4091   3.1301   3.1915   5.2548   5.7206

          k = 0.1111-0.2000 0.0000 ( 20712 PWs)   bands (ev):

   -20.5121 -19.0362 -18.1828 -16.4696 -14.6006 -13.8521 -11.2775 -10.3286
   -10.0639  -8.8028  -7.8628  -7.2753  -6.6248  -6.4460  -5.4407  -5.2091
    -4.8385  -4.3098  -3.7163  -3.2152  -2.9516  -2.4723  -2.1316  -1.0048
    -0.8235   1.1727   2.2050   3.7952   4.7272   5.3803

          k = 0.2222-0.0000 0.0000 ( 20695 PWs)   bands (ev):

   -20.3515 -18.1177 -15.8537 -15.4517 -14.5697 -14.3454 -11.4338 -11.3657
   -10.2940  -9.1169  -8.2836  -7.8544  -7.4949  -6.1624  -6.0940  -5.3085
    -5.1571  -5.0852  -4.8661  -4.0374  -4.0362  -3.0645  -2.3145  -1.3394
    -0.8810   0.0003   3.5320   3.8482   5.8391   5.9257

          k = 0.2222-0.1000 0.0000 ( 20702 PWs)   bands (ev):

   -20.1974 -18.0445 -17.0609 -15.1140 -14.2482 -14.0766 -11.3765 -10.7190
   -10.3679  -8.9915  -8.3800  -7.9509  -7.2093  -6.4343  -6.1547  -5.6066
    -5.5425  -4.9186  -4.7153  -4.3017  -4.0028  -3.2503  -2.7120  -1.2660
    -0.8526   0.2651   3.2412   3.7682   5.8675   6.0374

          k = 0.2222-0.2000 0.0000 ( 20680 PWs)   bands (ev):

   -19.8229 -18.3562 -17.5235 -15.8382 -14.0067 -13.2329 -11.1737 -10.0653
    -9.7641  -8.7876  -8.4460  -7.8158  -7.5363  -7.1173  -6.4585  -6.0274
    -5.8281  -5.1082  -4.5426  -4.2950  -4.1220  -3.2892  -3.0715  -1.1278
    -0.9267   1.0061   2.0960   4.3071   5.0132   5.4926

          k = 0.3333-0.0000 0.0000 ( 20708 PWs)   bands (ev):

   -19.2121 -17.0480 -14.8132 -14.3765 -13.8486 -13.3538 -12.7369 -11.0030
   -10.6276  -9.7337  -9.0573  -8.8491  -8.1025  -7.5873  -7.1665  -6.8748
    -6.0261  -5.6547  -5.0031  -4.5924  -4.0320  -3.8443  -2.2491  -1.6164
    -1.2778  -0.2112   4.1293   4.4326   6.0937   6.7116

          k = 0.3333-0.1000 0.0000 ( 20688 PWs)   bands (ev):

   -19.0598 -16.9678 -15.9861 -14.1770 -13.5302 -13.0553 -12.5712 -10.9263
   -10.4393  -9.7354  -9.1178  -8.7925  -8.0247  -7.5641  -7.3269  -6.2037
    -6.1339  -5.5651  -5.2606  -4.7645  -4.3379  -3.8766  -2.9743  -1.5071
    -1.2412   0.0137   3.4532   4.6178   5.6832   6.4329

          k = 0.3333-0.2000 0.0000 ( 20623 PWs)   bands (ev):

   -18.6894 -17.2432 -16.4669 -14.8613 -13.4048 -12.2387 -12.2135 -11.2340
   -10.3399  -9.3608  -8.8364  -8.4142  -7.8340  -7.2629  -7.1387  -7.0693
    -6.1952  -5.6102  -5.3842  -4.8982  -4.6429  -4.0563  -3.6910  -1.3509
    -1.2493   0.7759   2.0653   4.8062   5.2028   5.8912

          k = 0.4444-0.0000 0.0000 ( 20718 PWs)   bands (ev):

   -17.6736 -16.1524 -14.9843 -13.3568 -13.0300 -12.9457 -12.1630 -11.9553
   -11.4849 -10.8442 -10.0817  -9.9132  -8.2328  -7.9088  -7.4188  -7.0984
    -6.4106  -5.7914  -5.4891  -5.2914  -4.5059  -3.1207  -2.5048  -1.7855
    -1.4989  -0.3995   4.2789   5.5474   5.9965   6.5863

          k = 0.4444-0.1000 0.0000 ( 20704 PWs)   bands (ev):

   -17.5235 -16.0097 -14.9867 -14.4662 -13.3166 -12.8711 -11.8129 -11.6075
   -11.4790 -10.5541  -9.9530  -9.7058  -8.2160  -7.8048  -7.6583  -6.4463
    -6.3329  -5.7892  -5.4915  -5.1018  -4.6462  -3.8175  -3.2922  -1.6520
    -1.4976  -0.1843   3.5931   5.4315   5.9816   6.3812

          k = 0.4444-0.2000 0.0000 ( 20665 PWs)   bands (ev):

   -17.1571 -15.7951 -15.5146 -14.6313 -14.2778 -12.6135 -12.2781 -11.2386
   -11.1545 -10.6480  -9.4963  -8.9949  -8.0101  -7.4207  -7.1044  -6.4462
    -5.9637  -5.7522  -5.4446  -5.2119  -4.9468  -4.9205  -4.5023  -1.5515
    -1.4904   0.6882   2.1207   5.0800   5.9403   6.4943

     the Fermi energy is    -0.4156 ev

!    total energy              =    -223.03446389 Ry
     estimated scf accuracy    <          3.3E-09 Ry
     smearing contrib. (-TS)   =       0.00011451 Ry
     internal energy E=F+TS    =    -223.03457841 Ry

     The total energy is F=E-TS. E is the sum of the following terms:
     one-electron contribution =   -2342.26538709 Ry
     hartree contribution      =    1185.20977649 Ry
     xc contribution           =     -56.99923532 Ry
     ewald contribution        =    1065.00381033 Ry
     one-center paw contrib.   =     -73.98354282 Ry

     convergence has been achieved in  13 iterations

     negative rho (up, down):  8.559E-05 0.000E+00

     Forces acting on atoms (cartesian axes, Ry/au):

     atom    1 type  1   force =     0.00000000   -0.00754451    0.00418978
     atom    2 type  1   force =     0.00000000   -0.01036766   -0.00052462
     atom    3 type  1   force =     0.00000000   -0.00000000    0.00177884
     atom    4 type  1   force =     0.00000000   -0.00000000    0.00387518
     atom    5 type  1   force =     0.00000000   -0.03284575   -0.09295144
     atom    6 type  1   force =     0.00000000   -0.00929718    0.08441013
     atom    7 type  1   force =     0.00000000    0.00754451    0.00418978
     atom    8 type  1   force =     0.00000000    0.01036766   -0.00052462
     atom    9 type  1   force =     0.00000000   -0.00000000    0.00025884
     atom   10 type  1   force =     0.00000000    0.00000000   -0.00004081
     atom   11 type  1   force =     0.00000000    0.03284575   -0.09295144
     atom   12 type  1   force =     0.00000000    0.00929718    0.08441013
     atom   13 type  2   force =     0.00000000   -0.00364494    0.00194012
     atom   14 type  2   force =     0.00000000    0.00364494    0.00194012

     Total force =     0.020416     Total SCF correction =     0.000114


     Computing stress (Cartesian axis) and pressure


     negative rho (up, down):  8.559E-05 0.000E+00
          total   stress  (Ry/bohr**3)                   (kbar)     P=       -4.37
   0.00028814   0.00000000   0.00000000           42.39        0.00        0.00
   0.00000000  -0.00026312   0.00000000            0.00      -38.71        0.00
   0.00000000   0.00000000  -0.00011423            0.00        0.00      -16.80


     Writing all to output data dir ./tmp/slab.save/ :
     XML data file, charge density, pseudopotentials, collected wavefunctions

     init_run     :      4.02s CPU      4.45s WALL (       1 calls)
     electrons    :    111.03s CPU    123.59s WALL (       1 calls)
     forces       :      1.71s CPU      1.96s WALL (       1 calls)
     stress       :      4.80s CPU      5.60s WALL (       1 calls)

     Called by init_run:
     wfcinit      :      3.30s CPU      3.65s WALL (       1 calls)
     potinit      :      0.36s CPU      0.39s WALL (       1 calls)
     hinit0       :      0.17s CPU      0.18s WALL (       1 calls)

     Called by electrons:
     c_bands      :     89.62s CPU    100.16s WALL (      13 calls)
     sum_band     :     14.41s CPU     15.46s WALL (      13 calls)
     v_of_rho     :      2.55s CPU      2.77s WALL (      14 calls)
     newd         :      1.56s CPU      1.99s WALL (      14 calls)
     PAW_pot      :      2.71s CPU      3.01s WALL (      14 calls)
     mix_rho      :      0.37s CPU      0.42s WALL (      13 calls)

     Called by c_bands:
     init_us_2    :      1.44s CPU      1.64s WALL (     435 calls)
     cegterg      :     86.79s CPU     97.21s WALL (     195 calls)

     Called by *egterg:
     cdiaghg      :      0.65s CPU      0.69s WALL (     919 calls)
     h_psi        :     66.18s CPU     70.98s WALL (     934 calls)
     s_psi        :      6.63s CPU      7.98s WALL (     934 calls)
     g_psi        :      0.31s CPU      0.31s WALL (     724 calls)

     Called by h_psi:
     h_psi:calbec :      5.84s CPU      7.52s WALL (     934 calls)
     vloc_psi     :     52.79s CPU     54.04s WALL (     934 calls)
                                        0.00s GPU  (     934 calls)
     add_vuspsi   :      7.31s CPU      8.95s WALL (     934 calls)

     General routines
     calbec       :     10.14s CPU     12.91s WALL (    1384 calls)
     fft          :      1.90s CPU      1.91s WALL (     205 calls)
     ffts         :      0.07s CPU      0.07s WALL (      27 calls)
     fftw         :     56.15s CPU     56.86s WALL (   37970 calls)
     interpolate  :      0.18s CPU      0.20s WALL (      14 calls)


     PWSCF        :   2m 1.63s CPU   2m15.74s WALL


   This run was terminated on:  12:19:50  23Jun2026            

=------------------------------------------------------------------------------=
   JOB DONE.
=------------------------------------------------------------------------------=
Note: The following floating-point exceptions are signalling: IEEE_INVALID_FLAG IEEE_DIVIDE_BY_ZERO IEEE_OVERFLOW_FLAG IEEE_UNDERFLOW_FLAG
