
     Program PWSCF v.7.5 starts on 20Jun2026 at 12: 1:49 

     This program is part of the open-source Quantum ESPRESSO suite
     for quantum simulation of materials; please cite
         "P. Giannozzi et al., J. Phys.:Condens. Matter 21 395502 (2009);
         "P. Giannozzi et al., J. Phys.:Condens. Matter 29 465901 (2017);
         "P. Giannozzi et al., J. Chem. Phys. 152 154105 (2020);
          URL http://www.quantum-espresso.org", 
     in publications or presentations arising from this work. More details at
     http://www.quantum-espresso.org/quote

     Serial version
     0 MiB available memory on the printing compute node when the environment starts

     Waiting for input...
     Reading input from standard input

     Current dimensions of program PWSCF are:
     Max number of different atomic species (ntypx) = 10
     Max number of k-points (npk) =  40000
     Max angular momentum in pseudopotentials (lmaxx) =  4
     file C.pbe-n-kjpaw_psl.1.0.0.UPF: wavefunction(s)  2S 2P renormalized
     Found identity + ( -0.5000 -0.5000  0.0000) symmetry
     This is a supercell, fractional translations are disabled
     Message from routine setup:
     using ibrav=0 with symmetry is DISCOURAGED, use correct ibrav instead


     G-vector sticks info
     --------------------
     sticks:   dense  smooth     PW     G-vecs:    dense   smooth      PW
     Sum        2249    1125    341                80989    28545    4697

     Using Slab Decomposition



     bravais-lattice index     =            0
     lattice parameter (alat)  =       6.6732  a.u.
     unit-cell volume          =     297.1745 (a.u.)^3
     number of atoms/cell      =            8
     number of atomic types    =            1
     number of electrons       =        32.00
     number of Kohn-Sham states=           16
     kinetic-energy cutoff     =      80.0000  Ry
     charge density cutoff     =     640.0000  Ry
     scf convergence threshold =      1.0E-10
     mixing beta               =       0.4000
     number of iterations used =            8  plain     mixing
     Exchange-correlation= SLA  PW   PBX  PBC
                           (   1   4   3   4   0   0   0)

     celldm(1)=   6.673247  celldm(2)=   0.000000  celldm(3)=   0.000000
     celldm(4)=   0.000000  celldm(5)=   0.000000  celldm(6)=   0.000000

     crystal axes: (cart. coord. in units of alat)
               a(1) = (   1.000000   0.000000   0.000000 )  
               a(2) = (   0.000000   1.000000   0.000000 )  
               a(3) = (   0.000000   0.000000   1.000000 )  

     reciprocal axes: (cart. coord. in units 2 pi/alat)
               b(1) = (  1.000000  0.000000  0.000000 )  
               b(2) = (  0.000000  1.000000  0.000000 )  
               b(3) = (  0.000000  0.000000  1.000000 )  


     PseudoPot. # 1 for C  read from file:
     ./C.pbe-n-kjpaw_psl.1.0.0.UPF
     MD5 check sum: 5d2aebdfa2cae82b50a7e79e9516da0f
     Pseudo is Projector augmented-wave + core cor, Zval =  4.0
     Generated using "atomic" code by A. Dal Corso  v.5.1
     Shape of augmentation charge: PSQ
     Using radial grid of 1073 points,  4 beta functions with: 
                l(1) =   0
                l(2) =   0
                l(3) =   1
                l(4) =   1
     Q(r) pseudized with 0 coefficients 


     atomic species   valence    mass     pseudopotential
     C                 4.00    12.01100     C ( 1.00)

     24 Sym. Ops. (no inversion) found



   Cartesian axes

     site n.     atom                  positions (alat units)
         1        C      tau(   1) = (   0.0000000   0.0000000   0.0000000  )
         2        C      tau(   2) = (   0.2500000   0.2500000   0.2500000  )
         3        C      tau(   3) = (   0.5000000   0.5000000   0.0000000  )
         4        C      tau(   4) = (   0.7500000   0.7500000   0.2500000  )
         5        C      tau(   5) = (   0.5000000   0.0000000   0.5000000  )
         6        C      tau(   6) = (   0.7500000   0.2500000   0.7500000  )
         7        C      tau(   7) = (   0.0000000   0.5000000   0.5000000  )
         8        C      tau(   8) = (   0.2500000   0.7500000   0.7500000  )

     number of k points=    35
                       cart. coord. in units 2pi/alat
        k(    1) = (   0.0000000   0.0000000   0.0000000), wk =   0.0039062
        k(    2) = (   0.0000000   0.0000000   0.1250000), wk =   0.0234375
        k(    3) = (   0.0000000   0.0000000   0.2500000), wk =   0.0234375
        k(    4) = (   0.0000000   0.0000000   0.3750000), wk =   0.0234375
        k(    5) = (   0.0000000   0.0000000  -0.5000000), wk =   0.0117188
        k(    6) = (   0.0000000   0.1250000   0.1250000), wk =   0.0468750
        k(    7) = (   0.0000000   0.1250000   0.2500000), wk =   0.0937500
        k(    8) = (   0.0000000   0.1250000   0.3750000), wk =   0.0937500
        k(    9) = (   0.0000000   0.1250000  -0.5000000), wk =   0.0468750
        k(   10) = (   0.0000000   0.2500000   0.2500000), wk =   0.0468750
        k(   11) = (   0.0000000   0.2500000   0.3750000), wk =   0.0937500
        k(   12) = (   0.0000000   0.2500000  -0.5000000), wk =   0.0468750
        k(   13) = (   0.0000000   0.3750000   0.3750000), wk =   0.0468750
        k(   14) = (   0.0000000   0.3750000  -0.5000000), wk =   0.0468750
        k(   15) = (   0.0000000  -0.5000000  -0.5000000), wk =   0.0117188
        k(   16) = (   0.1250000   0.1250000   0.1250000), wk =   0.0312500
        k(   17) = (   0.1250000   0.1250000   0.2500000), wk =   0.0937500
        k(   18) = (   0.1250000   0.1250000   0.3750000), wk =   0.0937500
        k(   19) = (   0.1250000   0.1250000  -0.5000000), wk =   0.0468750
        k(   20) = (   0.1250000   0.2500000   0.2500000), wk =   0.0937500
        k(   21) = (   0.1250000   0.2500000   0.3750000), wk =   0.1875000
        k(   22) = (   0.1250000   0.2500000  -0.5000000), wk =   0.0937500
        k(   23) = (   0.1250000   0.3750000   0.3750000), wk =   0.0937500
        k(   24) = (   0.1250000   0.3750000  -0.5000000), wk =   0.0937500
        k(   25) = (   0.1250000  -0.5000000  -0.5000000), wk =   0.0234375
        k(   26) = (   0.2500000   0.2500000   0.2500000), wk =   0.0312500
        k(   27) = (   0.2500000   0.2500000   0.3750000), wk =   0.0937500
        k(   28) = (   0.2500000   0.2500000  -0.5000000), wk =   0.0468750
        k(   29) = (   0.2500000   0.3750000   0.3750000), wk =   0.0937500
        k(   30) = (   0.2500000   0.3750000  -0.5000000), wk =   0.0937500
        k(   31) = (   0.2500000  -0.5000000  -0.5000000), wk =   0.0234375
        k(   32) = (   0.3750000   0.3750000   0.3750000), wk =   0.0312500
        k(   33) = (   0.3750000   0.3750000  -0.5000000), wk =   0.0468750
        k(   34) = (   0.3750000  -0.5000000  -0.5000000), wk =   0.0234375
        k(   35) = (  -0.5000000  -0.5000000  -0.5000000), wk =   0.0039062

     Dense  grid:    80989 G-vectors     FFT dimensions: (  54,  54,  54)

     Smooth grid:    28545 G-vectors     FFT dimensions: (  40,  40,  40)

     Estimated max dynamical RAM per process >     160.69 MB

     Initial potential from superposition of free atoms

     starting charge      31.9997, renormalised to      32.0000
     Starting wfcs are   32 randomized atomic wfcs

     total cpu time spent up to now is        1.0 secs

     Self-consistent Calculation

     iteration #  1     ecut=    80.00 Ry     beta= 0.40
     Davidson diagonalization with overlap
     ethr =  1.00E-02,  avg # of iterations =  2.0

     total cpu time spent up to now is        2.4 secs

     total energy              =    -147.50064879 Ry
     estimated scf accuracy    <       0.47733778 Ry

     iteration #  2     ecut=    80.00 Ry     beta= 0.40
     Davidson diagonalization with overlap
     ethr =  1.49E-03,  avg # of iterations =  1.0

     total cpu time spent up to now is        3.4 secs

     total energy              =    -147.45188175 Ry
     estimated scf accuracy    <       0.13278710 Ry

     iteration #  3     ecut=    80.00 Ry     beta= 0.40
     Davidson diagonalization with overlap
     ethr =  4.15E-04,  avg # of iterations =  2.0

     total cpu time spent up to now is        4.7 secs

     total energy              =    -147.46609924 Ry
     estimated scf accuracy    <       0.00133431 Ry

     iteration #  4     ecut=    80.00 Ry     beta= 0.40
     Davidson diagonalization with overlap
     ethr =  4.17E-06,  avg # of iterations =  3.4

     total cpu time spent up to now is        6.3 secs

     total energy              =    -147.46670466 Ry
     estimated scf accuracy    <       0.00021048 Ry

     iteration #  5     ecut=    80.00 Ry     beta= 0.40
     Davidson diagonalization with overlap
     ethr =  6.58E-07,  avg # of iterations =  2.3

     total cpu time spent up to now is        7.7 secs

     total energy              =    -147.46673833 Ry
     estimated scf accuracy    <       0.00000208 Ry

     iteration #  6     ecut=    80.00 Ry     beta= 0.40
     Davidson diagonalization with overlap
     ethr =  6.51E-09,  avg # of iterations =  5.7

     total cpu time spent up to now is       10.0 secs

     total energy              =    -147.46673470 Ry
     estimated scf accuracy    <       0.00002482 Ry

     iteration #  7     ecut=    80.00 Ry     beta= 0.40
     Davidson diagonalization with overlap
     ethr =  6.51E-09,  avg # of iterations =  2.5

     total cpu time spent up to now is       11.5 secs

     total energy              =    -147.46673668 Ry
     estimated scf accuracy    <       0.00000014 Ry

     iteration #  8     ecut=    80.00 Ry     beta= 0.40
     Davidson diagonalization with overlap
     ethr =  4.27E-10,  avg # of iterations =  2.8

     total cpu time spent up to now is       13.0 secs

     total energy              =    -147.46673674 Ry
     estimated scf accuracy    <       0.00000003 Ry

     iteration #  9     ecut=    80.00 Ry     beta= 0.40
     Davidson diagonalization with overlap
     ethr =  7.90E-11,  avg # of iterations =  2.1

     total cpu time spent up to now is       14.3 secs

     total energy              =    -147.46673674 Ry
     estimated scf accuracy    <          9.4E-09 Ry

     iteration # 10     ecut=    80.00 Ry     beta= 0.40
     Davidson diagonalization with overlap
     ethr =  2.92E-11,  avg # of iterations =  2.0

     total cpu time spent up to now is       15.5 secs

     total energy              =    -147.46673674 Ry
     estimated scf accuracy    <          6.3E-10 Ry

     iteration # 11     ecut=    80.00 Ry     beta= 0.40
     Davidson diagonalization with overlap
     ethr =  1.98E-12,  avg # of iterations =  2.8

     total cpu time spent up to now is       17.1 secs

     End of self-consistent calculation

          k = 0.0000 0.0000 0.0000 (  3695 PWs)   bands (ev):

    -7.9865   0.9168   0.9168   0.9168   0.9169   0.9169   0.9169   7.4121
     7.4121   7.4121   7.4121   7.4121   7.4121  13.8997  13.8997  13.8997

          k = 0.0000 0.0000 0.1250 (  3611 PWs)   bands (ev):

    -7.8393  -1.0513   1.0124   1.0124   1.0124   1.0124   3.0240   7.0965
     7.0965   7.0965   7.0965   7.5565   7.5565  13.3257  13.3257  13.5493

          k = 0.0000 0.0000 0.2500 (  3603 PWs)   bands (ev):

    -7.3989  -2.8256   1.2725   1.2725   1.2725   1.2725   5.1951   6.3634
     6.3634   6.3634   6.3634   7.9864   7.9864  12.1154  12.1154  12.5741

          k = 0.0000 0.0000 0.3750 (  3583 PWs)   bands (ev):

    -6.6687  -4.3686   1.5948   1.5948   1.5949   1.5949   5.6298   5.6298
     5.6298   5.6298   7.3368   8.6909   8.6909  10.8184  10.8184  11.1283

          k = 0.0000 0.0000-0.5000 (  3546 PWs)   bands (ev):

    -5.6550  -5.6550   1.7580   1.7580   1.7580   1.7580   5.3102   5.3102
     5.3102   5.3102   9.3475   9.3475   9.6485   9.6485   9.6485   9.6485

          k = 0.0000 0.1250 0.1250 (  3603 PWs)   bands (ev):

    -7.6923  -0.9312  -0.9312   1.0138   1.1797   3.0658   3.0658   6.1054
     7.2023   7.2023   7.3089   7.3089   7.6589  12.4470  12.7902  13.7149

          k = 0.0000 0.1250 0.2500 (  3602 PWs)   bands (ev):

    -7.2526  -2.6933  -0.5826   1.0860   1.5350   3.1278   5.1072   5.1075
     6.3628   6.7884   7.5910   7.6058   7.8816  11.1507  11.6313  13.1151

          k = 0.0000 0.1250 0.3750 (  3589 PWs)   bands (ev):

    -6.5237  -4.2296  -0.0489   0.9959   2.0454   3.0196   4.5507   5.4263
     6.4588   6.9360   7.1112   8.2884   8.9050   9.7894  10.3692  11.8917

          k = 0.0000 0.1250-0.5000 (  3580 PWs)   bands (ev):

    -5.5123  -5.5123   0.5569   0.5569   2.6077   2.6077   4.7155   4.7155
     6.6150   6.6150   8.4315   8.4315   9.2245   9.2245  10.3625  10.3625

          k = 0.0000 0.2500 0.2500 (  3609 PWs)   bands (ev):

    -6.8151  -2.3021  -2.3021   0.7411   1.9647   4.2873   4.7615   4.7615
     6.7038   6.7038   7.7729   7.7729   8.3740   9.8387  10.5477  13.1221

          k = 0.0000 0.2500 0.3750 (  3590 PWs)   bands (ev):

    -6.0904  -3.8161  -1.6725   0.0339   2.5733   4.1117   4.2226   5.6701
     6.0773   7.3416   7.9202   8.5218   8.5268   9.2830   9.3404  12.3275

          k = 0.0000 0.2500-0.5000 (  3576 PWs)   bands (ev):

    -5.0863  -5.0863  -0.8539  -0.8539   3.3223   3.3223   4.7726   4.7726
     7.2758   7.2758   8.2381   8.2381   8.2598   8.2598  10.9372  10.9372

          k = 0.0000 0.3750 0.3750 (  3582 PWs)   bands (ev):

    -5.3738  -3.1393  -3.1393  -1.1240   3.2606   4.5416   5.0814   5.0814
     6.2528   6.2528   7.2717   8.1760   9.4735   9.6301   9.6301  12.1020

          k = 0.0000 0.3750-0.5000 (  3592 PWs)   bands (ev):

    -4.3841  -4.3841  -2.2238  -2.2238   4.1113   4.1113   5.2698   5.2698
     6.1168   6.1168   7.1101   7.1101   9.7816   9.7817  11.1428  11.1428

          k = 0.0000-0.5000-0.5000 (  3556 PWs)   bands (ev):

    -3.4204  -3.4204  -3.4204  -3.4203   5.0448   5.0448   5.0448   5.0448
     6.0794   6.0794   6.0794   6.0794  10.7975  10.7975  10.7975  10.7975

          k = 0.1250 0.1250 0.1250 (  3620 PWs)   bands (ev):

    -7.5456  -0.8161  -0.8161  -0.8161   3.0669   3.0669   3.0669   6.3334
     6.3334   6.3334   7.7994   7.7994   7.7994  11.4281  13.2257  13.2257

          k = 0.1250 0.1250 0.2500 (  3610 PWs)   bands (ev):

    -7.1066  -2.5628  -0.4894  -0.4894   2.9499   2.9499   4.8647   5.5287
     5.5287   7.1114   7.7489   7.7489   8.2170  10.0586  12.1404  12.9188

          k = 0.1250 0.1250 0.3750 (  3603 PWs)   bands (ev):

    -6.3790  -4.0915  -0.0381  -0.0381   2.5319   2.5319   5.2539   5.2539
     6.2507   7.3544   7.3545   8.5494   8.7006   8.8989  10.9321  11.8335

          k = 0.1250 0.1250-0.5000 (  3570 PWs)   bands (ev):

    -5.3700  -5.3700   0.2322   0.2322   2.2189   2.2189   5.2793   5.2793
     7.1157   7.1157   7.4437   7.4437   9.8197   9.8197  10.2732  10.2732

          k = 0.1250 0.2500 0.2500 (  3599 PWs)   bands (ev):

    -6.6698  -2.1786  -2.1786  -0.2731   2.3559   4.1085   4.1085   5.1862
     6.7701   6.7701   8.2580   8.2580   8.5007   8.6497  11.4894  12.8319

          k = 0.1250 0.2500 0.3750 (  3601 PWs)   bands (ev):

    -5.9467  -3.6809  -1.5704  -0.2612   1.8841   3.1121   5.0545   5.4507
     6.4807   7.2979   8.1838   8.2298   8.6601   9.3120  10.4009  12.1468

          k = 0.1250 0.2500-0.5000 (  3582 PWs)   bands (ev):

    -4.9455  -4.9455  -0.8285  -0.8285   2.2408   2.2408   5.9753   5.9753
     6.0922   6.0922   8.4402   8.4402   9.3020   9.3020  10.8323  10.8323

          k = 0.1250 0.3750 0.3750 (  3578 PWs)   bands (ev):

    -5.2323  -3.0116  -3.0116  -1.0946   2.0515   3.8475   3.8475   5.9667
     5.9678   7.4692   7.4692   9.4205   9.5694   9.6984   9.6984  12.0074

          k = 0.1250 0.3750-0.5000 (  3580 PWs)   bands (ev):

    -4.2468  -4.2468  -2.1177  -2.1177   2.8009   2.8009   4.8026   4.8026
     6.6766   6.6766   8.4134   8.4134   9.8633   9.8633  11.1222  11.1222

          k = 0.1250-0.5000-0.5000 (  3588 PWs)   bands (ev):

    -3.2914  -3.2914  -3.2914  -3.2914   3.6823   3.6823   3.6823   3.6824
     7.4990   7.4990   7.4990   7.4990  10.8285  10.8285  10.8285  10.8285

          k = 0.2500 0.2500 0.2500 (  3596 PWs)   bands (ev):

    -6.2357  -1.8246  -1.8246  -1.8246   2.8899   2.8899   2.8899   6.9970
     6.9970   6.9970   7.1620   8.8750   8.8750   8.8750  12.1004  12.1004

          k = 0.2500 0.2500 0.3750 (  3585 PWs)   bands (ev):

    -5.5178  -3.2815  -1.3229  -1.3229   1.7658   1.7658   3.6191   5.7808
     7.2923   7.2923   8.9290   9.0783   9.0783   9.4769  11.1816  11.7948

          k = 0.2500 0.2500-0.5000 (  3564 PWs)   bands (ev):

    -4.5265  -4.5265  -1.0095  -1.0095   1.2329   1.2329   4.5867   4.5867
     7.4459   7.4459   9.0656   9.0656  10.2683  10.2683  10.6330  10.6330

          k = 0.2500 0.3750 0.3750 (  3592 PWs)   bands (ev):

    -4.8107  -2.6440  -2.6440  -1.2645   0.9819   2.3125   2.3125   4.3942
     7.8930   8.8628   8.8628   9.8461   9.9020   9.9021  10.7041  11.7291

          k = 0.2500 0.3750-0.5000 (  3586 PWs)   bands (ev):

    -3.8410  -3.8410  -1.8564  -1.8564   1.3100   1.3100   3.2191   3.2191
     8.4416   8.4417   9.8812   9.8812  10.1013  10.1013  11.0418  11.0418

          k = 0.2500-0.5000-0.5000 (  3584 PWs)   bands (ev):

    -2.9195  -2.9195  -2.9195  -2.9195   2.0881   2.0881   2.0881   2.0881
     9.2044   9.2044   9.2044   9.2045  10.9052  10.9052  10.9052  10.9052

          k = 0.3750 0.3750 0.3750 (  3605 PWs)   bands (ev):

    -4.1204  -2.1162  -2.1162  -2.1162   1.0456   1.0456   1.0456   2.9880
     9.6515   9.6515   9.6515  10.2697  10.2697  10.2697  11.2975  11.2975

          k = 0.3750 0.3750-0.5000 (  3576 PWs)   bands (ev):

    -3.1910  -3.1910  -1.7783  -1.7783   0.4567   0.4567   1.8346   1.8346
     9.8327   9.8327  10.5045  10.5045  10.7810  10.7810  10.9065  10.9065

          k = 0.3750-0.5000-0.5000 (  3572 PWs)   bands (ev):

    -2.3833  -2.3833  -2.3833  -2.3833   0.7885   0.7885   0.7885   0.7885
    10.5116  10.5116  10.5116  10.5116  10.9845  10.9845  10.9845  10.9845

          k =-0.5000-0.5000-0.5000 (  3544 PWs)   bands (ev):

    -2.0372  -2.0372  -2.0372  -2.0372   0.1842   0.1842   0.1842   0.1842
    11.0183  11.0183  11.0183  11.0183  11.0183  11.0183  11.0183  11.0183

     highest occupied level (ev):    13.8997

!    total energy              =    -147.46673674 Ry
     total all-electron energy =      -609.579519 Ry
     estimated scf accuracy    <          3.4E-11 Ry

     The total energy is the sum of the following terms:
     one-electron contribution =      35.23895554 Ry
     hartree contribution      =       7.63911386 Ry
     xc contribution           =     -37.71157103 Ry
     ewald contribution        =    -103.32454285 Ry
     one-center paw contrib.   =     -49.30869226 Ry

     convergence has been achieved in  11 iterations

     Forces acting on atoms (cartesian axes, Ry/au):

     atom    1 type  1   force =     0.00000000    0.00000000    0.00000000
     atom    2 type  1   force =     0.00000012    0.00000012    0.00000012
     atom    3 type  1   force =     0.00000000    0.00000000    0.00000000
     atom    4 type  1   force =    -0.00000012   -0.00000012    0.00000012
     atom    5 type  1   force =     0.00000000    0.00000000    0.00000000
     atom    6 type  1   force =    -0.00000012    0.00000012   -0.00000012
     atom    7 type  1   force =     0.00000000    0.00000000    0.00000000
     atom    8 type  1   force =     0.00000012   -0.00000012   -0.00000012

     Total force =     0.000000     Total SCF correction =     0.000008
     SCF correction compared to forces is large: reduce conv_thr to get better values


     Computing stress (Cartesian axis) and pressure

          total   stress  (Ry/bohr**3)                   (kbar)     P=      162.53
   0.00110483   0.00000000   0.00000000          162.53        0.00        0.00
   0.00000000   0.00110483   0.00000000            0.00      162.53        0.00
   0.00000000   0.00000000   0.00110483            0.00        0.00      162.53


     Writing all to output data dir ./tmp/diamond.save/ :
     XML data file, charge density, pseudopotentials, collected wavefunctions

     init_run     :      0.92s CPU      0.97s WALL (       1 calls)
     electrons    :     14.96s CPU     16.04s WALL (       1 calls)
     forces       :      0.16s CPU      0.19s WALL (       1 calls)
     stress       :      0.55s CPU      0.69s WALL (       1 calls)

     Called by init_run:
     wfcinit      :      0.68s CPU      0.71s WALL (       1 calls)
     potinit      :      0.12s CPU      0.13s WALL (       1 calls)
     hinit0       :      0.09s CPU      0.09s WALL (       1 calls)

     Called by electrons:
     c_bands      :     11.66s CPU     12.53s WALL (      11 calls)
     sum_band     :      1.83s CPU      1.92s WALL (      11 calls)
     v_of_rho     :      0.25s CPU      0.27s WALL (      12 calls)
     newd         :      0.16s CPU      0.19s WALL (      12 calls)
     PAW_pot      :      1.13s CPU      1.21s WALL (      12 calls)
     mix_rho      :      0.03s CPU      0.03s WALL (      11 calls)

     Called by c_bands:
     init_us_2    :      0.26s CPU      0.29s WALL (     875 calls)
     cegterg      :     11.19s CPU     12.04s WALL (     385 calls)

     Called by *egterg:
     cdiaghg      :      0.15s CPU      0.15s WALL (    1382 calls)
     h_psi        :      9.38s CPU      9.75s WALL (    1417 calls)
     s_psi        :      0.63s CPU      0.76s WALL (    1417 calls)
     g_psi        :      0.05s CPU      0.05s WALL (     997 calls)

     Called by h_psi:
     h_psi:calbec :      0.67s CPU      0.81s WALL (    1417 calls)
     vloc_psi     :      8.03s CPU      8.11s WALL (    1417 calls)
                                        0.00s GPU  (    1417 calls)
     add_vuspsi   :      0.64s CPU      0.77s WALL (    1417 calls)

     General routines
     calbec       :      1.16s CPU      1.46s WALL (    2397 calls)
     fft          :      0.13s CPU      0.14s WALL (     179 calls)
     ffts         :      0.01s CPU      0.01s WALL (      23 calls)
     fftw         :      8.36s CPU      8.40s WALL (   44088 calls)
     interpolate  :      0.01s CPU      0.01s WALL (      12 calls)


     PWSCF        :     16.64s CPU     17.97s WALL


   This run was terminated on:  12: 2: 7  20Jun2026            

=------------------------------------------------------------------------------=
   JOB DONE.
=------------------------------------------------------------------------------=
