
     Program PWSCF v.7.5 starts on  7Jul2026 at 12:22:22 

     This program is part of the open-source Quantum ESPRESSO suite
     for quantum simulation of materials; please cite
         "P. Giannozzi et al., J. Phys.:Condens. Matter 21 395502 (2009);
         "P. Giannozzi et al., J. Phys.:Condens. Matter 29 465901 (2017);
         "P. Giannozzi et al., J. Chem. Phys. 152 154105 (2020);
          URL http://www.quantum-espresso.org", 
     in publications or presentations arising from this work. More details at
     http://www.quantum-espresso.org/quote

     Serial version
     0 MiB available memory on the printing compute node when the environment starts

     Waiting for input...
     Reading input from standard input

     Current dimensions of program PWSCF are:
     Max number of different atomic species (ntypx) = 10
     Max number of k-points (npk) =  40000
     Max angular momentum in pseudopotentials (lmaxx) =  4
     file C.pbe-n-kjpaw_psl.1.0.0.UPF: wavefunction(s)  2S 2P renormalized
     Message from routine volume:
     axis vectors are left-handed
     Found identity + (  0.5000  0.0000  0.0000) symmetry
     This is a supercell, fractional translations are disabled
     Message from routine setup:
     using ibrav=0 with symmetry is DISCOURAGED, use correct ibrav instead


     G-vector sticks info
     --------------------
     sticks:   dense  smooth     PW     G-vecs:    dense   smooth      PW
     Sum        3497    1749    481               443871   157227   22591

     Using Slab Decomposition



     bravais-lattice index     =            0
     lattice parameter (alat)  =       9.5505  a.u.
     unit-cell volume          =    2499.5129 (a.u.)^3
     number of atoms/cell      =           32
     number of atomic types    =            2
     number of electrons       =       104.00
     number of Kohn-Sham states=           62
     kinetic-energy cutoff     =      60.0000  Ry
     charge density cutoff     =     480.0000  Ry
     scf convergence threshold =      1.0E-08
     mixing beta               =       0.3000
     number of iterations used =            8  plain     mixing
     Exchange-correlation= PBE
                           (   1   4   3   4   0   0   0)

     celldm(1)=   9.550471  celldm(2)=   0.000000  celldm(3)=   0.000000
     celldm(4)=   0.000000  celldm(5)=   0.000000  celldm(6)=   0.000000

     crystal axes: (cart. coord. in units of alat)
               a(1) = (   1.000000   0.000000   0.000000 )  
               a(2) = (   0.000000  -1.000000   0.000000 )  
               a(3) = (   0.000000   0.000000   2.869333 )  

     reciprocal axes: (cart. coord. in units 2 pi/alat)
               b(1) = (  1.000000 -0.000000 -0.000000 )  
               b(2) = ( -0.000000 -1.000000 -0.000000 )  
               b(3) = ( -0.000000 -0.000000  0.348513 )  


     PseudoPot. # 1 for C  read from file:
     ./C.pbe-n-kjpaw_psl.1.0.0.UPF
     MD5 check sum: 5d2aebdfa2cae82b50a7e79e9516da0f
     Pseudo is Projector augmented-wave + core cor, Zval =  4.0
     Generated using "atomic" code by A. Dal Corso  v.5.1
     Shape of augmentation charge: PSQ
     Using radial grid of 1073 points,  4 beta functions with: 
                l(1) =   0
                l(2) =   0
                l(3) =   1
                l(4) =   1
     Q(r) pseudized with 0 coefficients 


     PseudoPot. # 2 for H  read from file:
     ./H_ONCV_PBE-1.0.oncvpsp.upf
     MD5 check sum: 1790becc920ee074925cf490c71280fe
     Pseudo is Norm-conserving, Zval =  1.0
     Generated using ONCVPSP code by D. R. Hamann
     Using radial grid of 1166 points,  2 beta functions with: 
                l(1) =   0
                l(2) =   0

     atomic species   valence    mass     pseudopotential
     C                 4.00    12.01100     C ( 1.00)
     H                 1.00     1.00800     H ( 1.00)

      4 Sym. Ops. (no inversion) found



   Cartesian axes

     site n.     atom                  positions (alat units)
         1        C      tau(   1) = (   0.0000000  -0.1582087   1.8592812  )
         2        C      tau(   2) = (   0.2500000  -0.2299149   1.6998931  )
         3        C      tau(   3) = (   0.2500000   0.0000000   1.4936626  )
         4        C      tau(   4) = (   0.0000000   0.0000000   1.3178300  )
         5        C      tau(   5) = (   0.0000000  -0.2700851   1.1694404  )
         6        C      tau(   6) = (   0.2500000  -0.3417913   1.0100523  )
         7        C      tau(   7) = (   0.0000000  -0.8417913   1.8592812  )
         8        C      tau(   8) = (   0.2500000  -0.7700851   1.6998931  )
         9        C      tau(   9) = (   0.2500000  -0.5000000   1.5515034  )
        10        C      tau(  10) = (   0.0000000  -0.5000000   1.3756708  )
        11        C      tau(  11) = (   0.0000000  -0.7299149   1.1694404  )
        12        C      tau(  12) = (   0.2500000  -0.6582087   1.0100523  )
        13        H      tau(  13) = (   0.0000000  -0.2449080   2.0590044  )
        14        H      tau(  14) = (   0.0000000  -0.7550920   2.0590044  )
        15        H      tau(  15) = (   0.2500000  -0.2550919   0.8103291  )
        16        H      tau(  16) = (   0.2500000  -0.7449081   0.8103291  )
        17        C      tau(  17) = (   0.5000000  -0.1582087   1.8592812  )
        18        C      tau(  18) = (   0.7500000  -0.2299149   1.6998931  )
        19        C      tau(  19) = (   0.7500000   0.0000000   1.4936626  )
        20        C      tau(  20) = (   0.5000000   0.0000000   1.3178300  )
        21        C      tau(  21) = (   0.5000000  -0.2700851   1.1694404  )
        22        C      tau(  22) = (   0.7500000  -0.3417913   1.0100523  )
        23        C      tau(  23) = (   0.5000000  -0.8417913   1.8592812  )
        24        C      tau(  24) = (   0.7500000  -0.7700851   1.6998931  )
        25        C      tau(  25) = (   0.7500000  -0.5000000   1.5515034  )
        26        C      tau(  26) = (   0.5000000  -0.5000000   1.3756708  )
        27        C      tau(  27) = (   0.5000000  -0.7299149   1.1694404  )
        28        C      tau(  28) = (   0.7500000  -0.6582087   1.0100523  )
        29        H      tau(  29) = (   0.5000000  -0.2449080   2.0590044  )
        30        H      tau(  30) = (   0.5000000  -0.7550920   2.0590044  )
        31        H      tau(  31) = (   0.7500000  -0.2550919   0.8103291  )
        32        H      tau(  32) = (   0.7500000  -0.7449081   0.8103291  )

     number of k points=     9  Marzari-Vanderbilt smearing, width (Ry)=  0.0100
                       cart. coord. in units 2pi/alat
        k(    1) = (   0.0000000  -0.0000000   0.0000000), wk =   0.0800000
        k(    2) = (   0.0000000  -0.2000000   0.0000000), wk =   0.1600000
        k(    3) = (   0.0000000  -0.4000000   0.0000000), wk =   0.1600000
        k(    4) = (   0.2000000  -0.2000000   0.0000000), wk =   0.3200000
        k(    5) = (   0.2000000  -0.4000000   0.0000000), wk =   0.3200000
        k(    6) = (   0.4000000  -0.4000000   0.0000000), wk =   0.3200000
        k(    7) = (  -0.2000000   0.0000000   0.0000000), wk =   0.1600000
        k(    8) = (  -0.4000000   0.0000000   0.0000000), wk =   0.1600000
        k(    9) = (  -0.4000000   0.2000000   0.0000000), wk =   0.3200000

     Dense  grid:   443871 G-vectors     FFT dimensions: (  72,  72, 192)

     Smooth grid:   157227 G-vectors     FFT dimensions: (  48,  48, 135)

     Estimated max dynamical RAM per process >       1.25 GB

     Check: negative core charge=   -0.000002

     Initial potential from superposition of free atoms

     starting charge     103.9989, renormalised to     104.0000

     negative rho (up, down):  4.199E-06 0.000E+00
     Starting wfcs are  104 randomized atomic wfcs

     total cpu time spent up to now is        4.9 secs

     Self-consistent Calculation

     iteration #  1     ecut=    60.00 Ry     beta= 0.30
     Davidson diagonalization with overlap
     ethr =  1.00E-02,  avg # of iterations =  3.0

     negative rho (up, down):  1.348E-05 0.000E+00

     total cpu time spent up to now is       15.3 secs

     total energy              =    -451.90350588 Ry
     estimated scf accuracy    <       2.45888951 Ry

     iteration #  2     ecut=    60.00 Ry     beta= 0.30
     Davidson diagonalization with overlap
     ethr =  2.36E-03,  avg # of iterations =  4.7

     negative rho (up, down):  4.637E-05 0.000E+00

     total cpu time spent up to now is       24.0 secs

     total energy              =    -451.75087182 Ry
     estimated scf accuracy    <       0.71874879 Ry

     iteration #  3     ecut=    60.00 Ry     beta= 0.30
     Davidson diagonalization with overlap
     ethr =  6.91E-04,  avg # of iterations =  7.4

     negative rho (up, down):  6.431E-05 0.000E+00

     total cpu time spent up to now is       35.0 secs

     total energy              =    -451.77547737 Ry
     estimated scf accuracy    <       0.10709622 Ry

     iteration #  4     ecut=    60.00 Ry     beta= 0.30
     Davidson diagonalization with overlap
     ethr =  1.03E-04,  avg # of iterations =  3.8

     negative rho (up, down):  8.247E-05 0.000E+00

     total cpu time spent up to now is       43.6 secs

     total energy              =    -451.78408432 Ry
     estimated scf accuracy    <       0.01014127 Ry

     iteration #  5     ecut=    60.00 Ry     beta= 0.30
     Davidson diagonalization with overlap
     c_bands:  1 eigenvalues not converged
     ethr =  9.75E-06,  avg # of iterations = 10.9

     negative rho (up, down):  6.859E-05 0.000E+00

     total cpu time spent up to now is       57.0 secs

     total energy              =    -451.78569948 Ry
     estimated scf accuracy    <       0.00246133 Ry

     iteration #  6     ecut=    60.00 Ry     beta= 0.30
     Davidson diagonalization with overlap
     ethr =  2.37E-06,  avg # of iterations =  7.3

     negative rho (up, down):  6.907E-05 0.000E+00

     total cpu time spent up to now is       68.5 secs

     total energy              =    -451.78608288 Ry
     estimated scf accuracy    <       0.00029629 Ry

     iteration #  7     ecut=    60.00 Ry     beta= 0.30
     Davidson diagonalization with overlap
     ethr =  2.85E-07,  avg # of iterations =  2.8

     negative rho (up, down):  6.791E-05 0.000E+00

     total cpu time spent up to now is       77.2 secs

     total energy              =    -451.78612334 Ry
     estimated scf accuracy    <       0.00003255 Ry

     iteration #  8     ecut=    60.00 Ry     beta= 0.30
     Davidson diagonalization with overlap
     ethr =  3.13E-08,  avg # of iterations =  3.1

     negative rho (up, down):  6.723E-05 0.000E+00

     total cpu time spent up to now is       86.4 secs

     total energy              =    -451.78612682 Ry
     estimated scf accuracy    <       0.00001588 Ry

     iteration #  9     ecut=    60.00 Ry     beta= 0.30
     Davidson diagonalization with overlap
     ethr =  1.53E-08,  avg # of iterations =  2.0

     negative rho (up, down):  6.714E-05 0.000E+00

     total cpu time spent up to now is       94.9 secs

     total energy              =    -451.78613033 Ry
     estimated scf accuracy    <       0.00000164 Ry

     iteration # 10     ecut=    60.00 Ry     beta= 0.30
     Davidson diagonalization with overlap
     ethr =  1.58E-09,  avg # of iterations =  3.7

     negative rho (up, down):  6.711E-05 0.000E+00

     total cpu time spent up to now is      104.7 secs

     total energy              =    -451.78613033 Ry
     estimated scf accuracy    <       0.00000112 Ry

     iteration # 11     ecut=    60.00 Ry     beta= 0.30
     Davidson diagonalization with overlap
     ethr =  1.07E-09,  avg # of iterations =  2.8

     negative rho (up, down):  6.724E-05 0.000E+00

     total cpu time spent up to now is      113.8 secs

     total energy              =    -451.78613063 Ry
     estimated scf accuracy    <       0.00000005 Ry

     iteration # 12     ecut=    60.00 Ry     beta= 0.30
     Davidson diagonalization with overlap
     ethr =  4.59E-11,  avg # of iterations =  2.4

     negative rho (up, down):  6.737E-05 0.000E+00

     total cpu time spent up to now is      122.1 secs

     total energy              =    -451.78613064 Ry
     estimated scf accuracy    <       0.00000002 Ry

     iteration # 13     ecut=    60.00 Ry     beta= 0.30
     Davidson diagonalization with overlap
     ethr =  1.93E-11,  avg # of iterations =  4.7

     negative rho (up, down):  6.748E-05 0.000E+00

     total cpu time spent up to now is      133.7 secs

     total energy              =    -451.78613062 Ry
     estimated scf accuracy    <       0.00000005 Ry

     iteration # 14     ecut=    60.00 Ry     beta= 0.30
     Davidson diagonalization with overlap
     ethr =  1.93E-11,  avg # of iterations =  3.1

     negative rho (up, down):  6.779E-05 0.000E+00

     total cpu time spent up to now is      142.8 secs

     End of self-consistent calculation

          k = 0.0000-0.0000 0.0000 ( 19679 PWs)   bands (ev):

   -17.7359 -16.0419 -13.3838 -13.3838 -13.1648 -12.9573 -12.8584 -11.8372
   -11.5611 -11.5611  -9.2929  -9.2929  -9.0368  -8.8356  -8.8356  -8.7004
    -8.1477  -8.1477  -7.8469  -7.7718  -7.7718  -5.4165  -5.3754  -5.1794
    -4.8102  -4.8102  -3.9127  -3.9127  -3.4803  -3.4803  -2.6843  -2.2161
    -2.2129  -2.2129  -2.1197  -2.1197  -1.9090  -1.7678  -1.6562  -1.1993
    -1.1727  -1.1727   0.2238   0.4061   0.4061   0.4351   0.5407   0.8095
     0.8635   0.9934   1.3447   1.6804   5.4345   5.8922   7.4684   7.7480
     7.7810   8.3932   8.6209   8.9963   8.9963   9.1659

          k = 0.0000-0.2000 0.0000 ( 19607 PWs)   bands (ev):

   -17.5709 -16.0580 -14.2553 -13.3599 -13.2271 -13.2271 -11.7159 -11.5785
   -11.5785 -11.5547 -10.3245 -10.3245  -9.1339  -8.5587  -8.5587  -8.1728
    -7.7706  -7.6259  -7.6259  -7.4635  -7.4635  -5.9210  -5.0471  -4.9204
    -4.9204  -4.7779  -3.8335  -3.8335  -3.2773  -3.2773  -3.2173  -2.5451
    -2.3033  -2.3033  -1.9224  -1.8774  -1.8774  -1.8480  -1.3310  -1.2199
    -1.1943  -1.1943  -0.3768  -0.3041  -0.3041  -0.2283   0.3876   0.5949
     1.2254   1.3235   1.3445   1.6264   5.6681   6.0949   7.7866   8.1297
     8.2561   8.5294   8.6116   8.8259   8.9138   8.9139

          k = 0.0000-0.4000 0.0000 ( 19598 PWs)   bands (ev):

   -17.0967 -16.4363 -14.5984 -14.1004 -12.7954 -12.7954 -11.9645 -11.9645
   -11.3584 -10.9875 -10.8304 -10.8304  -9.0002  -9.0002  -8.6164  -7.7902
    -7.2621  -7.1365  -7.1365  -6.8006  -6.8006  -6.3049  -4.9997  -4.6054
    -4.6054  -4.4736  -3.9864  -3.6893  -3.6893  -3.2270  -3.2270  -3.1331
    -2.1477  -2.0372  -2.0372  -1.9325  -1.9325  -1.6837  -1.5863  -1.4112
    -1.4112  -1.2813  -1.2813  -1.1175  -0.4940  -0.3318   0.0608   0.1061
     0.8730   1.2433   1.7422   1.8291   6.3179   6.6633   7.3680   7.5905
     8.2325   8.5977   8.6125   8.6125   8.8736   8.9527

          k = 0.2000-0.2000 0.0000 ( 19577 PWs)   bands (ev):

   -17.3881 -15.8782 -14.7041 -14.0813 -13.2921 -13.1890 -11.6728 -11.5523
   -11.3887 -11.0668 -10.8769  -9.9535  -9.0330  -8.9599  -8.6502  -8.0308
    -7.9374  -7.6288  -7.2670  -6.2650  -6.1410  -5.8430  -5.6019  -5.0686
    -4.9877  -4.6734  -4.3497  -3.6565  -3.5469  -3.1072  -3.0188  -2.6749
    -2.3751  -2.3388  -2.3106  -1.9155  -1.7532  -1.7478  -1.5136  -1.2960
    -1.1678  -1.0173  -0.9151  -0.5195  -0.4925  -0.1684   0.1371   0.3140
     0.5700   0.6974   1.2592   1.3777   5.8357   6.2905   8.0193   8.1662
     8.2769   8.6032   8.6701   8.8243   8.8515   8.9918

          k = 0.2000-0.4000 0.0000 ( 19611 PWs)   bands (ev):

   -16.9145 -16.2552 -14.4243 -14.2420 -13.9276 -13.6054 -11.9993 -11.5079
   -11.1970 -10.8284 -10.7719 -10.3677  -8.5262  -8.5117  -8.4277  -7.8946
    -7.6932  -7.5074  -7.1164  -6.1594  -5.7643  -5.4025  -5.3959  -4.8996
    -4.6883  -4.3899  -4.2014  -3.9979  -3.9255  -3.2462  -3.0952  -2.9781
    -2.7131  -2.6485  -2.4554  -1.9165  -1.8639  -1.7410  -1.5874  -1.2843
    -1.2720  -1.1132  -0.9426  -0.8869  -0.8422  -0.7964  -0.5062  -0.0055
     0.9123   1.0066   1.0370   1.3660   6.4838   6.8592   7.5308   7.7622
     8.0014   8.1804   8.3133   8.8496   8.9461   9.2188

          k = 0.4000-0.4000 0.0000 ( 19634 PWs)   bands (ev):

   -16.3704 -15.7144 -15.4724 -14.8227 -13.9063 -13.4139 -13.0640 -12.5788
   -10.7250 -10.3635 -10.0396  -9.7555  -8.7784  -8.3333  -8.1352  -7.5475
    -6.7358  -6.5038  -6.2547  -5.7753  -5.6839  -5.3738  -5.3302  -5.0292
    -4.8274  -4.8154  -4.3998  -4.1606  -3.9748  -3.9346  -3.5208  -3.2633
    -2.9301  -2.7804  -2.6926  -2.5040  -2.1841  -2.0274  -1.5014  -1.4762
    -1.2696  -1.2040  -1.0185  -0.8329  -0.6937  -0.5476  -0.1600  -0.0362
    -0.0360   0.1345   0.6001   0.9337   6.8988   7.3348   7.4196   7.6568
     7.7855   8.0759   8.1563   8.2424   8.4945   8.7600

          k =-0.2000 0.0000 0.0000 ( 19607 PWs)   bands (ev):

   -17.5528 -15.8626 -14.8649 -13.3054 -12.9954 -12.7869 -12.6848 -11.6741
   -11.3420 -10.6815 -10.4823 -10.1581  -9.3299  -9.1231  -8.9511  -8.5465
    -7.6969  -7.5227  -6.9717  -6.8261  -6.7219  -5.3906  -5.3712  -5.3020
    -5.2120  -5.0463  -4.1648  -3.7759  -3.7008  -3.3261  -2.7156  -2.4882
    -2.4179  -2.2471  -2.0976  -1.7274  -1.7152  -1.6289  -1.6088  -1.5732
    -1.1991  -0.8062  -0.5176  -0.1613  -0.0602   0.0155   0.2267   0.5651
     0.8017   0.8280   0.8596   1.5122   5.6038   6.0846   7.8520   8.0355
     8.1131   8.1489   8.3536   8.7729   9.1504   9.2387

          k =-0.4000 0.0000 0.0000 ( 19598 PWs)   bands (ev):

   -17.0057 -16.1027 -15.3278 -14.4519 -12.4906 -12.2828 -12.1672 -11.6665
   -11.4810 -11.3161 -11.1881 -10.3918  -9.6085  -8.8632  -8.1234  -7.8456
    -7.2720  -6.9365  -6.7108  -6.4304  -5.6121  -5.6082  -5.5661  -5.1918
    -4.6471  -4.5470  -4.4153  -3.9427  -3.8591  -3.7765  -3.3136  -2.7269
    -2.5542  -2.4777  -1.8159  -1.7666  -1.5740  -1.5477  -1.5410  -1.4941
    -1.3382  -1.2243  -1.2059  -0.8643  -0.4560  -0.4256  -0.3842   0.1039
     0.1817   0.7496   0.9539   0.9902   6.1142   6.5211   6.9931   7.1678
     8.4268   8.6667   9.1323   9.2003   9.2087   9.4031

          k =-0.4000 0.2000 0.0000 ( 19611 PWs)   bands (ev):

   -16.8417 -15.9400 -15.3419 -14.4614 -13.5632 -12.7173 -12.6816 -11.8617
   -11.0692 -10.8931 -10.3131 -10.0810  -9.5038  -8.8790  -7.7722  -7.6681
    -7.2563  -6.9322  -6.6477  -6.1142  -5.8174  -5.7223  -5.4215  -5.0499
    -4.7974  -4.6408  -4.2331  -4.0160  -3.6911  -3.6202  -2.9886  -2.9711
    -2.7557  -2.6891  -2.5251  -2.1486  -1.7651  -1.6856  -1.5783  -1.3182
    -1.2721  -1.1921  -0.7827  -0.7779  -0.7295  -0.4734  -0.3577  -0.3065
    -0.0652   0.6184   0.6816   1.0617   6.3185   6.7433   7.1465   7.3853
     8.3495   8.7490   8.8430   8.9039   8.9133   9.2312

     the Fermi energy is     3.2987 ev

!    total energy              =    -451.78613064 Ry
     estimated scf accuracy    <          2.9E-09 Ry
     smearing contrib. (-TS)   =       0.00000000 Ry
     internal energy E=F+TS    =    -451.78613064 Ry

     The total energy is F=E-TS. E is the sum of the following terms:
     one-electron contribution =   -2320.02964647 Ry
     hartree contribution      =    1200.83841303 Ry
     xc contribution           =    -117.68080188 Ry
     ewald contribution        =     933.00259135 Ry
     one-center paw contrib.   =    -147.91668666 Ry

     convergence has been achieved in  14 iterations

     negative rho (up, down):  6.779E-05 0.000E+00

     Forces acting on atoms (cartesian axes, Ry/au):

     atom    1 type  1   force =     0.00000000    0.00005566    0.00000881
     atom    2 type  1   force =    -0.00000001    0.00002179   -0.00001025
     atom    3 type  1   force =    -0.00000001    0.00000000    0.00002321
     atom    4 type  1   force =     0.00000000   -0.00000000    0.00000083
     atom    5 type  1   force =     0.00000000   -0.00002172    0.00001041
     atom    6 type  1   force =     0.00000002   -0.00005552   -0.00000910
     atom    7 type  1   force =     0.00000000   -0.00005566    0.00000881
     atom    8 type  1   force =    -0.00000001   -0.00002179   -0.00001025
     atom    9 type  1   force =    -0.00000000    0.00000000   -0.00000094
     atom   10 type  1   force =     0.00000000    0.00000000   -0.00002322
     atom   11 type  1   force =     0.00000000    0.00002172    0.00001041
     atom   12 type  1   force =     0.00000002    0.00005552   -0.00000910
     atom   13 type  2   force =     0.00000000    0.00002395   -0.00002515
     atom   14 type  2   force =     0.00000000   -0.00002395   -0.00002515
     atom   15 type  2   force =     0.00000000   -0.00002404    0.00002536
     atom   16 type  2   force =     0.00000000    0.00002404    0.00002536
     atom   17 type  1   force =     0.00000000    0.00005565    0.00000882
     atom   18 type  1   force =     0.00000001    0.00002179   -0.00001025
     atom   19 type  1   force =     0.00000001   -0.00000000    0.00002321
     atom   20 type  1   force =     0.00000000   -0.00000000    0.00000082
     atom   21 type  1   force =     0.00000000   -0.00002175    0.00001038
     atom   22 type  1   force =    -0.00000002   -0.00005552   -0.00000910
     atom   23 type  1   force =     0.00000000   -0.00005565    0.00000882
     atom   24 type  1   force =     0.00000001   -0.00002179   -0.00001025
     atom   25 type  1   force =     0.00000000    0.00000000   -0.00000094
     atom   26 type  1   force =     0.00000000    0.00000000   -0.00002324
     atom   27 type  1   force =     0.00000000    0.00002175    0.00001038
     atom   28 type  1   force =    -0.00000002    0.00005552   -0.00000910
     atom   29 type  2   force =     0.00000000    0.00002396   -0.00002516
     atom   30 type  2   force =     0.00000000   -0.00002396   -0.00002516
     atom   31 type  2   force =    -0.00000000   -0.00002404    0.00002536
     atom   32 type  2   force =    -0.00000000    0.00002404    0.00002536

     Total force =     0.000205     Total SCF correction =     0.000145
     SCF correction compared to forces is large: reduce conv_thr to get better values


     Computing stress (Cartesian axis) and pressure


     negative rho (up, down):  6.779E-05 0.000E+00
          total   stress  (Ry/bohr**3)                   (kbar)     P=      -15.61
   0.00004156   0.00000000   0.00000000            6.11        0.00        0.00
   0.00000000  -0.00034472   0.00000000            0.00      -50.71        0.00
   0.00000000   0.00000000  -0.00001518            0.00        0.00       -2.23


     Writing all to output data dir ./tmp/slab.save/ :
     XML data file, charge density, pseudopotentials, collected wavefunctions

     init_run     :      4.50s CPU      4.90s WALL (       1 calls)
     electrons    :    123.86s CPU    137.84s WALL (       1 calls)
     forces       :      1.48s CPU      1.69s WALL (       1 calls)
     stress       :      3.69s CPU      4.48s WALL (       1 calls)

     Called by init_run:
     wfcinit      :      3.72s CPU      4.03s WALL (       1 calls)
     potinit      :      0.46s CPU      0.49s WALL (       1 calls)
     hinit0       :      0.15s CPU      0.15s WALL (       1 calls)

     Called by electrons:
     c_bands      :    102.24s CPU    114.01s WALL (      14 calls)
     sum_band     :     13.96s CPU     15.05s WALL (      14 calls)
     v_of_rho     :      2.17s CPU      2.35s WALL (      15 calls)
     newd         :      1.34s CPU      1.92s WALL (      15 calls)
     PAW_pot      :      4.19s CPU      4.57s WALL (      15 calls)
     mix_rho      :      0.28s CPU      0.34s WALL (      14 calls)

     Called by c_bands:
     init_us_2    :      1.12s CPU      1.23s WALL (     279 calls)
     cegterg      :     99.78s CPU    111.48s WALL (     126 calls)

     Called by *egterg:
     cdiaghg      :      1.77s CPU      1.92s WALL (     681 calls)
     h_psi        :     71.60s CPU     76.41s WALL (     690 calls)
     s_psi        :      8.36s CPU     10.15s WALL (     690 calls)
     g_psi        :      0.30s CPU      0.30s WALL (     555 calls)

     Called by h_psi:
     h_psi:calbec :      7.43s CPU      9.47s WALL (     690 calls)
     vloc_psi     :     54.96s CPU     55.47s WALL (     690 calls)
                                        0.00s GPU  (     690 calls)
     add_vuspsi   :      8.96s CPU     11.01s WALL (     690 calls)

     General routines
     calbec       :     11.56s CPU     14.70s WALL (     969 calls)
     fft          :      1.39s CPU      1.39s WALL (     218 calls)
     ffts         :      0.07s CPU      0.07s WALL (      29 calls)
     fftw         :     58.66s CPU     58.89s WALL (   52140 calls)
     interpolate  :      0.15s CPU      0.16s WALL (      15 calls)


     PWSCF        :   2m13.58s CPU   2m29.03s WALL


   This run was terminated on:  12:24:52   7Jul2026            

=------------------------------------------------------------------------------=
   JOB DONE.
=------------------------------------------------------------------------------=
Note: The following floating-point exceptions are signalling: IEEE_INVALID_FLAG IEEE_DIVIDE_BY_ZERO IEEE_OVERFLOW_FLAG IEEE_UNDERFLOW_FLAG
