
     Program PWSCF v.7.5 starts on  7Jul2026 at 13:27:44 

     This program is part of the open-source Quantum ESPRESSO suite
     for quantum simulation of materials; please cite
         "P. Giannozzi et al., J. Phys.:Condens. Matter 21 395502 (2009);
         "P. Giannozzi et al., J. Phys.:Condens. Matter 29 465901 (2017);
         "P. Giannozzi et al., J. Chem. Phys. 152 154105 (2020);
          URL http://www.quantum-espresso.org", 
     in publications or presentations arising from this work. More details at
     http://www.quantum-espresso.org/quote

     Serial version
     0 MiB available memory on the printing compute node when the environment starts

     Waiting for input...
     Reading input from standard input

     Current dimensions of program PWSCF are:
     Max number of different atomic species (ntypx) = 10
     Max number of k-points (npk) =  40000
     Max angular momentum in pseudopotentials (lmaxx) =  4
     file C.pbe-n-kjpaw_psl.1.0.0.UPF: wavefunction(s)  2S 2P renormalized
     Message from routine volume:
     axis vectors are left-handed
     Found identity + (  0.5000  0.0000  0.0000) symmetry
     This is a supercell, fractional translations are disabled
     Message from routine setup:
     using ibrav=0 with symmetry is DISCOURAGED, use correct ibrav instead


     G-vector sticks info
     --------------------
     sticks:   dense  smooth     PW     G-vecs:    dense   smooth      PW
     Sum        3521    1757    489               448519   158627   22831

     Using Slab Decomposition



     bravais-lattice index     =            0
     lattice parameter (alat)  =       9.5982  a.u.
     unit-cell volume          =    2524.5705 (a.u.)^3
     number of atoms/cell      =           32
     number of atomic types    =            2
     number of electrons       =       104.00
     number of Kohn-Sham states=           62
     kinetic-energy cutoff     =      60.0000  Ry
     charge density cutoff     =     480.0000  Ry
     scf convergence threshold =      1.0E-08
     mixing beta               =       0.3000
     number of iterations used =            8  plain     mixing
     Exchange-correlation= PBE
                           (   1   4   3   4   0   0   0)

     celldm(1)=   9.598223  celldm(2)=   0.000000  celldm(3)=   0.000000
     celldm(4)=   0.000000  celldm(5)=   0.000000  celldm(6)=   0.000000

     crystal axes: (cart. coord. in units of alat)
               a(1) = (   1.000000   0.000000   0.000000 )  
               a(2) = (   0.000000  -1.000000   0.000000 )  
               a(3) = (   0.000000   0.000000   2.855058 )  

     reciprocal axes: (cart. coord. in units 2 pi/alat)
               b(1) = (  1.000000 -0.000000 -0.000000 )  
               b(2) = ( -0.000000 -1.000000 -0.000000 )  
               b(3) = ( -0.000000 -0.000000  0.350256 )  


     PseudoPot. # 1 for C  read from file:
     ./C.pbe-n-kjpaw_psl.1.0.0.UPF
     MD5 check sum: 5d2aebdfa2cae82b50a7e79e9516da0f
     Pseudo is Projector augmented-wave + core cor, Zval =  4.0
     Generated using "atomic" code by A. Dal Corso  v.5.1
     Shape of augmentation charge: PSQ
     Using radial grid of 1073 points,  4 beta functions with: 
                l(1) =   0
                l(2) =   0
                l(3) =   1
                l(4) =   1
     Q(r) pseudized with 0 coefficients 


     PseudoPot. # 2 for H  read from file:
     ./H_ONCV_PBE-1.0.oncvpsp.upf
     MD5 check sum: 1790becc920ee074925cf490c71280fe
     Pseudo is Norm-conserving, Zval =  1.0
     Generated using ONCVPSP code by D. R. Hamann
     Using radial grid of 1166 points,  2 beta functions with: 
                l(1) =   0
                l(2) =   0

     atomic species   valence    mass     pseudopotential
     C                 4.00    12.01100     C ( 1.00)
     H                 1.00     1.00800     H ( 1.00)

      4 Sym. Ops. (no inversion) found



   Cartesian axes

     site n.     atom                  positions (alat units)
         1        C      tau(   1) = (   0.0000000  -0.1582087   1.8500310  )
         2        C      tau(   2) = (   0.2500000  -0.2299149   1.6914359  )
         3        C      tau(   3) = (   0.2500000   0.0000000   1.4862315  )
         4        C      tau(   4) = (   0.0000000   0.0000000   1.3112736  )
         5        C      tau(   5) = (   0.0000000  -0.2700851   1.1636223  )
         6        C      tau(   6) = (   0.2500000  -0.3417913   1.0050271  )
         7        C      tau(   7) = (   0.0000000  -0.8417913   1.8500310  )
         8        C      tau(   8) = (   0.2500000  -0.7700851   1.6914359  )
         9        C      tau(   9) = (   0.2500000  -0.5000000   1.5437845  )
        10        C      tau(  10) = (   0.0000000  -0.5000000   1.3688267  )
        11        C      tau(  11) = (   0.0000000  -0.7299149   1.1636223  )
        12        C      tau(  12) = (   0.2500000  -0.6582087   1.0050271  )
        13        H      tau(  13) = (   0.0000000  -0.2449080   2.0487606  )
        14        H      tau(  14) = (   0.0000000  -0.7550920   2.0487606  )
        15        H      tau(  15) = (   0.2500000  -0.2550919   0.8062976  )
        16        H      tau(  16) = (   0.2500000  -0.7449081   0.8062976  )
        17        C      tau(  17) = (   0.5000000  -0.1582087   1.8500310  )
        18        C      tau(  18) = (   0.7500000  -0.2299149   1.6914359  )
        19        C      tau(  19) = (   0.7500000   0.0000000   1.4862315  )
        20        C      tau(  20) = (   0.5000000   0.0000000   1.3112736  )
        21        C      tau(  21) = (   0.5000000  -0.2700851   1.1636223  )
        22        C      tau(  22) = (   0.7500000  -0.3417913   1.0050271  )
        23        C      tau(  23) = (   0.5000000  -0.8417913   1.8500310  )
        24        C      tau(  24) = (   0.7500000  -0.7700851   1.6914359  )
        25        C      tau(  25) = (   0.7500000  -0.5000000   1.5437845  )
        26        C      tau(  26) = (   0.5000000  -0.5000000   1.3688267  )
        27        C      tau(  27) = (   0.5000000  -0.7299149   1.1636223  )
        28        C      tau(  28) = (   0.7500000  -0.6582087   1.0050271  )
        29        H      tau(  29) = (   0.5000000  -0.2449080   2.0487606  )
        30        H      tau(  30) = (   0.5000000  -0.7550920   2.0487606  )
        31        H      tau(  31) = (   0.7500000  -0.2550919   0.8062976  )
        32        H      tau(  32) = (   0.7500000  -0.7449081   0.8062976  )

     number of k points=     9  Marzari-Vanderbilt smearing, width (Ry)=  0.0100
                       cart. coord. in units 2pi/alat
        k(    1) = (   0.0000000  -0.0000000   0.0000000), wk =   0.0800000
        k(    2) = (   0.0000000  -0.2000000   0.0000000), wk =   0.1600000
        k(    3) = (   0.0000000  -0.4000000   0.0000000), wk =   0.1600000
        k(    4) = (   0.2000000  -0.2000000   0.0000000), wk =   0.3200000
        k(    5) = (   0.2000000  -0.4000000   0.0000000), wk =   0.3200000
        k(    6) = (   0.4000000  -0.4000000   0.0000000), wk =   0.3200000
        k(    7) = (  -0.2000000   0.0000000   0.0000000), wk =   0.1600000
        k(    8) = (  -0.4000000   0.0000000   0.0000000), wk =   0.1600000
        k(    9) = (  -0.4000000   0.2000000   0.0000000), wk =   0.3200000

     Dense  grid:   448519 G-vectors     FFT dimensions: (  72,  72, 192)

     Smooth grid:   158627 G-vectors     FFT dimensions: (  48,  48, 135)

     Estimated max dynamical RAM per process >       1.26 GB

     Check: negative core charge=   -0.000002

     Initial potential from superposition of free atoms

     starting charge     103.9989, renormalised to     104.0000

     negative rho (up, down):  4.859E-06 0.000E+00
     Starting wfcs are  104 randomized atomic wfcs

     total cpu time spent up to now is        4.8 secs

     Self-consistent Calculation

     iteration #  1     ecut=    60.00 Ry     beta= 0.30
     Davidson diagonalization with overlap
     ethr =  1.00E-02,  avg # of iterations =  3.0

     negative rho (up, down):  1.520E-05 0.000E+00

     total cpu time spent up to now is       14.8 secs

     total energy              =    -451.89699775 Ry
     estimated scf accuracy    <       2.40722122 Ry

     iteration #  2     ecut=    60.00 Ry     beta= 0.30
     Davidson diagonalization with overlap
     ethr =  2.31E-03,  avg # of iterations =  4.7

     negative rho (up, down):  4.923E-05 0.000E+00

     total cpu time spent up to now is       23.8 secs

     total energy              =    -451.74551448 Ry
     estimated scf accuracy    <       0.70689254 Ry

     iteration #  3     ecut=    60.00 Ry     beta= 0.30
     Davidson diagonalization with overlap
     ethr =  6.80E-04,  avg # of iterations =  7.1

     negative rho (up, down):  6.907E-05 0.000E+00

     total cpu time spent up to now is       35.0 secs

     total energy              =    -451.77028142 Ry
     estimated scf accuracy    <       0.10494517 Ry

     iteration #  4     ecut=    60.00 Ry     beta= 0.30
     Davidson diagonalization with overlap
     ethr =  1.01E-04,  avg # of iterations =  5.6

     negative rho (up, down):  8.724E-05 0.000E+00

     total cpu time spent up to now is       44.7 secs

     total energy              =    -451.77881007 Ry
     estimated scf accuracy    <       0.01018714 Ry

     iteration #  5     ecut=    60.00 Ry     beta= 0.30
     Davidson diagonalization with overlap
     c_bands:  1 eigenvalues not converged
     ethr =  9.80E-06,  avg # of iterations =  9.4

     negative rho (up, down):  7.227E-05 0.000E+00

     total cpu time spent up to now is       57.7 secs

     total energy              =    -451.78049739 Ry
     estimated scf accuracy    <       0.00270616 Ry

     iteration #  6     ecut=    60.00 Ry     beta= 0.30
     Davidson diagonalization with overlap
     ethr =  2.60E-06,  avg # of iterations =  6.8

     negative rho (up, down):  7.209E-05 0.000E+00

     total cpu time spent up to now is       68.7 secs

     total energy              =    -451.78089231 Ry
     estimated scf accuracy    <       0.00030015 Ry

     iteration #  7     ecut=    60.00 Ry     beta= 0.30
     Davidson diagonalization with overlap
     ethr =  2.89E-07,  avg # of iterations =  3.0

     negative rho (up, down):  7.082E-05 0.000E+00

     total cpu time spent up to now is       77.5 secs

     total energy              =    -451.78093128 Ry
     estimated scf accuracy    <       0.00003710 Ry

     iteration #  8     ecut=    60.00 Ry     beta= 0.30
     Davidson diagonalization with overlap
     ethr =  3.57E-08,  avg # of iterations =  3.1

     negative rho (up, down):  7.011E-05 0.000E+00

     total cpu time spent up to now is       86.5 secs

     total energy              =    -451.78093726 Ry
     estimated scf accuracy    <       0.00001715 Ry

     iteration #  9     ecut=    60.00 Ry     beta= 0.30
     Davidson diagonalization with overlap
     ethr =  1.65E-08,  avg # of iterations =  2.0

     negative rho (up, down):  7.003E-05 0.000E+00

     total cpu time spent up to now is       94.9 secs

     total energy              =    -451.78094092 Ry
     estimated scf accuracy    <       0.00000175 Ry

     iteration # 10     ecut=    60.00 Ry     beta= 0.30
     Davidson diagonalization with overlap
     ethr =  1.69E-09,  avg # of iterations =  3.8

     negative rho (up, down):  6.997E-05 0.000E+00

     total cpu time spent up to now is      104.8 secs

     total energy              =    -451.78094093 Ry
     estimated scf accuracy    <       0.00000127 Ry

     iteration # 11     ecut=    60.00 Ry     beta= 0.30
     Davidson diagonalization with overlap
     ethr =  1.22E-09,  avg # of iterations =  2.9

     negative rho (up, down):  7.011E-05 0.000E+00

     total cpu time spent up to now is      113.8 secs

     total energy              =    -451.78094125 Ry
     estimated scf accuracy    <       0.00000004 Ry

     iteration # 12     ecut=    60.00 Ry     beta= 0.30
     Davidson diagonalization with overlap
     ethr =  3.89E-11,  avg # of iterations =  4.0

     negative rho (up, down):  7.026E-05 0.000E+00

     total cpu time spent up to now is      123.4 secs

     total energy              =    -451.78094123 Ry
     estimated scf accuracy    <       0.00000002 Ry

     iteration # 13     ecut=    60.00 Ry     beta= 0.30
     Davidson diagonalization with overlap
     ethr =  2.35E-11,  avg # of iterations =  4.8

     negative rho (up, down):  7.036E-05 0.000E+00

     total cpu time spent up to now is      134.9 secs

     total energy              =    -451.78094122 Ry
     estimated scf accuracy    <       0.00000005 Ry

     iteration # 14     ecut=    60.00 Ry     beta= 0.30
     Davidson diagonalization with overlap
     ethr =  2.35E-11,  avg # of iterations =  2.9

     negative rho (up, down):  7.069E-05 0.000E+00

     total cpu time spent up to now is      143.9 secs

     End of self-consistent calculation

          k = 0.0000-0.0000 0.0000 ( 19847 PWs)   bands (ev):

   -17.6961 -16.0032 -13.3923 -13.3923 -13.1748 -12.9278 -12.8693 -11.8610
   -11.5685 -11.5685  -9.3380  -9.3380  -9.0293  -8.8904  -8.8904  -8.6957
    -8.1553  -8.1553  -7.8620  -7.8337  -7.8337  -5.4175  -5.4173  -5.1760
    -4.8297  -4.8297  -3.9210  -3.9210  -3.5104  -3.5104  -2.7646  -2.2994
    -2.2415  -2.2415  -2.1755  -2.1755  -1.9456  -1.8108  -1.6693  -1.2800
    -1.1982  -1.1982   0.1106   0.2928   0.2928   0.3932   0.4905   0.7115
     0.7486   0.8795   1.2465   1.6415   5.3833   5.8337   7.2837   7.5852
     7.7119   8.2271   8.4965   8.9094   8.9094   9.0932

          k = 0.0000-0.2000 0.0000 ( 19784 PWs)   bands (ev):

   -17.5327 -16.0223 -14.2468 -13.3384 -13.2371 -13.2371 -11.7229 -11.5885
   -11.5885 -11.5841 -10.3614 -10.3614  -9.1234  -8.5768  -8.5768  -8.1818
    -7.7814  -7.6818  -7.6818  -7.5150  -7.5150  -5.9399  -5.0741  -4.9393
    -4.9393  -4.7888  -3.8547  -3.8547  -3.2987  -3.2987  -3.2785  -2.6268
    -2.3541  -2.3541  -1.9443  -1.9115  -1.9115  -1.8914  -1.3798  -1.3043
    -1.2316  -1.2316  -0.4268  -0.4049  -0.4049  -0.3311   0.3446   0.4922
     1.1586   1.2037   1.3050   1.5174   5.6143   6.0352   7.6789   7.9688
     8.0801   8.4463   8.5035   8.6592   8.8238   8.8240

          k = 0.0000-0.4000 0.0000 ( 19812 PWs)   bands (ev):

   -17.0627 -16.4059 -14.5757 -14.0781 -12.8095 -12.8095 -11.9802 -11.9802
   -11.3605 -11.0056 -10.8562 -10.8562  -9.0149  -9.0149  -8.6213  -7.8059
    -7.2828  -7.1763  -7.1763  -6.8522  -6.8522  -6.3399  -5.0444  -4.6404
    -4.6404  -4.5038  -4.0029  -3.7322  -3.7322  -3.2506  -3.2506  -3.1700
    -2.2337  -2.0995  -2.0995  -1.9875  -1.9875  -1.7181  -1.6764  -1.4427
    -1.4427  -1.3373  -1.3373  -1.1660  -0.5186  -0.4240  -0.0344   0.0768
     0.8249   1.1826   1.6221   1.7132   6.2561   6.5942   7.2986   7.5054
     8.1100   8.4175   8.5181   8.5181   8.7617   8.8488

          k = 0.2000-0.2000 0.0000 ( 19807 PWs)   bands (ev):

   -17.3517 -15.8444 -14.6961 -14.0746 -13.2887 -13.1694 -11.6963 -11.5611
   -11.4196 -11.0889 -10.8918  -9.9896  -9.0272  -9.0136  -8.6722  -8.0428
    -7.9763  -7.6428  -7.3084  -6.3142  -6.2174  -5.8655  -5.5982  -5.0995
    -5.0190  -4.6885  -4.3694  -3.6745  -3.6110  -3.1707  -3.0397  -2.7030
    -2.4457  -2.3913  -2.3528  -1.9425  -1.8001  -1.7966  -1.5765  -1.3231
    -1.2447  -1.0808  -0.9510  -0.5955  -0.5527  -0.2456   0.0325   0.2619
     0.4650   0.6045   1.2188   1.2988   5.7792   6.2319   7.9233   8.0939
     8.1974   8.4972   8.5794   8.6829   8.7303   8.8787

          k = 0.2000-0.4000 0.0000 ( 19809 PWs)   bands (ev):

   -16.8824 -16.2267 -14.4035 -14.2381 -13.9073 -13.6052 -12.0113 -11.5197
   -11.2011 -10.8482 -10.7995 -10.4018  -8.5645  -8.5207  -8.4734  -7.9112
    -7.7129  -7.5409  -7.1404  -6.1965  -5.8080  -5.4644  -5.4191  -4.9467
    -4.7338  -4.4230  -4.2339  -4.0445  -3.9477  -3.3081  -3.1200  -3.0273
    -2.7546  -2.7237  -2.5037  -1.9648  -1.8952  -1.7973  -1.6245  -1.3489
    -1.3389  -1.1491  -0.9927  -0.9639  -0.9052  -0.8542  -0.5375  -0.0394
     0.8482   0.9154   0.9395   1.2864   6.4185   6.7900   7.4580   7.6764
     7.9144   8.0868   8.2163   8.7398   8.8414   9.1536

          k = 0.4000-0.4000 0.0000 ( 19848 PWs)   bands (ev):

   -16.3438 -15.6915 -15.4553 -14.8091 -13.8913 -13.3993 -13.0590 -12.5743
   -10.7351 -10.3882 -10.0625  -9.7899  -8.8247  -8.3595  -8.1833  -7.5830
    -6.7706  -6.5463  -6.3040  -5.8206  -5.7062  -5.3949  -5.3565  -5.0679
    -4.8707  -4.8689  -4.4425  -4.1996  -4.0542  -3.9850  -3.5821  -3.3213
    -2.9547  -2.8183  -2.7285  -2.5502  -2.2276  -2.0699  -1.5423  -1.5131
    -1.3278  -1.2484  -1.0940  -0.8778  -0.7411  -0.6027  -0.2101  -0.0946
    -0.0942   0.0603   0.5475   0.8598   6.8222   7.2638   7.3315   7.5750
     7.6922   7.9928   8.0626   8.1449   8.4138   8.6667

          k =-0.2000 0.0000 0.0000 ( 19784 PWs)   bands (ev):

   -17.5148 -15.8257 -14.8554 -13.3006 -13.0070 -12.7595 -12.6975 -11.6995
   -11.3639 -10.6987 -10.5191 -10.1970  -9.3788  -9.1291  -8.9487  -8.5446
    -7.7144  -7.5729  -7.0427  -6.8472  -6.7931  -5.3870  -5.3773  -5.3479
    -5.2343  -5.0463  -4.1927  -3.7884  -3.7640  -3.3411  -2.7463  -2.5478
    -2.4560  -2.3073  -2.1817  -1.7729  -1.7714  -1.6505  -1.6287  -1.6250
    -1.2307  -0.8339  -0.6150  -0.2692  -0.1542  -0.0400   0.1202   0.5009
     0.7144   0.7310   0.7605   1.4741   5.5502   6.0282   7.7046   7.9654
     8.0381   8.0477   8.1942   8.6488   9.0376   9.0875

          k =-0.4000 0.0000 0.0000 ( 19812 PWs)   bands (ev):

   -16.9734 -16.0798 -15.2968 -14.4307 -12.5073 -12.2618 -12.1852 -11.6917
   -11.4722 -11.3428 -11.2180 -10.4294  -9.6485  -8.8815  -8.1314  -7.8789
    -7.2977  -6.9596  -6.7548  -6.4308  -5.6878  -5.6430  -5.5973  -5.2514
    -4.7021  -4.5495  -4.4428  -3.9745  -3.8712  -3.7902  -3.3769  -2.7702
    -2.6309  -2.5218  -1.8967  -1.8379  -1.6550  -1.6187  -1.5935  -1.5299
    -1.4053  -1.2657  -1.2468  -0.8969  -0.5115  -0.4793  -0.4212   0.0406
     0.1306   0.7158   0.8504   0.8808   6.0546   6.4617   6.9254   7.1034
     8.3040   8.5646   8.9932   9.0677   9.0875   9.3302

          k =-0.4000 0.2000 0.0000 ( 19809 PWs)   bands (ev):

   -16.8109 -15.9187 -15.3138 -14.4429 -13.5620 -12.7257 -12.6679 -11.8585
   -11.0836 -10.9287 -10.3381 -10.1245  -9.5430  -8.8928  -7.8162  -7.6913
    -7.2801  -6.9590  -6.6819  -6.1292  -5.8521  -5.7759  -5.4544  -5.1014
    -4.8285  -4.6896  -4.2519  -4.0550  -3.7261  -3.6535  -3.0440  -3.0317
    -2.8028  -2.7398  -2.5823  -2.2168  -1.8252  -1.7298  -1.6225  -1.3982
    -1.3147  -1.2326  -0.8390  -0.8305  -0.7926  -0.5391  -0.4123  -0.3389
    -0.1186   0.5259   0.6433   0.9796   6.2549   6.6812   7.0739   7.3184
     8.2516   8.6490   8.7475   8.8074   8.8088   9.1421

     the Fermi energy is     3.2539 ev

!    total energy              =    -451.78094124 Ry
     estimated scf accuracy    <          3.8E-09 Ry
     smearing contrib. (-TS)   =       0.00000000 Ry
     internal energy E=F+TS    =    -451.78094124 Ry

     The total energy is F=E-TS. E is the sum of the following terms:
     one-electron contribution =   -2297.57703346 Ry
     hartree contribution      =    1189.34238967 Ry
     xc contribution           =    -117.47882134 Ry
     ewald contribution        =     921.84438328 Ry
     one-center paw contrib.   =    -147.91185938 Ry

     convergence has been achieved in  14 iterations

     negative rho (up, down):  7.069E-05 0.000E+00

     Forces acting on atoms (cartesian axes, Ry/au):

     atom    1 type  1   force =     0.00000000    0.00265583   -0.00122682
     atom    2 type  1   force =    -0.00000003    0.00280631    0.00018500
     atom    3 type  1   force =    -0.00000004    0.00000000   -0.00060513
     atom    4 type  1   force =     0.00000000    0.00000000   -0.00025991
     atom    5 type  1   force =     0.00000000   -0.00280626   -0.00018483
     atom    6 type  1   force =    -0.00000001   -0.00265569    0.00122647
     atom    7 type  1   force =     0.00000000   -0.00265583   -0.00122682
     atom    8 type  1   force =    -0.00000003   -0.00280631    0.00018500
     atom    9 type  1   force =    -0.00000004    0.00000000    0.00025987
     atom   10 type  1   force =     0.00000000   -0.00000000    0.00060526
     atom   11 type  1   force =     0.00000000    0.00280626   -0.00018483
     atom   12 type  1   force =    -0.00000001    0.00265569    0.00122647
     atom   13 type  2   force =     0.00000000    0.00126576   -0.00071707
     atom   14 type  2   force =     0.00000000   -0.00126576   -0.00071707
     atom   15 type  2   force =    -0.00000000   -0.00126584    0.00071721
     atom   16 type  2   force =    -0.00000000    0.00126584    0.00071721
     atom   17 type  1   force =     0.00000000    0.00265584   -0.00122681
     atom   18 type  1   force =     0.00000003    0.00280631    0.00018500
     atom   19 type  1   force =     0.00000004    0.00000000   -0.00060513
     atom   20 type  1   force =     0.00000000    0.00000000   -0.00025993
     atom   21 type  1   force =     0.00000000   -0.00280624   -0.00018484
     atom   22 type  1   force =     0.00000001   -0.00265569    0.00122647
     atom   23 type  1   force =     0.00000000   -0.00265584   -0.00122681
     atom   24 type  1   force =     0.00000003   -0.00280631    0.00018500
     atom   25 type  1   force =     0.00000004   -0.00000000    0.00025987
     atom   26 type  1   force =     0.00000000   -0.00000000    0.00060528
     atom   27 type  1   force =     0.00000000    0.00280624   -0.00018484
     atom   28 type  1   force =     0.00000001    0.00265569    0.00122647
     atom   29 type  2   force =     0.00000000    0.00126576   -0.00071706
     atom   30 type  2   force =     0.00000000   -0.00126576   -0.00071706
     atom   31 type  2   force =     0.00000000   -0.00126584    0.00071721
     atom   32 type  2   force =     0.00000000    0.00126584    0.00071721

     Total force =     0.012264     Total SCF correction =     0.000173


     Computing stress (Cartesian axis) and pressure


     negative rho (up, down):  7.069E-05 0.000E+00
          total   stress  (Ry/bohr**3)                   (kbar)     P=      -30.96
  -0.00010663   0.00000000   0.00000000          -15.69        0.00        0.00
   0.00000000  -0.00048225   0.00000000            0.00      -70.94        0.00
   0.00000000   0.00000000  -0.00004254            0.00        0.00       -6.26


     Writing all to output data dir ./tmp/slab.save/ :
     XML data file, charge density, pseudopotentials, collected wavefunctions

     init_run     :      4.45s CPU      4.75s WALL (       1 calls)
     electrons    :    125.08s CPU    139.14s WALL (       1 calls)
     forces       :      1.50s CPU      1.72s WALL (       1 calls)
     stress       :      3.63s CPU      4.11s WALL (       1 calls)

     Called by init_run:
     wfcinit      :      3.68s CPU      3.90s WALL (       1 calls)
     potinit      :      0.46s CPU      0.51s WALL (       1 calls)
     hinit0       :      0.14s CPU      0.15s WALL (       1 calls)

     Called by electrons:
     c_bands      :    103.35s CPU    115.15s WALL (      14 calls)
     sum_band     :     14.05s CPU     15.15s WALL (      14 calls)
     v_of_rho     :      2.18s CPU      2.35s WALL (      15 calls)
     newd         :      1.35s CPU      1.85s WALL (      15 calls)
     PAW_pot      :      4.18s CPU      4.66s WALL (      15 calls)
     mix_rho      :      0.28s CPU      0.34s WALL (      14 calls)

     Called by c_bands:
     init_us_2    :      1.12s CPU      1.22s WALL (     279 calls)
     cegterg      :    100.83s CPU    112.55s WALL (     126 calls)

     Called by *egterg:
     cdiaghg      :      1.80s CPU      1.81s WALL (     693 calls)
     h_psi        :     72.07s CPU     76.92s WALL (     702 calls)
     s_psi        :      8.49s CPU     10.25s WALL (     702 calls)
     g_psi        :      0.30s CPU      0.31s WALL (     567 calls)

     Called by h_psi:
     h_psi:calbec :      7.63s CPU      9.71s WALL (     702 calls)
     vloc_psi     :     55.05s CPU     55.53s WALL (     702 calls)
                                        0.00s GPU  (     702 calls)
     add_vuspsi   :      9.13s CPU     11.21s WALL (     702 calls)

     General routines
     calbec       :     11.77s CPU     14.79s WALL (     981 calls)
     fft          :      1.39s CPU      1.40s WALL (     218 calls)
     ffts         :      0.07s CPU      0.07s WALL (      29 calls)
     fftw         :     58.81s CPU     58.93s WALL (   52220 calls)
     interpolate  :      0.15s CPU      0.17s WALL (      15 calls)


     PWSCF        :   2m14.71s CPU   2m29.83s WALL


   This run was terminated on:  13:30:14   7Jul2026            

=------------------------------------------------------------------------------=
   JOB DONE.
=------------------------------------------------------------------------------=
Note: The following floating-point exceptions are signalling: IEEE_INVALID_FLAG IEEE_DIVIDE_BY_ZERO IEEE_OVERFLOW_FLAG IEEE_UNDERFLOW_FLAG
