
     Program PWSCF v.7.3.1 starts on  2Aug2026 at 15:43:41 

     This program is part of the open-source Quantum ESPRESSO suite
     for quantum simulation of materials; please cite
         "P. Giannozzi et al., J. Phys.:Condens. Matter 21 395502 (2009);
         "P. Giannozzi et al., J. Phys.:Condens. Matter 29 465901 (2017);
         "P. Giannozzi et al., J. Chem. Phys. 152 154105 (2020);
          URL http://www.quantum-espresso.org", 
     in publications or presentations arising from this work. More details at
     http://www.quantum-espresso.org/quote

     Parallel version (MPI), running on     8 processors

     MPI processes distributed on     1 nodes
     766722 MiB available memory on the printing compute node when the environment starts

     Reading input from pw.in

     Current dimensions of program PWSCF are:
     Max number of different atomic species (ntypx) = 10
     Max number of k-points (npk) =  40000
     Max angular momentum in pseudopotentials (lmaxx) =  4
     file C.pbe-n-kjpaw_psl.1.0.0.UPF: wavefunction(s)  2S 2P renormalized
     Message from routine volume:
     axis vectors are left-handed
     Message from routine setup:
     using ibrav=0 with symmetry is DISCOURAGED, use correct ibrav instead

     R & G space division:  proc/nbgrp/npool/nimage =       8
     Subspace diagonalization in iterative solution of the eigenvalue problem:
     a serial algorithm will be used


     Parallelization info
     --------------------
     sticks:   dense  smooth     PW     G-vecs:    dense   smooth      PW
     Min         230     115     32                40002    14149    2162
     Max         231     116     33                40021    14166    2179
     Sum        1845     921    263               320103   113231   17373

     Using Slab Decomposition



     bravais-lattice index     =            0
     lattice parameter (alat)  =       4.7752  a.u.
     unit-cell volume          =     980.9734 (a.u.)^3
     number of atoms/cell      =           16
     number of atomic types    =            2
     number of electrons       =        52.00
     number of Kohn-Sham states=           31
     kinetic-energy cutoff     =      90.0000  Ry
     charge density cutoff     =     720.0000  Ry
     scf convergence threshold =      1.0E-08
     mixing beta               =       0.3000
     number of iterations used =            8  plain     mixing
     Exchange-correlation= PBE
                           (   1   4   3   4   0   0   0)

     celldm(1)=   4.775235  celldm(2)=   0.000000  celldm(3)=   0.000000
     celldm(4)=   0.000000  celldm(5)=   0.000000  celldm(6)=   0.000000

     crystal axes: (cart. coord. in units of alat)
               a(1) = (   1.000000   0.000000   0.000000 )  
               a(2) = (   0.000000  -1.414214   0.000000 )  
               a(3) = (   0.000000   0.000000   6.370270 )  

     reciprocal axes: (cart. coord. in units 2 pi/alat)
               b(1) = (  1.000000 -0.000000 -0.000000 )  
               b(2) = ( -0.000000 -0.707107 -0.000000 )  
               b(3) = ( -0.000000 -0.000000  0.156979 )  


     PseudoPot. # 1 for C  read from file:
     ./C.pbe-n-kjpaw_psl.1.0.0.UPF
     MD5 check sum: 5d2aebdfa2cae82b50a7e79e9516da0f
     Pseudo is Projector augmented-wave + core cor, Zval =  4.0
     Generated using "atomic" code by A. Dal Corso  v.5.1
     Shape of augmentation charge: PSQ
     Using radial grid of 1073 points,  4 beta functions with: 
                l(1) =   0
                l(2) =   0
                l(3) =   1
                l(4) =   1
     Q(r) pseudized with 0 coefficients 


     PseudoPot. # 2 for H  read from file:
     ./H_ONCV_PBE-1.0.oncvpsp.upf
     MD5 check sum: 1790becc920ee074925cf490c71280fe
     Pseudo is Norm-conserving, Zval =  1.0
     Generated using ONCVPSP code by D. R. Hamann
     Using radial grid of 1166 points,  2 beta functions with: 
                l(1) =   0
                l(2) =   0

     atomic species   valence    mass     pseudopotential
     C                 4.00    12.01100     C ( 1.00)
     H                 1.00     1.00800     H ( 1.00)

      8 Sym. Ops., with inversion, found ( 6 have fractional translation)



   Cartesian axes

     site n.     atom                  positions (alat units)
         1        C      tau(   1) = (  -0.0000000  -0.3611404   4.4247609  )
         2        C      tau(   2) = (   0.5000000  -0.6995197   4.4247609  )
         3        C      tau(   3) = (   0.0000000   0.0011500   3.9360405  )
         4        C      tau(   4) = (   0.5000000  -1.0618102   3.9360405  )
         5        C      tau(   5) = (   0.0000000  -0.3533013   3.4350066  )
         6        C      tau(   6) = (   0.5000000  -0.7073588   3.4350066  )
         7        C      tau(   7) = (   0.0000000  -0.0002520   2.9352634  )
         8        C      tau(   8) = (   0.5000000  -1.0604081   2.9352634  )
         9        C      tau(   9) = (  -0.0000000  -0.3547034   2.4342296  )
        10        C      tau(  10) = (   0.5000000  -0.7059567   2.4342296  )
        11        C      tau(  11) = (  -0.0000000   0.0075871   1.9455091  )
        12        C      tau(  12) = (   0.5000000  -1.0682472   1.9455091  )
        13        H      tau(  13) = (   0.0000000  -0.1238861   4.7893624  )
        14        H      tau(  14) = (   0.5000000  -0.9367741   4.7893624  )
        15        H      tau(  15) = (   0.0000000  -0.2296673   1.5809076  )
        16        H      tau(  16) = (   0.5000000  -0.8309929   1.5809076  )

     number of k points=    12  Marzari-Vanderbilt smearing, width (Ry)=  0.0100
                       cart. coord. in units 2pi/alat
        k(    1) = (   0.0000000  -0.0000000   0.0000000), wk =   0.0571429
        k(    2) = (   0.0000000  -0.1414214   0.0000000), wk =   0.1142857
        k(    3) = (   0.0000000  -0.2828427   0.0000000), wk =   0.1142857
        k(    4) = (   0.1428571  -0.0000000   0.0000000), wk =   0.1142857
        k(    5) = (   0.1428571  -0.1414214   0.0000000), wk =   0.2285714
        k(    6) = (   0.1428571  -0.2828427   0.0000000), wk =   0.2285714
        k(    7) = (   0.2857143  -0.0000000   0.0000000), wk =   0.1142857
        k(    8) = (   0.2857143  -0.1414214   0.0000000), wk =   0.2285714
        k(    9) = (   0.2857143  -0.2828427   0.0000000), wk =   0.2285714
        k(   10) = (   0.4285714  -0.0000000   0.0000000), wk =   0.1142857
        k(   11) = (   0.4285714  -0.1414214   0.0000000), wk =   0.2285714
        k(   12) = (   0.4285714  -0.2828427   0.0000000), wk =   0.2285714

     Dense  grid:   320103 G-vectors     FFT dimensions: (  48,  60, 270)

     Smooth grid:   113231 G-vectors     FFT dimensions: (  30,  48, 192)

     Estimated max dynamical RAM per process >      86.63 MB

     Estimated total dynamical RAM >     693.06 MB

     Initial potential from superposition of free atoms

     starting charge      51.9995, renormalised to      52.0000
     Starting wfcs are   52 randomized atomic wfcs
     Checking if some PAW data can be deallocated... 

     total cpu time spent up to now is        0.9 secs

     Self-consistent Calculation

     iteration #  1     ecut=    90.00 Ry     beta= 0.30
     Davidson diagonalization with overlap
     ethr =  1.00E-02,  avg # of iterations =  2.8

     total cpu time spent up to now is        2.1 secs

     total energy              =    -226.01392705 Ry
     estimated scf accuracy    <       1.19549074 Ry

     iteration #  2     ecut=    90.00 Ry     beta= 0.30
     Davidson diagonalization with overlap
     ethr =  2.30E-03,  avg # of iterations =  4.1

     negative rho (up, down):  1.756E-07 0.000E+00

     total cpu time spent up to now is        3.1 secs

     total energy              =    -225.92596169 Ry
     estimated scf accuracy    <       0.37490510 Ry

     iteration #  3     ecut=    90.00 Ry     beta= 0.30
     Davidson diagonalization with overlap
     ethr =  7.21E-04,  avg # of iterations =  5.8

     negative rho (up, down):  9.008E-07 0.000E+00

     total cpu time spent up to now is        4.2 secs

     total energy              =    -225.93923585 Ry
     estimated scf accuracy    <       0.05185424 Ry

     iteration #  4     ecut=    90.00 Ry     beta= 0.30
     Davidson diagonalization with overlap
     ethr =  9.97E-05,  avg # of iterations =  4.4

     negative rho (up, down):  1.891E-06 0.000E+00

     total cpu time spent up to now is        5.3 secs

     total energy              =    -225.94235662 Ry
     estimated scf accuracy    <       0.00512703 Ry

     iteration #  5     ecut=    90.00 Ry     beta= 0.30
     Davidson diagonalization with overlap
     ethr =  9.86E-06,  avg # of iterations =  8.9

     negative rho (up, down):  1.933E-06 0.000E+00

     total cpu time spent up to now is        6.6 secs

     total energy              =    -225.94293926 Ry
     estimated scf accuracy    <       0.00054657 Ry

     iteration #  6     ecut=    90.00 Ry     beta= 0.30
     Davidson diagonalization with overlap
     ethr =  1.05E-06,  avg # of iterations =  3.7

     negative rho (up, down):  2.094E-06 0.000E+00

     total cpu time spent up to now is        7.8 secs

     total energy              =    -225.94305107 Ry
     estimated scf accuracy    <       0.00006974 Ry

     iteration #  7     ecut=    90.00 Ry     beta= 0.30
     Davidson diagonalization with overlap
     ethr =  1.34E-07,  avg # of iterations =  2.7

     negative rho (up, down):  2.093E-06 0.000E+00

     total cpu time spent up to now is        8.8 secs

     total energy              =    -225.94305596 Ry
     estimated scf accuracy    <       0.00001688 Ry

     iteration #  8     ecut=    90.00 Ry     beta= 0.30
     Davidson diagonalization with overlap
     ethr =  3.25E-08,  avg # of iterations =  2.2

     negative rho (up, down):  2.115E-06 0.000E+00

     total cpu time spent up to now is        9.9 secs

     total energy              =    -225.94305822 Ry
     estimated scf accuracy    <       0.00000289 Ry

     iteration #  9     ecut=    90.00 Ry     beta= 0.30
     Davidson diagonalization with overlap
     ethr =  5.56E-09,  avg # of iterations =  3.0

     negative rho (up, down):  2.124E-06 0.000E+00

     total cpu time spent up to now is       11.1 secs

     total energy              =    -225.94305905 Ry
     estimated scf accuracy    <       0.00000299 Ry

     iteration # 10     ecut=    90.00 Ry     beta= 0.30
     Davidson diagonalization with overlap
     ethr =  5.56E-09,  avg # of iterations =  2.0

     negative rho (up, down):  2.141E-06 0.000E+00

     total cpu time spent up to now is       12.0 secs

     total energy              =    -225.94305918 Ry
     estimated scf accuracy    <       0.00000036 Ry

     iteration # 11     ecut=    90.00 Ry     beta= 0.30
     Davidson diagonalization with overlap
     ethr =  6.83E-10,  avg # of iterations =  3.2

     negative rho (up, down):  2.156E-06 0.000E+00

     total cpu time spent up to now is       13.2 secs

     total energy              =    -225.94305932 Ry
     estimated scf accuracy    <       0.00000009 Ry

     iteration # 12     ecut=    90.00 Ry     beta= 0.30
     Davidson diagonalization with overlap
     ethr =  1.77E-10,  avg # of iterations =  2.2

     negative rho (up, down):  2.166E-06 0.000E+00

     total cpu time spent up to now is       14.2 secs

     total energy              =    -225.94305933 Ry
     estimated scf accuracy    <       0.00000001 Ry

     iteration # 13     ecut=    90.00 Ry     beta= 0.30
     Davidson diagonalization with overlap
     ethr =  2.57E-11,  avg # of iterations =  3.0

     negative rho (up, down):  2.193E-06 0.000E+00

     total cpu time spent up to now is       15.3 secs

     End of self-consistent calculation

          k = 0.0000-0.0000 0.0000 ( 14193 PWs)   bands (ev):

   -15.9411 -14.8702 -13.1182 -10.9232  -8.7401  -7.6341  -7.3156  -6.3820
    -4.7984  -4.4579  -4.0233  -2.9543  -2.7226  -2.1137  -0.8919  -0.7098
    -0.4001  -0.0878   1.2026   1.7494   2.1418   2.7003   3.9670   3.9807
     4.3060   4.8231   6.9593   7.2302   9.7306  10.1513  10.8759

          k = 0.0000-0.1414 0.0000 ( 14152 PWs)   bands (ev):

   -15.5768 -14.5175 -12.8018 -10.7960 -10.2614  -9.7332  -6.8711  -6.5981
    -4.9836  -4.5997  -3.1489  -2.3878  -1.9729  -1.6016  -0.6161  -0.5486
     0.2040   0.3568   1.3719   1.4745   2.4816   2.6048   3.4476   3.4481
     3.8171   4.0311   7.3690   7.6666  10.0999  10.1505  11.0636

          k = 0.0000-0.2828 0.0000 ( 14122 PWs)   bands (ev):

   -14.4945 -13.4936 -12.6966 -12.0922 -11.5492 -10.8175  -7.7478  -6.9055
    -5.7889  -4.5169  -3.1207  -1.7488  -0.5226  -0.1912   0.4510   0.8376
     0.9553   1.0244   1.7752   1.8070   1.9960   2.2931   2.3333   2.4871
     2.6478   2.9240   8.6254   8.7208  10.0839  10.5777  10.6691

          k = 0.1429-0.0000 0.0000 ( 14161 PWs)   bands (ev):

   -15.5678 -14.5011 -12.7558 -10.5697  -8.4000  -7.3022  -7.2289  -6.3075
    -4.7466  -4.1412  -3.6811  -2.7072  -2.7039  -2.4277  -1.7868  -1.5722
    -0.5968  -0.4410  -0.2198   1.2851   1.5614   2.0314   2.4860   3.1736
     3.1796   4.1167   7.3225   7.6112   9.8396  10.6782  11.0205

          k = 0.1429-0.1414 0.0000 ( 14127 PWs)   bands (ev):

   -15.2052 -14.1506 -12.4426 -10.4507  -9.9450  -9.4154  -6.5873  -6.3431
    -4.8806  -4.3992  -3.2308  -2.6136  -1.9831  -1.5773  -1.4886  -0.9506
    -0.7513   0.2708   0.2917   1.1944   1.2909   1.6258   1.6910   2.4005
     3.3510   3.9820   7.7828   8.0604  10.4623  11.5123  11.7201

          k = 0.1429-0.2828 0.0000 ( 14115 PWs)   bands (ev):

   -14.1291 -13.1341 -12.3460 -11.7436 -11.2075 -10.4827  -7.4215  -6.5879
    -5.5021  -4.2397  -3.0223  -1.8178  -1.6658  -1.0191  -0.4742  -0.0661
    -0.0355   0.3105   0.7368   0.7914   1.2122   1.3862   1.6842   2.0655
     2.9506   3.1055   9.0468   9.2086  10.8324  11.0543  11.9083

          k = 0.2857-0.0000 0.0000 ( 14130 PWs)   bands (ev):

   -14.4573 -13.4039 -11.6793  -9.5202  -7.9047  -7.3881  -6.9707  -6.3115
    -5.4047  -4.0205  -3.3808  -3.2476  -3.1727  -2.7021  -2.0481  -1.8836
    -1.1761  -0.8508  -0.5708  -0.4558   0.2692   0.2837   0.7124   1.1460
     1.4934   3.3956   8.5238   8.6369  10.0671  10.1445  10.8031

          k = 0.2857-0.1414 0.0000 ( 14126 PWs)   bands (ev):

   -14.1011 -13.0612 -11.3769  -9.4516  -9.1496  -8.5694  -6.2811  -6.2341
    -5.9525  -4.4530  -3.9263  -3.2014  -3.0908  -2.0373  -1.6029  -1.4110
    -1.3977  -0.9206  -0.6216  -0.3986  -0.1939   0.0921   0.9645   1.1575
     2.4197   2.8951   8.9776   9.1568  10.9123  11.1391  11.3476

          k = 0.2857-0.2828 0.0000 ( 14159 PWs)   bands (ev):

   -13.0491 -12.0729 -11.3337 -10.7204 -10.2149  -9.4983  -6.5839  -5.7640
    -5.2640  -5.1152  -3.8008  -3.7592  -3.5968  -2.6764  -2.5387  -1.8958
    -1.7390  -0.7239   0.2441   0.4809   0.5069   1.1321   1.2718   1.2754
     2.0312   2.6748  10.1286  10.2324  11.7489  11.9692  12.4455

          k = 0.4286-0.0000 0.0000 ( 14114 PWs)   bands (ev):

   -12.6484 -11.6190 -10.2679  -9.9307  -9.2768  -7.8158  -7.6424  -5.7341
    -5.5810  -4.6790  -3.5197  -3.1589  -2.4789  -2.4450  -1.9896  -1.5653
    -1.3761  -1.2189  -1.2030  -0.9301  -0.8236  -0.7490  -0.7414   0.3263
     0.5510   2.1072   9.6222  10.1723  10.4420  10.8419  10.8903

          k = 0.4286-0.1414 0.0000 ( 14173 PWs)   bands (ev):

   -12.3121 -11.2990 -10.0595  -9.6571  -9.0932  -7.8147  -7.3484  -6.5116
    -6.2903  -5.5793  -4.3773  -4.2369  -3.4438  -2.9813  -1.8463  -1.6823
    -1.6720  -1.2555  -0.6736  -0.4004  -0.3887   0.0491   0.0753   0.6669
     0.8646   2.0293  10.4859  10.5849  10.6252  11.0915  11.3542

          k = 0.4286-0.2828 0.0000 ( 14168 PWs)   bands (ev):

   -11.3535 -10.4168 -10.1255  -9.3123  -8.8310  -8.0614  -7.6823  -6.8955
    -6.6184  -6.5049  -5.8000  -5.7585  -3.7958  -3.3979  -2.7910  -2.3163
    -1.6301  -1.2988  -0.7352  -0.2107   0.2478   0.3581   1.2864   1.3933
     1.7647   1.8133  11.2108  11.2760  11.9695  12.2090  12.7213

     the Fermi energy is     6.2359 ev

!    total energy              =    -225.94305934 Ry
     estimated scf accuracy    <          2.2E-09 Ry
     smearing contrib. (-TS)   =      -0.00000000 Ry
     internal energy E=F+TS    =    -225.94305934 Ry

     The total energy is F=E-TS. E is the sum of the following terms:
     one-electron contribution =   -1231.91904902 Ry
     hartree contribution      =     640.04249196 Ry
     xc contribution           =     -59.13978339 Ry
     ewald contribution        =     499.03024464 Ry
     one-center paw contrib.   =     -73.95696353 Ry

     convergence has been achieved in  13 iterations

     negative rho (up, down):  2.193E-06 0.000E+00

     Forces acting on atoms (cartesian axes, Ry/au):

     atom    1 type  1   force =     0.00000000    0.00000502    0.00006083
     atom    2 type  1   force =     0.00000000   -0.00000502    0.00006083
     atom    3 type  1   force =     0.00000000    0.00009866    0.00001665
     atom    4 type  1   force =     0.00000000   -0.00009866    0.00001665
     atom    5 type  1   force =     0.00000000   -0.00009804    0.00001206
     atom    6 type  1   force =     0.00000000    0.00009804    0.00001206
     atom    7 type  1   force =     0.00000000    0.00009804   -0.00001206
     atom    8 type  1   force =     0.00000000   -0.00009804   -0.00001206
     atom    9 type  1   force =     0.00000000   -0.00009866   -0.00001665
     atom   10 type  1   force =     0.00000000    0.00009866   -0.00001665
     atom   11 type  1   force =     0.00000000   -0.00000502   -0.00006083
     atom   12 type  1   force =     0.00000000    0.00000502   -0.00006083
     atom   13 type  2   force =     0.00000000   -0.00004024   -0.00011068
     atom   14 type  2   force =     0.00000000    0.00004024   -0.00011068
     atom   15 type  2   force =     0.00000000    0.00004024    0.00011068
     atom   16 type  2   force =     0.00000000   -0.00004024    0.00011068

     Total force =     0.000387     Total SCF correction =     0.000134
     SCF correction compared to forces is large: reduce conv_thr to get better values


     Computing stress (Cartesian axis) and pressure


     negative rho (up, down):  2.193E-06 0.000E+00
          total   stress  (Ry/bohr**3)                   (kbar)     P=       26.23
   0.00017460   0.00000000   0.00000000           25.68        0.00        0.00
   0.00000000   0.00036327   0.00000000            0.00       53.44        0.00
   0.00000000   0.00000000  -0.00000296            0.00        0.00       -0.44


     Writing all to output data dir /tmp/qe/slab.save/ :
     XML data file, charge density, pseudopotentials, collected wavefunctions

     init_run     :      0.75s CPU      0.80s WALL (       1 calls)
     electrons    :     14.28s CPU     14.49s WALL (       1 calls)
     forces       :      0.24s CPU      0.26s WALL (       1 calls)
     stress       :      2.14s CPU      2.15s WALL (       1 calls)

     Called by init_run:
     wfcinit      :      0.48s CPU      0.50s WALL (       1 calls)
     potinit      :      0.12s CPU      0.13s WALL (       1 calls)
     hinit0       :      0.05s CPU      0.06s WALL (       1 calls)

     Called by electrons:
     c_bands      :     10.15s CPU     10.26s WALL (      13 calls)
     sum_band     :      2.25s CPU      2.31s WALL (      13 calls)
     v_of_rho     :      0.67s CPU      0.69s WALL (      14 calls)
     newd         :      0.38s CPU      0.40s WALL (      14 calls)
     PAW_pot      :      0.86s CPU      0.87s WALL (      14 calls)
     mix_rho      :      0.06s CPU      0.06s WALL (      13 calls)

     Called by c_bands:
     init_us_2    :      0.30s CPU      0.31s WALL (     348 calls)
     cegterg      :      9.66s CPU      9.76s WALL (     156 calls)

     Called by *egterg:
     cdiaghg      :      0.63s CPU      0.64s WALL (     731 calls)
     h_psi        :      7.61s CPU      7.70s WALL (     743 calls)
     s_psi        :      0.41s CPU      0.41s WALL (     743 calls)
     g_psi        :      0.05s CPU      0.05s WALL (     575 calls)

     Called by h_psi:
     h_psi:calbec :      0.45s CPU      0.46s WALL (     743 calls)
     vloc_psi     :      6.60s CPU      6.68s WALL (     743 calls)
     add_vuspsi   :      0.50s CPU      0.51s WALL (     743 calls)

     General routines
     calbec       :      0.66s CPU      0.68s WALL (     959 calls)
     fft          :      0.31s CPU      0.34s WALL (     205 calls)
     ffts         :      0.01s CPU      0.01s WALL (      27 calls)
     fftw         :      5.83s CPU      5.89s WALL (   31612 calls)
     interpolate  :      0.02s CPU      0.03s WALL (      14 calls)

     Parallel routines

     PWSCF        :     17.53s CPU     17.89s WALL


   This run was terminated on:  15:43:59   2Aug2026            

=------------------------------------------------------------------------------=
   JOB DONE.
=------------------------------------------------------------------------------=
Note: The following floating-point exceptions are signalling: IEEE_UNDERFLOW_FLAG IEEE_DENORMAL
Note: The following floating-point exceptions are signalling: IEEE_UNDERFLOW_FLAG IEEE_DENORMAL
Note: The following floating-point exceptions are signalling: IEEE_UNDERFLOW_FLAG IEEE_DENORMAL
Note: The following floating-point exceptions are signalling: IEEE_UNDERFLOW_FLAG IEEE_DENORMAL
Note: The following floating-point exceptions are signalling: IEEE_UNDERFLOW_FLAG IEEE_DENORMAL
Note: The following floating-point exceptions are signalling: IEEE_UNDERFLOW_FLAG IEEE_DENORMAL
Note: The following floating-point exceptions are signalling: IEEE_UNDERFLOW_FLAG IEEE_DENORMAL
Note: The following floating-point exceptions are signalling: IEEE_UNDERFLOW_FLAG IEEE_DENORMAL
