
     Program PWSCF v.7.5 starts on 23Jun2026 at 13:41: 7 

     This program is part of the open-source Quantum ESPRESSO suite
     for quantum simulation of materials; please cite
         "P. Giannozzi et al., J. Phys.:Condens. Matter 21 395502 (2009);
         "P. Giannozzi et al., J. Phys.:Condens. Matter 29 465901 (2017);
         "P. Giannozzi et al., J. Chem. Phys. 152 154105 (2020);
          URL http://www.quantum-espresso.org", 
     in publications or presentations arising from this work. More details at
     http://www.quantum-espresso.org/quote

     Serial version
     0 MiB available memory on the printing compute node when the environment starts

     Waiting for input...
     Reading input from standard input

     Current dimensions of program PWSCF are:
     Max number of different atomic species (ntypx) = 10
     Max number of k-points (npk) =  40000
     Max angular momentum in pseudopotentials (lmaxx) =  4
     file C.pbe-n-kjpaw_psl.1.0.0.UPF: wavefunction(s)  2S 2P renormalized
     Message from routine volume:
     axis vectors are left-handed
     Message from routine setup:
     using ibrav=0 with symmetry is DISCOURAGED, use correct ibrav instead


     G-vector sticks info
     --------------------
     sticks:   dense  smooth     PW     G-vecs:    dense   smooth      PW
     Sum        2311    1153    339               480173   169937   26169

     Using Slab Decomposition



     bravais-lattice index     =            0
     lattice parameter (alat)  =       4.7752  a.u.
     unit-cell volume          =    1756.5480 (a.u.)^3
     number of atoms/cell      =           14
     number of atomic types    =            2
     number of electrons       =        50.00
     number of Kohn-Sham states=           30
     kinetic-energy cutoff     =      80.0000  Ry
     charge density cutoff     =     640.0000  Ry
     scf convergence threshold =      1.0E-08
     mixing beta               =       0.3000
     number of iterations used =            8  plain     mixing
     Exchange-correlation= PBE
                           (   1   4   3   4   0   0   0)

     celldm(1)=   4.775235  celldm(2)=   0.000000  celldm(3)=   0.000000
     celldm(4)=   0.000000  celldm(5)=   0.000000  celldm(6)=   0.000000

     crystal axes: (cart. coord. in units of alat)
               a(1) = (   1.000000   0.000000   0.000000 )  
               a(2) = (   0.000000  -1.990000   0.000000 )  
               a(3) = (   0.000000   0.000000   8.106298 )  

     reciprocal axes: (cart. coord. in units 2 pi/alat)
               b(1) = (  1.000000 -0.000000 -0.000000 )  
               b(2) = ( -0.000000 -0.502513 -0.000000 )  
               b(3) = ( -0.000000 -0.000000  0.123361 )  


     PseudoPot. # 1 for C  read from file:
     ./C.pbe-n-kjpaw_psl.1.0.0.UPF
     MD5 check sum: 5d2aebdfa2cae82b50a7e79e9516da0f
     Pseudo is Projector augmented-wave + core cor, Zval =  4.0
     Generated using "atomic" code by A. Dal Corso  v.5.1
     Shape of augmentation charge: PSQ
     Using radial grid of 1073 points,  4 beta functions with: 
                l(1) =   0
                l(2) =   0
                l(3) =   1
                l(4) =   1
     Q(r) pseudized with 0 coefficients 


     PseudoPot. # 2 for H  read from file:
     ./H_ONCV_PBE-1.0.oncvpsp.upf
     MD5 check sum: 1790becc920ee074925cf490c71280fe
     Pseudo is Norm-conserving, Zval =  1.0
     Generated using ONCVPSP code by D. R. Hamann
     Using radial grid of 1166 points,  2 beta functions with: 
                l(1) =   0
                l(2) =   0

     atomic species   valence    mass     pseudopotential
     C                 4.00    12.01100     C ( 1.00)
     H                 1.00     1.00800     H ( 1.00)

      4 Sym. Ops. (no inversion) found



   Cartesian axes

     site n.     atom                  positions (alat units)
         1        C      tau(   1) = (   0.0000000  -0.3196304   4.7085576  )
         2        C      tau(   2) = (   0.5000000  -0.4619451   4.3876684  )
         3        C      tau(   3) = (   0.5000000   0.0000000   3.9931738  )
         4        C      tau(   4) = (   0.0000000   0.0000000   3.6576303  )
         5        C      tau(   5) = (   0.0000000  -0.4975000   3.3215633  )
         6        C      tau(   6) = (   0.5000000  -0.4975000   2.9680099  )
         7        C      tau(   7) = (   0.0000000  -1.6703696   4.7085576  )
         8        C      tau(   8) = (   0.5000000  -1.5280549   4.3876684  )
         9        C      tau(   9) = (   0.5000000  -0.9950000   4.0662130  )
        10        C      tau(  10) = (   0.0000000  -0.9950000   3.6998598  )
        11        C      tau(  11) = (   0.0000000  -1.4925000   3.3215633  )
        12        C      tau(  12) = (   0.5000000  -1.4925000   2.9680099  )
        13        H      tau(  13) = (   0.0000000  -0.4878282   5.1093667  )
        14        H      tau(  14) = (   0.0000000  -1.5021718   5.1093667  )

     number of k points=    15  Marzari-Vanderbilt smearing, width (Ry)=  0.0100
                       cart. coord. in units 2pi/alat
        k(    1) = (   0.0000000  -0.0000000   0.0000000), wk =   0.0444444
        k(    2) = (   0.0000000  -0.1005025   0.0000000), wk =   0.0888889
        k(    3) = (   0.0000000  -0.2010050   0.0000000), wk =   0.0888889
        k(    4) = (   0.1111111  -0.0000000   0.0000000), wk =   0.0888889
        k(    5) = (   0.1111111  -0.1005025   0.0000000), wk =   0.1777778
        k(    6) = (   0.1111111  -0.2010050   0.0000000), wk =   0.1777778
        k(    7) = (   0.2222222  -0.0000000   0.0000000), wk =   0.0888889
        k(    8) = (   0.2222222  -0.1005025   0.0000000), wk =   0.1777778
        k(    9) = (   0.2222222  -0.2010050   0.0000000), wk =   0.1777778
        k(   10) = (   0.3333333  -0.0000000   0.0000000), wk =   0.0888889
        k(   11) = (   0.3333333  -0.1005025   0.0000000), wk =   0.1777778
        k(   12) = (   0.3333333  -0.2010050   0.0000000), wk =   0.1777778
        k(   13) = (   0.4444444  -0.0000000   0.0000000), wk =   0.0888889
        k(   14) = (   0.4444444  -0.1005025   0.0000000), wk =   0.1777778
        k(   15) = (   0.4444444  -0.2010050   0.0000000), wk =   0.1777778

     Dense  grid:   480173 G-vectors     FFT dimensions: (  40,  80, 320)

     Smooth grid:   169937 G-vectors     FFT dimensions: (  27,  60, 225)

     Estimated max dynamical RAM per process >       1.01 GB

     Initial potential from superposition of free atoms

     starting charge      49.9995, renormalised to      50.0000

     negative rho (up, down):  7.352E-05 0.000E+00
     Starting wfcs are   50 randomized atomic wfcs

     total cpu time spent up to now is        4.1 secs

     Self-consistent Calculation

     iteration #  1     ecut=    80.00 Ry     beta= 0.30
     Davidson diagonalization with overlap
     ethr =  1.00E-02,  avg # of iterations =  2.4
     Minimization algorithm failed to find Fermi energy: reverting to bisection
     Possible cause: smearing is larger than the electronic band-gap.

     negative rho (up, down):  7.086E-05 0.000E+00

     total cpu time spent up to now is       11.8 secs

     total energy              =    -223.07265276 Ry
     estimated scf accuracy    <       0.90745826 Ry

     iteration #  2     ecut=    80.00 Ry     beta= 0.30
     Davidson diagonalization with overlap
     ethr =  1.81E-03,  avg # of iterations =  3.4

     negative rho (up, down):  7.652E-05 0.000E+00

     total cpu time spent up to now is       18.3 secs

     total energy              =    -223.02206361 Ry
     estimated scf accuracy    <       0.29389915 Ry

     iteration #  3     ecut=    80.00 Ry     beta= 0.30
     Davidson diagonalization with overlap
     ethr =  5.88E-04,  avg # of iterations =  5.6

     negative rho (up, down):  8.378E-05 0.000E+00

     total cpu time spent up to now is       25.8 secs

     total energy              =    -223.02563817 Ry
     estimated scf accuracy    <       0.06724657 Ry

     iteration #  4     ecut=    80.00 Ry     beta= 0.30
     Davidson diagonalization with overlap
     ethr =  1.34E-04,  avg # of iterations =  5.3

     negative rho (up, down):  8.815E-05 0.000E+00

     total cpu time spent up to now is       33.4 secs

     total energy              =    -223.03018550 Ry
     estimated scf accuracy    <       0.01044235 Ry

     iteration #  5     ecut=    80.00 Ry     beta= 0.30
     Davidson diagonalization with overlap
     ethr =  2.09E-05,  avg # of iterations =  5.3

     negative rho (up, down):  9.036E-05 0.000E+00

     total cpu time spent up to now is       41.3 secs

     total energy              =    -223.03149511 Ry
     estimated scf accuracy    <       0.00127245 Ry

     iteration #  6     ecut=    80.00 Ry     beta= 0.30
     Davidson diagonalization with overlap
     c_bands:  1 eigenvalues not converged
     ethr =  2.54E-06,  avg # of iterations =  6.8

     negative rho (up, down):  8.780E-05 0.000E+00

     total cpu time spent up to now is       50.9 secs

     total energy              =    -223.03164411 Ry
     estimated scf accuracy    <       0.00022650 Ry

     iteration #  7     ecut=    80.00 Ry     beta= 0.30
     Davidson diagonalization with overlap
     ethr =  4.53E-07,  avg # of iterations =  4.3

     negative rho (up, down):  8.804E-05 0.000E+00

     total cpu time spent up to now is       58.5 secs

     total energy              =    -223.03168051 Ry
     estimated scf accuracy    <       0.00006229 Ry

     iteration #  8     ecut=    80.00 Ry     beta= 0.30
     Davidson diagonalization with overlap
     ethr =  1.25E-07,  avg # of iterations =  2.0

     negative rho (up, down):  8.756E-05 0.000E+00

     total cpu time spent up to now is       65.0 secs

     total energy              =    -223.03168819 Ry
     estimated scf accuracy    <       0.00000865 Ry

     iteration #  9     ecut=    80.00 Ry     beta= 0.30
     Davidson diagonalization with overlap
     ethr =  1.73E-08,  avg # of iterations =  2.5

     negative rho (up, down):  8.727E-05 0.000E+00

     total cpu time spent up to now is       72.2 secs

     total energy              =    -223.03168973 Ry
     estimated scf accuracy    <       0.00000103 Ry

     iteration # 10     ecut=    80.00 Ry     beta= 0.30
     Davidson diagonalization with overlap
     ethr =  2.06E-09,  avg # of iterations =  3.9

     negative rho (up, down):  8.704E-05 0.000E+00

     total cpu time spent up to now is       80.6 secs

     total energy              =    -223.03169001 Ry
     estimated scf accuracy    <       0.00000050 Ry

     iteration # 11     ecut=    80.00 Ry     beta= 0.30
     Davidson diagonalization with overlap
     ethr =  9.94E-10,  avg # of iterations =  2.0

     negative rho (up, down):  8.698E-05 0.000E+00

     total cpu time spent up to now is       87.3 secs

     total energy              =    -223.03169006 Ry
     estimated scf accuracy    <       0.00000006 Ry

     iteration # 12     ecut=    80.00 Ry     beta= 0.30
     Davidson diagonalization with overlap
     ethr =  1.27E-10,  avg # of iterations =  4.3

     negative rho (up, down):  8.692E-05 0.000E+00

     total cpu time spent up to now is       96.5 secs

     total energy              =    -223.03169008 Ry
     estimated scf accuracy    <       0.00000002 Ry

     iteration # 13     ecut=    80.00 Ry     beta= 0.30
     Davidson diagonalization with overlap
     ethr =  4.39E-11,  avg # of iterations =  2.0

     negative rho (up, down):  8.688E-05 0.000E+00

     total cpu time spent up to now is      103.2 secs

     End of self-consistent calculation

          k = 0.0000-0.0000 0.0000 ( 21257 PWs)   bands (ev):

   -21.1304 -18.8681 -16.6647 -16.2823 -15.2812 -15.1335 -12.0734 -11.3573
   -10.9739  -8.0913  -7.9634  -7.1959  -6.1209  -5.6035  -4.2738  -4.0998
    -4.0835  -3.2478  -3.2444  -2.7357  -2.5833  -2.4486  -1.5741  -0.9193
    -0.4836  -0.0051   2.6476   3.2439   4.3027   4.4113

          k = 0.0000-0.1005 0.0000 ( 21227 PWs)   bands (ev):

   -20.9783 -18.8024 -17.8618 -15.8725 -14.9938 -14.8800 -11.5972 -11.2492
   -10.9165  -8.2591  -7.6359  -7.3070  -6.1937  -6.0068  -4.5443  -4.1472
    -4.0549  -3.7566  -3.5757  -2.8407  -2.5934  -2.1516  -1.5152  -1.0107
    -0.6533   0.3140   2.8503   2.8838   4.6142   5.0632

          k = 0.0000-0.2010 0.0000 ( 21213 PWs)   bands (ev):

   -20.6088 -19.1515 -18.2795 -16.5949 -14.7135 -14.0240 -11.3842 -10.4890
   -10.1857  -8.9984  -8.0261  -7.0826  -6.7623  -5.7488  -5.3081  -4.4376
    -4.3502  -3.8481  -3.3921  -3.2264  -2.8296  -1.8111  -1.4149  -1.0392
    -0.9382   1.0437   2.0228   3.4627   4.4011   5.0135

          k = 0.1111-0.0000 0.0000 ( 21199 PWs)   bands (ev):

   -20.9054 -18.6502 -16.4551 -16.0683 -15.0774 -14.9340 -11.8883 -11.2726
   -10.7941  -7.9809  -7.9030  -7.5058  -6.9400  -5.4532  -5.2664  -4.4461
    -4.1831  -3.9180  -3.4606  -3.4252  -3.3699  -2.6573  -2.4167  -1.0508
    -0.5129   0.0077   2.8641   3.3590   4.8664   5.0161

          k = 0.1111-0.1005 0.0000 ( 21215 PWs)   bands (ev):

   -20.7537 -18.5842 -17.6465 -15.6688 -14.7892 -14.6780 -11.4572 -11.0890
   -10.7699  -8.1943  -7.6306  -7.4150  -6.8781  -6.0991  -5.2071  -4.8873
    -4.3822  -4.2100  -3.5310  -3.4139  -3.1072  -3.0003  -2.2706  -1.0774
    -0.6368   0.3139   2.9460   3.0809   5.1028   5.5469

          k = 0.1111-0.2010 0.0000 ( 21206 PWs)   bands (ev):

   -20.3849 -18.9305 -18.0646 -16.3881 -14.5161 -13.8223 -11.2631 -10.3225
   -10.0695  -8.8364  -7.9013  -7.3488  -6.6993  -6.5283  -5.5936  -5.3004
    -4.9914  -4.3402  -3.8555  -3.3175  -3.0656  -2.6662  -2.3604  -1.0478
    -0.8704   1.0499   2.0463   3.6597   4.5654   5.2013

          k = 0.2222-0.0000 0.0000 ( 21208 PWs)   bands (ev):

   -20.2342 -18.0050 -15.8317 -15.4315 -14.4880 -14.3412 -11.4750 -11.3657
   -10.2974  -9.1442  -8.3723  -7.9582  -7.4552  -6.3207  -6.0780  -5.4423
    -5.3014  -5.1967  -5.0029  -4.1385  -4.1102  -3.0878  -2.5198  -1.3951
    -0.9359  -0.1173   3.4105   3.6314   5.5810   5.7710

          k = 0.2222-0.1005 0.0000 ( 21194 PWs)   bands (ev):

   -20.0834 -17.9369 -17.0066 -15.0692 -14.1934 -14.0784 -11.4238 -10.7477
   -10.3607  -9.0241  -8.4700  -8.0470  -7.2348  -6.5125  -6.1861  -5.7085
    -5.6567  -5.0647  -4.8458  -4.3862  -4.0915  -3.3135  -2.8428  -1.3243
    -0.9136   0.1406   3.0388   3.6376   5.6423   5.8412

          k = 0.2222-0.2010 0.0000 ( 21197 PWs)   bands (ev):

   -19.7171 -18.2724 -17.4282 -15.7801 -13.9500 -13.2206 -11.2319 -10.1534
    -9.7846  -8.8437  -8.5199  -7.8987  -7.6103  -7.1770  -6.5528  -6.1103
    -5.8572  -5.1966  -4.6181  -4.4234  -4.2231  -3.3755  -3.1608  -1.1897
    -0.9915   0.8614   1.9203   4.1448   4.8104   5.3121

          k = 0.3333-0.0000 0.0000 ( 21292 PWs)   bands (ev):

   -19.1317 -16.9793 -14.8259 -14.3908 -13.8762 -13.3817 -12.7238 -11.0746
   -10.6779  -9.8336  -9.0352  -8.9697  -8.1403  -7.6206  -7.2293  -6.8571
    -6.0384  -5.6554  -5.1020  -4.6664  -4.0332  -4.0325  -2.4815  -1.6726
    -1.3335  -0.3554   3.8828   4.2899   5.8867   6.5097

          k = 0.3333-0.1005 0.0000 ( 21245 PWs)   bands (ev):

   -18.9825 -16.9024 -15.9697 -14.1812 -13.5731 -13.0939 -12.5581 -11.0134
   -10.5152  -9.7931  -9.1602  -8.8055  -8.0653  -7.6606  -7.3680  -6.2120
    -6.1394  -5.5849  -5.3550  -4.8684  -4.4312  -3.9179  -3.1807  -1.5712
    -1.3075  -0.1313   3.2290   4.4648   5.4825   6.2015

          k = 0.3333-0.2010 0.0000 ( 21211 PWs)   bands (ev):

   -18.6197 -17.1966 -16.4138 -14.8500 -13.4572 -12.2391 -12.2336 -11.3255
   -10.4020  -9.4485  -8.8483  -8.4443  -7.8799  -7.3678  -7.2158  -7.1424
    -6.2378  -5.6166  -5.4650  -4.9560  -4.7047  -4.1268  -3.8134  -1.4262
    -1.3223   0.6196   1.8790   4.6275   4.9740   5.7130

          k = 0.4444-0.0000 0.0000 ( 21274 PWs)   bands (ev):

   -17.6471 -16.1798 -14.9712 -13.4147 -13.0116 -13.0105 -12.2497 -12.0033
   -11.4986 -10.9495 -10.1662  -9.9275  -8.2309  -7.8754  -7.4087  -7.1018
    -6.4157  -5.7910  -5.5889  -5.3296  -4.4936  -3.3449  -2.7458  -1.8407
    -1.5595  -0.5559   4.0151   5.3870   5.8024   6.4170

          k = 0.4444-0.1005 0.0000 ( 21243 PWs)   bands (ev):

   -17.4998 -16.0380 -14.9877 -14.4941 -13.3887 -12.8618 -11.8654 -11.6546
   -11.4627 -10.6340 -10.0712  -9.7412  -8.2235  -7.8124  -7.6458  -6.4400
    -6.3425  -5.8120  -5.5567  -5.1489  -4.6794  -3.9921  -3.5176  -1.7167
    -1.5640  -0.3375   3.3523   5.2554   5.8057   6.1819

          k = 0.4444-0.2010 0.0000 ( 21231 PWs)   bands (ev):

   -17.1401 -15.8072 -15.5487 -14.6390 -14.3463 -12.6001 -12.2754 -11.2202
   -11.2071 -10.6863  -9.5348  -9.1005  -8.0410  -7.4762  -7.1850  -6.4557
    -6.0083  -5.8432  -5.4700  -5.2866  -5.0837  -4.9475  -4.5928  -1.6323
    -1.5650   0.5276   1.9250   4.8923   5.6920   6.2951

     the Fermi energy is    -0.5006 ev

!    total energy              =    -223.03169008 Ry
     estimated scf accuracy    <          3.0E-09 Ry
     smearing contrib. (-TS)   =      -0.00003055 Ry
     internal energy E=F+TS    =    -223.03165953 Ry

     The total energy is F=E-TS. E is the sum of the following terms:
     one-electron contribution =   -2284.37930033 Ry
     hartree contribution      =    1156.02801187 Ry
     xc contribution           =     -56.75450349 Ry
     ewald contribution        =    1036.05364510 Ry
     one-center paw contrib.   =     -73.97951269 Ry

     convergence has been achieved in  13 iterations

     negative rho (up, down):  8.688E-05 0.000E+00

     Forces acting on atoms (cartesian axes, Ry/au):

     atom    1 type  1   force =     0.00000000   -0.00213133    0.00001250
     atom    2 type  1   force =     0.00000000   -0.00339619    0.00024171
     atom    3 type  1   force =     0.00000000   -0.00000000    0.00043718
     atom    4 type  1   force =     0.00000000   -0.00000000    0.00191393
     atom    5 type  1   force =     0.00000000   -0.03158613   -0.09012733
     atom    6 type  1   force =     0.00000000   -0.00778254    0.08847070
     atom    7 type  1   force =     0.00000000    0.00213133    0.00001250
     atom    8 type  1   force =     0.00000000    0.00339619    0.00024171
     atom    9 type  1   force =     0.00000000    0.00000000   -0.00018816
     atom   10 type  1   force =     0.00000000    0.00000000   -0.00037743
     atom   11 type  1   force =     0.00000000    0.03158613   -0.09012733
     atom   12 type  1   force =     0.00000000    0.00778254    0.08847070
     atom   13 type  2   force =     0.00000000   -0.00110410    0.00050965
     atom   14 type  2   force =     0.00000000    0.00110410    0.00050965

     Total force =     0.006266     Total SCF correction =     0.000110


     Computing stress (Cartesian axis) and pressure


     negative rho (up, down):  8.688E-05 0.000E+00
          total   stress  (Ry/bohr**3)                   (kbar)     P=      -30.55
  -0.00004088   0.00000000   0.00000000           -6.01        0.00        0.00
   0.00000000  -0.00041647   0.00000000            0.00      -61.27        0.00
   0.00000000   0.00000000  -0.00016574            0.00        0.00      -24.38


     Writing all to output data dir ./tmp/slab.save/ :
     XML data file, charge density, pseudopotentials, collected wavefunctions

     init_run     :      3.70s CPU      4.02s WALL (       1 calls)
     electrons    :     90.28s CPU     99.20s WALL (       1 calls)
     forces       :      1.05s CPU      1.22s WALL (       1 calls)
     stress       :      2.99s CPU      3.52s WALL (       1 calls)

     Called by init_run:
     wfcinit      :      3.03s CPU      3.24s WALL (       1 calls)
     potinit      :      0.34s CPU      0.38s WALL (       1 calls)
     hinit0       :      0.15s CPU      0.16s WALL (       1 calls)

     Called by electrons:
     c_bands      :     73.44s CPU     80.91s WALL (      13 calls)
     sum_band     :     11.31s CPU     12.01s WALL (      13 calls)
     v_of_rho     :      2.21s CPU      2.39s WALL (      14 calls)
     newd         :      1.23s CPU      1.60s WALL (      14 calls)
     PAW_pot      :      1.95s CPU      2.15s WALL (      14 calls)
     mix_rho      :      0.32s CPU      0.38s WALL (      13 calls)

     Called by c_bands:
     init_us_2    :      1.06s CPU      1.23s WALL (     435 calls)
     cegterg      :     71.33s CPU     78.68s WALL (     195 calls)

     Called by *egterg:
     cdiaghg      :      0.51s CPU      0.55s WALL (     940 calls)
     h_psi        :     55.01s CPU     58.29s WALL (     955 calls)
     s_psi        :      5.42s CPU      6.41s WALL (     955 calls)
     g_psi        :      0.23s CPU      0.23s WALL (     745 calls)

     Called by h_psi:
     h_psi:calbec :      4.79s CPU      6.01s WALL (     955 calls)
     vloc_psi     :     43.99s CPU     44.66s WALL (     955 calls)
                                        0.00s GPU  (     955 calls)
     add_vuspsi   :      6.02s CPU      7.26s WALL (     955 calls)

     General routines
     calbec       :      7.79s CPU      9.71s WALL (    1405 calls)
     fft          :      1.82s CPU      1.82s WALL (     205 calls)
     ffts         :      0.06s CPU      0.06s WALL (      27 calls)
     fftw         :     46.68s CPU     46.81s WALL (   37984 calls)
     interpolate  :      0.17s CPU      0.19s WALL (      14 calls)


     PWSCF        :   1m38.08s CPU   1m48.06s WALL


   This run was terminated on:  13:42:55  23Jun2026            

=------------------------------------------------------------------------------=
   JOB DONE.
=------------------------------------------------------------------------------=
Note: The following floating-point exceptions are signalling: IEEE_INVALID_FLAG IEEE_DIVIDE_BY_ZERO IEEE_OVERFLOW_FLAG IEEE_UNDERFLOW_FLAG
