
     Program PWSCF v.7.5 starts on  5Jul2026 at 17:57: 1 

     This program is part of the open-source Quantum ESPRESSO suite
     for quantum simulation of materials; please cite
         "P. Giannozzi et al., J. Phys.:Condens. Matter 21 395502 (2009);
         "P. Giannozzi et al., J. Phys.:Condens. Matter 29 465901 (2017);
         "P. Giannozzi et al., J. Chem. Phys. 152 154105 (2020);
          URL http://www.quantum-espresso.org", 
     in publications or presentations arising from this work. More details at
     http://www.quantum-espresso.org/quote

     Serial version
     0 MiB available memory on the printing compute node when the environment starts

     Waiting for input...
     Reading input from standard input

     Current dimensions of program PWSCF are:
     Max number of different atomic species (ntypx) = 10
     Max number of k-points (npk) =  40000
     Max angular momentum in pseudopotentials (lmaxx) =  4
     file C.pbe-n-kjpaw_psl.1.0.0.UPF: wavefunction(s)  2S 2P renormalized
     Message from routine volume:
     axis vectors are left-handed
     Found identity + (  0.5000  0.0000  0.0000) symmetry
     This is a supercell, fractional translations are disabled
     Message from routine setup:
     using ibrav=0 with symmetry is DISCOURAGED, use correct ibrav instead


     G-vector sticks info
     --------------------
     sticks:   dense  smooth     PW     G-vecs:    dense   smooth      PW
     Sum        3497    1749    481               443871   157227   22591

     Using Slab Decomposition



     bravais-lattice index     =            0
     lattice parameter (alat)  =       9.5505  a.u.
     unit-cell volume          =    2499.5129 (a.u.)^3
     number of atoms/cell      =           32
     number of atomic types    =            2
     number of electrons       =       104.00
     number of Kohn-Sham states=           62
     kinetic-energy cutoff     =      60.0000  Ry
     charge density cutoff     =     480.0000  Ry
     scf convergence threshold =      1.0E-08
     mixing beta               =       0.3000
     number of iterations used =            8  plain     mixing
     energy convergence thresh.=      1.0E-05
     force convergence thresh. =      1.0E-04
     Exchange-correlation= PBE
                           (   1   4   3   4   0   0   0)
     nstep                     =           50


     celldm(1)=   9.550471  celldm(2)=   0.000000  celldm(3)=   0.000000
     celldm(4)=   0.000000  celldm(5)=   0.000000  celldm(6)=   0.000000

     crystal axes: (cart. coord. in units of alat)
               a(1) = (   1.000000   0.000000   0.000000 )  
               a(2) = (   0.000000  -1.000000   0.000000 )  
               a(3) = (   0.000000   0.000000   2.869333 )  

     reciprocal axes: (cart. coord. in units 2 pi/alat)
               b(1) = (  1.000000 -0.000000 -0.000000 )  
               b(2) = ( -0.000000 -1.000000 -0.000000 )  
               b(3) = ( -0.000000 -0.000000  0.348513 )  


     PseudoPot. # 1 for C  read from file:
     ./C.pbe-n-kjpaw_psl.1.0.0.UPF
     MD5 check sum: 5d2aebdfa2cae82b50a7e79e9516da0f
     Pseudo is Projector augmented-wave + core cor, Zval =  4.0
     Generated using "atomic" code by A. Dal Corso  v.5.1
     Shape of augmentation charge: PSQ
     Using radial grid of 1073 points,  4 beta functions with: 
                l(1) =   0
                l(2) =   0
                l(3) =   1
                l(4) =   1
     Q(r) pseudized with 0 coefficients 


     PseudoPot. # 2 for H  read from file:
     ./H_ONCV_PBE-1.0.oncvpsp.upf
     MD5 check sum: 1790becc920ee074925cf490c71280fe
     Pseudo is Norm-conserving, Zval =  1.0
     Generated using ONCVPSP code by D. R. Hamann
     Using radial grid of 1166 points,  2 beta functions with: 
                l(1) =   0
                l(2) =   0

     atomic species   valence    mass     pseudopotential
     C                 4.00    12.01100     C ( 1.00)
     H                 1.00     1.00800     H ( 1.00)

      4 Sym. Ops. (no inversion) found



   Cartesian axes

     site n.     atom                  positions (alat units)
         1        C      tau(   1) = (   0.0000000  -0.1582939   1.8766085  )
         2        C      tau(   2) = (   0.2500000  -0.2500000   1.6998318  )
         3        C      tau(   3) = (   0.2500000   0.0000000   1.5230551  )
         4        C      tau(   4) = (   0.0000000   0.0000000   1.3462784  )
         5        C      tau(   5) = (   0.0000000  -0.2500000   1.1695017  )
         6        C      tau(   6) = (   0.2500000  -0.3417061   0.9927250  )
         7        C      tau(   7) = (   0.0000000  -0.8417061   1.8766085  )
         8        C      tau(   8) = (   0.2500000  -0.7500000   1.6998318  )
         9        C      tau(   9) = (   0.2500000  -0.5000000   1.5230551  )
        10        C      tau(  10) = (   0.0000000  -0.5000000   1.3462784  )
        11        C      tau(  11) = (   0.0000000  -0.7500000   1.1695017  )
        12        C      tau(  12) = (   0.2500000  -0.6582939   0.9927250  )
        13        H      tau(  13) = (   0.0000000  -0.2358311   2.0778641  )
        14        H      tau(  14) = (   0.0000000  -0.7641689   2.0778641  )
        15        H      tau(  15) = (   0.2500000  -0.2641689   0.7914693  )
        16        H      tau(  16) = (   0.2500000  -0.7358311   0.7914693  )
        17        C      tau(  17) = (   0.5000000  -0.1582939   1.8766085  )
        18        C      tau(  18) = (   0.7500000  -0.2500000   1.6998318  )
        19        C      tau(  19) = (   0.7500000   0.0000000   1.5230551  )
        20        C      tau(  20) = (   0.5000000   0.0000000   1.3462784  )
        21        C      tau(  21) = (   0.5000000  -0.2500000   1.1695017  )
        22        C      tau(  22) = (   0.7500000  -0.3417061   0.9927250  )
        23        C      tau(  23) = (   0.5000000  -0.8417061   1.8766085  )
        24        C      tau(  24) = (   0.7500000  -0.7500000   1.6998318  )
        25        C      tau(  25) = (   0.7500000  -0.5000000   1.5230551  )
        26        C      tau(  26) = (   0.5000000  -0.5000000   1.3462784  )
        27        C      tau(  27) = (   0.5000000  -0.7500000   1.1695017  )
        28        C      tau(  28) = (   0.7500000  -0.6582939   0.9927250  )
        29        H      tau(  29) = (   0.5000000  -0.2358311   2.0778641  )
        30        H      tau(  30) = (   0.5000000  -0.7641689   2.0778641  )
        31        H      tau(  31) = (   0.7500000  -0.2641689   0.7914693  )
        32        H      tau(  32) = (   0.7500000  -0.7358311   0.7914693  )

     number of k points=     9  Marzari-Vanderbilt smearing, width (Ry)=  0.0100
                       cart. coord. in units 2pi/alat
        k(    1) = (   0.0000000  -0.0000000   0.0000000), wk =   0.0800000
        k(    2) = (   0.0000000  -0.2000000   0.0000000), wk =   0.1600000
        k(    3) = (   0.0000000  -0.4000000   0.0000000), wk =   0.1600000
        k(    4) = (   0.2000000  -0.2000000   0.0000000), wk =   0.3200000
        k(    5) = (   0.2000000  -0.4000000   0.0000000), wk =   0.3200000
        k(    6) = (   0.4000000  -0.4000000   0.0000000), wk =   0.3200000
        k(    7) = (  -0.2000000   0.0000000   0.0000000), wk =   0.1600000
        k(    8) = (  -0.4000000   0.0000000   0.0000000), wk =   0.1600000
        k(    9) = (  -0.4000000   0.2000000   0.0000000), wk =   0.3200000

     Dense  grid:   443871 G-vectors     FFT dimensions: (  72,  72, 192)

     Smooth grid:   157227 G-vectors     FFT dimensions: (  48,  48, 135)

     Estimated max dynamical RAM per process >       1.25 GB

     Check: negative core charge=   -0.000002

     Initial potential from superposition of free atoms

     starting charge     103.9989, renormalised to     104.0000

     negative rho (up, down):  1.032E-06 0.000E+00
     Starting wfcs are  104 randomized atomic wfcs

     total cpu time spent up to now is        4.8 secs

     Self-consistent Calculation

     iteration #  1     ecut=    60.00 Ry     beta= 0.30
     Davidson diagonalization with overlap
     ethr =  1.00E-02,  avg # of iterations =  2.7

     negative rho (up, down):  6.170E-06 0.000E+00

     total cpu time spent up to now is       14.3 secs

     total energy              =    -451.61968991 Ry
     estimated scf accuracy    <       2.27294250 Ry

     iteration #  2     ecut=    60.00 Ry     beta= 0.30
     Davidson diagonalization with overlap
     ethr =  2.19E-03,  avg # of iterations =  4.6

     negative rho (up, down):  3.343E-05 0.000E+00

     total cpu time spent up to now is       23.1 secs

     total energy              =    -451.46977306 Ry
     estimated scf accuracy    <       0.67849067 Ry

     iteration #  3     ecut=    60.00 Ry     beta= 0.30
     Davidson diagonalization with overlap
     ethr =  6.52E-04,  avg # of iterations =  7.1

     negative rho (up, down):  4.175E-05 0.000E+00

     total cpu time spent up to now is       33.7 secs

     total energy              =    -451.49288569 Ry
     estimated scf accuracy    <       0.09938073 Ry

     iteration #  4     ecut=    60.00 Ry     beta= 0.30
     Davidson diagonalization with overlap
     ethr =  9.56E-05,  avg # of iterations =  5.7

     negative rho (up, down):  5.187E-05 0.000E+00

     total cpu time spent up to now is       43.3 secs

     total energy              =    -451.50036006 Ry
     estimated scf accuracy    <       0.00821355 Ry

     iteration #  5     ecut=    60.00 Ry     beta= 0.30
     Davidson diagonalization with overlap
     ethr =  7.90E-06,  avg # of iterations =  6.3

     negative rho (up, down):  4.470E-05 0.000E+00

     total cpu time spent up to now is       54.8 secs

     total energy              =    -451.50149301 Ry
     estimated scf accuracy    <       0.00110250 Ry

     iteration #  6     ecut=    60.00 Ry     beta= 0.30
     Davidson diagonalization with overlap
     ethr =  1.06E-06,  avg # of iterations =  5.6

     negative rho (up, down):  4.573E-05 0.000E+00

     total cpu time spent up to now is       65.0 secs

     total energy              =    -451.50167762 Ry
     estimated scf accuracy    <       0.00026969 Ry

     iteration #  7     ecut=    60.00 Ry     beta= 0.30
     Davidson diagonalization with overlap
     ethr =  2.59E-07,  avg # of iterations =  2.4

     negative rho (up, down):  4.470E-05 0.000E+00

     total cpu time spent up to now is       73.0 secs

     total energy              =    -451.50171617 Ry
     estimated scf accuracy    <       0.00002866 Ry

     iteration #  8     ecut=    60.00 Ry     beta= 0.30
     Davidson diagonalization with overlap
     ethr =  2.76E-08,  avg # of iterations =  3.3

     negative rho (up, down):  4.444E-05 0.000E+00

     total cpu time spent up to now is       81.9 secs

     total energy              =    -451.50172085 Ry
     estimated scf accuracy    <       0.00000437 Ry

     iteration #  9     ecut=    60.00 Ry     beta= 0.30
     Davidson diagonalization with overlap
     ethr =  4.21E-09,  avg # of iterations =  3.8

     negative rho (up, down):  4.440E-05 0.000E+00

     total cpu time spent up to now is       91.7 secs

     total energy              =    -451.50172158 Ry
     estimated scf accuracy    <       0.00000119 Ry

     iteration # 10     ecut=    60.00 Ry     beta= 0.30
     Davidson diagonalization with overlap
     ethr =  1.15E-09,  avg # of iterations =  2.1

     negative rho (up, down):  4.447E-05 0.000E+00

     total cpu time spent up to now is       99.4 secs

     total energy              =    -451.50172160 Ry
     estimated scf accuracy    <       0.00000027 Ry

     iteration # 11     ecut=    60.00 Ry     beta= 0.30
     Davidson diagonalization with overlap
     ethr =  2.61E-10,  avg # of iterations =  2.4

     negative rho (up, down):  4.459E-05 0.000E+00

     total cpu time spent up to now is      108.0 secs

     total energy              =    -451.50172169 Ry
     estimated scf accuracy    <       0.00000004 Ry

     iteration # 12     ecut=    60.00 Ry     beta= 0.30
     Davidson diagonalization with overlap
     ethr =  4.13E-11,  avg # of iterations =  3.6

     negative rho (up, down):  4.503E-05 0.000E+00

     total cpu time spent up to now is      117.4 secs

     End of self-consistent calculation

          k = 0.0000-0.0000 0.0000 ( 19679 PWs)   bands (ev):

   -17.5541 -15.6068 -13.2278 -13.2278 -13.1002 -12.7760 -12.5888 -11.3981
   -11.1181 -11.1181  -9.3207  -9.3183  -9.3183  -8.6488  -8.6488  -8.5236
    -7.8791  -7.8417  -7.8417  -7.1992  -7.1992  -5.8077  -5.5534  -5.0880
    -5.0880  -4.9786  -3.5366  -3.5366  -3.2849  -3.2849  -2.2896  -2.2857
    -2.1409  -2.1409  -2.0670  -2.0542  -2.0523  -2.0487  -2.0487  -1.0599
    -1.0599  -0.3061   0.0378   0.1149   0.3655   0.3655   0.4040   0.8575
     1.3086   1.9814   2.0548   2.1399   5.4322   5.9414   7.7166   7.7166
     7.8455   7.9411   8.0324   8.7923   8.9251   8.9780

          k = 0.0000-0.2000 0.0000 ( 19607 PWs)   bands (ev):

   -17.3852 -15.6590 -14.0761 -13.0707 -13.0647 -13.0647 -11.4463 -11.3651
   -11.1824 -11.1824 -10.2408 -10.2408  -9.3561  -8.0689  -8.0689  -7.9949
    -7.8119  -7.5095  -7.5095  -7.0818  -7.0818  -6.0530  -5.3540  -5.1699
    -5.1699  -4.6549  -3.5740  -3.5740  -3.3307  -2.9217  -2.9217  -2.3453
    -2.2658  -2.2658  -2.1487  -2.0498  -1.8580  -1.8580  -1.5715  -1.0999
    -1.0999  -0.5331  -0.4792  -0.3032  -0.3032  -0.0385   0.3701   0.9534
     1.1667   1.6122   2.2266   2.4449   5.6592   6.1492   7.5533   7.5533
     7.7768   8.3349   8.5207   8.5267   8.8004   9.1669

          k = 0.0000-0.4000 0.0000 ( 19598 PWs)   bands (ev):

   -16.8942 -16.1732 -14.2873 -13.7490 -12.5924 -12.5924 -11.7944 -11.7944
   -11.2262 -10.8739 -10.5807 -10.5807  -8.7086  -8.3684  -8.3684  -7.8471
    -7.2491  -6.9947  -6.9947  -6.6412  -6.6412  -6.0456  -5.0887  -4.7245
    -4.7245  -4.4403  -4.4102  -3.5015  -3.5015  -3.4099  -2.8742  -2.8742
    -2.2115  -2.2115  -1.9356  -1.8245  -1.8245  -1.7437  -1.4362  -1.4362
    -1.4274  -1.1416  -1.0192  -1.0192  -0.6916  -0.3053   0.6137   0.9142
     1.0212   1.0770   2.5372   2.6078   6.2878   6.6843   7.3027   7.3627
     7.3702   7.3702   8.1952   8.4234   9.1331   9.2767

          k = 0.2000-0.2000 0.0000 ( 19577 PWs)   bands (ev):

   -17.2022 -15.4776 -14.5262 -13.9042 -12.9003 -12.8943 -11.6617 -11.2811
   -11.1973 -10.7633 -10.6478  -9.6680  -9.2583  -8.7612  -8.2884  -7.8619
    -7.6680  -7.5581  -7.0554  -6.2643  -5.9773  -5.9742  -5.4617  -5.2830
    -5.1668  -4.5519  -3.8468  -3.5426  -3.2640  -3.2236  -2.6479  -2.6026
    -2.3246  -2.2636  -2.0696  -1.9214  -1.9207  -1.6927  -1.6546  -1.1723
    -1.1628  -0.9450  -0.6773  -0.4135  -0.3781  -0.0208   0.1077   0.3726
     1.2429   1.2865   1.4842   1.5992   5.8257   6.3505   7.3239   7.7943
     7.9598   8.5411   8.5735   8.6278   8.6700   8.8107

          k = 0.2000-0.4000 0.0000 ( 19611 PWs)   bands (ev):

   -16.7119 -15.9914 -14.1144 -14.0447 -13.5769 -13.3339 -11.8296 -11.2565
   -11.0637 -10.7136 -10.5138 -10.1436  -8.6075  -8.2423  -8.1984  -7.7518
    -7.4351  -7.1041  -7.0776  -5.9289  -5.9172  -5.5161  -5.2602  -4.9774
    -4.5185  -4.3706  -4.3359  -3.7332  -3.7097  -3.3462  -2.8839  -2.7970
    -2.5880  -2.5563  -2.2714  -2.1604  -1.8402  -1.8179  -1.5863  -1.2687
    -1.2547  -0.9695  -0.8469  -0.5720  -0.5517  -0.5104  -0.2200  -0.1453
     1.1592   1.3147   1.7306   1.7683   6.4464   6.8779   7.1715   7.4441
     7.4573   7.5355   8.2031   8.5465   8.8389   8.9445

          k = 0.4000-0.4000 0.0000 ( 19634 PWs)   bands (ev):

   -16.1673 -15.4486 -15.2701 -14.5543 -13.6025 -13.0674 -12.7819 -12.2495
   -10.5901 -10.2486  -9.9126  -9.6681  -8.6345  -8.4133  -7.9617  -7.5833
    -6.7116  -6.4059  -5.9783  -5.7373  -5.6134  -5.3290  -4.9606  -4.8217
    -4.7572  -4.3599  -4.2488  -4.1701  -4.0992  -3.9932  -3.1914  -3.1846
    -2.9013  -2.4065  -2.2419  -2.0685  -1.9901  -1.8079  -1.6690  -1.6044
    -1.4053  -1.2374  -0.8195  -0.6916  -0.4852  -0.4784  -0.0314   0.1568
     0.2013   0.2251   0.9414   0.9521   6.8052   7.1394   7.2287   7.3766
     7.5768   7.9258   8.0784   8.1369   8.3259   8.5782

          k =-0.2000 0.0000 0.0000 ( 19607 PWs)   bands (ev):

   -17.3709 -15.4260 -14.6913 -12.9341 -12.9032 -12.6061 -12.4133 -11.2398
   -11.2327 -10.4881 -10.3548  -9.8896  -9.2323  -8.9263  -8.7211  -8.3773
    -7.7295  -7.4102  -6.8888  -6.6589  -6.4733  -5.7443  -5.4822  -5.2169
    -5.2119  -4.8475  -3.7104  -3.6599  -3.4232  -3.1934  -2.3975  -2.2831
    -2.2349  -2.1728  -2.0576  -2.0104  -1.8789  -1.8249  -1.7271  -1.1590
    -0.9238  -0.8300  -0.4315  -0.1836  -0.0988  -0.0680   0.7985   0.8812
     1.2319   1.2582   1.3315   1.3704   5.6020   6.1451   7.4661   7.8697
     8.0544   8.2684   8.2900   8.5443   8.7464   8.9459

          k =-0.4000 0.0000 0.0000 ( 19598 PWs)   bands (ev):

   -16.8238 -15.9224 -14.8880 -14.0112 -12.4412 -12.1051 -11.8910 -11.6501
   -11.3136 -11.0366 -10.7414  -9.9446  -9.5685  -9.0950  -7.9765  -7.6214
    -7.3040  -6.7168  -6.6905  -6.5346  -5.7560  -5.5980  -5.3593  -5.3472
    -4.6616  -4.3961  -4.1705  -3.6217  -3.5712  -3.5379  -2.5617  -2.3512
    -2.3193  -2.2044  -1.9055  -1.8879  -1.6078  -1.5835  -1.4747  -1.3830
    -1.1041  -0.9520  -0.7456  -0.5968  -0.4614  -0.4045  -0.1197  -0.0097
     0.1651   0.8461   0.9852   0.9895   6.0943   6.6085   6.9508   7.1801
     8.0060   8.0490   8.6031   8.6203   8.9316   9.3858

          k =-0.4000 0.2000 0.0000 ( 19611 PWs)   bands (ev):

   -16.6559 -15.7556 -14.9371 -14.0516 -13.3947 -12.5751 -12.3963 -11.5914
   -10.7946 -10.6969 -10.0410  -9.8777  -9.4829  -9.0832  -7.5248  -7.5238
    -7.2760  -6.9060  -6.4263  -6.2153  -5.8771  -5.5541  -5.2033  -5.2027
    -4.7214  -4.4603  -4.1509  -3.6759  -3.4949  -3.3192  -2.8682  -2.5365
    -2.4128  -2.3297  -2.2833  -2.0340  -1.8744  -1.7676  -1.4942  -1.3353
    -1.0766  -1.0367  -0.7326  -0.6269  -0.5437  -0.5147  -0.0467  -0.0334
     0.0845   0.5361   0.9097   0.9430   6.2885   6.8216   7.0626   7.3103
     8.1321   8.2163   8.2194   8.4929   8.6640   9.2406

     the Fermi energy is     3.3311 ev

!    total energy              =    -451.50172170 Ry
     estimated scf accuracy    <          6.2E-09 Ry
     smearing contrib. (-TS)   =       0.00000000 Ry
     internal energy E=F+TS    =    -451.50172170 Ry

     The total energy is F=E-TS. E is the sum of the following terms:
     one-electron contribution =   -2237.13116640 Ry
     hartree contribution      =    1159.54866253 Ry
     xc contribution           =    -117.04748402 Ry
     ewald contribution        =     891.03704524 Ry
     one-center paw contrib.   =    -147.90877906 Ry

     convergence has been achieved in  12 iterations

     negative rho (up, down):  4.503E-05 0.000E+00

     Forces acting on atoms (cartesian axes, Ry/au):

     atom    1 type  1   force =     0.00000000   -0.05399748   -0.08464480
     atom    2 type  1   force =     0.00000000    0.15425938    0.07979595
     atom    3 type  1   force =     0.00000005    0.00000000   -0.09119799
     atom    4 type  1   force =     0.00000000    0.00000000   -0.09442750
     atom    5 type  1   force =     0.00000000   -0.15425936   -0.07979596
     atom    6 type  1   force =     0.00000001    0.05399748    0.08464487
     atom    7 type  1   force =     0.00000000    0.05399748   -0.08464480
     atom    8 type  1   force =     0.00000000   -0.15425938    0.07979595
     atom    9 type  1   force =    -0.00000001    0.00000000    0.09442735
     atom   10 type  1   force =     0.00000000   -0.00000000    0.09119789
     atom   11 type  1   force =     0.00000000    0.15425936   -0.07979596
     atom   12 type  1   force =     0.00000001   -0.05399748    0.08464487
     atom   13 type  2   force =     0.00000000   -0.01155989    0.00613686
     atom   14 type  2   force =     0.00000000    0.01155989    0.00613686
     atom   15 type  2   force =    -0.00000001    0.01155989   -0.00613679
     atom   16 type  2   force =    -0.00000001   -0.01155989   -0.00613679
     atom   17 type  1   force =     0.00000000   -0.05399749   -0.08464482
     atom   18 type  1   force =    -0.00000000    0.15425938    0.07979595
     atom   19 type  1   force =    -0.00000005    0.00000000   -0.09119799
     atom   20 type  1   force =     0.00000000    0.00000000   -0.09442745
     atom   21 type  1   force =     0.00000000   -0.15425937   -0.07979594
     atom   22 type  1   force =    -0.00000001    0.05399748    0.08464487
     atom   23 type  1   force =     0.00000000    0.05399749   -0.08464482
     atom   24 type  1   force =    -0.00000000   -0.15425938    0.07979595
     atom   25 type  1   force =     0.00000001   -0.00000000    0.09442735
     atom   26 type  1   force =     0.00000000   -0.00000000    0.09119785
     atom   27 type  1   force =     0.00000000    0.15425937   -0.07979594
     atom   28 type  1   force =    -0.00000001   -0.05399748    0.08464487
     atom   29 type  2   force =     0.00000000   -0.01155989    0.00613685
     atom   30 type  2   force =     0.00000000    0.01155989    0.00613685
     atom   31 type  2   force =     0.00000001    0.01155989   -0.00613679
     atom   32 type  2   force =     0.00000001   -0.01155989   -0.00613679

     Total force =     0.626303     Total SCF correction =     0.000196

     BFGS Geometry Optimization
     Energy error            =      3.9E-01 Ry
     Gradient error          =      1.5E-01 Ry/Bohr

     number of scf cycles    =   1
     number of bfgs steps    =   0

     energy             new  =    -451.5017217022 Ry

     new trust radius        =       0.1736759907 bohr
     new conv_thr            =       0.0000000100 Ry


ATOMIC_POSITIONS (angstrom)
C                0.0000000000       -0.8285742337        9.4393835715
C                1.2634728911       -1.1818423407        8.6329916161
C                1.2634729143        0.0000000000        7.6490952709
C                0.0000000000        0.0000000000        6.7539760372
C                0.0000000000       -1.3451034253        5.8683084684
C                1.2634728970       -1.6983715451        5.0619165539
C                0.0000000000       -4.2253173363        9.4393835715
C                1.2634728911       -3.8720492293        8.6329916161
C                1.2634728867       -2.5269457800        7.7473239743
C                0.0000000000       -2.5269457800        6.8522047628
C                0.0000000000       -3.7087881447        5.8683084684
C                1.2634728970       -3.3555200149        5.0619165539
H                0.0000000000       -1.1979819011       10.5045475659
H                0.0000000000       -3.8559096689       10.5045475659
H                1.2634728861       -1.3289638790        3.9967525524
H                1.2634728861       -3.7249276910        3.9967525524
C                2.5269457800       -0.8285742416        9.4393835603
C                3.7904186789       -1.1818423407        8.6329916161
C                3.7904186557        0.0000000000        7.6490952709
C                2.5269457800        0.0000000000        6.7539760664
C                2.5269457800       -1.3451034331        5.8683084777
C                3.7904186730       -1.6983715451        5.0619165539
C                2.5269457800       -4.2253173284        9.4393835603
C                3.7904186789       -3.8720492293        8.6329916161
C                3.7904186833       -2.5269457800        7.7473239743
C                2.5269457800       -2.5269457800        6.8522047459
C                2.5269457800       -3.7087881369        5.8683084777
C                3.7904186730       -3.3555200149        5.0619165539
H                2.5269457800       -1.1979818999       10.5045475601
H                2.5269457800       -3.8559096701       10.5045475601
H                3.7904186839       -1.3289638790        3.9967525524
H                3.7904186839       -3.7249276910        3.9967525524



     Writing config-only to output data dir ./tmp/slab.save/ :
     XML data file
     NEW-OLD atomic charge density approx. for the potential

     Check: negative core charge=   -0.000002

     negative rho (up, down):  2.868E-05 0.000E+00

     total cpu time spent up to now is      120.2 secs

     Self-consistent Calculation

     iteration #  1     ecut=    60.00 Ry     beta= 0.30
     Davidson diagonalization with overlap
     c_bands:  1 eigenvalues not converged
     c_bands:  1 eigenvalues not converged
     c_bands:  1 eigenvalues not converged
     c_bands:  1 eigenvalues not converged
     c_bands:  1 eigenvalues not converged
     c_bands:  1 eigenvalues not converged
     c_bands:  1 eigenvalues not converged
     c_bands:  2 eigenvalues not converged
     ethr =  1.00E-06,  avg # of iterations = 19.1

     negative rho (up, down):  3.421E-05 0.000E+00

     total cpu time spent up to now is      383.3 secs

     total energy              =    -451.70675917 Ry
     estimated scf accuracy    <       0.03013659 Ry

     iteration #  2     ecut=    60.00 Ry     beta= 0.30
     Davidson diagonalization with overlap
     ethr =  2.90E-05,  avg # of iterations =  1.4

     negative rho (up, down):  4.554E-05 0.000E+00

     total cpu time spent up to now is      390.1 secs

     total energy              =    -451.70674432 Ry
     estimated scf accuracy    <       0.00867065 Ry

     iteration #  3     ecut=    60.00 Ry     beta= 0.30
     Davidson diagonalization with overlap
     ethr =  8.34E-06,  avg # of iterations =  2.8

     negative rho (up, down):  6.417E-05 0.000E+00

     total cpu time spent up to now is      397.9 secs

     total energy              =    -451.70746479 Ry
     estimated scf accuracy    <       0.00148990 Ry

     iteration #  4     ecut=    60.00 Ry     beta= 0.30
     Davidson diagonalization with overlap
     ethr =  1.43E-06,  avg # of iterations =  2.4

     negative rho (up, down):  6.087E-05 0.000E+00

     total cpu time spent up to now is      405.2 secs

     total energy              =    -451.70759292 Ry
     estimated scf accuracy    <       0.00008216 Ry

     iteration #  5     ecut=    60.00 Ry     beta= 0.30
     Davidson diagonalization with overlap
     ethr =  7.90E-08,  avg # of iterations =  4.0

     negative rho (up, down):  5.625E-05 0.000E+00

     total cpu time spent up to now is      415.2 secs

     total energy              =    -451.70760965 Ry
     estimated scf accuracy    <       0.00002106 Ry

     iteration #  6     ecut=    60.00 Ry     beta= 0.30
     Davidson diagonalization with overlap
     ethr =  2.02E-08,  avg # of iterations =  2.3

     negative rho (up, down):  5.430E-05 0.000E+00

     total cpu time spent up to now is      423.7 secs

     total energy              =    -451.70761392 Ry
     estimated scf accuracy    <       0.00000371 Ry

     iteration #  7     ecut=    60.00 Ry     beta= 0.30
     Davidson diagonalization with overlap
     ethr =  3.56E-09,  avg # of iterations =  2.6

     negative rho (up, down):  5.268E-05 0.000E+00

     total cpu time spent up to now is      432.3 secs

     total energy              =    -451.70761450 Ry
     estimated scf accuracy    <       0.00000108 Ry

     iteration #  8     ecut=    60.00 Ry     beta= 0.30
     Davidson diagonalization with overlap
     ethr =  1.04E-09,  avg # of iterations =  2.0

     negative rho (up, down):  5.224E-05 0.000E+00

     total cpu time spent up to now is      439.5 secs

     total energy              =    -451.70761454 Ry
     estimated scf accuracy    <       0.00000020 Ry

     iteration #  9     ecut=    60.00 Ry     beta= 0.30
     Davidson diagonalization with overlap
     ethr =  1.97E-10,  avg # of iterations =  3.6

     negative rho (up, down):  5.207E-05 0.000E+00

     total cpu time spent up to now is      449.7 secs

     total energy              =    -451.70761459 Ry
     estimated scf accuracy    <       0.00000012 Ry

     iteration # 10     ecut=    60.00 Ry     beta= 0.30
     Davidson diagonalization with overlap
     ethr =  1.20E-10,  avg # of iterations =  2.4

     negative rho (up, down):  5.274E-05 0.000E+00

     total cpu time spent up to now is      458.0 secs

     End of self-consistent calculation

          k = 0.0000-0.0000 0.0000 ( 19679 PWs)   bands (ev):

   -17.6380 -16.0577 -13.3216 -13.3216 -12.8408 -12.8081 -12.7723 -11.8507
   -11.4754 -11.4754  -9.0648  -9.0648  -8.9977  -8.7812  -8.7812  -8.4816
    -7.9901  -7.9901  -7.7671  -7.7453  -7.7453  -5.5571  -5.3471  -5.0442
    -4.8730  -4.8730  -3.7177  -3.7177  -3.5166  -3.5166  -2.5957  -2.1555
    -2.1555  -1.9966  -1.9966  -1.9104  -1.8947  -1.8277  -1.5256  -1.2422
    -1.2248  -1.2248   0.1996   0.3953   0.5825   0.6966   0.6966   0.7470
     0.8515   1.0073   1.2923   1.3697   5.4160   5.8982   7.7210   7.9593
     7.9717   8.0487   8.5513   8.5513   8.5757   9.1973

          k = 0.0000-0.2000 0.0000 ( 19607 PWs)   bands (ev):

   -17.4798 -16.0910 -13.9659 -13.1825 -13.1766 -13.1766 -11.7561 -11.5131
   -11.5131 -11.5073 -10.0755 -10.0755  -8.9695  -8.4154  -8.4154  -7.9919
    -7.7058  -7.6760  -7.6760  -7.3900  -7.3900  -5.7910  -5.2005  -4.8865
    -4.8865  -4.6729  -3.7246  -3.7246  -3.1673  -3.1673  -2.9179  -2.4677
    -2.3134  -2.3134  -2.1168  -1.9367  -1.7770  -1.7770  -1.2963  -1.1951
    -1.1951  -0.9647  -0.2023  -0.0619  -0.0619  -0.0260   0.1281   0.5850
     1.0206   1.1955   1.3130   1.5268   5.6387   6.0873   7.5527   8.1841
     8.2823   8.3695   8.3695   8.4732   8.5430   8.9711

          k = 0.0000-0.4000 0.0000 ( 19598 PWs)   bands (ev):

   -17.0317 -16.4339 -14.3258 -13.8857 -12.8056 -12.8056 -11.8483 -11.8483
   -11.4338 -11.0919 -10.5639 -10.5639  -8.8149  -8.8149  -8.3531  -7.6978
    -7.2137  -7.2137  -7.1264  -6.9473  -6.9473  -5.9051  -5.0775  -4.4668
    -4.4668  -4.4021  -3.9469  -3.3674  -3.3674  -3.1624  -3.0644  -3.0644
    -2.1085  -2.0505  -2.0505  -1.8684  -1.8684  -1.6696  -1.6235  -1.5406
    -1.5406  -1.0544  -1.0544  -0.9871  -0.5527  -0.1428  -0.0203   0.1581
     0.8134   1.3151   1.5636   1.6559   6.2668   6.6270   7.2490   7.2894
     7.9009   8.1093   8.1094   8.1975   8.7649   8.8098

          k = 0.2000-0.2000 0.0000 ( 19577 PWs)   bands (ev):

   -17.2971 -15.9114 -14.6199 -13.7919 -13.3367 -13.0112 -11.5920 -11.3988
   -11.3425 -10.9224 -10.6615  -9.9480  -8.9142  -8.8683  -8.7488  -7.8530
    -7.6962  -7.5581  -7.0862  -6.2524  -6.0094  -5.7085  -5.5811  -5.1247
    -5.0167  -4.5517  -4.3511  -3.6108  -3.5170  -2.9805  -2.8215  -2.7029
    -2.3821  -2.2386  -2.1004  -2.0639  -1.8423  -1.5730  -1.5377  -1.1971
    -1.0930  -0.9527  -0.7339  -0.3399  -0.3279  -0.1082   0.0866   0.3834
     0.4428   0.6255   0.9808   1.4283   5.8044   6.2832   7.7448   7.8850
     8.1595   8.4507   8.5877   8.6864   8.8849   8.8920

          k = 0.2000-0.4000 0.0000 ( 19611 PWs)   bands (ev):

   -16.8497 -16.2532 -14.1858 -14.1516 -13.7128 -13.6183 -11.7299 -11.2885
   -11.2712 -10.9321 -10.6567 -10.3004  -8.5507  -8.4561  -8.2548  -7.7769
    -7.6000  -7.4029  -6.9729  -5.8225  -5.7686  -5.4755  -5.1658  -4.9616
    -4.6444  -4.3036  -4.1140  -3.8718  -3.5447  -3.2432  -3.0147  -2.9832
    -2.6793  -2.5653  -2.4605  -1.9376  -1.7445  -1.7211  -1.5817  -1.4019
    -1.1289  -1.1086  -0.8146  -0.7693  -0.7378  -0.5519  -0.5248  -0.0976
     0.8364   0.8554   0.8990   1.4142   6.4319   6.8213   7.4151   7.4484
     7.7429   7.9565   7.9877   8.3068   8.7373   8.8973

          k = 0.4000-0.4000 0.0000 ( 19634 PWs)   bands (ev):

   -16.3063 -15.7135 -15.4102 -14.8245 -13.6334 -13.1987 -12.7902 -12.3623
   -10.7933 -10.4629 -10.0771  -9.8043  -8.6838  -8.1095  -8.1091  -7.4573
    -6.5518  -6.2211  -6.1241  -5.7361  -5.4574  -5.3150  -5.1306  -4.9674
    -4.7508  -4.4138  -4.3719  -4.1445  -4.0202  -3.8425  -3.4685  -3.1286
    -2.9352  -2.8100  -2.5818  -2.5440  -2.1988  -2.0259  -1.4938  -1.4586
    -1.2652  -1.1092  -1.0529  -0.7175  -0.7108  -0.6666  -0.1781  -0.1665
    -0.0195   0.2675   0.6168   1.0471   6.8107   7.2608   7.2881   7.4895
     7.6381   7.7808   8.0855   8.1025   8.4051   8.4487

          k =-0.2000 0.0000 0.0000 ( 19607 PWs)   bands (ev):

   -17.4550 -15.8784 -14.7736 -13.3300 -12.6717 -12.6367 -12.5996 -11.6880
   -11.1731 -10.4867 -10.2031 -10.0841  -9.3424  -9.1892  -8.9061  -8.3286
    -7.6158  -7.2062  -6.8844  -6.7037  -6.6559  -5.4998  -5.4676  -5.2646
    -5.1225  -4.9001  -4.2508  -3.7429  -3.6541  -3.2356  -2.8132  -2.4337
    -2.2156  -1.9830  -1.8463  -1.8219  -1.7642  -1.7051  -1.6685  -1.2829
    -1.0322  -0.9736  -0.3517  -0.2272   0.0867   0.0932   0.1799   0.2973
     0.8307   1.0648   1.1150   1.1795   5.5812   6.0910   7.8313   8.0394
     8.1092   8.2246   8.3087   8.6212   8.9023   9.2014

          k =-0.4000 0.0000 0.0000 ( 19598 PWs)   bands (ev):

   -16.9085 -16.0069 -15.3439 -14.4689 -12.1675 -12.1283 -12.0845 -11.3416
   -11.3139 -11.2373 -11.2029 -10.4071  -9.4968  -8.7919  -7.9139  -7.7975
    -7.1858  -6.7610  -6.6135  -6.3941  -5.6614  -5.5013  -5.4883  -5.1212
    -4.6047  -4.4611  -4.4490  -4.0238  -3.7017  -3.6771  -3.4324  -2.8519
    -2.5049  -2.2802  -1.8581  -1.7478  -1.6188  -1.4709  -1.3635  -1.3231
    -1.2450  -0.9457  -0.9137  -0.8123  -0.5634  -0.5517  -0.4442  -0.1619
     0.2156   0.5279   1.1842   1.2522   6.0603   6.5075   6.9003   7.0971
     8.5255   8.7296   8.8464   9.0790   9.4262   9.4292

          k =-0.4000 0.2000 0.0000 ( 19611 PWs)   bands (ev):

   -16.7513 -15.8511 -15.3757 -14.4969 -13.2740 -12.5020 -12.4280 -11.6760
   -11.1063 -10.8510 -10.3381 -10.0566  -9.3413  -8.7141  -7.7765  -7.5112
    -7.1560  -6.7457  -6.4477  -6.1090  -5.6869  -5.5426  -5.3467  -5.0683
    -4.7696  -4.6322  -4.1942  -4.0901  -3.6090  -3.5796  -3.0338  -2.8306
    -2.7602  -2.6287  -2.2591  -1.8443  -1.8337  -1.7343  -1.6784  -1.2747
    -1.1354  -1.1320  -0.7733  -0.7222  -0.6288  -0.5852  -0.2707  -0.2418
    -0.2077   0.4859   0.7820   1.1604   6.2614   6.7165   7.0423   7.2928
     8.1006   8.6876   8.7304   8.8612   8.9143   8.9583

     the Fermi energy is     3.3427 ev

!    total energy              =    -451.70761465 Ry
     estimated scf accuracy    <          7.4E-09 Ry
     smearing contrib. (-TS)   =       0.00000000 Ry
     internal energy E=F+TS    =    -451.70761465 Ry

     The total energy is F=E-TS. E is the sum of the following terms:
     one-electron contribution =   -2250.40382079 Ry
     hartree contribution      =    1165.96099792 Ry
     xc contribution           =    -117.20135061 Ry
     ewald contribution        =     897.84734186 Ry
     one-center paw contrib.   =    -147.91078303 Ry

     convergence has been achieved in  10 iterations

     negative rho (up, down):  5.274E-05 0.000E+00

     Forces acting on atoms (cartesian axes, Ry/au):

     atom    1 type  1   force =     0.00000000    0.00782995    0.02513689
     atom    2 type  1   force =     0.00000000   -0.00451399   -0.02132323
     atom    3 type  1   force =    -0.00000005    0.00000000   -0.06795766
     atom    4 type  1   force =     0.00000000    0.00000000   -0.07853334
     atom    5 type  1   force =     0.00000000    0.00451396    0.02132321
     atom    6 type  1   force =    -0.00000001   -0.00782993   -0.02513693
     atom    7 type  1   force =     0.00000000   -0.00782995    0.02513689
     atom    8 type  1   force =     0.00000000    0.00451399   -0.02132323
     atom    9 type  1   force =     0.00000002   -0.00000000    0.07853343
     atom   10 type  1   force =     0.00000000   -0.00000000    0.06795772
     atom   11 type  1   force =     0.00000000   -0.00451396    0.02132321
     atom   12 type  1   force =    -0.00000001    0.00782993   -0.02513693
     atom   13 type  2   force =     0.00000000    0.00025446   -0.03266563
     atom   14 type  2   force =     0.00000000   -0.00025446   -0.03266563
     atom   15 type  2   force =     0.00000000   -0.00025447    0.03266563
     atom   16 type  2   force =     0.00000000    0.00025447    0.03266563
     atom   17 type  1   force =     0.00000000    0.00782994    0.02513690
     atom   18 type  1   force =    -0.00000000   -0.00451399   -0.02132323
     atom   19 type  1   force =     0.00000005    0.00000000   -0.06795766
     atom   20 type  1   force =     0.00000000    0.00000000   -0.07853342
     atom   21 type  1   force =     0.00000000    0.00451399    0.02132320
     atom   22 type  1   force =     0.00000001   -0.00782993   -0.02513693
     atom   23 type  1   force =     0.00000000   -0.00782994    0.02513690
     atom   24 type  1   force =    -0.00000000    0.00451399   -0.02132323
     atom   25 type  1   force =    -0.00000002    0.00000000    0.07853343
     atom   26 type  1   force =     0.00000000   -0.00000000    0.06795777
     atom   27 type  1   force =     0.00000000   -0.00451399    0.02132320
     atom   28 type  1   force =     0.00000001    0.00782993   -0.02513693
     atom   29 type  2   force =     0.00000000    0.00025447   -0.03266563
     atom   30 type  2   force =     0.00000000   -0.00025447   -0.03266563
     atom   31 type  2   force =    -0.00000000   -0.00025447    0.03266563
     atom   32 type  2   force =    -0.00000000    0.00025447    0.03266563

     Total force =     0.247034     Total SCF correction =     0.000210
     Energy error            =      2.1E-01 Ry
     Gradient error          =      7.9E-02 Ry/Bohr

     number of scf cycles    =   2
     number of bfgs steps    =   1

     energy             old  =    -451.5017217022 Ry
     energy             new  =    -451.7076146531 Ry

     CASE: energy            _new < energy            _old

     new trust radius        =       0.0968963473 bohr
     new conv_thr            =       0.0000000100 Ry


ATOMIC_POSITIONS (angstrom)
C                0.0000000000       -0.8290126699        9.4457408038
C                1.2634728920       -1.1708115758        8.6282985408
C                1.2634728906        0.0000000000        7.6038945573
C                0.0000000000        0.0000000000        6.7027007376
C                0.0000000000       -1.3561342041        5.8730015312
C                1.2634728954       -1.6979330953        5.0555593005
C                0.0000000000       -4.2248789001        9.4457408038
C                1.2634728920       -3.8830799942        8.6282985408
C                1.2634728950       -2.5269457800        7.7985993131
C                0.0000000000       -2.5269457800        6.8974055011
C                0.0000000000       -3.6977573659        5.8730015312
C                1.2634728954       -3.3559584647        5.0555593005
H                0.0000000000       -1.1988544218       10.4871950323
H                0.0000000000       -3.8550371482       10.4871950323
H                1.2634728871       -1.3280913599        4.0141050899
H                1.2634728871       -3.7258002101        4.0141050899
C                2.5269457800       -0.8290126851        9.4457408001
C                3.7904186780       -1.1708115758        8.6282985408
C                3.7904186794        0.0000000000        7.6038945573
C                2.5269457800        0.0000000000        6.7027007278
C                2.5269457800       -1.3561341977        5.8730015382
C                3.7904186746       -1.6979330953        5.0555593005
C                2.5269457800       -4.2248788849        9.4457408001
C                3.7904186780       -3.8830799942        8.6282985408
C                3.7904186750       -2.5269457800        7.7985993131
C                2.5269457800       -2.5269457800        6.8974055094
C                2.5269457800       -3.6977573723        5.8730015382
C                3.7904186746       -3.3559584647        5.0555593005
H                2.5269457800       -1.1988544189       10.4871950237
H                2.5269457800       -3.8550371511       10.4871950237
H                3.7904186829       -1.3280913599        4.0141050899
H                3.7904186829       -3.7258002101        4.0141050899



     Writing config-only to output data dir ./tmp/slab.save/ :
     XML data file
     NEW-OLD atomic charge density approx. for the potential

     Check: negative core charge=   -0.000002

     negative rho (up, down):  5.405E-05 0.000E+00

     total cpu time spent up to now is      461.0 secs

     Self-consistent Calculation

     iteration #  1     ecut=    60.00 Ry     beta= 0.30
     Davidson diagonalization with overlap
     ethr =  1.00E-06,  avg # of iterations = 11.7

     negative rho (up, down):  5.658E-05 0.000E+00

     total cpu time spent up to now is      484.8 secs

     total energy              =    -451.75175375 Ry
     estimated scf accuracy    <       0.00841569 Ry

     iteration #  2     ecut=    60.00 Ry     beta= 0.30
     Davidson diagonalization with overlap
     ethr =  8.09E-06,  avg # of iterations =  1.9

     negative rho (up, down):  5.980E-05 0.000E+00

     total cpu time spent up to now is      492.1 secs

     total energy              =    -451.75184992 Ry
     estimated scf accuracy    <       0.00195092 Ry

     iteration #  3     ecut=    60.00 Ry     beta= 0.30
     Davidson diagonalization with overlap
     ethr =  1.88E-06,  avg # of iterations =  4.8

     negative rho (up, down):  6.213E-05 0.000E+00

     total cpu time spent up to now is      501.8 secs

     total energy              =    -451.75213175 Ry
     estimated scf accuracy    <       0.00035002 Ry

     iteration #  4     ecut=    60.00 Ry     beta= 0.30
     Davidson diagonalization with overlap
     ethr =  3.37E-07,  avg # of iterations =  1.9

     negative rho (up, down):  6.212E-05 0.000E+00

     total cpu time spent up to now is      509.0 secs

     total energy              =    -451.75216386 Ry
     estimated scf accuracy    <       0.00003835 Ry

     iteration #  5     ecut=    60.00 Ry     beta= 0.30
     Davidson diagonalization with overlap
     ethr =  3.69E-08,  avg # of iterations =  2.4

     negative rho (up, down):  6.035E-05 0.000E+00

     total cpu time spent up to now is      517.5 secs

     total energy              =    -451.75216668 Ry
     estimated scf accuracy    <       0.00000901 Ry

     iteration #  6     ecut=    60.00 Ry     beta= 0.30
     Davidson diagonalization with overlap
     ethr =  8.66E-09,  avg # of iterations =  3.0

     negative rho (up, down):  5.972E-05 0.000E+00

     total cpu time spent up to now is      526.4 secs

     total energy              =    -451.75216849 Ry
     estimated scf accuracy    <       0.00000160 Ry

     iteration #  7     ecut=    60.00 Ry     beta= 0.30
     Davidson diagonalization with overlap
     ethr =  1.54E-09,  avg # of iterations =  2.4

     negative rho (up, down):  5.930E-05 0.000E+00

     total cpu time spent up to now is      535.2 secs

     total energy              =    -451.75216858 Ry
     estimated scf accuracy    <       0.00000048 Ry

     iteration #  8     ecut=    60.00 Ry     beta= 0.30
     Davidson diagonalization with overlap
     ethr =  4.60E-10,  avg # of iterations =  3.7

     negative rho (up, down):  5.917E-05 0.000E+00

     total cpu time spent up to now is      545.3 secs

     total energy              =    -451.75216871 Ry
     estimated scf accuracy    <       0.00000014 Ry

     iteration #  9     ecut=    60.00 Ry     beta= 0.30
     Davidson diagonalization with overlap
     ethr =  1.35E-10,  avg # of iterations =  3.4

     negative rho (up, down):  5.915E-05 0.000E+00

     total cpu time spent up to now is      554.7 secs

     total energy              =    -451.75216875 Ry
     estimated scf accuracy    <       0.00000002 Ry

     iteration # 10     ecut=    60.00 Ry     beta= 0.30
     Davidson diagonalization with overlap
     ethr =  1.71E-11,  avg # of iterations =  2.4

     negative rho (up, down):  5.935E-05 0.000E+00

     total cpu time spent up to now is      563.4 secs

     End of self-consistent calculation

          k = 0.0000-0.0000 0.0000 ( 19679 PWs)   bands (ev):

   -17.4974 -15.8714 -13.1779 -13.1779 -12.8643 -12.7779 -12.6797 -11.7705
   -11.3345 -11.3345  -9.0314  -9.0314  -9.0161  -8.6776  -8.6776  -8.4756
    -7.9780  -7.9780  -7.7684  -7.6954  -7.6954  -5.5644  -5.3938  -4.9949
    -4.8091  -4.8091  -3.7655  -3.7655  -3.4776  -3.4776  -2.4417  -2.2346
    -2.2346  -2.0136  -2.0136  -1.9525  -1.9119  -1.8466  -1.5382  -1.1076
    -1.1076  -1.0482   0.2526   0.4617   0.6409   0.7268   0.7268   0.8809
     0.9870   1.0246   1.3927   1.4689   5.4045   5.9239   7.7710   7.9799
     8.0201   8.1813   8.6219   8.7946   8.7947   9.1312

          k = 0.0000-0.2000 0.0000 ( 19607 PWs)   bands (ev):

   -17.3346 -15.8864 -13.9809 -13.1542 -13.0259 -13.0259 -11.6807 -11.4222
   -11.3543 -11.3543 -10.0693 -10.0693  -9.0228  -8.3839  -8.3839  -7.9871
    -7.6911  -7.5549  -7.5549  -7.3476  -7.3476  -5.8437  -5.1905  -4.8595
    -4.8595  -4.6353  -3.7655  -3.7655  -3.1610  -3.1610  -2.9179  -2.3811
    -2.3811  -2.3090  -2.0975  -1.9715  -1.7509  -1.7509  -1.0973  -1.0973
    -1.0805  -0.9712  -0.2136  -0.0222  -0.0222   0.0075   0.1584   0.6852
     1.0949   1.3426   1.3674   1.6590   5.6287   6.1121   7.6821   8.2748
     8.3357   8.5545   8.5711   8.6180   8.6180   9.0029

          k = 0.0000-0.4000 0.0000 ( 19598 PWs)   bands (ev):

   -16.8692 -16.2349 -14.3457 -13.8730 -12.6216 -12.6216 -11.7133 -11.7133
   -11.3539 -10.9928 -10.5698 -10.5698  -8.8004  -8.8004  -8.4368  -7.7342
    -7.1195  -7.1195  -7.0884  -6.8142  -6.8142  -5.9374  -5.0152  -4.4839
    -4.4839  -4.3995  -3.9562  -3.4376  -3.4376  -3.1819  -3.1819  -3.1202
    -2.0082  -2.0082  -1.9332  -1.7425  -1.7425  -1.6534  -1.5299  -1.5299
    -1.4152  -0.9704  -0.9704  -0.9679  -0.5911  -0.1144   0.0002   0.2221
     0.8243   1.3540   1.7257   1.8130   6.2632   6.6487   7.2698   7.3824
     7.9986   8.3335   8.3548   8.3548   8.8715   8.8883

          k = 0.2000-0.2000 0.0000 ( 19577 PWs)   bands (ev):

   -17.1519 -15.7070 -14.4757 -13.8069 -13.1368 -12.9830 -11.5166 -11.3884
   -11.2569 -10.8291 -10.6457  -9.8129  -8.9203  -8.8281  -8.5980  -7.8485
    -7.7110  -7.5446  -7.0791  -6.2067  -5.9633  -5.7570  -5.5270  -5.1176
    -4.9543  -4.5218  -4.3124  -3.6612  -3.3616  -2.9989  -2.8150  -2.6483
    -2.2916  -2.2148  -2.1991  -2.0436  -1.8567  -1.6118  -1.4391  -1.1560
    -0.9508  -0.9326  -0.7067  -0.3261  -0.2846  -0.0542   0.1171   0.4070
     0.5854   0.7399   1.0420   1.4884   5.7954   6.2980   7.8609   7.9912
     8.2070   8.4969   8.6185   8.7689   8.9093   9.1965

          k = 0.2000-0.4000 0.0000 ( 19611 PWs)   bands (ev):

   -16.6873 -16.0541 -14.1715 -14.0238 -13.7001 -13.4182 -11.7454 -11.2770
   -11.1915 -10.8331 -10.5403 -10.1714  -8.4606  -8.3758  -8.3351  -7.7361
    -7.6351  -7.3462  -6.9369  -5.7983  -5.7611  -5.3924  -5.1675  -4.9070
    -4.6119  -4.3084  -4.0951  -3.8774  -3.6203  -3.1576  -3.1069  -2.8488
    -2.6946  -2.4843  -2.4077  -1.8672  -1.7096  -1.6501  -1.5521  -1.2814
    -1.0846  -1.0843  -0.7756  -0.7338  -0.6967  -0.5533  -0.5272  -0.0865
     0.8994   0.9946   0.9970   1.4595   6.4296   6.8387   7.4323   7.5468
     7.8449   8.0371   8.0561   8.3975   8.7707   9.0034

          k = 0.4000-0.4000 0.0000 ( 19634 PWs)   bands (ev):

   -16.1440 -15.5146 -15.2482 -14.6258 -13.6532 -13.1861 -12.8103 -12.3501
   -10.7148 -10.3648 -10.0035  -9.7136  -8.6096  -8.1612  -8.0003  -7.4715
    -6.5249  -6.2403  -6.0925  -5.6486  -5.4637  -5.2691  -5.1056  -4.8421
    -4.7147  -4.4294  -4.2670  -4.1194  -3.9317  -3.8072  -3.4155  -3.0739
    -2.9544  -2.8121  -2.5958  -2.4790  -2.1656  -1.9653  -1.4475  -1.4233
    -1.2294  -1.0326  -1.0037  -0.6771  -0.6435  -0.6224  -0.1324  -0.1162
    -0.0320   0.3055   0.6094   1.0763   6.8300   7.3039   7.3078   7.5237
     7.6701   7.8512   8.1184   8.1246   8.4229   8.4887

          k =-0.2000 0.0000 0.0000 ( 19607 PWs)   bands (ev):

   -17.3145 -15.6923 -14.6340 -13.1495 -12.6948 -12.6068 -12.5069 -11.6074
   -11.0684 -10.4599 -10.2081  -9.9897  -9.2555  -8.9903  -8.9237  -8.3230
    -7.6180  -7.2579  -6.8258  -6.6910  -6.6312  -5.5037  -5.3836  -5.3124
    -5.0365  -4.8563  -4.1714  -3.8036  -3.5031  -3.2205  -2.7915  -2.2806
    -2.2746  -2.0657  -1.9065  -1.8433  -1.8023  -1.7297  -1.6097  -1.2608
    -0.9336  -0.8861  -0.2879  -0.1231   0.1324   0.2239   0.2292   0.3806
     0.9151   1.0772   1.1356   1.2659   5.5709   6.1056   7.9205   8.0764
     8.1235   8.3312   8.3494   8.6466   9.2098   9.2404

          k =-0.4000 0.0000 0.0000 ( 19598 PWs)   bands (ev):

   -16.7680 -15.8668 -15.1584 -14.2849 -12.1896 -12.0999 -11.9915 -11.3626
   -11.2902 -11.1438 -11.1213 -10.3237  -9.4265  -8.7961  -7.9065  -7.6814
    -7.1912  -6.7293  -6.6225  -6.3463  -5.6121  -5.4953  -5.3712  -5.1656
    -4.5301  -4.3896  -4.3452  -3.8955  -3.7241  -3.6465  -3.3130  -2.7975
    -2.4443  -2.2613  -1.8792  -1.6893  -1.6646  -1.3903  -1.3862  -1.3739
    -1.3530  -0.9151  -0.8506  -0.8384  -0.5502  -0.3979  -0.3532  -0.0896
     0.3034   0.5870   1.1958   1.2661   6.0670   6.5303   6.9298   7.1447
     8.5474   8.8333   8.8609   9.2159   9.4555   9.4674

          k =-0.4000 0.2000 0.0000 ( 19611 PWs)   bands (ev):

   -16.6063 -15.7064 -15.1718 -14.2942 -13.2886 -12.4743 -12.4421 -11.6506
   -11.0311 -10.7640 -10.2646  -9.9635  -9.2898  -8.7495  -7.6429  -7.5013
    -7.1465  -6.7536  -6.4393  -6.0628  -5.6795  -5.5103  -5.2300  -5.0685
    -4.6845  -4.5979  -4.1330  -3.9451  -3.5984  -3.5594  -2.9488  -2.7467
    -2.7456  -2.5621  -2.2672  -1.9023  -1.8399  -1.7916  -1.6521  -1.1745
    -1.1744  -1.0721  -0.7027  -0.6290  -0.5267  -0.5097  -0.2705  -0.2360
    -0.1999   0.5190   0.8114   1.2043   6.2697   6.7379   7.0770   7.3379
     8.1687   8.7207   8.7646   8.9267   8.9334   8.9893

     the Fermi energy is     3.4065 ev

!    total energy              =    -451.75216876 Ry
     estimated scf accuracy    <          9.9E-09 Ry
     smearing contrib. (-TS)   =       0.00000000 Ry
     internal energy E=F+TS    =    -451.75216876 Ry

     The total energy is F=E-TS. E is the sum of the following terms:
     one-electron contribution =   -2249.47160382 Ry
     hartree contribution      =    1165.71826137 Ry
     xc contribution           =    -117.25904607 Ry
     ewald contribution        =     897.16960013 Ry
     one-center paw contrib.   =    -147.90938036 Ry

     convergence has been achieved in  10 iterations

     negative rho (up, down):  5.935E-05 0.000E+00

     Forces acting on atoms (cartesian axes, Ry/au):

     atom    1 type  1   force =     0.00000000    0.02819576   -0.01058391
     atom    2 type  1   force =     0.00000000   -0.01021947   -0.01250480
     atom    3 type  1   force =     0.00000000    0.00000000   -0.02658697
     atom    4 type  1   force =     0.00000000    0.00000000   -0.03480824
     atom    5 type  1   force =     0.00000000    0.01021947    0.01250482
     atom    6 type  1   force =    -0.00000000   -0.02819579    0.01058389
     atom    7 type  1   force =     0.00000000   -0.02819576   -0.01058391
     atom    8 type  1   force =     0.00000000    0.01021947   -0.01250480
     atom    9 type  1   force =    -0.00000000    0.00000000    0.03480827
     atom   10 type  1   force =     0.00000000   -0.00000000    0.02658698
     atom   11 type  1   force =     0.00000000   -0.01021947    0.01250482
     atom   12 type  1   force =    -0.00000000    0.02819579    0.01058389
     atom   13 type  2   force =     0.00000000   -0.00777793   -0.01121241
     atom   14 type  2   force =     0.00000000    0.00777793   -0.01121241
     atom   15 type  2   force =     0.00000000    0.00777793    0.01121238
     atom   16 type  2   force =     0.00000000   -0.00777793    0.01121238
     atom   17 type  1   force =     0.00000000    0.02819577   -0.01058392
     atom   18 type  1   force =    -0.00000000   -0.01021947   -0.01250480
     atom   19 type  1   force =    -0.00000000    0.00000000   -0.02658697
     atom   20 type  1   force =     0.00000000    0.00000000   -0.03480822
     atom   21 type  1   force =     0.00000000    0.01021946    0.01250481
     atom   22 type  1   force =     0.00000000   -0.02819579    0.01058389
     atom   23 type  1   force =     0.00000000   -0.02819577   -0.01058392
     atom   24 type  1   force =    -0.00000000    0.01021947   -0.01250480
     atom   25 type  1   force =     0.00000000   -0.00000000    0.03480827
     atom   26 type  1   force =     0.00000000   -0.00000000    0.02658697
     atom   27 type  1   force =     0.00000000   -0.01021946    0.01250481
     atom   28 type  1   force =     0.00000000    0.02819579    0.01058389
     atom   29 type  2   force =     0.00000000   -0.00777794   -0.01121240
     atom   30 type  2   force =     0.00000000    0.00777794   -0.01121240
     atom   31 type  2   force =    -0.00000000    0.00777793    0.01121238
     atom   32 type  2   force =    -0.00000000   -0.00777793    0.01121238

     Total force =     0.136038     Total SCF correction =     0.000245
     Energy error            =      4.5E-02 Ry
     Gradient error          =      3.5E-02 Ry/Bohr

     number of scf cycles    =   3
     number of bfgs steps    =   2

     energy             old  =    -451.7076146531 Ry
     energy             new  =    -451.7521687576 Ry

     CASE: energy            _new < energy            _old

     new trust radius        =       0.0976941705 bohr
     new conv_thr            =       0.0000000100 Ry


ATOMIC_POSITIONS (angstrom)
C                0.0000000000       -0.8085628625        9.4349025281
C                1.2634728959       -1.1675356904        8.6203519506
C                1.2634728877        0.0000000000        7.5613103517
C                0.0000000000        0.0000000000        6.6510032398
C                0.0000000000       -1.3594100905        5.8809481365
C                1.2634728934       -1.7183829236        5.0663975596
C                0.0000000000       -4.2453287075        9.4349025281
C                1.2634728959       -3.8863558796        8.6203519506
C                1.2634728966       -2.5269457800        7.8502968418
C                0.0000000000       -2.5269457800        6.9399897222
C                0.0000000000       -3.6944814795        5.8809481365
C                1.2634728934       -3.3355086364        5.0663975596
H                0.0000000000       -1.2061927290       10.4721094706
H                0.0000000000       -3.8476988410       10.4721094706
H                1.2634728891       -1.3207530525        4.0291906343
H                1.2634728891       -3.7331385175        4.0291906343
C                2.5269457800       -0.8085628668        9.4349025190
C                3.7904186741       -1.1675356904        8.6203519506
C                3.7904186823        0.0000000000        7.5613103517
C                2.5269457800        0.0000000000        6.6510032347
C                2.5269457800       -1.3594100921        5.8809481320
C                3.7904186766       -1.7183829236        5.0663975596
C                2.5269457800       -4.2453287032        9.4349025190
C                3.7904186741       -3.8863558796        8.6203519506
C                3.7904186734       -2.5269457800        7.8502968418
C                2.5269457800       -2.5269457800        6.9399897259
C                2.5269457800       -3.6944814779        5.8809481320
C                3.7904186766       -3.3355086364        5.0663975596
H                2.5269457800       -1.2061927301       10.4721094699
H                2.5269457800       -3.8476988399       10.4721094699
H                3.7904186809       -1.3207530525        4.0291906343
H                3.7904186809       -3.7331385175        4.0291906343



     Writing config-only to output data dir ./tmp/slab.save/ :
     XML data file
     NEW-OLD atomic charge density approx. for the potential

     Check: negative core charge=   -0.000002

     negative rho (up, down):  6.260E-05 0.000E+00

     total cpu time spent up to now is      566.3 secs

     Self-consistent Calculation

     iteration #  1     ecut=    60.00 Ry     beta= 0.30
     Davidson diagonalization with overlap
     ethr =  1.00E-06,  avg # of iterations = 14.1

     negative rho (up, down):  6.283E-05 0.000E+00

     total cpu time spent up to now is      591.5 secs

     total energy              =    -451.77276721 Ry
     estimated scf accuracy    <       0.00909310 Ry

     iteration #  2     ecut=    60.00 Ry     beta= 0.30
     Davidson diagonalization with overlap
     ethr =  8.74E-06,  avg # of iterations =  1.9

     negative rho (up, down):  6.441E-05 0.000E+00

     total cpu time spent up to now is      598.8 secs

     total energy              =    -451.77268119 Ry
     estimated scf accuracy    <       0.00231868 Ry

     iteration #  3     ecut=    60.00 Ry     beta= 0.30
     Davidson diagonalization with overlap
     ethr =  2.23E-06,  avg # of iterations =  3.1

     negative rho (up, down):  6.692E-05 0.000E+00

     total cpu time spent up to now is      607.8 secs

     total energy              =    -451.77299880 Ry
     estimated scf accuracy    <       0.00037320 Ry

     iteration #  4     ecut=    60.00 Ry     beta= 0.30
     Davidson diagonalization with overlap
     ethr =  3.59E-07,  avg # of iterations =  2.0

     negative rho (up, down):  6.662E-05 0.000E+00

     total cpu time spent up to now is      615.4 secs

     total energy              =    -451.77303884 Ry
     estimated scf accuracy    <       0.00003426 Ry

     iteration #  5     ecut=    60.00 Ry     beta= 0.30
     Davidson diagonalization with overlap
     ethr =  3.29E-08,  avg # of iterations =  3.1

     negative rho (up, down):  6.529E-05 0.000E+00

     total cpu time spent up to now is      624.3 secs

     total energy              =    -451.77304059 Ry
     estimated scf accuracy    <       0.00001017 Ry

     iteration #  6     ecut=    60.00 Ry     beta= 0.30
     Davidson diagonalization with overlap
     ethr =  9.77E-09,  avg # of iterations =  3.7

     negative rho (up, down):  6.462E-05 0.000E+00

     total cpu time spent up to now is      634.4 secs

     total energy              =    -451.77304148 Ry
     estimated scf accuracy    <       0.00000951 Ry

     iteration #  7     ecut=    60.00 Ry     beta= 0.30
     Davidson diagonalization with overlap
     ethr =  9.14E-09,  avg # of iterations =  3.0

     negative rho (up, down):  6.453E-05 0.000E+00

     total cpu time spent up to now is      643.4 secs

     total energy              =    -451.77304376 Ry
     estimated scf accuracy    <       0.00000048 Ry

     iteration #  8     ecut=    60.00 Ry     beta= 0.30
     Davidson diagonalization with overlap
     ethr =  4.63E-10,  avg # of iterations =  2.6

     negative rho (up, down):  6.447E-05 0.000E+00

     total cpu time spent up to now is      651.9 secs

     total energy              =    -451.77304380 Ry
     estimated scf accuracy    <       0.00000011 Ry

     iteration #  9     ecut=    60.00 Ry     beta= 0.30
     Davidson diagonalization with overlap
     ethr =  1.10E-10,  avg # of iterations =  3.4

     negative rho (up, down):  6.502E-05 0.000E+00

     total cpu time spent up to now is      661.1 secs

     End of self-consistent calculation

          k = 0.0000-0.0000 0.0000 ( 19679 PWs)   bands (ev):

   -17.4955 -15.8732 -13.1601 -13.1601 -12.9676 -12.8610 -12.6797 -11.7532
   -11.3942 -11.3942  -9.0921  -9.0921  -9.0341  -8.6846  -8.6846  -8.5490
    -8.0318  -8.0318  -7.7191  -7.6597  -7.6597  -5.5453  -5.3527  -5.0788
    -4.7584  -4.7584  -3.8524  -3.8524  -3.4186  -3.4186  -2.4200  -2.1296
    -2.1296  -2.1044  -2.1044  -1.9823  -1.8444  -1.8352  -1.7503  -1.1530
    -1.1530  -1.0426   0.4564   0.4826   0.4987   0.6288   0.6288   0.9146
     0.9602   1.0719   1.4859   1.4883   5.3912   5.8902   7.6926   7.8729
     7.9629   8.4439   8.5422   8.8405   8.8405   9.0584

          k = 0.0000-0.2000 0.0000 ( 19607 PWs)   bands (ev):

   -17.3302 -15.8689 -14.0853 -13.2519 -13.0022 -13.0022 -11.6449 -11.3958
   -11.3944 -11.3944 -10.1655 -10.1655  -9.1101  -8.4244  -8.4244  -8.0334
    -7.6325  -7.5005  -7.5005  -7.3345  -7.3345  -5.9426  -5.0834  -4.8624
    -4.8624  -4.6896  -3.7905  -3.7905  -3.1958  -3.1958  -3.0125  -2.3012
    -2.3012  -2.2824  -2.0473  -1.8939  -1.7786  -1.7786  -1.1644  -1.1557
    -1.1557  -1.0418  -0.3534  -0.0943  -0.0943  -0.0191   0.2912   0.7035
     1.1768   1.2819   1.4579   1.7432   5.6213   6.0846   7.8192   8.3030
     8.3327   8.5019   8.6184   8.7321   8.7321   8.9498

          k = 0.0000-0.4000 0.0000 ( 19598 PWs)   bands (ev):

   -16.8554 -16.2023 -14.4736 -13.9850 -12.5648 -12.5648 -11.7433 -11.7433
   -11.2947 -10.9066 -10.7202 -10.7202  -8.8526  -8.8526  -8.5686  -7.7472
    -7.0649  -7.0467  -7.0467  -6.6992  -6.6992  -6.1298  -4.9038  -4.5437
    -4.5437  -4.3983  -3.9913  -3.5938  -3.5938  -3.1907  -3.1907  -3.1560
    -1.9386  -1.9386  -1.8911  -1.7749  -1.7749  -1.6502  -1.4388  -1.4388
    -1.3485  -1.1076  -1.1076  -1.0168  -0.6171  -0.1855  -0.0194   0.1858
     0.8297   1.2795   1.8653   1.9420   6.2672   6.6426   7.2902   7.5213
     8.1572   8.5068   8.5068   8.6531   8.8647   8.8832

          k = 0.2000-0.2000 0.0000 ( 19577 PWs)   bands (ev):

   -17.1473 -15.6892 -14.4671 -13.9113 -13.1082 -13.0809 -11.4971 -11.4809
   -11.2298 -10.8534 -10.7705  -9.7955  -9.0075  -8.8003  -8.5249  -7.8925
    -7.7938  -7.4882  -7.1415  -6.1517  -5.9905  -5.8589  -5.5513  -5.0158
    -4.9118  -4.5811  -4.2834  -3.6998  -3.3159  -3.0163  -2.9063  -2.6296
    -2.2658  -2.2387  -2.1910  -2.0047  -1.7912  -1.6646  -1.3575  -1.2753
    -1.0131  -0.9402  -0.8249  -0.4441  -0.3368  -0.0763   0.2494   0.3150
     0.6930   0.7882   1.1180   1.4489   5.7878   6.2702   8.0083   8.0101
     8.1940   8.5464   8.6160   8.7539   8.8564   9.3068

          k = 0.2000-0.4000 0.0000 ( 19611 PWs)   bands (ev):

   -16.6733 -16.0213 -14.2995 -14.0041 -13.8122 -13.3744 -11.8748 -11.3944
   -11.1327 -10.7469 -10.5641 -10.1810  -8.4633  -8.4015  -8.3138  -7.7818
    -7.6481  -7.3857  -6.9170  -5.9871  -5.6778  -5.2931  -5.2718  -4.8046
    -4.6103  -4.3139  -4.1021  -3.9140  -3.8490  -3.1612  -3.1111  -2.8371
    -2.7036  -2.4282  -2.3574  -1.8281  -1.7767  -1.6866  -1.5464  -1.1385
    -1.1228  -1.1192  -0.8288  -0.7865  -0.7562  -0.6531  -0.5826  -0.1101
     0.8972   1.0767   1.1352   1.4364   6.4334   6.8333   7.4523   7.6944
     7.8557   8.0691   8.1551   8.6691   8.8668   9.2129

          k = 0.4000-0.4000 0.0000 ( 19634 PWs)   bands (ev):

   -16.1294 -15.4808 -15.2323 -14.5898 -13.7819 -13.2986 -12.9404 -12.4641
   -10.6583 -10.2801  -9.9617  -9.6548  -8.6273  -8.2691  -7.9750  -7.4814
    -6.5254  -6.3281  -6.1540  -5.6207  -5.5777  -5.2418  -5.1760  -4.8247
    -4.6932  -4.6486  -4.2216  -4.0935  -3.8256  -3.8217  -3.4213  -3.1592
    -2.9573  -2.7683  -2.6324  -2.4282  -2.1569  -1.9837  -1.4658  -1.4440
    -1.2301  -1.1227  -0.9646  -0.7282  -0.6606  -0.4981  -0.1124  -0.0408
    -0.0381   0.2353   0.5993   1.0091   6.8397   7.2893   7.3179   7.5107
     7.7111   7.9594   8.1389   8.1618   8.4147   8.6033

          k =-0.2000 0.0000 0.0000 ( 19607 PWs)   bands (ev):

   -17.3124 -15.6940 -14.6283 -13.1402 -12.7979 -12.6904 -12.5068 -11.5898
   -11.1269 -10.5747 -10.2732  -9.9891  -9.2388  -8.9435  -8.9353  -8.3956
    -7.5694  -7.3834  -6.8159  -6.7184  -6.6060  -5.4887  -5.3666  -5.2743
    -5.0135  -4.9431  -4.0949  -3.8381  -3.4652  -3.2667  -2.7262  -2.3223
    -2.2346  -2.2003  -1.8707  -1.7902  -1.7569  -1.7402  -1.6128  -1.4263
    -1.0772  -0.8556  -0.2579   0.0047   0.0829   0.1088   0.3047   0.5341
     0.8907   0.9683   1.0165   1.3462   5.5586   6.0709   7.9192   8.0189
     8.0448   8.2522   8.5481   8.5946   9.1577   9.3117

          k =-0.4000 0.0000 0.0000 ( 19598 PWs)   bands (ev):

   -16.7656 -15.8634 -15.1597 -14.2849 -12.2923 -12.1855 -11.9909 -11.4678
   -11.3828 -11.1427 -11.1029 -10.3048  -9.4469  -8.8218  -7.9722  -7.6623
    -7.1453  -6.8475  -6.5851  -6.3223  -5.6273  -5.4901  -5.3561  -5.1400
    -4.4633  -4.4403  -4.3464  -3.8603  -3.7842  -3.7531  -3.2411  -2.7037
    -2.4697  -2.3425  -1.7726  -1.6660  -1.5823  -1.4640  -1.4410  -1.4301
    -1.3100  -1.0420  -1.0228  -0.8548  -0.5196  -0.4038  -0.2524   0.1086
     0.2295   0.6398   1.0789   1.1429   6.0594   6.4951   6.9251   7.1138
     8.5115   8.7218   9.0246   9.1833   9.3259   9.3809

          k =-0.4000 0.2000 0.0000 ( 19611 PWs)   bands (ev):

   -16.6012 -15.7004 -15.1534 -14.2742 -13.3933 -12.5732 -12.5480 -11.7534
   -10.9962 -10.7342 -10.2347  -9.9218  -9.3489  -8.8327  -7.6004  -7.5314
    -7.1033  -6.7801  -6.5586  -6.0012  -5.7911  -5.5515  -5.2137  -5.0075
    -4.7075  -4.5477  -4.1440  -3.8987  -3.6055  -3.5944  -2.9176  -2.7883
    -2.6971  -2.6294  -2.3535  -2.0000  -1.7595  -1.7207  -1.6059  -1.1780
    -1.1622  -1.1481  -0.7222  -0.6667  -0.6436  -0.3759  -0.3265  -0.3042
    -0.0832   0.5862   0.7332   1.1412   6.2639   6.7101   7.0754   7.3143
     8.2604   8.6698   8.7754   8.8764   8.8875   9.0796

     the Fermi energy is     3.3421 ev

!    total energy              =    -451.77304386 Ry
     estimated scf accuracy    <          5.2E-09 Ry
     smearing contrib. (-TS)   =       0.00000000 Ry
     internal energy E=F+TS    =    -451.77304386 Ry

     The total energy is F=E-TS. E is the sum of the following terms:
     one-electron contribution =   -2261.24237921 Ry
     hartree contribution      =    1171.59343839 Ry
     xc contribution           =    -117.31530026 Ry
     ewald contribution        =     903.10024008 Ry
     one-center paw contrib.   =    -147.90904286 Ry

     convergence has been achieved in   9 iterations

     negative rho (up, down):  6.502E-05 0.000E+00

     Forces acting on atoms (cartesian axes, Ry/au):

     atom    1 type  1   force =     0.00000000    0.00978664   -0.00574421
     atom    2 type  1   force =    -0.00000001    0.00357580   -0.00801954
     atom    3 type  1   force =     0.00000001    0.00000000   -0.00072629
     atom    4 type  1   force =     0.00000000   -0.00000000    0.01242208
     atom    5 type  1   force =     0.00000000   -0.00357583    0.00801950
     atom    6 type  1   force =    -0.00000000   -0.00978663    0.00574425
     atom    7 type  1   force =     0.00000000   -0.00978664   -0.00574421
     atom    8 type  1   force =    -0.00000001   -0.00357580   -0.00801954
     atom    9 type  1   force =    -0.00000001    0.00000000   -0.01242209
     atom   10 type  1   force =     0.00000000   -0.00000000    0.00072630
     atom   11 type  1   force =     0.00000000    0.00357583    0.00801950
     atom   12 type  1   force =    -0.00000000    0.00978663    0.00574425
     atom   13 type  2   force =     0.00000000   -0.00276487   -0.01532321
     atom   14 type  2   force =     0.00000000    0.00276487   -0.01532321
     atom   15 type  2   force =     0.00000000    0.00276488    0.01532320
     atom   16 type  2   force =     0.00000000   -0.00276488    0.01532320
     atom   17 type  1   force =     0.00000000    0.00978664   -0.00574419
     atom   18 type  1   force =     0.00000001    0.00357580   -0.00801954
     atom   19 type  1   force =    -0.00000001    0.00000000   -0.00072629
     atom   20 type  1   force =     0.00000000   -0.00000000    0.01242208
     atom   21 type  1   force =     0.00000000   -0.00357582    0.00801951
     atom   22 type  1   force =     0.00000000   -0.00978663    0.00574425
     atom   23 type  1   force =     0.00000000   -0.00978664   -0.00574419
     atom   24 type  1   force =     0.00000001   -0.00357580   -0.00801954
     atom   25 type  1   force =     0.00000001    0.00000000   -0.01242209
     atom   26 type  1   force =     0.00000000   -0.00000000    0.00072629
     atom   27 type  1   force =     0.00000000    0.00357582    0.00801951
     atom   28 type  1   force =     0.00000000    0.00978663    0.00574425
     atom   29 type  2   force =     0.00000000   -0.00276487   -0.01532322
     atom   30 type  2   force =     0.00000000    0.00276487   -0.01532322
     atom   31 type  2   force =    -0.00000000    0.00276488    0.01532320
     atom   32 type  2   force =    -0.00000000   -0.00276488    0.01532320

     Total force =     0.064853     Total SCF correction =     0.000043
     Energy error            =      2.1E-02 Ry
     Gradient error          =      1.5E-02 Ry/Bohr

     number of scf cycles    =   4
     number of bfgs steps    =   3

     energy             old  =    -451.7521687576 Ry
     energy             new  =    -451.7730438574 Ry

     CASE: energy            _new < energy            _old

     new trust radius        =       0.0233654040 bohr
     new conv_thr            =       0.0000000100 Ry


ATOMIC_POSITIONS (angstrom)
C                0.0000000000       -0.8002083309        9.4302733184
C                1.2634728921       -1.1640628275        8.6144183370
C                1.2634728913        0.0000000000        7.5526912549
C                0.0000000000        0.0000000000        6.6487353886
C                0.0000000000       -1.3628829755        5.8868817300
C                1.2634728909       -1.7267374483        5.0710267907
C                0.0000000000       -4.2536832391        9.4302733184
C                1.2634728921       -3.8898287425        8.6144183370
C                1.2634728932       -2.5269457800        7.8525646920
C                0.0000000000       -2.5269457800        6.9486088304
C                0.0000000000       -3.6910085945        5.8868817300
C                1.2634728909       -3.3271541117        5.0710267907
H                0.0000000000       -1.2088599490       10.4600361437
H                0.0000000000       -3.8450316210       10.4600361437
H                1.2634728896       -1.3180858270        4.0412639530
H                1.2634728896       -3.7358057430        4.0412639530
C                2.5269457800       -0.8002083314        9.4302733173
C                3.7904186779       -1.1640628275        8.6144183370
C                3.7904186787        0.0000000000        7.5526912549
C                2.5269457800        0.0000000000        6.6487353835
C                2.5269457800       -1.3628829720        5.8868817273
C                3.7904186791       -1.7267374483        5.0710267907
C                2.5269457800       -4.2536832386        9.4302733173
C                3.7904186779       -3.8898287425        8.6144183370
C                3.7904186768       -2.5269457800        7.8525646920
C                2.5269457800       -2.5269457800        6.9486088280
C                2.5269457800       -3.6910085980        5.8868817273
C                3.7904186791       -3.3271541117        5.0710267907
H                2.5269457800       -1.2088599490       10.4600361397
H                2.5269457800       -3.8450316210       10.4600361397
H                3.7904186804       -1.3180858270        4.0412639530
H                3.7904186804       -3.7358057430        4.0412639530



     Writing config-only to output data dir ./tmp/slab.save/ :
     XML data file
     NEW-OLD atomic charge density approx. for the potential

     Check: negative core charge=   -0.000002

     negative rho (up, down):  7.077E-05 0.000E+00

     total cpu time spent up to now is      664.0 secs

     Self-consistent Calculation

     iteration #  1     ecut=    60.00 Ry     beta= 0.30
     Davidson diagonalization with overlap
     ethr =  1.00E-06,  avg # of iterations =  8.7

     negative rho (up, down):  7.025E-05 0.000E+00

     total cpu time spent up to now is      680.5 secs

     total energy              =    -451.77707717 Ry
     estimated scf accuracy    <       0.00091092 Ry

     iteration #  2     ecut=    60.00 Ry     beta= 0.30
     Davidson diagonalization with overlap
     ethr =  8.76E-07,  avg # of iterations =  2.0

     negative rho (up, down):  6.833E-05 0.000E+00

     total cpu time spent up to now is      688.0 secs

     total energy              =    -451.77710021 Ry
     estimated scf accuracy    <       0.00020783 Ry

     iteration #  3     ecut=    60.00 Ry     beta= 0.30
     Davidson diagonalization with overlap
     ethr =  2.00E-07,  avg # of iterations =  2.4

     negative rho (up, down):  6.742E-05 0.000E+00

     total cpu time spent up to now is      697.1 secs

     total energy              =    -451.77713093 Ry
     estimated scf accuracy    <       0.00004189 Ry

     iteration #  4     ecut=    60.00 Ry     beta= 0.30
     Davidson diagonalization with overlap
     ethr =  4.03E-08,  avg # of iterations =  1.3

     negative rho (up, down):  6.684E-05 0.000E+00

     total cpu time spent up to now is      703.9 secs

     total energy              =    -451.77713272 Ry
     estimated scf accuracy    <       0.00001108 Ry

     iteration #  5     ecut=    60.00 Ry     beta= 0.30
     Davidson diagonalization with overlap
     ethr =  1.07E-08,  avg # of iterations =  2.0

     negative rho (up, down):  6.688E-05 0.000E+00

     total cpu time spent up to now is      711.6 secs

     total energy              =    -451.77713343 Ry
     estimated scf accuracy    <       0.00000086 Ry

     iteration #  6     ecut=    60.00 Ry     beta= 0.30
     Davidson diagonalization with overlap
     ethr =  8.26E-10,  avg # of iterations =  3.6

     negative rho (up, down):  6.688E-05 0.000E+00

     total cpu time spent up to now is      721.1 secs

     total energy              =    -451.77713367 Ry
     estimated scf accuracy    <       0.00000021 Ry

     iteration #  7     ecut=    60.00 Ry     beta= 0.30
     Davidson diagonalization with overlap
     ethr =  2.03E-10,  avg # of iterations =  2.0

     negative rho (up, down):  6.696E-05 0.000E+00

     total cpu time spent up to now is      729.4 secs

     total energy              =    -451.77713371 Ry
     estimated scf accuracy    <       0.00000002 Ry

     iteration #  8     ecut=    60.00 Ry     beta= 0.30
     Davidson diagonalization with overlap
     ethr =  1.94E-11,  avg # of iterations =  3.8

     negative rho (up, down):  6.698E-05 0.000E+00

     total cpu time spent up to now is      739.2 secs

     total energy              =    -451.77713371 Ry
     estimated scf accuracy    <       0.00000001 Ry

     iteration #  9     ecut=    60.00 Ry     beta= 0.30
     Davidson diagonalization with overlap
     ethr =  1.13E-11,  avg # of iterations =  2.4

     negative rho (up, down):  6.708E-05 0.000E+00

     total cpu time spent up to now is      748.0 secs

     End of self-consistent calculation

          k = 0.0000-0.0000 0.0000 ( 19679 PWs)   bands (ev):

   -17.5300 -15.9031 -13.1867 -13.1867 -13.0054 -12.9131 -12.6758 -11.7270
   -11.4418 -11.4418  -9.1323  -9.1323  -9.0624  -8.6737  -8.6737  -8.5565
    -8.0698  -8.0698  -7.7288  -7.6388  -7.6388  -5.5405  -5.3413  -5.1061
    -4.7727  -4.7727  -3.8593  -3.8593  -3.3990  -3.3990  -2.4517  -2.1596
    -2.1596  -2.1003  -2.1003  -2.0073  -1.8443  -1.8210  -1.8075  -1.1792
    -1.1792  -1.0434   0.4315   0.4342   0.4956   0.6105   0.6105   0.9297
     1.0154   1.1317   1.4491   1.5249   5.3898   5.8814   7.6631   7.8400
     7.9175   8.5218   8.5444   8.8735   8.8735   9.0566

          k = 0.0000-0.2000 0.0000 ( 19607 PWs)   bands (ev):

   -17.3650 -15.9030 -14.1019 -13.2886 -13.0290 -13.0290 -11.6320 -11.4438
   -11.4438 -11.4021 -10.1854 -10.1854  -9.1446  -8.4423  -8.4423  -8.0435
    -7.6431  -7.4957  -7.4957  -7.3403  -7.3403  -5.9494  -5.0680  -4.8785
    -4.8785  -4.7154  -3.7883  -3.7883  -3.2025  -3.2025  -3.0419  -2.3136
    -2.2815  -2.2815  -2.0337  -1.8714  -1.8184  -1.8184  -1.2511  -1.1778
    -1.1778  -1.0469  -0.3537  -0.1106  -0.1106  -0.0464   0.3272   0.7251
     1.2154   1.2570   1.4788   1.7422   5.6224   6.0793   7.8354   8.2743
     8.3685   8.5003   8.6172   8.7571   8.7571   8.9330

          k = 0.0000-0.4000 0.0000 ( 19598 PWs)   bands (ev):

   -16.8917 -16.2412 -14.4871 -14.0067 -12.5918 -12.5918 -11.7849 -11.7849
   -11.2919 -10.9044 -10.7514 -10.7514  -8.8598  -8.8598  -8.6012  -7.7609
    -7.0860  -7.0478  -7.0478  -6.6938  -6.6938  -6.1659  -4.8961  -4.5602
    -4.5602  -4.4148  -3.9882  -3.6131  -3.6131  -3.1934  -3.1934  -3.1421
    -1.9245  -1.9245  -1.9201  -1.8174  -1.8174  -1.6657  -1.4129  -1.4129
    -1.3708  -1.1619  -1.1619  -1.0740  -0.5895  -0.1896   0.0076   0.1932
     0.8354   1.2493   1.8822   1.9540   6.2729   6.6461   7.3030   7.5540
     8.2189   8.5096   8.5096   8.7213   8.8735   8.9103

          k = 0.2000-0.2000 0.0000 ( 19577 PWs)   bands (ev):

   -17.1822 -15.7232 -14.5001 -13.9280 -13.1373 -13.1176 -11.5163 -11.4682
   -11.2359 -10.8972 -10.8172  -9.8075  -9.0425  -8.8047  -8.5243  -7.9025
    -7.8039  -7.4991  -7.1686  -6.1660  -5.9924  -5.8670  -5.5610  -5.0022
    -4.9419  -4.6085  -4.2677  -3.6997  -3.3410  -2.9967  -2.9367  -2.6251
    -2.2677  -2.2636  -2.2127  -1.9989  -1.7694  -1.6862  -1.3943  -1.2867
    -1.0543  -0.9386  -0.8747  -0.4521  -0.3669  -0.0635   0.2791   0.3042
     0.7106   0.7945   1.1528   1.4324   5.7898   6.2664   8.0270   8.0375
     8.2066   8.5988   8.6177   8.7597   8.8566   9.0996

          k = 0.2000-0.4000 0.0000 ( 19611 PWs)   bands (ev):

   -16.7096 -16.0601 -14.3130 -14.0385 -13.8339 -13.4108 -11.8851 -11.4149
   -11.1302 -10.7451 -10.6125 -10.2242  -8.4958  -8.3957  -8.3092  -7.7894
    -7.6623  -7.3997  -6.9384  -6.0224  -5.6926  -5.3088  -5.2912  -4.7989
    -4.6068  -4.3319  -4.1020  -3.9122  -3.8791  -3.1568  -3.1076  -2.8573
    -2.7082  -2.4540  -2.3485  -1.8240  -1.8156  -1.6747  -1.5590  -1.1787
    -1.1438  -1.0957  -0.8834  -0.7864  -0.7600  -0.7055  -0.5625  -0.0857
     0.9015   1.0850   1.1541   1.4193   6.4394   6.8372   7.4655   7.7256
     7.8692   8.0803   8.2240   8.7713   8.9025   9.2869

          k = 0.4000-0.4000 0.0000 ( 19634 PWs)   bands (ev):

   -16.1655 -15.5194 -15.2679 -14.6278 -13.7952 -13.3201 -12.9533 -12.4855
   -10.6575 -10.2802  -9.9690  -9.6710  -8.6462  -8.3009  -7.9958  -7.4982
    -6.5490  -6.3616  -6.1595  -5.6511  -5.5858  -5.2683  -5.1991  -4.8588
    -4.7051  -4.6802  -4.2384  -4.0947  -3.8284  -3.8240  -3.4358  -3.1773
    -2.9459  -2.7486  -2.6344  -2.4121  -2.1439  -1.9782  -1.4694  -1.4529
    -1.2196  -1.1581  -0.9455  -0.7853  -0.6698  -0.5055  -0.1234  -0.0249
    -0.0217   0.2141   0.6033   0.9848   6.8502   7.2942   7.3388   7.5305
     7.7317   7.9903   8.1520   8.2013   8.4264   8.6579

          k =-0.2000 0.0000 0.0000 ( 19607 PWs)   bands (ev):

   -17.3468 -15.7238 -14.6610 -13.1647 -12.8358 -12.7427 -12.5026 -11.5635
   -11.1723 -10.6339 -10.3131  -9.9816  -9.2125  -8.9728  -8.9600  -8.4031
    -7.5789  -7.4025  -6.8090  -6.7687  -6.5974  -5.4860  -5.3724  -5.2642
    -5.0500  -4.9717  -4.0644  -3.8392  -3.4920  -3.2713  -2.6853  -2.3648
    -2.3067  -2.1867  -1.8946  -1.7628  -1.7407  -1.7108  -1.6345  -1.4756
    -1.1424  -0.8577  -0.3247   0.0481   0.0548   0.0614   0.3603   0.5797
     0.8603   0.9835   1.0062   1.3760   5.5587   6.0640   7.9352   7.9835
     8.0548   8.2378   8.5050   8.6916   9.1345   9.3469

          k =-0.4000 0.0000 0.0000 ( 19598 PWs)   bands (ev):

   -16.7998 -15.8973 -15.1891 -14.3133 -12.3306 -12.2386 -11.9859 -11.5066
   -11.4381 -11.1366 -11.0763 -10.2779  -9.4874  -8.8551  -7.9806  -7.6844
    -7.1544  -6.8508  -6.5926  -6.3530  -5.6356  -5.4886  -5.3884  -5.1345
    -4.5049  -4.4630  -4.3632  -3.8704  -3.7965  -3.7887  -3.1960  -2.6561
    -2.4853  -2.3979  -1.7458  -1.6621  -1.5519  -1.4656  -1.4588  -1.4159
    -1.2576  -1.1249  -1.1108  -0.8838  -0.5178  -0.4114  -0.2574   0.1370
     0.2044   0.6534   1.0878   1.1426   6.0645   6.4925   6.9357   7.1190
     8.5026   8.6926   9.1101   9.1712   9.2886   9.3785

          k =-0.4000 0.2000 0.0000 ( 19611 PWs)   bands (ev):

   -16.6359 -15.7346 -15.1871 -14.3069 -13.4100 -12.6101 -12.5646 -11.7915
   -10.9842 -10.7401 -10.2253  -9.9279  -9.3903  -8.8704  -7.6236  -7.5423
    -7.1156  -6.8032  -6.5608  -6.0216  -5.8053  -5.5637  -5.2461  -5.0021
    -4.7175  -4.5710  -4.1595  -3.9126  -3.6251  -3.6020  -2.9014  -2.8076
    -2.6675  -2.6561  -2.3793  -2.0160  -1.7397  -1.7009  -1.5727  -1.1981
    -1.1910  -1.1773  -0.7318  -0.6873  -0.6689  -0.3766  -0.3363  -0.3095
    -0.0632   0.6101   0.7271   1.1301   6.2697   6.7102   7.0875   7.3228
     8.2972   8.6697   8.7965   8.8575   8.8875   9.1390

     the Fermi energy is     3.3316 ev

!    total energy              =    -451.77713369 Ry
     estimated scf accuracy    <          4.3E-10 Ry
     smearing contrib. (-TS)   =       0.00000000 Ry
     internal energy E=F+TS    =    -451.77713369 Ry

     The total energy is F=E-TS. E is the sum of the following terms:
     one-electron contribution =   -2270.94198728 Ry
     hartree contribution      =    1176.44545215 Ry
     xc contribution           =    -117.39123341 Ry
     ewald contribution        =     908.02094697 Ry
     one-center paw contrib.   =    -147.91031212 Ry

     convergence has been achieved in   9 iterations

     negative rho (up, down):  6.708E-05 0.000E+00

     Forces acting on atoms (cartesian axes, Ry/au):

     atom    1 type  1   force =     0.00000000    0.00022839   -0.00969746
     atom    2 type  1   force =     0.00000000    0.00248106   -0.00466681
     atom    3 type  1   force =     0.00000000   -0.00000000    0.00689791
     atom    4 type  1   force =     0.00000000   -0.00000000    0.00934898
     atom    5 type  1   force =     0.00000000   -0.00248101    0.00466686
     atom    6 type  1   force =     0.00000000   -0.00022839    0.00969741
     atom    7 type  1   force =     0.00000000   -0.00022839   -0.00969746
     atom    8 type  1   force =     0.00000000   -0.00248106   -0.00466681
     atom    9 type  1   force =    -0.00000000    0.00000000   -0.00934898
     atom   10 type  1   force =     0.00000000    0.00000000   -0.00689792
     atom   11 type  1   force =     0.00000000    0.00248101    0.00466686
     atom   12 type  1   force =     0.00000000    0.00022839    0.00969741
     atom   13 type  2   force =     0.00000000   -0.00269275   -0.01159663
     atom   14 type  2   force =     0.00000000    0.00269275   -0.01159663
     atom   15 type  2   force =    -0.00000000    0.00269274    0.01159664
     atom   16 type  2   force =    -0.00000000   -0.00269274    0.01159664
     atom   17 type  1   force =     0.00000000    0.00022839   -0.00969747
     atom   18 type  1   force =    -0.00000000    0.00248106   -0.00466681
     atom   19 type  1   force =    -0.00000000    0.00000000    0.00689791
     atom   20 type  1   force =     0.00000000   -0.00000000    0.00934899
     atom   21 type  1   force =     0.00000000   -0.00248102    0.00466686
     atom   22 type  1   force =    -0.00000000   -0.00022839    0.00969741
     atom   23 type  1   force =     0.00000000   -0.00022839   -0.00969747
     atom   24 type  1   force =    -0.00000000   -0.00248106   -0.00466681
     atom   25 type  1   force =     0.00000000    0.00000000   -0.00934898
     atom   26 type  1   force =     0.00000000    0.00000000   -0.00689792
     atom   27 type  1   force =     0.00000000    0.00248102    0.00466686
     atom   28 type  1   force =    -0.00000000    0.00022839    0.00969741
     atom   29 type  2   force =     0.00000000   -0.00269275   -0.01159662
     atom   30 type  2   force =     0.00000000    0.00269275   -0.01159662
     atom   31 type  2   force =     0.00000000    0.00269274    0.01159664
     atom   32 type  2   force =     0.00000000   -0.00269274    0.01159664

     Total force =     0.051478     Total SCF correction =     0.000034
     Energy error            =      4.1E-03 Ry
     Gradient error          =      1.2E-02 Ry/Bohr

     number of scf cycles    =   5
     number of bfgs steps    =   4

     energy             old  =    -451.7730438574 Ry
     energy             new  =    -451.7771336898 Ry

     CASE: energy            _new < energy            _old

     new trust radius        =       0.0257019444 bohr
     new conv_thr            =       0.0000000100 Ry


ATOMIC_POSITIONS (angstrom)
C                0.0000000000       -0.7955882759        9.4227691291
C                1.2634728915       -1.1613076018        8.6082833302
C                1.2634728936        0.0000000000        7.5502467723
C                0.0000000000        0.0000000000        6.6497977613
C                0.0000000000       -1.3656381855        5.8930167583
C                1.2634728911       -1.7313575033        5.0785309521
C                0.0000000000       -4.2583032941        9.4227691291
C                1.2634728915       -3.8925839682        8.6082833302
C                1.2634728908       -2.5269457800        7.8515023207
C                0.0000000000       -2.5269457800        6.9510533154
C                0.0000000000       -3.6882533845        5.8930167583
C                1.2634728911       -3.3225340567        5.0785309521
H                0.0000000000       -1.2118455198       10.4467669939
H                0.0000000000       -3.8420460502       10.4467669939
H                1.2634728898       -1.3151002593        4.0545331055
H                1.2634728898       -3.7387913107        4.0545331055
C                2.5269457800       -0.7955882738        9.4227691299
C                3.7904186785       -1.1613076018        8.6082833302
C                3.7904186764        0.0000000000        7.5502467723
C                2.5269457800        0.0000000000        6.6497977597
C                2.5269457800       -1.3656381845        5.8930167556
C                3.7904186789       -1.7313575033        5.0785309521
C                2.5269457800       -4.2583032962        9.4227691299
C                3.7904186785       -3.8925839682        8.6082833302
C                3.7904186792       -2.5269457800        7.8515023207
C                2.5269457800       -2.5269457800        6.9510533111
C                2.5269457800       -3.6882533855        5.8930167556
C                3.7904186789       -3.3225340567        5.0785309521
H                2.5269457800       -1.2118455201       10.4467669907
H                2.5269457800       -3.8420460499       10.4467669907
H                3.7904186802       -1.3151002593        4.0545331055
H                3.7904186802       -3.7387913107        4.0545331055



     Writing config-only to output data dir ./tmp/slab.save/ :
     XML data file
     NEW-OLD atomic charge density approx. for the potential

     Check: negative core charge=   -0.000002

     negative rho (up, down):  7.350E-05 0.000E+00

     total cpu time spent up to now is      751.0 secs

     Self-consistent Calculation

     iteration #  1     ecut=    60.00 Ry     beta= 0.30
     Davidson diagonalization with overlap
     ethr =  1.00E-06,  avg # of iterations =  5.4

     negative rho (up, down):  7.259E-05 0.000E+00

     total cpu time spent up to now is      765.0 secs

     total energy              =    -451.78043207 Ry
     estimated scf accuracy    <       0.00075374 Ry

     iteration #  2     ecut=    60.00 Ry     beta= 0.30
     Davidson diagonalization with overlap
     ethr =  7.25E-07,  avg # of iterations =  3.1

     negative rho (up, down):  7.025E-05 0.000E+00

     total cpu time spent up to now is      772.8 secs

     total energy              =    -451.78045704 Ry
     estimated scf accuracy    <       0.00017611 Ry

     iteration #  3     ecut=    60.00 Ry     beta= 0.30
     Davidson diagonalization with overlap
     ethr =  1.69E-07,  avg # of iterations =  2.0

     negative rho (up, down):  6.867E-05 0.000E+00

     total cpu time spent up to now is      780.9 secs

     total energy              =    -451.78047637 Ry
     estimated scf accuracy    <       0.00003927 Ry

     iteration #  4     ecut=    60.00 Ry     beta= 0.30
     Davidson diagonalization with overlap
     ethr =  3.78E-08,  avg # of iterations =  2.0

     negative rho (up, down):  6.820E-05 0.000E+00

     total cpu time spent up to now is      788.2 secs

     total energy              =    -451.78047935 Ry
     estimated scf accuracy    <       0.00000670 Ry

     iteration #  5     ecut=    60.00 Ry     beta= 0.30
     Davidson diagonalization with overlap
     ethr =  6.44E-09,  avg # of iterations =  2.0

     negative rho (up, down):  6.825E-05 0.000E+00

     total cpu time spent up to now is      795.8 secs

     total energy              =    -451.78047994 Ry
     estimated scf accuracy    <       0.00000033 Ry

     iteration #  6     ecut=    60.00 Ry     beta= 0.30
     Davidson diagonalization with overlap
     ethr =  3.16E-10,  avg # of iterations =  3.7

     negative rho (up, down):  6.830E-05 0.000E+00

     total cpu time spent up to now is      805.7 secs

     total energy              =    -451.78048003 Ry
     estimated scf accuracy    <       0.00000009 Ry

     iteration #  7     ecut=    60.00 Ry     beta= 0.30
     Davidson diagonalization with overlap
     ethr =  8.45E-11,  avg # of iterations =  2.3

     negative rho (up, down):  6.831E-05 0.000E+00

     total cpu time spent up to now is      814.2 secs

     total energy              =    -451.78048003 Ry
     estimated scf accuracy    <       0.00000003 Ry

     iteration #  8     ecut=    60.00 Ry     beta= 0.30
     Davidson diagonalization with overlap
     ethr =  2.73E-11,  avg # of iterations =  2.2

     negative rho (up, down):  6.845E-05 0.000E+00

     total cpu time spent up to now is      822.8 secs

     End of self-consistent calculation

          k = 0.0000-0.0000 0.0000 ( 19679 PWs)   bands (ev):

   -17.5807 -15.9520 -13.2335 -13.2335 -13.0345 -12.9463 -12.7008 -11.7313
   -11.4941 -11.4941  -9.1697  -9.1697  -9.0808  -8.6939  -8.6939  -8.5843
    -8.0942  -8.0942  -7.7470  -7.6480  -7.6480  -5.5240  -5.3399  -5.1294
    -4.7919  -4.7919  -3.8697  -3.8697  -3.3993  -3.3993  -2.5009  -2.1908
    -2.1908  -2.0883  -2.0883  -2.0447  -1.8970  -1.7909  -1.7847  -1.1916
    -1.1916  -1.0789   0.3894   0.4102   0.5117   0.5673   0.5673   0.9143
     1.0159   1.1361   1.4221   1.5626   5.3944   5.8769   7.6139   7.8166
     7.8783   8.4863   8.6162   8.9046   8.9048   9.0722

          k = 0.0000-0.2000 0.0000 ( 19607 PWs)   bands (ev):

   -17.4164 -15.9573 -14.1231 -13.3180 -13.0766 -13.0766 -11.6386 -11.5000
   -11.5000 -11.4245 -10.2109 -10.2109  -9.1641  -8.4653  -8.4653  -8.0713
    -7.6660  -7.5124  -7.5124  -7.3576  -7.3576  -5.9471  -5.0596  -4.8974
    -4.8974  -4.7377  -3.7944  -3.7944  -3.2152  -3.2152  -3.0803  -2.3627
    -2.2738  -2.2738  -2.0134  -1.8547  -1.8449  -1.8449  -1.3027  -1.1898
    -1.1898  -1.0877  -0.3590  -0.1527  -0.1527  -0.0724   0.3467   0.7150
     1.2345   1.2494   1.4698   1.7298   5.6284   6.0775   7.8345   8.2442
     8.3606   8.5164   8.6174   8.7919   8.7919   8.9058

          k = 0.0000-0.4000 0.0000 ( 19598 PWs)   bands (ev):

   -16.9455 -16.2998 -14.5042 -14.0301 -12.6438 -12.6438 -11.8377 -11.8377
   -11.3009 -10.9160 -10.7774 -10.7774  -8.8792  -8.8792  -8.6181  -7.7745
    -7.1231  -7.0597  -7.0597  -6.7061  -6.7061  -6.2001  -4.9105  -4.5771
    -4.5771  -4.4335  -3.9883  -3.6300  -3.6300  -3.2008  -3.2008  -3.1367
    -1.9690  -1.9387  -1.9387  -1.8528  -1.8528  -1.6717  -1.4196  -1.4005
    -1.4005  -1.2085  -1.2085  -1.1081  -0.5660  -0.2061   0.0322   0.1786
     0.8403   1.2285   1.8739   1.9457   6.2813   6.6502   7.3162   7.5735
     8.2501   8.5250   8.5250   8.7128   8.9063   8.9349

          k = 0.2000-0.2000 0.0000 ( 19577 PWs)   bands (ev):

   -17.2335 -15.7775 -14.5505 -13.9491 -13.1892 -13.1471 -11.5395 -11.4749
   -11.2583 -10.9482 -10.8514  -9.8439  -9.0628  -8.8267  -8.5458  -7.9304
    -7.8198  -7.5222  -7.1934  -6.1870  -6.0144  -5.8660  -5.5773  -4.9954
    -4.9749  -4.6315  -4.2727  -3.6946  -3.3845  -2.9885  -2.9753  -2.6303
    -2.2828  -2.2771  -2.2588  -1.9864  -1.7547  -1.7021  -1.4331  -1.2899
    -1.0862  -0.9333  -0.9097  -0.4614  -0.4092  -0.0752   0.2692   0.2930
     0.7020   0.7836   1.1812   1.4157   5.7962   6.2669   8.0482   8.0538
     8.2224   8.6182   8.6445   8.7793   8.8607   9.0594

          k = 0.2000-0.4000 0.0000 ( 19611 PWs)   bands (ev):

   -16.7633 -16.1187 -14.3300 -14.0914 -13.8573 -13.4689 -11.9002 -11.4375
   -11.1395 -10.7570 -10.6669 -10.2765  -8.5130  -8.4086  -8.3219  -7.8057
    -7.6764  -7.4192  -6.9758  -6.0560  -5.7108  -5.3287  -5.3154  -4.8134
    -4.6213  -4.3509  -4.1191  -3.9154  -3.9058  -3.1670  -3.1034  -2.8913
    -2.7094  -2.5027  -2.3636  -1.8500  -1.8320  -1.6775  -1.5653  -1.2227
    -1.1595  -1.0869  -0.9166  -0.7976  -0.7757  -0.7448  -0.5497  -0.0653
     0.9031   1.0765   1.1493   1.4040   6.4478   6.8425   7.4788   7.7440
     7.8982   8.1032   8.2753   8.8374   8.9271   9.3301

          k = 0.4000-0.4000 0.0000 ( 19634 PWs)   bands (ev):

   -16.2192 -15.5779 -15.3214 -14.6862 -13.8121 -13.3435 -12.9698 -12.5088
   -10.6680 -10.2936  -9.9859  -9.6965  -8.6732  -8.3211  -8.0304  -7.5169
    -6.5875  -6.3931  -6.1734  -5.6806  -5.6101  -5.2986  -5.2290  -4.9012
    -4.7273  -4.7157  -4.2785  -4.1089  -3.8511  -3.8427  -3.4565  -3.2011
    -2.9384  -2.7450  -2.6389  -2.4173  -2.1436  -1.9838  -1.4731  -1.4563
    -1.2223  -1.1824  -0.9488  -0.8162  -0.6789  -0.5186  -0.1330  -0.0197
    -0.0164   0.1912   0.6030   0.9641   6.8612   7.3024   7.3611   7.5586
     7.7483   8.0176   8.1618   8.2310   8.4459   8.7027

          k =-0.2000 0.0000 0.0000 ( 19607 PWs)   bands (ev):

   -17.3975 -15.7726 -14.7107 -13.2109 -12.8650 -12.7760 -12.5274 -11.5679
   -11.2208 -10.6746 -10.3481 -10.0047  -9.2185  -9.0070  -8.9923  -8.4310
    -7.5971  -7.4194  -6.8297  -6.7999  -6.6109  -5.4719  -5.3861  -5.2639
    -5.0883  -4.9956  -4.0634  -3.8335  -3.5363  -3.2798  -2.6698  -2.4135
    -2.3556  -2.1862  -1.9303  -1.7410  -1.7193  -1.6959  -1.6447  -1.5123
    -1.1801  -0.8512  -0.3660   0.0132   0.0243   0.0486   0.3639   0.5910
     0.8431   0.9674   0.9702   1.4063   5.5641   6.0622   7.9486   7.9546
     8.0671   8.2127   8.4667   8.7626   9.1217   9.3819

          k =-0.4000 0.0000 0.0000 ( 19598 PWs)   bands (ev):

   -16.8504 -15.9476 -15.2377 -14.3615 -12.3599 -12.2723 -12.0104 -11.5358
   -11.4729 -11.1604 -11.0808 -10.2827  -9.5314  -8.8809  -8.0098  -7.7312
    -7.1726  -6.8643  -6.6106  -6.3814  -5.6407  -5.5048  -5.4299  -5.1392
    -4.5420  -4.4868  -4.3830  -3.8974  -3.8145  -3.7945  -3.1927  -2.6454
    -2.4961  -2.4315  -1.7317  -1.6808  -1.5338  -1.4860  -1.4619  -1.4258
    -1.2482  -1.1728  -1.1632  -0.8931  -0.5111  -0.4087  -0.2943   0.1364
     0.1933   0.6700   1.0671   1.1150   6.0729   6.4939   6.9476   7.1265
     8.4881   8.6755   9.1672   9.1785   9.2591   9.3789

          k =-0.4000 0.2000 0.0000 ( 19611 PWs)   bands (ev):

   -16.6872 -15.7857 -15.2411 -14.3606 -13.4310 -12.6397 -12.5855 -11.8215
   -10.9915 -10.7625 -10.2351  -9.9514  -9.4315  -8.8954  -7.6677  -7.5713
    -7.1404  -6.8303  -6.5723  -6.0470  -5.8139  -5.5918  -5.2876  -5.0070
    -4.7371  -4.5927  -4.1800  -3.9458  -3.6448  -3.6025  -2.9072  -2.8340
    -2.6763  -2.6671  -2.4062  -2.0382  -1.7304  -1.6869  -1.5599  -1.2340
    -1.2161  -1.1869  -0.7406  -0.7154  -0.6759  -0.4050  -0.3294  -0.3199
    -0.0605   0.6285   0.7036   1.1118   6.2783   6.7138   7.1006   7.3339
     8.3257   8.6862   8.8268   8.8484   8.8926   9.1864

     the Fermi energy is     3.3215 ev

!    total energy              =    -451.78048003 Ry
     estimated scf accuracy    <          4.8E-09 Ry
     smearing contrib. (-TS)   =       0.00000000 Ry
     internal energy E=F+TS    =    -451.78048003 Ry

     The total energy is F=E-TS. E is the sum of the following terms:
     one-electron contribution =   -2283.00016817 Ry
     hartree contribution      =    1182.45488355 Ry
     xc contribution           =    -117.47686926 Ry
     ewald contribution        =     914.15371197 Ry
     one-center paw contrib.   =    -147.91203812 Ry

     convergence has been achieved in   8 iterations

     negative rho (up, down):  6.845E-05 0.000E+00

     Forces acting on atoms (cartesian axes, Ry/au):

     atom    1 type  1   force =     0.00000000   -0.00521723   -0.00933383
     atom    2 type  1   force =     0.00000000   -0.00036195   -0.00254838
     atom    3 type  1   force =    -0.00000000    0.00000000    0.00550586
     atom    4 type  1   force =     0.00000000   -0.00000000    0.00719914
     atom    5 type  1   force =     0.00000000    0.00036194    0.00254837
     atom    6 type  1   force =     0.00000000    0.00521722    0.00933386
     atom    7 type  1   force =     0.00000000    0.00521723   -0.00933383
     atom    8 type  1   force =     0.00000000    0.00036195   -0.00254838
     atom    9 type  1   force =     0.00000000    0.00000000   -0.00719913
     atom   10 type  1   force =     0.00000000    0.00000000   -0.00550587
     atom   11 type  1   force =     0.00000000   -0.00036194    0.00254837
     atom   12 type  1   force =     0.00000000   -0.00521722    0.00933386
     atom   13 type  2   force =     0.00000000   -0.00262611   -0.00822506
     atom   14 type  2   force =     0.00000000    0.00262611   -0.00822506
     atom   15 type  2   force =     0.00000000    0.00262612    0.00822503
     atom   16 type  2   force =     0.00000000   -0.00262612    0.00822503
     atom   17 type  1   force =     0.00000000   -0.00521723   -0.00933383
     atom   18 type  1   force =    -0.00000000   -0.00036195   -0.00254838
     atom   19 type  1   force =     0.00000000   -0.00000000    0.00550586
     atom   20 type  1   force =     0.00000000   -0.00000000    0.00719914
     atom   21 type  1   force =     0.00000000    0.00036193    0.00254837
     atom   22 type  1   force =    -0.00000000    0.00521722    0.00933386
     atom   23 type  1   force =     0.00000000    0.00521723   -0.00933383
     atom   24 type  1   force =    -0.00000000    0.00036195   -0.00254838
     atom   25 type  1   force =    -0.00000000    0.00000000   -0.00719913
     atom   26 type  1   force =     0.00000000    0.00000000   -0.00550587
     atom   27 type  1   force =     0.00000000   -0.00036193    0.00254837
     atom   28 type  1   force =    -0.00000000   -0.00521722    0.00933386
     atom   29 type  2   force =     0.00000000   -0.00262611   -0.00822505
     atom   30 type  2   force =     0.00000000    0.00262611   -0.00822505
     atom   31 type  2   force =    -0.00000000    0.00262612    0.00822503
     atom   32 type  2   force =    -0.00000000   -0.00262612    0.00822503

     Total force =     0.043505     Total SCF correction =     0.000104
     Energy error            =      3.3E-03 Ry
     Gradient error          =      9.3E-03 Ry/Bohr

     number of scf cycles    =   6
     number of bfgs steps    =   5

     energy             old  =    -451.7771336898 Ry
     energy             new  =    -451.7804800286 Ry

     CASE: energy            _new < energy            _old

     new trust radius        =       0.0385529166 bohr
     new conv_thr            =       0.0000000093 Ry


ATOMIC_POSITIONS (angstrom)
C                0.0000000000       -0.7932214855        9.4098630818
C                1.2634728917       -1.1596579231        8.5995188091
C                1.2634728932        0.0000000000        7.5482200249
C                0.0000000000        0.0000000000        6.6544742791
C                0.0000000000       -1.3672878955        5.9017812599
C                1.2634728905       -1.7337242967        5.0914370430
C                0.0000000000       -4.2606700845        9.4098630818
C                1.2634728917       -3.8942336469        8.5995188091
C                1.2634728922       -2.5269457800        7.8468258099
C                0.0000000000       -2.5269457800        6.9530800598
C                0.0000000000       -3.6866036745        5.9017812599
C                1.2634728905       -3.3201672633        5.0914370430
H                0.0000000000       -1.2168270285       10.4269831968
H                0.0000000000       -3.8370645415       10.4269831968
H                1.2634728904       -1.3101187387        4.0743168737
H                1.2634728904       -3.7437728313        4.0743168737
C                2.5269457800       -0.7932214833        9.4098630850
C                3.7904186783       -1.1596579231        8.5995188091
C                3.7904186768        0.0000000000        7.5482200249
C                2.5269457800        0.0000000000        6.6544742776
C                2.5269457800       -1.3672878946        5.9017812591
C                3.7904186795       -1.7337242967        5.0914370430
C                2.5269457800       -4.2606700867        9.4098630850
C                3.7904186783       -3.8942336469        8.5995188091
C                3.7904186778       -2.5269457800        7.8468258099
C                2.5269457800       -2.5269457800        6.9530800570
C                2.5269457800       -3.6866036754        5.9017812591
C                3.7904186795       -3.3201672633        5.0914370430
H                2.5269457800       -1.2168270291       10.4269831942
H                2.5269457800       -3.8370645409       10.4269831942
H                3.7904186796       -1.3101187387        4.0743168737
H                3.7904186796       -3.7437728313        4.0743168737



     Writing config-only to output data dir ./tmp/slab.save/ :
     XML data file
     NEW-OLD atomic charge density approx. for the potential

     Check: negative core charge=   -0.000002

     negative rho (up, down):  7.721E-05 0.000E+00

     total cpu time spent up to now is      825.8 secs

     Self-consistent Calculation

     iteration #  1     ecut=    60.00 Ry     beta= 0.30
     Davidson diagonalization with overlap
     ethr =  1.00E-06,  avg # of iterations =  6.6

     negative rho (up, down):  7.516E-05 0.000E+00

     total cpu time spent up to now is      842.0 secs

     total energy              =    -451.78391895 Ry
     estimated scf accuracy    <       0.00153863 Ry

     iteration #  2     ecut=    60.00 Ry     beta= 0.30
     Davidson diagonalization with overlap
     ethr =  1.48E-06,  avg # of iterations =  3.0

     negative rho (up, down):  7.162E-05 0.000E+00

     total cpu time spent up to now is      850.1 secs

     total energy              =    -451.78400170 Ry
     estimated scf accuracy    <       0.00035206 Ry

     iteration #  3     ecut=    60.00 Ry     beta= 0.30
     Davidson diagonalization with overlap
     ethr =  3.39E-07,  avg # of iterations =  1.6

     negative rho (up, down):  6.883E-05 0.000E+00

     total cpu time spent up to now is      856.8 secs

     total energy              =    -451.78401045 Ry
     estimated scf accuracy    <       0.00009825 Ry

     iteration #  4     ecut=    60.00 Ry     beta= 0.30
     Davidson diagonalization with overlap
     ethr =  9.45E-08,  avg # of iterations =  2.0

     negative rho (up, down):  6.827E-05 0.000E+00

     total cpu time spent up to now is      864.1 secs

     total energy              =    -451.78401619 Ry
     estimated scf accuracy    <       0.00000671 Ry

     iteration #  5     ecut=    60.00 Ry     beta= 0.30
     Davidson diagonalization with overlap
     ethr =  6.45E-09,  avg # of iterations =  2.6

     negative rho (up, down):  6.846E-05 0.000E+00

     total cpu time spent up to now is      872.7 secs

     total energy              =    -451.78401700 Ry
     estimated scf accuracy    <       0.00000085 Ry

     iteration #  6     ecut=    60.00 Ry     beta= 0.30
     Davidson diagonalization with overlap
     ethr =  8.13E-10,  avg # of iterations =  3.8

     negative rho (up, down):  6.816E-05 0.000E+00

     total cpu time spent up to now is      883.2 secs

     total energy              =    -451.78401710 Ry
     estimated scf accuracy    <       0.00000060 Ry

     iteration #  7     ecut=    60.00 Ry     beta= 0.30
     Davidson diagonalization with overlap
     ethr =  5.75E-10,  avg # of iterations =  2.9

     negative rho (up, down):  6.826E-05 0.000E+00

     total cpu time spent up to now is      892.6 secs

     total energy              =    -451.78401725 Ry
     estimated scf accuracy    <       0.00000009 Ry

     iteration #  8     ecut=    60.00 Ry     beta= 0.30
     Davidson diagonalization with overlap
     ethr =  8.21E-11,  avg # of iterations =  2.0

     negative rho (up, down):  6.841E-05 0.000E+00

     total cpu time spent up to now is      900.8 secs

     End of self-consistent calculation

          k = 0.0000-0.0000 0.0000 ( 19679 PWs)   bands (ev):

   -17.6601 -16.0131 -13.3081 -13.3081 -13.0903 -12.9763 -12.7602 -11.7616
   -11.5527 -11.5527  -9.2303  -9.2303  -9.0856  -8.7449  -8.7449  -8.6299
    -8.1303  -8.1303  -7.7853  -7.6873  -7.6873  -5.4911  -5.3455  -5.1538
    -4.8150  -4.8150  -3.8873  -3.8873  -3.4213  -3.4213  -2.5903  -2.2142
    -2.2142  -2.1140  -2.0897  -2.0897  -1.9261  -1.7650  -1.7385  -1.1965
    -1.1965  -1.1411   0.3065   0.4092   0.4995   0.4995   0.5319   0.8821
     0.9716   1.0972   1.3740   1.6185   5.4070   5.8771   7.5413   7.7961
     7.8170   8.4390   8.6639   8.9547   8.9553   9.1103

          k = 0.0000-0.2000 0.0000 ( 19607 PWs)   bands (ev):

   -17.4961 -16.0255 -14.1725 -13.3519 -13.1520 -13.1520 -11.6640 -11.5645
   -11.5645 -11.4762 -10.2588 -10.2588  -9.1725  -8.5088  -8.5088  -8.1145
    -7.7080  -7.5562  -7.5562  -7.3993  -7.3993  -5.9396  -5.0512  -4.9209
    -4.9209  -4.7606  -3.8085  -3.8085  -3.2392  -3.2392  -3.1412  -2.4518
    -2.2782  -2.2782  -1.9792  -1.8689  -1.8689  -1.8399  -1.3380  -1.1999
    -1.1999  -1.1576  -0.3602  -0.2175  -0.2175  -0.1383   0.3733   0.6710
     1.2232   1.2981   1.4180   1.6858   5.6417   6.0803   7.8221   8.1930
     8.3115   8.5452   8.6148   8.8465   8.8465   8.8662

          k = 0.0000-0.4000 0.0000 ( 19598 PWs)   bands (ev):

   -17.0263 -16.3806 -14.5406 -14.0657 -12.7228 -12.7228 -11.9117 -11.9117
   -11.3238 -10.9452 -10.8105 -10.8105  -8.9261  -8.9261  -8.6312  -7.7888
    -7.1836  -7.0907  -7.0907  -6.7446  -6.7446  -6.2500  -4.9410  -4.5997
    -4.5997  -4.4553  -3.9895  -3.6560  -3.6560  -3.2106  -3.2106  -3.1329
    -2.0574  -1.9861  -1.9861  -1.8840  -1.8840  -1.6755  -1.5050  -1.3981
    -1.3981  -1.2556  -1.2556  -1.1300  -0.5287  -0.2554   0.0692   0.1325
     0.8595   1.2256   1.8254   1.9009   6.2955   6.6570   7.3355   7.5900
     8.2601   8.5551   8.5551   8.6582   8.9377   8.9603

          k = 0.2000-0.2000 0.0000 ( 19577 PWs)   bands (ev):

   -17.3132 -15.8457 -14.6292 -13.9985 -13.2560 -13.1809 -11.5909 -11.5005
   -11.3101 -11.0185 -10.8850  -9.9004  -9.0718  -8.8792  -8.5909  -7.9733
    -7.8624  -7.5649  -7.2330  -6.2249  -6.0617  -5.8603  -5.5989  -5.0260
    -4.9894  -4.6556  -4.2963  -3.6875  -3.4642  -3.0347  -2.9898  -2.6462
    -2.3257  -2.3018  -2.2997  -1.9629  -1.7430  -1.7204  -1.4796  -1.2916
    -1.1250  -0.9670  -0.9293  -0.4709  -0.4644  -0.1100   0.2147   0.3093
     0.6552   0.7505   1.2209   1.3956   5.8099   6.2730   8.0478   8.1017
     8.2484   8.6169   8.6818   8.8086   8.8653   9.0115

          k = 0.2000-0.4000 0.0000 ( 19611 PWs)   bands (ev):

   -16.8441 -16.1995 -14.3664 -14.1713 -13.8929 -13.5492 -11.9361 -11.4721
   -11.1627 -10.7865 -10.7366 -10.3411  -8.5264  -8.4499  -8.3607  -7.8429
    -7.6914  -7.4590  -7.0368  -6.1051  -5.7428  -5.3672  -5.3541  -4.8432
    -4.6509  -4.3728  -4.1515  -3.9456  -3.9218  -3.1984  -3.0991  -2.9417
    -2.7115  -2.5810  -2.3994  -1.8892  -1.8493  -1.6941  -1.5729  -1.2634
    -1.2045  -1.0891  -0.9427  -0.8322  -0.8039  -0.7809  -0.5278  -0.0347
     0.9125   1.0523   1.1089   1.3822   6.4622   6.8511   7.4986   7.7600
     7.9451   8.1387   8.3186   8.8866   8.9532   9.3638

          k = 0.4000-0.4000 0.0000 ( 19634 PWs)   bands (ev):

   -16.2999 -15.6586 -15.4019 -14.7668 -13.8484 -13.3791 -13.0059 -12.5442
   -10.6920 -10.3237 -10.0139  -9.7329  -8.7215  -8.3401  -8.0845  -7.5389
    -6.6512  -6.4460  -6.2054  -5.7250  -5.6501  -5.3450  -5.2773  -4.9703
    -4.7665  -4.7649  -4.3425  -4.1323  -3.9003  -3.8811  -3.4883  -3.2347
    -2.9331  -2.7529  -2.6600  -2.4463  -2.1575  -2.0007  -1.4821  -1.4620
    -1.2353  -1.2048  -0.9710  -0.8392  -0.6867  -0.5345  -0.1418  -0.0243
    -0.0210   0.1633   0.6073   0.9464   6.8782   7.3165   7.3921   7.6027
     7.7690   8.0505   8.1709   8.2553   8.4740   8.7483

          k =-0.2000 0.0000 0.0000 ( 19607 PWs)   bands (ev):

   -17.4769 -15.8337 -14.7890 -13.2709 -12.9208 -12.8061 -12.5867 -11.5983
   -11.2902 -10.7090 -10.4097 -10.0615  -9.2515  -9.0749  -8.9985  -8.4765
    -7.6354  -7.4573  -6.8811  -6.8361  -6.6484  -5.4423  -5.4010  -5.2709
    -5.1497  -5.0207  -4.0917  -3.8213  -3.6171  -3.2956  -2.6715  -2.4660
    -2.3977  -2.2028  -1.9974  -1.7228  -1.6919  -1.6799  -1.6482  -1.5497
    -1.2052  -0.8410  -0.4437  -0.0630   0.0054   0.0188   0.3265   0.5905
     0.8167   0.9135   0.9336   1.4535   5.5773   6.0663   7.9033   7.9908
     8.0893   8.1785   8.4133   8.8112   9.1269   9.4244

          k =-0.4000 0.0000 0.0000 ( 19598 PWs)   bands (ev):

   -16.9298 -16.0267 -15.2987 -14.4222 -12.4160 -12.3027 -12.0692 -11.5919
   -11.5035 -11.2185 -11.1117 -10.3144  -9.5850  -8.8972  -8.0557  -7.7938
    -7.2106  -6.8926  -6.6483  -6.4222  -5.6423  -5.5409  -5.5008  -5.1532
    -4.6006  -4.5158  -4.4089  -3.9332  -3.8410  -3.7964  -3.2252  -2.6628
    -2.5041  -2.4906  -1.7310  -1.7294  -1.5243  -1.4964  -1.4848  -1.4739
    -1.2694  -1.2152  -1.2038  -0.8906  -0.4929  -0.4052  -0.3533   0.1284
     0.1832   0.7007   1.0290   1.0690   6.0888   6.5020   6.9675   7.1433
     8.4643   8.6638   9.1561   9.2294   9.2304   9.3875

          k =-0.4000 0.2000 0.0000 ( 19611 PWs)   bands (ev):

   -16.7668 -15.8651 -15.3092 -14.4284 -13.4804 -12.6737 -12.6346 -11.8555
   -11.0178 -10.8144 -10.2634 -10.0041  -9.4816  -8.9111  -7.7283  -7.6145
    -7.1863  -6.8769  -6.5994  -6.0870  -5.8228  -5.6433  -5.3578  -5.0202
    -4.7693  -4.6261  -4.2066  -3.9932  -3.6706  -3.6136  -2.9334  -2.8903
    -2.6978  -2.6917  -2.4577  -2.0827  -1.7309  -1.6777  -1.5584  -1.2643
    -1.2585  -1.1927  -0.7561  -0.7535  -0.6988  -0.4422  -0.3325  -0.3166
    -0.0587   0.6549   0.6684   1.0894   6.2941   6.7237   7.1216   7.3552
     8.3521   8.7171   8.8453   8.8674   8.9037   9.2262

     the Fermi energy is     3.3336 ev

!    total energy              =    -451.78401727 Ry
     estimated scf accuracy    <          4.3E-09 Ry
     smearing contrib. (-TS)   =       0.00000000 Ry
     internal energy E=F+TS    =    -451.78401727 Ry

     The total energy is F=E-TS. E is the sum of the following terms:
     one-electron contribution =   -2301.93105584 Ry
     hartree contribution      =    1191.87342083 Ry
     xc contribution           =    -117.59946728 Ry
     ewald contribution        =     923.78780389 Ry
     one-center paw contrib.   =    -147.91471887 Ry

     convergence has been achieved in   8 iterations

     negative rho (up, down):  6.841E-05 0.000E+00

     Forces acting on atoms (cartesian axes, Ry/au):

     atom    1 type  1   force =     0.00000000   -0.00757697   -0.00654600
     atom    2 type  1   force =     0.00000000   -0.00251332   -0.00098807
     atom    3 type  1   force =    -0.00000000    0.00000000    0.00366788
     atom    4 type  1   force =     0.00000000   -0.00000000    0.00190075
     atom    5 type  1   force =     0.00000000    0.00251340    0.00098814
     atom    6 type  1   force =     0.00000000    0.00757700    0.00654588
     atom    7 type  1   force =     0.00000000    0.00757697   -0.00654600
     atom    8 type  1   force =     0.00000000    0.00251332   -0.00098807
     atom    9 type  1   force =     0.00000000    0.00000000   -0.00190079
     atom   10 type  1   force =     0.00000000    0.00000000   -0.00366788
     atom   11 type  1   force =     0.00000000   -0.00251340    0.00098814
     atom   12 type  1   force =     0.00000000   -0.00757700    0.00654588
     atom   13 type  2   force =     0.00000000   -0.00266384   -0.00331634
     atom   14 type  2   force =     0.00000000    0.00266384   -0.00331634
     atom   15 type  2   force =     0.00000000    0.00266381    0.00331641
     atom   16 type  2   force =     0.00000000   -0.00266381    0.00331641
     atom   17 type  1   force =     0.00000000   -0.00757698   -0.00654601
     atom   18 type  1   force =    -0.00000000   -0.00251332   -0.00098807
     atom   19 type  1   force =     0.00000000   -0.00000000    0.00366788
     atom   20 type  1   force =     0.00000000   -0.00000000    0.00190076
     atom   21 type  1   force =     0.00000000    0.00251340    0.00098814
     atom   22 type  1   force =    -0.00000000    0.00757700    0.00654588
     atom   23 type  1   force =     0.00000000    0.00757698   -0.00654601
     atom   24 type  1   force =    -0.00000000    0.00251332   -0.00098807
     atom   25 type  1   force =    -0.00000000    0.00000000   -0.00190079
     atom   26 type  1   force =     0.00000000    0.00000000   -0.00366788
     atom   27 type  1   force =     0.00000000   -0.00251340    0.00098814
     atom   28 type  1   force =    -0.00000000   -0.00757700    0.00654588
     atom   29 type  2   force =     0.00000000   -0.00266384   -0.00331633
     atom   30 type  2   force =     0.00000000    0.00266384   -0.00331633
     atom   31 type  2   force =    -0.00000000    0.00266381    0.00331641
     atom   32 type  2   force =    -0.00000000   -0.00266381    0.00331641

     Total force =     0.032763     Total SCF correction =     0.000149
     Energy error            =      3.5E-03 Ry
     Gradient error          =      7.6E-03 Ry/Bohr

     number of scf cycles    =   7
     number of bfgs steps    =   6

     energy             old  =    -451.7804800286 Ry
     energy             new  =    -451.7840172662 Ry

     CASE: energy            _new < energy            _old

     new trust radius        =       0.0371943808 bohr
     new conv_thr            =       0.0000000076 Ry


ATOMIC_POSITIONS (angstrom)
C                0.0000000000       -0.7948291064        9.3959436364
C                1.2634728922       -1.1602544049        8.5908988939
C                1.2634728946        0.0000000000        7.5476791960
C                0.0000000000        0.0000000000        6.6591299686
C                0.0000000000       -1.3666913503        5.9104012260
C                1.2634728910       -1.7321166435        5.1053563950
C                0.0000000000       -4.2590624636        9.3959436364
C                1.2634728922       -3.8936371651        8.5908988939
C                1.2634728910       -2.5269457800        7.8421700866
C                0.0000000000       -2.5269457800        6.9536208892
C                0.0000000000       -3.6872002197        5.9104012260
C                1.2634728910       -3.3217749165        5.1053563950
H                0.0000000000       -1.2229095202       10.4082642486
H                0.0000000000       -3.8309820498       10.4082642486
H                1.2634728911       -1.3040362698        4.0930358794
H                1.2634728911       -3.7498553002        4.0930358794
C                2.5269457800       -0.7948291077        9.3959436383
C                3.7904186778       -1.1602544049        8.5908988939
C                3.7904186754        0.0000000000        7.5476791960
C                2.5269457800        0.0000000000        6.6591299712
C                2.5269457800       -1.3666913492        5.9104012268
C                3.7904186790       -1.7321166435        5.1053563950
C                2.5269457800       -4.2590624623        9.3959436383
C                3.7904186778       -3.8936371651        8.5908988939
C                3.7904186790       -2.5269457800        7.8421700866
C                2.5269457800       -2.5269457800        6.9536208834
C                2.5269457800       -3.6872002208        5.9104012268
C                3.7904186790       -3.3217749165        5.1053563950
H                2.5269457800       -1.2229095214       10.4082642484
H                2.5269457800       -3.8309820486       10.4082642484
H                3.7904186789       -1.3040362698        4.0930358794
H                3.7904186789       -3.7498553002        4.0930358794



     Writing config-only to output data dir ./tmp/slab.save/ :
     XML data file
     NEW-OLD atomic charge density approx. for the potential

     Check: negative core charge=   -0.000002

     negative rho (up, down):  7.599E-05 0.000E+00

     total cpu time spent up to now is      903.9 secs

     Self-consistent Calculation

     iteration #  1     ecut=    60.00 Ry     beta= 0.30
     Davidson diagonalization with overlap
     ethr =  1.00E-06,  avg # of iterations =  6.4

     negative rho (up, down):  7.379E-05 0.000E+00

     total cpu time spent up to now is      921.6 secs

     total energy              =    -451.78561914 Ry
     estimated scf accuracy    <       0.00139191 Ry

     iteration #  2     ecut=    60.00 Ry     beta= 0.30
     Davidson diagonalization with overlap
     ethr =  1.34E-06,  avg # of iterations =  3.9

     negative rho (up, down):  7.018E-05 0.000E+00

     total cpu time spent up to now is      930.3 secs

     total energy              =    -451.78567628 Ry
     estimated scf accuracy    <       0.00036652 Ry

     iteration #  3     ecut=    60.00 Ry     beta= 0.30
     Davidson diagonalization with overlap
     ethr =  3.52E-07,  avg # of iterations =  1.0

     negative rho (up, down):  6.777E-05 0.000E+00

     total cpu time spent up to now is      937.0 secs

     total energy              =    -451.78568016 Ry
     estimated scf accuracy    <       0.00010050 Ry

     iteration #  4     ecut=    60.00 Ry     beta= 0.30
     Davidson diagonalization with overlap
     ethr =  9.66E-08,  avg # of iterations =  2.0

     negative rho (up, down):  6.745E-05 0.000E+00

     total cpu time spent up to now is      944.8 secs

     total energy              =    -451.78568663 Ry
     estimated scf accuracy    <       0.00000488 Ry

     iteration #  5     ecut=    60.00 Ry     beta= 0.30
     Davidson diagonalization with overlap
     ethr =  4.69E-09,  avg # of iterations =  3.6

     negative rho (up, down):  6.730E-05 0.000E+00

     total cpu time spent up to now is      954.8 secs

     total energy              =    -451.78568768 Ry
     estimated scf accuracy    <       0.00000053 Ry

     iteration #  6     ecut=    60.00 Ry     beta= 0.30
     Davidson diagonalization with overlap
     ethr =  5.06E-10,  avg # of iterations =  2.2

     negative rho (up, down):  6.736E-05 0.000E+00

     total cpu time spent up to now is      963.6 secs

     total energy              =    -451.78568776 Ry
     estimated scf accuracy    <       0.00000011 Ry

     iteration #  7     ecut=    60.00 Ry     beta= 0.30
     Davidson diagonalization with overlap
     ethr =  1.04E-10,  avg # of iterations =  3.3

     negative rho (up, down):  6.733E-05 0.000E+00

     total cpu time spent up to now is      973.5 secs

     total energy              =    -451.78568778 Ry
     estimated scf accuracy    <       0.00000001 Ry

     iteration #  8     ecut=    60.00 Ry     beta= 0.30
     Davidson diagonalization with overlap
     ethr =  1.34E-11,  avg # of iterations =  3.4

     negative rho (up, down):  6.735E-05 0.000E+00

     total cpu time spent up to now is      984.4 secs

     total energy              =    -451.78568778 Ry
     estimated scf accuracy    <       0.00000002 Ry

     iteration #  9     ecut=    60.00 Ry     beta= 0.30
     Davidson diagonalization with overlap
     ethr =  1.34E-11,  avg # of iterations =  3.2

     negative rho (up, down):  6.742E-05 0.000E+00

     total cpu time spent up to now is      994.0 secs

     End of self-consistent calculation

          k = 0.0000-0.0000 0.0000 ( 19679 PWs)   bands (ev):

   -17.7387 -16.0613 -13.3843 -13.3843 -13.1537 -12.9833 -12.8397 -11.8135
   -11.5907 -11.5907  -9.2910  -9.2910  -9.0700  -8.8181  -8.8181  -8.6860
    -8.1570  -8.1570  -7.8296  -7.7455  -7.7455  -5.4496  -5.3614  -5.1683
    -4.8303  -4.8303  -3.9094  -3.9094  -3.4600  -3.4600  -2.6826  -2.2126
    -2.2126  -2.2023  -2.1069  -2.1069  -1.9136  -1.7562  -1.6805  -1.2061
    -1.1842  -1.1842   0.2309   0.4154   0.4154   0.4305   0.5459   0.8232
     0.8923   1.0229   1.3389   1.6738   5.4240   5.8825   7.4667   7.7582
     7.7861   8.3945   8.6707   9.0017   9.0017   9.1561

          k = 0.0000-0.2000 0.0000 ( 19607 PWs)   bands (ev):

   -17.5745 -16.0791 -14.2381 -13.3746 -13.2283 -13.2283 -11.7007 -11.6082
   -11.6082 -11.5397 -10.3165 -10.3165  -9.1646  -8.5545  -8.5545  -8.1640
    -7.7538  -7.6139  -7.6139  -7.4477  -7.4477  -5.9338  -5.0453  -4.9397
    -4.9397  -4.7726  -3.8292  -3.8292  -3.2666  -3.2666  -3.2101  -2.5436
    -2.2945  -2.2945  -1.9417  -1.8740  -1.8740  -1.8352  -1.3390  -1.2279
    -1.1996  -1.1996  -0.3697  -0.2958  -0.2958  -0.2133   0.3930   0.6097
     1.2210   1.3435   1.3456   1.6360   5.6583   6.0869   7.8056   8.1410
     8.2539   8.5563   8.6132   8.8260   8.9057   8.9057

          k = 0.0000-0.4000 0.0000 ( 19598 PWs)   bands (ev):

   -17.1032 -16.4509 -14.5885 -14.1025 -12.7996 -12.7996 -11.9774 -11.9774
   -11.3498 -10.9776 -10.8410 -10.8410  -8.9845  -8.9845  -8.6376  -7.7987
    -7.2476  -7.1244  -7.1244  -6.7906  -6.7906  -6.3058  -4.9797  -4.6238
    -4.6238  -4.4703  -3.9945  -3.6898  -3.6898  -3.2196  -3.2196  -3.1390
    -2.1474  -2.0358  -2.0358  -1.9200  -1.9200  -1.6734  -1.5897  -1.3999
    -1.3999  -1.2857  -1.2857  -1.1250  -0.4988  -0.3193   0.0718   0.0995
     0.8823   1.2381   1.7616   1.8449   6.3107   6.6633   7.3542   7.5974
     8.2485   8.5974   8.5974   8.6016   8.9319   8.9706

          k = 0.2000-0.2000 0.0000 ( 19577 PWs)   bands (ev):

   -17.3916 -15.8993 -14.7070 -14.0641 -13.3105 -13.2037 -11.6583 -11.5373
   -11.3736 -11.0791 -10.9010  -9.9577  -9.0641  -8.9442  -8.6413  -8.0224
    -7.9198  -7.6117  -7.2708  -6.2620  -6.1244  -5.8561  -5.6165  -5.0714
    -4.9855  -4.6688  -4.3328  -3.6797  -3.5470  -3.1008  -3.0054  -2.6644
    -2.3862  -2.3278  -2.3112  -1.9339  -1.7415  -1.7376  -1.5137  -1.2895
    -1.1608  -1.0127  -0.9230  -0.5162  -0.4856  -0.1582   0.1450   0.3187
     0.5908   0.7089   1.2590   1.3791   5.8264   6.2828   8.0402   8.1517
     8.2735   8.6122   8.6924   8.8394   8.8491   8.9859

          k = 0.2000-0.4000 0.0000 ( 19611 PWs)   bands (ev):

   -16.9210 -16.2698 -14.4144 -14.2479 -13.9297 -13.6194 -11.9871 -11.5095
   -11.1887 -10.8189 -10.7918 -10.3903  -8.5328  -8.5038  -8.4095  -7.8874
    -7.7018  -7.5033  -7.1017  -6.1601  -5.7712  -5.4031  -5.3980  -4.8804
    -4.6879  -4.3878  -4.1908  -3.9955  -3.9327  -3.2479  -3.0968  -2.9837
    -2.7136  -2.6555  -2.4475  -1.9174  -1.8630  -1.7305  -1.5764  -1.2851
    -1.2609  -1.0984  -0.9466  -0.8792  -0.8347  -0.7988  -0.5095  -0.0106
     0.9224   1.0198   1.0558   1.3681   6.4772   6.8596   7.5175   7.7680
     7.9951   8.1754   8.3368   8.8962   8.9674   9.3723

          k = 0.4000-0.4000 0.0000 ( 19634 PWs)   bands (ev):

   -16.3768 -15.7289 -15.4787 -14.8371 -13.8965 -13.4160 -13.0540 -12.5811
   -10.7180 -10.3557 -10.0397  -9.7621  -8.7740  -8.3521  -8.1370  -7.5561
    -6.7209  -6.5033  -6.2467  -5.7757  -5.6872  -5.3852  -5.3286  -5.0362
    -4.8252  -4.8058  -4.4040  -4.1556  -3.9582  -3.9305  -3.5162  -3.2682
    -2.9331  -2.7714  -2.6883  -2.4892  -2.1815  -2.0265  -1.4930  -1.4677
    -1.2575  -1.2148  -1.0029  -0.8428  -0.6897  -0.5432  -0.1490  -0.0332
    -0.0299   0.1373   0.6124   0.9354   6.8943   7.3306   7.4186   7.6453
     7.7851   8.0777   8.1748   8.2625   8.5003   8.7758

          k =-0.2000 0.0000 0.0000 ( 19607 PWs)   bands (ev):

   -17.5555 -15.8819 -14.8671 -13.3212 -12.9843 -12.8131 -12.6661 -11.6504
   -11.3534 -10.7163 -10.4745 -10.1392  -9.3071  -9.1345  -8.9842  -8.5324
    -7.6796  -7.5081  -6.9508  -6.8532  -6.6999  -5.4074  -5.4041  -5.2880
    -5.2071  -5.0356  -4.1417  -3.8053  -3.7013  -3.3148  -2.6955  -2.5004
    -2.4148  -2.2329  -2.0838  -1.7157  -1.7030  -1.6341  -1.6332  -1.5704
    -1.2018  -0.8216  -0.5118  -0.1524  -0.0397   0.0079   0.2552   0.5786
     0.8020   0.8376   0.8732   1.5036   5.5941   6.0755   7.8559   8.0278
     8.1114   8.1484   8.3628   8.8201   9.1440   9.4602

          k =-0.4000 0.0000 0.0000 ( 19598 PWs)   bands (ev):

   -17.0084 -16.1053 -15.3471 -14.4707 -12.4796 -12.3096 -12.1483 -11.6556
   -11.5097 -11.2972 -11.1644 -10.3682  -9.6266  -8.8940  -8.1111  -7.8518
    -7.2547  -6.9316  -6.6929  -6.4527  -5.6377  -5.5908  -5.5709  -5.1774
    -4.6508  -4.5363  -4.4251  -3.9599  -3.8544  -3.7957  -3.2864  -2.7064
    -2.5472  -2.4998  -1.8010  -1.7480  -1.5509  -1.5307  -1.5293  -1.4937
    -1.3171  -1.2240  -1.2082  -0.8716  -0.4636  -0.4172  -0.3944   0.1139
     0.1819   0.7396   0.9662   1.0009   6.1063   6.5138   6.9872   7.1620
     8.4343   8.6574   9.1363   9.2059   9.2470   9.3994

          k =-0.4000 0.2000 0.0000 ( 19611 PWs)   bands (ev):

   -16.8452 -15.9433 -15.3629 -14.4820 -13.5460 -12.7002 -12.6965 -11.8777
   -11.0549 -10.8780 -10.3012 -10.0670  -9.5218  -8.9096  -7.7819  -7.6622
    -7.2380  -6.9267  -6.6391  -6.1216  -5.8320  -5.7059  -5.4266  -5.0396
    -4.8002  -4.6537  -4.2263  -4.0330  -3.6891  -3.6264  -2.9707  -2.9584
    -2.7355  -2.7080  -2.5169  -2.1403  -1.7440  -1.6779  -1.5716  -1.3049
    -1.2757  -1.1904  -0.7795  -0.7763  -0.7262  -0.4706  -0.3483  -0.3017
    -0.0605   0.6226   0.6825   1.0640   6.3111   6.7363   7.1417   7.3772
     8.3650   8.7515   8.8487   8.9038   8.9145   9.2418

     the Fermi energy is     3.3407 ev

!    total energy              =    -451.78568780 Ry
     estimated scf accuracy    <          1.5E-09 Ry
     smearing contrib. (-TS)   =       0.00000000 Ry
     internal energy E=F+TS    =    -451.78568780 Ry

     The total energy is F=E-TS. E is the sum of the following terms:
     one-electron contribution =   -2320.82466056 Ry
     hartree contribution      =    1201.26045172 Ry
     xc contribution           =    -117.70857712 Ry
     ewald contribution        =     933.40436724 Ry
     one-center paw contrib.   =    -147.91726908 Ry

     convergence has been achieved in   9 iterations

     negative rho (up, down):  6.742E-05 0.000E+00

     Forces acting on atoms (cartesian axes, Ry/au):

     atom    1 type  1   force =     0.00000000   -0.00458609   -0.00143960
     atom    2 type  1   force =     0.00000000   -0.00221134    0.00050295
     atom    3 type  1   force =    -0.00000001    0.00000000   -0.00012604
     atom    4 type  1   force =     0.00000000    0.00000000   -0.00065396
     atom    5 type  1   force =     0.00000000    0.00221128   -0.00050306
     atom    6 type  1   force =     0.00000000    0.00458602    0.00143980
     atom    7 type  1   force =     0.00000000    0.00458609   -0.00143960
     atom    8 type  1   force =     0.00000000    0.00221134    0.00050295
     atom    9 type  1   force =     0.00000000   -0.00000000    0.00065404
     atom   10 type  1   force =     0.00000000   -0.00000000    0.00012601
     atom   11 type  1   force =     0.00000000   -0.00221128   -0.00050306
     atom   12 type  1   force =     0.00000000   -0.00458602    0.00143980
     atom   13 type  2   force =     0.00000000   -0.00248315    0.00067183
     atom   14 type  2   force =     0.00000000    0.00248315    0.00067183
     atom   15 type  2   force =    -0.00000000    0.00248321   -0.00067193
     atom   16 type  2   force =    -0.00000000   -0.00248321   -0.00067193
     atom   17 type  1   force =     0.00000000   -0.00458609   -0.00143960
     atom   18 type  1   force =    -0.00000000   -0.00221134    0.00050295
     atom   19 type  1   force =     0.00000001    0.00000000   -0.00012604
     atom   20 type  1   force =     0.00000000    0.00000000   -0.00065397
     atom   21 type  1   force =     0.00000000    0.00221127   -0.00050307
     atom   22 type  1   force =    -0.00000000    0.00458602    0.00143980
     atom   23 type  1   force =     0.00000000    0.00458609   -0.00143960
     atom   24 type  1   force =    -0.00000000    0.00221134    0.00050295
     atom   25 type  1   force =    -0.00000000    0.00000000    0.00065404
     atom   26 type  1   force =     0.00000000   -0.00000000    0.00012602
     atom   27 type  1   force =     0.00000000   -0.00221127   -0.00050307
     atom   28 type  1   force =    -0.00000000   -0.00458602    0.00143980
     atom   29 type  2   force =     0.00000000   -0.00248315    0.00067183
     atom   30 type  2   force =     0.00000000    0.00248315    0.00067183
     atom   31 type  2   force =     0.00000000    0.00248321   -0.00067193
     atom   32 type  2   force =     0.00000000   -0.00248321   -0.00067193

     Total force =     0.016754     Total SCF correction =     0.000114
     Energy error            =      1.7E-03 Ry
     Gradient error          =      4.6E-03 Ry/Bohr

     number of scf cycles    =   8
     number of bfgs steps    =   7

     energy             old  =    -451.7840172662 Ry
     energy             new  =    -451.7856878006 Ry

     CASE: energy            _new < energy            _old

     new trust radius        =       0.0054635379 bohr
     new conv_thr            =       0.0000000046 Ry


ATOMIC_POSITIONS (angstrom)
C                0.0000000000       -0.7970316742        9.3940708409
C                1.2634728918       -1.1614949932        8.5901796411
C                1.2634728921        0.0000000000        7.5477653545
C                0.0000000000        0.0000000000        6.6600729771
C                0.0000000000       -1.3654507984        5.9111204135
C                1.2634728919       -1.7299141165        5.1072293060
C                0.0000000000       -4.2568598958        9.3940708409
C                1.2634728918       -3.8923965768        8.5901796411
C                1.2634728921       -2.5269457800        7.8412271183
C                0.0000000000       -2.5269457800        6.9535347123
C                0.0000000000       -3.6884407716        5.9111204135
C                1.2634728919       -3.3239774435        5.1072293060
H                0.0000000000       -1.2248948587       10.4067323327
H                0.0000000000       -3.8289967113       10.4067323327
H                1.2634728911       -1.3020509000        4.0945677345
H                1.2634728911       -3.7518406700        4.0945677345
C                2.5269457800       -0.7970316751        9.3940708416
C                3.7904186782       -1.1614949932        8.5901796411
C                3.7904186779        0.0000000000        7.5477653545
C                2.5269457800        0.0000000000        6.6600729776
C                2.5269457800       -1.3654507989        5.9111204121
C                3.7904186781       -1.7299141165        5.1072293060
C                2.5269457800       -4.2568598949        9.3940708416
C                3.7904186782       -3.8923965768        8.5901796411
C                3.7904186779       -2.5269457800        7.8412271183
C                2.5269457800       -2.5269457800        6.9535347122
C                2.5269457800       -3.6884407711        5.9111204121
C                3.7904186781       -3.3239774435        5.1072293060
H                2.5269457800       -1.2248948602       10.4067323336
H                2.5269457800       -3.8289967098       10.4067323336
H                3.7904186789       -1.3020509000        4.0945677345
H                3.7904186789       -3.7518406700        4.0945677345



     Writing config-only to output data dir ./tmp/slab.save/ :
     XML data file
     NEW-OLD atomic charge density approx. for the potential

     Check: negative core charge=   -0.000002

     negative rho (up, down):  6.807E-05 0.000E+00

     total cpu time spent up to now is      997.2 secs

     Self-consistent Calculation

     iteration #  1     ecut=    60.00 Ry     beta= 0.30
     Davidson diagonalization with overlap
     ethr =  1.00E-06,  avg # of iterations =  3.0

     Threshold (ethr) on eigenvalues was too large:
     Diagonalizing with lowered threshold

     Davidson diagonalization with overlap
     ethr =  4.00E-08,  avg # of iterations =  3.4

     negative rho (up, down):  6.772E-05 0.000E+00

     total cpu time spent up to now is     1017.4 secs

     total energy              =    -451.78588318 Ry
     estimated scf accuracy    <       0.00005687 Ry

     iteration #  2     ecut=    60.00 Ry     beta= 0.30
     Davidson diagonalization with overlap
     ethr =  5.47E-08,  avg # of iterations =  1.8

     negative rho (up, down):  6.727E-05 0.000E+00

     total cpu time spent up to now is     1025.1 secs

     total energy              =    -451.78588334 Ry
     estimated scf accuracy    <       0.00001490 Ry

     iteration #  3     ecut=    60.00 Ry     beta= 0.30
     Davidson diagonalization with overlap
     ethr =  1.43E-08,  avg # of iterations =  2.3

     negative rho (up, down):  6.706E-05 0.000E+00

     total cpu time spent up to now is     1034.0 secs

     total energy              =    -451.78588511 Ry
     estimated scf accuracy    <       0.00000276 Ry

     iteration #  4     ecut=    60.00 Ry     beta= 0.30
     Davidson diagonalization with overlap
     ethr =  2.65E-09,  avg # of iterations =  2.3

     negative rho (up, down):  6.701E-05 0.000E+00

     total cpu time spent up to now is     1043.4 secs

     total energy              =    -451.78588536 Ry
     estimated scf accuracy    <       0.00000063 Ry

     iteration #  5     ecut=    60.00 Ry     beta= 0.30
     Davidson diagonalization with overlap
     ethr =  6.03E-10,  avg # of iterations =  2.9

     negative rho (up, down):  6.700E-05 0.000E+00

     total cpu time spent up to now is     1053.1 secs

     total energy              =    -451.78588549 Ry
     estimated scf accuracy    <       0.00000011 Ry

     iteration #  6     ecut=    60.00 Ry     beta= 0.30
     Davidson diagonalization with overlap
     ethr =  1.05E-10,  avg # of iterations =  2.4

     negative rho (up, down):  6.701E-05 0.000E+00

     total cpu time spent up to now is     1062.5 secs

     total energy              =    -451.78588552 Ry
     estimated scf accuracy    <       0.00000001 Ry

     iteration #  7     ecut=    60.00 Ry     beta= 0.30
     Davidson diagonalization with overlap
     ethr =  1.31E-11,  avg # of iterations =  2.0

     negative rho (up, down):  6.702E-05 0.000E+00

     total cpu time spent up to now is     1070.6 secs

     total energy              =    -451.78588551 Ry
     estimated scf accuracy    <          6.6E-09 Ry

     iteration #  8     ecut=    60.00 Ry     beta= 0.30
     Davidson diagonalization with overlap
     ethr =  6.30E-12,  avg # of iterations =  3.2

     negative rho (up, down):  6.702E-05 0.000E+00

     total cpu time spent up to now is     1080.7 secs

     End of self-consistent calculation

          k = 0.0000-0.0000 0.0000 ( 19679 PWs)   bands (ev):

   -17.7459 -16.0571 -13.3918 -13.3918 -13.1673 -12.9740 -12.8567 -11.8289
   -11.5826 -11.5826  -9.2995  -9.2995  -9.0564  -8.8344  -8.8344  -8.6944
    -8.1583  -8.1583  -7.8382  -7.7613  -7.7613  -5.4402  -5.3665  -5.1658
    -4.8264  -4.8264  -3.9138  -3.9138  -3.4728  -3.4728  -2.6958  -2.2184
    -2.2017  -2.2017  -2.1160  -2.1160  -1.8932  -1.7615  -1.6705  -1.2127
    -1.1776  -1.1776   0.2161   0.4041   0.4041   0.4450   0.5465   0.8104
     0.8668   0.9975   1.3345   1.6799   5.4284   5.8862   7.4609   7.7502
     7.7897   8.3928   8.6446   9.0062   9.0062   9.1652

          k = 0.0000-0.2000 0.0000 ( 19607 PWs)   bands (ev):

   -17.5812 -16.0746 -14.2544 -13.3720 -13.2353 -13.2353 -11.7101 -11.6005
   -11.6005 -11.5530 -10.3278 -10.3278  -9.1540  -8.5624  -8.5624  -8.1698
    -7.7608  -7.6265  -7.6265  -7.4584  -7.4584  -5.9325  -5.0452  -4.9375
    -4.9375  -4.7689  -3.8339  -3.8339  -3.2718  -3.2718  -3.2196  -2.5566
    -2.3020  -2.3020  -1.9355  -1.8665  -1.8665  -1.8398  -1.3227  -1.2341
    -1.1971  -1.1971  -0.3715  -0.3056  -0.3056  -0.2324   0.3941   0.5924
     1.2292   1.3242   1.3474   1.6231   5.6621   6.0899   7.8016   8.1344
     8.2487   8.5419   8.6107   8.8226   8.9135   8.9135

          k = 0.0000-0.4000 0.0000 ( 19598 PWs)   bands (ev):

   -17.1083 -16.4512 -14.5997 -14.1069 -12.8046 -12.8046 -11.9796 -11.9796
   -11.3548 -10.9839 -10.8421 -10.8421  -8.9982  -8.9982  -8.6336  -7.7961
    -7.2552  -7.1314  -7.1314  -6.8012  -6.8012  -6.3128  -4.9858  -4.6244
    -4.6244  -4.4674  -3.9963  -3.6956  -3.6956  -3.2206  -3.2206  -3.1430
    -2.1595  -2.0356  -2.0356  -1.9304  -1.9304  -1.6718  -1.5993  -1.4039
    -1.4039  -1.2802  -1.2802  -1.1120  -0.4963  -0.3364   0.0560   0.1019
     0.8877   1.2499   1.7427   1.8286   6.3132   6.6638   7.3568   7.5935
     8.2390   8.5953   8.6065   8.6065   8.9092   8.9602

          k = 0.2000-0.2000 0.0000 ( 19577 PWs)   bands (ev):

   -17.3983 -15.8948 -14.7139 -14.0804 -13.3071 -13.2012 -11.6742 -11.5467
   -11.3870 -11.0805 -10.8943  -9.9611  -9.0532  -8.9581  -8.6500  -8.0280
    -7.9350  -7.6189  -7.2753  -6.2663  -6.1375  -5.8548  -5.6155  -5.0744
    -4.9856  -4.6653  -4.3434  -3.6782  -3.5583  -3.1094  -3.0141  -2.6688
    -2.3878  -2.3337  -2.3065  -1.9280  -1.7464  -1.7395  -1.5098  -1.2900
    -1.1681  -1.0129  -0.9234  -0.5177  -0.4888  -0.1701   0.1357   0.3181
     0.5717   0.6990   1.2623   1.3797   5.8301   6.2859   8.0348   8.1593
     8.2760   8.6111   8.6791   8.8402   8.8445   8.9888

          k = 0.2000-0.4000 0.0000 ( 19611 PWs)   bands (ev):

   -16.9261 -16.2702 -14.4256 -14.2531 -13.9342 -13.6198 -11.9999 -11.5147
   -11.1936 -10.8250 -10.7894 -10.3857  -8.5286  -8.5177  -8.4212  -7.8972
    -7.6992  -7.5120  -7.1096  -6.1671  -5.7732  -5.4078  -5.4037  -4.8860
    -4.6933  -4.3848  -4.1978  -4.0040  -3.9354  -3.2565  -3.0976  -2.9892
    -2.7136  -2.6616  -2.4563  -1.9149  -1.8625  -1.7420  -1.5764  -1.2777
    -1.2756  -1.1047  -0.9372  -0.8913  -0.8404  -0.7916  -0.5082  -0.0090
     0.9246   1.0108   1.0395   1.3698   6.4796   6.8602   7.5200   7.7648
     8.0005   8.1789   8.3251   8.8764   8.9624   9.3607

          k = 0.4000-0.4000 0.0000 ( 19634 PWs)   bands (ev):

   -16.3819 -15.7294 -15.4839 -14.8375 -13.9077 -13.4206 -13.0654 -12.5857
   -10.7225 -10.3612 -10.0414  -9.7615  -8.7818  -8.3484  -8.1409  -7.5540
    -6.7301  -6.5119  -6.2561  -5.7821  -5.6895  -5.3871  -5.3356  -5.0426
    -4.8330  -4.8105  -4.4095  -4.1572  -3.9682  -3.9399  -3.5183  -3.2709
    -2.9359  -2.7778  -2.6975  -2.5018  -2.1899  -2.0335  -1.4956  -1.4695
    -1.2642  -1.2093  -1.0121  -0.8342  -0.6876  -0.5412  -0.1491  -0.0375
    -0.0345   0.1363   0.6136   0.9388   6.8960   7.3323   7.4194   7.6492
     7.7847   8.0774   8.1714   8.2532   8.5006   8.7684

          k =-0.2000 0.0000 0.0000 ( 19607 PWs)   bands (ev):

   -17.5627 -15.8777 -14.8744 -13.3187 -12.9979 -12.8037 -12.6831 -11.6659
   -11.3567 -10.7037 -10.4859 -10.1562  -9.3229  -9.1353  -8.9706  -8.5406
    -7.6881  -7.5214  -6.9661  -6.8478  -6.7119  -5.4031  -5.3949  -5.2932
    -5.2133  -5.0332  -4.1587  -3.8007  -3.7129  -3.3190  -2.7087  -2.4944
    -2.4045  -2.2426  -2.0998  -1.7212  -1.7113  -1.6246  -1.6242  -1.5649
    -1.1911  -0.8180  -0.5238  -0.1635  -0.0586   0.0180   0.2310   0.5726
     0.8012   0.8266   0.8603   1.5104   5.5982   6.0792   7.8539   8.0332
     8.1140   8.1466   8.3579   8.7948   9.1542   9.4604

          k =-0.4000 0.0000 0.0000 ( 19598 PWs)   bands (ev):

   -17.0156 -16.1125 -15.3430 -14.4668 -12.4932 -12.3000 -12.1654 -11.6694
   -11.4994 -11.3142 -11.1800 -10.3839  -9.6234  -8.8819  -8.1184  -7.8519
    -7.2631  -6.9398  -6.7014  -6.4518  -5.6323  -5.6011  -5.5793  -5.1831
    -4.6549  -4.5352  -4.4231  -3.9576  -3.8508  -3.7974  -3.3075  -2.7238
    -2.5584  -2.4935  -1.8167  -1.7587  -1.5732  -1.5448  -1.5370  -1.4861
    -1.3355  -1.2124  -1.1934  -0.8636  -0.4562  -0.4238  -0.3931   0.1106
     0.1837   0.7472   0.9541   0.9896   6.1095   6.5171   6.9898   7.1652
     8.4337   8.6576   9.1341   9.2076   9.2250   9.4019

          k =-0.4000 0.2000 0.0000 ( 19611 PWs)   bands (ev):

   -16.8520 -15.9502 -15.3585 -14.4777 -13.5623 -12.7166 -12.6940 -11.8748
   -11.0641 -10.8914 -10.3095 -10.0797  -9.5193  -8.8989  -7.7816  -7.6666
    -7.2465  -6.9339  -6.6487  -6.1231  -5.8310  -5.7168  -5.4345  -5.0436
    -4.8035  -4.6545  -4.2253  -4.0327  -3.6890  -3.6313  -2.9806  -2.9721
    -2.7504  -2.7039  -2.5294  -2.1513  -1.7521  -1.6831  -1.5807  -1.3136
    -1.2683  -1.1857  -0.7814  -0.7779  -0.7335  -0.4686  -0.3499  -0.2999
    -0.0611   0.6166   0.6857   1.0624   6.3141   6.7391   7.1440   7.3806
     8.3591   8.7555   8.8510   8.9039   8.9160   9.2309

     the Fermi energy is     3.3391 ev

!    total energy              =    -451.78588552 Ry
     estimated scf accuracy    <          1.2E-09 Ry
     smearing contrib. (-TS)   =       0.00000000 Ry
     internal energy E=F+TS    =    -451.78588552 Ry

     The total energy is F=E-TS. E is the sum of the following terms:
     one-electron contribution =   -2322.71088847 Ry
     hartree contribution      =    1202.18931387 Ry
     xc contribution           =    -117.71172283 Ry
     ewald contribution        =     934.36483043 Ry
     one-center paw contrib.   =    -147.91741852 Ry

     convergence has been achieved in   8 iterations

     negative rho (up, down):  6.702E-05 0.000E+00

     Forces acting on atoms (cartesian axes, Ry/au):

     atom    1 type  1   force =     0.00000000   -0.00176348    0.00018970
     atom    2 type  1   force =     0.00000000   -0.00073893    0.00018651
     atom    3 type  1   force =     0.00000000   -0.00000000    0.00019641
     atom    4 type  1   force =     0.00000000    0.00000000   -0.00076464
     atom    5 type  1   force =     0.00000000    0.00073896   -0.00018641
     atom    6 type  1   force =     0.00000000    0.00176353   -0.00018988
     atom    7 type  1   force =     0.00000000    0.00176348    0.00018970
     atom    8 type  1   force =     0.00000000    0.00073893    0.00018651
     atom    9 type  1   force =     0.00000000   -0.00000000    0.00076459
     atom   10 type  1   force =     0.00000000    0.00000000   -0.00019637
     atom   11 type  1   force =     0.00000000   -0.00073896   -0.00018641
     atom   12 type  1   force =     0.00000000   -0.00176353   -0.00018988
     atom   13 type  2   force =     0.00000000   -0.00216294    0.00055195
     atom   14 type  2   force =     0.00000000    0.00216294    0.00055195
     atom   15 type  2   force =     0.00000000    0.00216289   -0.00055185
     atom   16 type  2   force =     0.00000000   -0.00216289   -0.00055185
     atom   17 type  1   force =     0.00000000   -0.00176348    0.00018969
     atom   18 type  1   force =    -0.00000000   -0.00073893    0.00018651
     atom   19 type  1   force =    -0.00000000    0.00000000    0.00019641
     atom   20 type  1   force =     0.00000000    0.00000000   -0.00076464
     atom   21 type  1   force =     0.00000000    0.00073896   -0.00018641
     atom   22 type  1   force =    -0.00000000    0.00176353   -0.00018988
     atom   23 type  1   force =     0.00000000    0.00176348    0.00018969
     atom   24 type  1   force =    -0.00000000    0.00073893    0.00018651
     atom   25 type  1   force =    -0.00000000    0.00000000    0.00076459
     atom   26 type  1   force =     0.00000000    0.00000000   -0.00019638
     atom   27 type  1   force =     0.00000000   -0.00073896   -0.00018641
     atom   28 type  1   force =    -0.00000000   -0.00176353   -0.00018988
     atom   29 type  2   force =     0.00000000   -0.00216294    0.00055195
     atom   30 type  2   force =     0.00000000    0.00216294    0.00055195
     atom   31 type  2   force =    -0.00000000    0.00216289   -0.00055185
     atom   32 type  2   force =    -0.00000000   -0.00216289   -0.00055185

     Total force =     0.008495     Total SCF correction =     0.000100
     Energy error            =      2.0E-04 Ry
     Gradient error          =      2.2E-03 Ry/Bohr

     number of scf cycles    =   9
     number of bfgs steps    =   8

     energy             old  =    -451.7856878006 Ry
     energy             new  =    -451.7858855159 Ry

     CASE: energy            _new < energy            _old

     new trust radius        =       0.0043036408 bohr
     new conv_thr            =       0.0000000020 Ry


ATOMIC_POSITIONS (angstrom)
C                0.0000000000       -0.7989214672        9.3940650280
C                1.2634728931       -1.1624152294        8.5902547791
C                1.2634728919        0.0000000000        7.5483092947
C                0.0000000000        0.0000000000        6.6601999842
C                0.0000000000       -1.3645305456        5.9110453450
C                1.2634728934       -1.7280242924        5.1072349845
C                0.0000000000       -4.2549701028        9.3940650280
C                1.2634728931       -3.8914763406        8.5902547791
C                1.2634728926       -2.5269457800        7.8411000760
C                0.0000000000       -2.5269457800        6.9529908029
C                0.0000000000       -3.6893610244        5.9110453450
C                1.2634728934       -3.3258672676        5.1072349845
H                0.0000000000       -1.2271353526       10.4071406047
H                0.0000000000       -3.8267562174       10.4071406047
H                1.2634728911       -1.2998104398        4.0941595304
H                1.2634728911       -3.7540811302        4.0941595304
C                2.5269457800       -0.7989214665        9.3940650266
C                3.7904186769       -1.1624152294        8.5902547791
C                3.7904186781        0.0000000000        7.5483092947
C                2.5269457800        0.0000000000        6.6601999832
C                2.5269457800       -1.3645305462        5.9110453456
C                3.7904186766       -1.7280242924        5.1072349845
C                2.5269457800       -4.2549701035        9.3940650266
C                3.7904186769       -3.8914763406        8.5902547791
C                3.7904186774       -2.5269457800        7.8411000760
C                2.5269457800       -2.5269457800        6.9529908022
C                2.5269457800       -3.6893610238        5.9110453456
C                3.7904186766       -3.3258672676        5.1072349845
H                2.5269457800       -1.2271353539       10.4071406053
H                2.5269457800       -3.8267562161       10.4071406053
H                3.7904186789       -1.2998104398        4.0941595304
H                3.7904186789       -3.7540811302        4.0941595304



     Writing config-only to output data dir ./tmp/slab.save/ :
     XML data file
     NEW-OLD atomic charge density approx. for the potential

     Check: negative core charge=   -0.000002

     negative rho (up, down):  6.696E-05 0.000E+00

     total cpu time spent up to now is     1084.0 secs

     Self-consistent Calculation

     iteration #  1     ecut=    60.00 Ry     beta= 0.30
     Davidson diagonalization with overlap
     ethr =  1.00E-06,  avg # of iterations =  3.0

     Threshold (ethr) on eigenvalues was too large:
     Diagonalizing with lowered threshold

     Davidson diagonalization with overlap
     ethr =  2.98E-08,  avg # of iterations =  3.3

     negative rho (up, down):  6.685E-05 0.000E+00

     total cpu time spent up to now is     1103.7 secs

     total energy              =    -451.78597205 Ry
     estimated scf accuracy    <       0.00004396 Ry

     iteration #  2     ecut=    60.00 Ry     beta= 0.30
     Davidson diagonalization with overlap
     ethr =  4.23E-08,  avg # of iterations =  2.0

     negative rho (up, down):  6.687E-05 0.000E+00

     total cpu time spent up to now is     1111.7 secs

     total energy              =    -451.78597283 Ry
     estimated scf accuracy    <       0.00000918 Ry

     iteration #  3     ecut=    60.00 Ry     beta= 0.30
     Davidson diagonalization with overlap
     ethr =  8.83E-09,  avg # of iterations =  2.4

     negative rho (up, down):  6.694E-05 0.000E+00

     total cpu time spent up to now is     1121.4 secs

     total energy              =    -451.78597453 Ry
     estimated scf accuracy    <       0.00000187 Ry

     iteration #  4     ecut=    60.00 Ry     beta= 0.30
     Davidson diagonalization with overlap
     ethr =  1.79E-09,  avg # of iterations =  2.3

     negative rho (up, down):  6.697E-05 0.000E+00

     total cpu time spent up to now is     1130.5 secs

     total energy              =    -451.78597481 Ry
     estimated scf accuracy    <       0.00000050 Ry

     iteration #  5     ecut=    60.00 Ry     beta= 0.30
     Davidson diagonalization with overlap
     ethr =  4.80E-10,  avg # of iterations =  1.1

     negative rho (up, down):  6.696E-05 0.000E+00

     total cpu time spent up to now is     1137.5 secs

     total energy              =    -451.78597479 Ry
     estimated scf accuracy    <       0.00000009 Ry

     iteration #  6     ecut=    60.00 Ry     beta= 0.30
     Davidson diagonalization with overlap
     ethr =  8.88E-11,  avg # of iterations =  2.8

     negative rho (up, down):  6.696E-05 0.000E+00

     total cpu time spent up to now is     1147.2 secs

     total energy              =    -451.78597482 Ry
     estimated scf accuracy    <       0.00000001 Ry

     iteration #  7     ecut=    60.00 Ry     beta= 0.30
     Davidson diagonalization with overlap
     ethr =  1.40E-11,  avg # of iterations =  2.6

     negative rho (up, down):  6.695E-05 0.000E+00

     total cpu time spent up to now is     1157.2 secs

     total energy              =    -451.78597482 Ry
     estimated scf accuracy    <          3.5E-09 Ry

     iteration #  8     ecut=    60.00 Ry     beta= 0.30
     Davidson diagonalization with overlap
     ethr =  3.32E-12,  avg # of iterations =  2.8

     negative rho (up, down):  6.696E-05 0.000E+00

     total cpu time spent up to now is     1167.1 secs

     End of self-consistent calculation

          k = 0.0000-0.0000 0.0000 ( 19679 PWs)   bands (ev):

   -17.7441 -16.0487 -13.3910 -13.3910 -13.1710 -12.9630 -12.8638 -11.8372
   -11.5706 -11.5706  -9.2997  -9.2997  -9.0459  -8.8422  -8.8422  -8.6985
    -8.1538  -8.1538  -7.8418  -7.7688  -7.7688  -5.4339  -5.3712  -5.1631
    -4.8205  -4.8205  -3.9157  -3.9157  -3.4800  -3.4800  -2.6954  -2.2250
    -2.1929  -2.1929  -2.1225  -2.1225  -1.8794  -1.7671  -1.6669  -1.2101
    -1.1711  -1.1711   0.2169   0.3987   0.3987   0.4528   0.5426   0.8009
     0.8546   0.9851   1.3398   1.6799   5.4310   5.8893   7.4618   7.7500
     7.7929   8.3948   8.6248   9.0048   9.0048   9.1677

          k = 0.0000-0.2000 0.0000 ( 19607 PWs)   bands (ev):

   -17.5791 -16.0654 -14.2613 -13.3661 -13.2342 -13.2342 -11.7143 -11.5884
   -11.5884 -11.5576 -10.3315 -10.3315  -9.1449  -8.5626  -8.5626  -8.1719
    -7.7637  -7.6310  -7.6310  -7.4618  -7.4618  -5.9312  -5.0463  -4.9329
    -4.9329  -4.7652  -3.8365  -3.8365  -3.2737  -3.2737  -3.2225  -2.5561
    -2.3067  -2.3067  -1.9326  -1.8599  -1.8599  -1.8452  -1.3106  -1.2305
    -1.1933  -1.1933  -0.3752  -0.3101  -0.3101  -0.2370   0.3901   0.5864
     1.2328   1.3166   1.3460   1.6214   5.6643   6.0923   7.7989   8.1348
     8.2497   8.5301   8.6095   8.8232   8.9153   8.9153

          k = 0.0000-0.4000 0.0000 ( 19598 PWs)   bands (ev):

   -17.1049 -16.4446 -14.6038 -14.1062 -12.8021 -12.8021 -11.9742 -11.9742
   -11.3560 -10.9854 -10.8389 -10.8389  -9.0026  -9.0026  -8.6285  -7.7931
    -7.2575  -7.1329  -7.1329  -6.8040  -6.8040  -6.3133  -4.9896  -4.6218
    -4.6218  -4.4645  -3.9976  -3.6975  -3.6975  -3.2217  -3.2217  -3.1458
    -2.1585  -2.0318  -2.0318  -1.9366  -1.9366  -1.6716  -1.5968  -1.4067
    -1.4067  -1.2732  -1.2732  -1.1026  -0.4987  -0.3414   0.0515   0.1000
     0.8871   1.2553   1.7369   1.8244   6.3143   6.6636   7.3582   7.5896
     8.2327   8.5969   8.6112   8.6112   8.8888   8.9520

          k = 0.2000-0.2000 0.0000 ( 19577 PWs)   bands (ev):

   -17.3962 -15.8856 -14.7121 -14.0873 -13.2990 -13.1952 -11.6805 -11.5509
   -11.3915 -11.0747 -10.8852  -9.9589  -9.0439  -8.9629  -8.6515  -8.0299
    -7.9411  -7.6220  -7.2738  -6.2655  -6.1434  -5.8532  -5.6117  -5.0716
    -4.9866  -4.6615  -4.3489  -3.6752  -3.5577  -3.1118  -3.0199  -2.6706
    -2.3823  -2.3364  -2.3023  -1.9245  -1.7513  -1.7401  -1.5039  -1.2905
    -1.1692  -1.0076  -0.9219  -0.5166  -0.4911  -0.1751   0.1307   0.3148
     0.5645   0.6964   1.2614   1.3809   5.8320   6.2880   8.0303   8.1611
     8.2759   8.6101   8.6689   8.8381   8.8436   8.9908

          k = 0.2000-0.4000 0.0000 ( 19611 PWs)   bands (ev):

   -16.9228 -16.2635 -14.4297 -14.2500 -13.9335 -13.6134 -12.0055 -11.5147
   -11.1948 -10.8264 -10.7810 -10.3764  -8.5235  -8.5234  -8.4255  -7.8995
    -7.6961  -7.5131  -7.1120  -6.1676  -5.7705  -5.4064  -5.4041  -4.8895
    -4.6944  -4.3816  -4.2008  -4.0068  -3.9369  -3.2574  -3.0982  -2.9893
    -2.7135  -2.6577  -2.4606  -1.9105  -1.8606  -1.7491  -1.5765  -1.2799
    -1.2702  -1.1091  -0.9294  -0.8946  -0.8428  -0.7849  -0.5101  -0.0107
     0.9238   1.0077   1.0334   1.3718   6.4805   6.8600   7.5213   7.7613
     8.0013   8.1792   8.3141   8.8578   8.9553   9.3486

          k = 0.4000-0.4000 0.0000 ( 19634 PWs)   bands (ev):

   -16.3786 -15.7227 -15.4807 -14.8309 -13.9119 -13.4199 -13.0697 -12.5851
   -10.7232 -10.3619 -10.0398  -9.7576  -8.7824  -8.3433  -8.1387  -7.5507
    -6.7331  -6.5128  -6.2590  -5.7827  -5.6873  -5.3829  -5.3359  -5.0395
    -4.8348  -4.8112  -4.4073  -4.1568  -3.9722  -3.9436  -3.5169  -3.2695
    -2.9375  -2.7811  -2.7007  -2.5073  -2.1933  -2.0368  -1.4967  -1.4705
    -1.2678  -1.2032  -1.0162  -0.8259  -0.6864  -0.5399  -0.1497  -0.0400
    -0.0367   0.1368   0.6122   0.9409   6.8961   7.3327   7.4177   7.6492
     7.7827   8.0747   8.1671   8.2450   8.4984   8.7598

          k =-0.2000 0.0000 0.0000 ( 19607 PWs)   bands (ev):

   -17.5609 -15.8694 -14.8729 -13.3119 -13.0016 -12.7927 -12.6903 -11.6742
   -11.3520 -10.6900 -10.4879 -10.1637  -9.3314  -9.1296  -8.9600  -8.5446
    -7.6917  -7.5272  -6.9730  -6.8382  -6.7178  -5.3976  -5.3884  -5.2978
    -5.2119  -5.0304  -4.1674  -3.7959  -3.7123  -3.3214  -2.7176  -2.4858
    -2.3959  -2.2484  -2.1064  -1.7268  -1.7177  -1.6196  -1.6174  -1.5588
    -1.1824  -0.8135  -0.5219  -0.1679  -0.0685   0.0259   0.2190   0.5666
     0.8048   0.8203   0.8510   1.5119   5.6004   6.0820   7.8553   8.0339
     8.1140   8.1473   8.3583   8.7757   9.1590   9.4583

          k =-0.4000 0.0000 0.0000 ( 19598 PWs)   bands (ev):

   -17.0139 -16.1108 -15.3347 -14.4587 -12.4969 -12.2888 -12.1727 -11.6731
   -11.4877 -11.3216 -11.1884 -10.3924  -9.6163  -8.8716  -8.1219  -7.8484
    -7.2667  -6.9425  -6.7052  -6.4455  -5.6260  -5.6065  -5.5773  -5.1876
    -4.6507  -4.5331  -4.4178  -3.9519  -3.8467  -3.7954  -3.3182  -2.7336
    -2.5586  -2.4858  -1.8240  -1.7657  -1.5838  -1.5528  -1.5433  -1.4818
    -1.3458  -1.2017  -1.1812  -0.8588  -0.4521  -0.4268  -0.3900   0.1065
     0.1866   0.7506   0.9455   0.9821   6.1109   6.5190   6.9904   7.1663
     8.4348   8.6581   9.1340   9.2081   9.2096   9.4025

          k =-0.4000 0.2000 0.0000 ( 19611 PWs)   bands (ev):

   -16.8499 -15.9482 -15.3493 -14.4687 -13.5692 -12.7236 -12.6879 -11.8685
   -11.0681 -10.8960 -10.3128 -10.0838  -9.5127  -8.8894  -7.7767  -7.6677
    -7.2500  -6.9352  -6.6526  -6.1201  -5.8282  -5.7212  -5.4323  -5.0462
    -4.8017  -4.6505  -4.2231  -4.0272  -3.6864  -3.6315  -2.9848  -2.9765
    -2.7580  -2.6968  -2.5331  -2.1555  -1.7582  -1.6876  -1.5865  -1.3161
    -1.2617  -1.1830  -0.7829  -0.7729  -0.7353  -0.4662  -0.3516  -0.3000
    -0.0637   0.6131   0.6858   1.0614   6.3153   6.7407   7.1442   7.3816
     8.3530   8.7555   8.8517   8.9016   8.9157   9.2225

     the Fermi energy is     3.3380 ev

!    total energy              =    -451.78597481 Ry
     estimated scf accuracy    <          2.3E-10 Ry
     smearing contrib. (-TS)   =       0.00000000 Ry
     internal energy E=F+TS    =    -451.78597481 Ry

     The total energy is F=E-TS. E is the sum of the following terms:
     one-electron contribution =   -2322.32563345 Ry
     hartree contribution      =    1201.99070997 Ry
     xc contribution           =    -117.70178531 Ry
     ewald contribution        =     934.16798000 Ry
     one-center paw contrib.   =    -147.91724602 Ry

     convergence has been achieved in   8 iterations

     negative rho (up, down):  6.696E-05 0.000E+00

     Forces acting on atoms (cartesian axes, Ry/au):

     atom    1 type  1   force =     0.00000000    0.00044466    0.00094252
     atom    2 type  1   force =    -0.00000000    0.00035395    0.00025035
     atom    3 type  1   force =     0.00000000    0.00000000   -0.00011805
     atom    4 type  1   force =     0.00000000   -0.00000000    0.00016995
     atom    5 type  1   force =     0.00000000   -0.00035399   -0.00025048
     atom    6 type  1   force =    -0.00000000   -0.00044474   -0.00094229
     atom    7 type  1   force =     0.00000000   -0.00044466    0.00094252
     atom    8 type  1   force =    -0.00000000   -0.00035395    0.00025035
     atom    9 type  1   force =     0.00000000    0.00000000   -0.00016988
     atom   10 type  1   force =     0.00000000   -0.00000000    0.00011801
     atom   11 type  1   force =     0.00000000    0.00035399   -0.00025048
     atom   12 type  1   force =    -0.00000000    0.00044474   -0.00094229
     atom   13 type  2   force =     0.00000000   -0.00173829    0.00002030
     atom   14 type  2   force =     0.00000000    0.00173829    0.00002030
     atom   15 type  2   force =     0.00000000    0.00173835   -0.00002042
     atom   16 type  2   force =     0.00000000   -0.00173835   -0.00002042
     atom   17 type  1   force =     0.00000000    0.00044466    0.00094253
     atom   18 type  1   force =     0.00000000    0.00035395    0.00025035
     atom   19 type  1   force =    -0.00000000    0.00000000   -0.00011805
     atom   20 type  1   force =     0.00000000   -0.00000000    0.00016996
     atom   21 type  1   force =     0.00000000   -0.00035399   -0.00025048
     atom   22 type  1   force =     0.00000000   -0.00044474   -0.00094229
     atom   23 type  1   force =     0.00000000   -0.00044466    0.00094253
     atom   24 type  1   force =     0.00000000   -0.00035395    0.00025035
     atom   25 type  1   force =    -0.00000000    0.00000000   -0.00016988
     atom   26 type  1   force =     0.00000000   -0.00000000    0.00011801
     atom   27 type  1   force =     0.00000000    0.00035399   -0.00025048
     atom   28 type  1   force =     0.00000000    0.00044474   -0.00094229
     atom   29 type  2   force =     0.00000000   -0.00173829    0.00002030
     atom   30 type  2   force =     0.00000000    0.00173829    0.00002030
     atom   31 type  2   force =    -0.00000000    0.00173835   -0.00002042
     atom   32 type  2   force =    -0.00000000   -0.00173835   -0.00002042

     Total force =     0.005877     Total SCF correction =     0.000033
     Energy error            =      8.9E-05 Ry
     Gradient error          =      1.7E-03 Ry/Bohr

     number of scf cycles    =  10
     number of bfgs steps    =   9

     energy             old  =    -451.7858855159 Ry
     energy             new  =    -451.7859748117 Ry

     CASE: energy            _new < energy            _old

     new trust radius        =       0.0043946510 bohr
     new conv_thr            =       0.0000000009 Ry


ATOMIC_POSITIONS (angstrom)
C                0.0000000000       -0.7997272185        9.3946157765
C                1.2634728927       -1.1626859113        8.5905541596
C                1.2634728920        0.0000000000        7.5484855960
C                0.0000000000        0.0000000000        6.6603486139
C                0.0000000000       -1.3642598930        5.9107458847
C                1.2634728936       -1.7272185987        5.1066843812
C                0.0000000000       -4.2541643515        9.3946157765
C                1.2634728927       -3.8912056587        8.5905541596
C                1.2634728937       -2.5269457800        7.8409515006
C                0.0000000000       -2.5269457800        6.9528144799
C                0.0000000000       -3.6896316770        5.9107458847
C                1.2634728936       -3.3266729613        5.1066843812
H                0.0000000000       -1.2294438958       10.4074209417
H                0.0000000000       -3.8244476742       10.4074209417
H                1.2634728913       -1.2975018592        4.0938791121
H                1.2634728913       -3.7563897108        4.0938791121
C                2.5269457800       -0.7997272194        9.3946157772
C                3.7904186773       -1.1626859113        8.5905541596
C                3.7904186780        0.0000000000        7.5484855960
C                2.5269457800        0.0000000000        6.6603486130
C                2.5269457800       -1.3642598936        5.9107458831
C                3.7904186764       -1.7272185987        5.1066843812
C                2.5269457800       -4.2541643506        9.3946157772
C                3.7904186773       -3.8912056587        8.5905541596
C                3.7904186763       -2.5269457800        7.8409515006
C                2.5269457800       -2.5269457800        6.9528144822
C                2.5269457800       -3.6896316764        5.9107458831
C                3.7904186764       -3.3266729613        5.1066843812
H                2.5269457800       -1.2294438962       10.4074209401
H                2.5269457800       -3.8244476738       10.4074209401
H                3.7904186787       -1.2975018592        4.0938791121
H                3.7904186787       -3.7563897108        4.0938791121



     Writing config-only to output data dir ./tmp/slab.save/ :
     XML data file
     NEW-OLD atomic charge density approx. for the potential

     Check: negative core charge=   -0.000002

     negative rho (up, down):  6.688E-05 0.000E+00

     total cpu time spent up to now is     1170.8 secs

     Self-consistent Calculation

     iteration #  1     ecut=    60.00 Ry     beta= 0.30
     Davidson diagonalization with overlap
     ethr =  1.00E-06,  avg # of iterations =  2.0

     Threshold (ethr) on eigenvalues was too large:
     Diagonalizing with lowered threshold

     Davidson diagonalization with overlap
     ethr =  1.17E-08,  avg # of iterations =  2.9

     negative rho (up, down):  6.684E-05 0.000E+00

     total cpu time spent up to now is     1190.1 secs

     total energy              =    -451.78602387 Ry
     estimated scf accuracy    <       0.00001630 Ry

     iteration #  2     ecut=    60.00 Ry     beta= 0.30
     Davidson diagonalization with overlap
     ethr =  1.57E-08,  avg # of iterations =  1.8

     negative rho (up, down):  6.691E-05 0.000E+00

     total cpu time spent up to now is     1198.3 secs

     total energy              =    -451.78602421 Ry
     estimated scf accuracy    <       0.00000389 Ry

     iteration #  3     ecut=    60.00 Ry     beta= 0.30
     Davidson diagonalization with overlap
     ethr =  3.74E-09,  avg # of iterations =  2.2

     negative rho (up, down):  6.701E-05 0.000E+00

     total cpu time spent up to now is     1207.8 secs

     total energy              =    -451.78602474 Ry
     estimated scf accuracy    <       0.00000078 Ry

     iteration #  4     ecut=    60.00 Ry     beta= 0.30
     Davidson diagonalization with overlap
     ethr =  7.54E-10,  avg # of iterations =  2.0

     negative rho (up, down):  6.702E-05 0.000E+00

     total cpu time spent up to now is     1217.1 secs

     total energy              =    -451.78602482 Ry
     estimated scf accuracy    <       0.00000015 Ry

     iteration #  5     ecut=    60.00 Ry     beta= 0.30
     Davidson diagonalization with overlap
     ethr =  1.48E-10,  avg # of iterations =  2.0

     negative rho (up, down):  6.701E-05 0.000E+00

     total cpu time spent up to now is     1225.3 secs

     total energy              =    -451.78602482 Ry
     estimated scf accuracy    <       0.00000002 Ry

     iteration #  6     ecut=    60.00 Ry     beta= 0.30
     Davidson diagonalization with overlap
     ethr =  1.81E-11,  avg # of iterations =  3.8

     negative rho (up, down):  6.701E-05 0.000E+00

     total cpu time spent up to now is     1237.1 secs

     total energy              =    -451.78602482 Ry
     estimated scf accuracy    <       0.00000001 Ry

     iteration #  7     ecut=    60.00 Ry     beta= 0.30
     Davidson diagonalization with overlap
     ethr =  1.13E-11,  avg # of iterations =  2.7

     negative rho (up, down):  6.701E-05 0.000E+00

     total cpu time spent up to now is     1247.1 secs

     total energy              =    -451.78602482 Ry
     estimated scf accuracy    <          1.6E-09 Ry

     iteration #  8     ecut=    60.00 Ry     beta= 0.30
     Davidson diagonalization with overlap
     ethr =  1.50E-12,  avg # of iterations =  3.0

     negative rho (up, down):  6.700E-05 0.000E+00

     total cpu time spent up to now is     1257.5 secs

     End of self-consistent calculation

          k = 0.0000-0.0000 0.0000 ( 19679 PWs)   bands (ev):

   -17.7412 -16.0436 -13.3886 -13.3886 -13.1713 -12.9583 -12.8645 -11.8394
   -11.5640 -11.5640  -9.2983  -9.2983  -9.0404  -8.8427  -8.8427  -8.6987
    -8.1517  -8.1517  -7.8434  -7.7714  -7.7714  -5.4295  -5.3728  -5.1642
    -4.8164  -4.8164  -3.9155  -3.9155  -3.4824  -3.4824  -2.6933  -2.2243
    -2.1927  -2.1927  -2.1241  -2.1241  -1.8783  -1.7696  -1.6648  -1.2068
    -1.1697  -1.1697   0.2166   0.4004   0.4004   0.4537   0.5412   0.8012
     0.8520   0.9822   1.3410   1.6793   5.4323   5.8908   7.4646   7.7498
     7.7926   8.3963   8.6150   9.0026   9.0026   9.1679

          k = 0.0000-0.2000 0.0000 ( 19607 PWs)   bands (ev):

   -17.5761 -16.0598 -14.2623 -13.3627 -13.2317 -13.2317 -11.7157 -11.5816
   -11.5816 -11.5584 -10.3310 -10.3310  -9.1396  -8.5620  -8.5620  -8.1714
    -7.7651  -7.6313  -7.6313  -7.4631  -7.4631  -5.9288  -5.0467  -4.9288
    -4.9288  -4.7653  -3.8365  -3.8365  -3.2746  -3.2746  -3.2213  -2.5539
    -2.3078  -2.3078  -1.9306  -1.8600  -1.8600  -1.8477  -1.3086  -1.2269
    -1.1925  -1.1925  -0.3755  -0.3085  -0.3085  -0.2381   0.3886   0.5855
     1.2343   1.3144   1.3447   1.6206   5.6654   6.0935   7.7961   8.1343
     8.2519   8.5246   8.6089   8.8246   8.9147   8.9147

          k = 0.0000-0.4000 0.0000 ( 19598 PWs)   bands (ev):

   -17.1015 -16.4398 -14.6039 -14.1045 -12.7990 -12.7990 -11.9700 -11.9700
   -11.3568 -10.9862 -10.8358 -10.8358  -9.0036  -9.0036  -8.6244  -7.7911
    -7.2579  -7.1341  -7.1341  -6.8047  -6.8047  -6.3111  -4.9916  -4.6175
    -4.6175  -4.4642  -3.9960  -3.6960  -3.6960  -3.2226  -3.2226  -3.1444
    -2.1562  -2.0301  -2.0301  -1.9375  -1.9375  -1.6734  -1.5939  -1.4090
    -1.4090  -1.2710  -1.2710  -1.1012  -0.4986  -0.3419   0.0512   0.1004
     0.8850   1.2564   1.7347   1.8226   6.3150   6.6633   7.3598   7.5880
     8.2299   8.5976   8.6122   8.6122   8.8787   8.9485

          k = 0.2000-0.2000 0.0000 ( 19577 PWs)   bands (ev):

   -17.3933 -15.8801 -14.7092 -14.0883 -13.2939 -13.1919 -11.6810 -11.5523
   -11.3923 -11.0707 -10.8804  -9.9562  -9.0385  -8.9638  -8.6515  -8.0294
    -7.9425  -7.6234  -7.2720  -6.2649  -6.1441  -5.8507  -5.6085  -5.0698
    -4.9871  -4.6615  -4.3507  -3.6715  -3.5555  -3.1106  -3.0217  -2.6719
    -2.3783  -2.3374  -2.3017  -1.9224  -1.7534  -1.7411  -1.5023  -1.2920
    -1.1694  -1.0071  -0.9209  -0.5152  -0.4915  -0.1753   0.1321   0.3135
     0.5624   0.6955   1.2602   1.3813   5.8330   6.2890   8.0268   8.1620
     8.2756   8.6089   8.6642   8.8344   8.8452   8.9923

          k = 0.2000-0.4000 0.0000 ( 19611 PWs)   bands (ev):

   -16.9193 -16.2588 -14.4298 -14.2467 -13.9318 -13.6087 -12.0059 -11.5130
   -11.1954 -10.8272 -10.7758 -10.3708  -8.5256  -8.5193  -8.4272  -7.8995
    -7.6941  -7.5127  -7.1124  -6.1654  -5.7686  -5.4055  -5.4021  -4.8914
    -4.6931  -4.3812  -4.2013  -4.0052  -3.9352  -3.2555  -3.0980  -2.9872
    -2.7132  -2.6544  -2.4604  -1.9091  -1.8605  -1.7493  -1.5782  -1.2804
    -1.2688  -1.1116  -0.9283  -0.8946  -0.8434  -0.7836  -0.5100  -0.0103
     0.9219   1.0062   1.0311   1.3719   6.4811   6.8596   7.5228   7.7598
     8.0006   8.1787   8.3091   8.8489   8.9510   9.3427

          k = 0.4000-0.4000 0.0000 ( 19634 PWs)   bands (ev):

   -16.3752 -15.7180 -15.4772 -14.8262 -13.9120 -13.4182 -13.0698 -12.5833
   -10.7236 -10.3625 -10.0390  -9.7556  -8.7814  -8.3394  -8.1367  -7.5484
    -6.7333  -6.5111  -6.2590  -5.7806  -5.6855  -5.3799  -5.3345  -5.0365
    -4.8328  -4.8114  -4.4047  -4.1567  -3.9733  -3.9426  -3.5168  -3.2673
    -2.9370  -2.7820  -2.7009  -2.5088  -2.1932  -2.0361  -1.4976  -1.4716
    -1.2693  -1.2006  -1.0181  -0.8237  -0.6870  -0.5406  -0.1512  -0.0406
    -0.0379   0.1373   0.6101   0.9413   6.8963   7.3329   7.4169   7.6497
     7.7822   8.0731   8.1638   8.2411   8.4965   8.7559

          k =-0.2000 0.0000 0.0000 ( 19607 PWs)   bands (ev):

   -17.5581 -15.8643 -14.8701 -13.3073 -13.0019 -12.7880 -12.6909 -11.6764
   -11.3481 -10.6835 -10.4876 -10.1643  -9.3333  -9.1258  -8.9545  -8.5448
    -7.6933  -7.5282  -6.9742  -6.8333  -6.7198  -5.3944  -5.3839  -5.2993
    -5.2112  -5.0314  -4.1700  -3.7914  -3.7100  -3.3227  -2.7203  -2.4823
    -2.3953  -2.2499  -2.1058  -1.7292  -1.7194  -1.6171  -1.6168  -1.5583
    -1.1819  -0.8119  -0.5222  -0.1662  -0.0703   0.0274   0.2162   0.5645
     0.8048   0.8218   0.8514   1.5117   5.6016   6.0833   7.8566   8.0340
     8.1136   8.1483   8.3583   8.7663   9.1601   9.4563

          k =-0.4000 0.0000 0.0000 ( 19598 PWs)   bands (ev):

   -17.0110 -16.1080 -15.3296 -14.4537 -12.4972 -12.2840 -12.1733 -11.6734
   -11.4825 -11.3223 -11.1906 -10.3946  -9.6118  -8.8661  -8.1218  -7.8452
    -7.2683  -6.9418  -6.7068  -6.4410  -5.6215  -5.6076  -5.5747  -5.1889
    -4.6490  -4.5340  -4.4158  -3.9481  -3.8468  -3.7925  -3.3211  -2.7359
    -2.5587  -2.4822  -1.8241  -1.7685  -1.5855  -1.5540  -1.5452  -1.4816
    -1.3482  -1.2014  -1.1802  -0.8583  -0.4518  -0.4263  -0.3889   0.1051
     0.1867   0.7510   0.9462   0.9833   6.1117   6.5199   6.9907   7.1666
     8.4350   8.6599   9.1345   9.2001   9.2099   9.4027

          k =-0.4000 0.2000 0.0000 ( 19611 PWs)   bands (ev):

   -16.8469 -15.9452 -15.3438 -14.4633 -13.5702 -12.7245 -12.6846 -11.8649
   -11.0693 -10.8968 -10.3135 -10.0844  -9.5081  -8.8838  -7.7732  -7.6669
    -7.2515  -6.9345  -6.6525  -6.1179  -5.8251  -5.7218  -5.4296  -5.0471
    -4.8002  -4.6477  -4.2234  -4.0231  -3.6861  -3.6304  -2.9867  -2.9767
    -2.7602  -2.6932  -2.5329  -2.1550  -1.7615  -1.6890  -1.5875  -1.3169
    -1.2602  -1.1833  -0.7823  -0.7726  -0.7353  -0.4658  -0.3523  -0.3013
    -0.0645   0.6143   0.6847   1.0622   6.3160   6.7414   7.1443   7.3822
     8.3497   8.7541   8.8508   8.9003   8.9153   9.2198

     the Fermi energy is     3.3372 ev

!    total energy              =    -451.78602482 Ry
     estimated scf accuracy    <          7.9E-11 Ry
     smearing contrib. (-TS)   =       0.00000000 Ry
     internal energy E=F+TS    =    -451.78602482 Ry

     The total energy is F=E-TS. E is the sum of the following terms:
     one-electron contribution =   -2321.59116433 Ry
     hartree contribution      =    1201.62099068 Ry
     xc contribution           =    -117.69336278 Ry
     ewald contribution        =     933.79457699 Ry
     one-center paw contrib.   =    -147.91706538 Ry

     convergence has been achieved in   8 iterations

     negative rho (up, down):  6.700E-05 0.000E+00

     Forces acting on atoms (cartesian axes, Ry/au):

     atom    1 type  1   force =     0.00000000    0.00117681    0.00105361
     atom    2 type  1   force =    -0.00000000    0.00068739    0.00009970
     atom    3 type  1   force =     0.00000000   -0.00000000    0.00019701
     atom    4 type  1   force =     0.00000000   -0.00000000    0.00015195
     atom    5 type  1   force =     0.00000000   -0.00068734   -0.00009957
     atom    6 type  1   force =    -0.00000000   -0.00117671   -0.00105384
     atom    7 type  1   force =     0.00000000   -0.00117681    0.00105361
     atom    8 type  1   force =    -0.00000000   -0.00068739    0.00009970
     atom    9 type  1   force =    -0.00000000    0.00000000   -0.00015204
     atom   10 type  1   force =     0.00000000    0.00000000   -0.00019698
     atom   11 type  1   force =     0.00000000    0.00068734   -0.00009957
     atom   12 type  1   force =    -0.00000000    0.00117671   -0.00105384
     atom   13 type  2   force =     0.00000000   -0.00131181   -0.00027436
     atom   14 type  2   force =     0.00000000    0.00131181   -0.00027436
     atom   15 type  2   force =     0.00000000    0.00131175    0.00027449
     atom   16 type  2   force =     0.00000000   -0.00131175    0.00027449
     atom   17 type  1   force =     0.00000000    0.00117681    0.00105361
     atom   18 type  1   force =     0.00000000    0.00068739    0.00009970
     atom   19 type  1   force =    -0.00000000    0.00000000    0.00019701
     atom   20 type  1   force =     0.00000000   -0.00000000    0.00015195
     atom   21 type  1   force =     0.00000000   -0.00068734   -0.00009956
     atom   22 type  1   force =     0.00000000   -0.00117671   -0.00105384
     atom   23 type  1   force =     0.00000000   -0.00117681    0.00105361
     atom   24 type  1   force =     0.00000000   -0.00068739    0.00009970
     atom   25 type  1   force =     0.00000000    0.00000000   -0.00015204
     atom   26 type  1   force =     0.00000000    0.00000000   -0.00019698
     atom   27 type  1   force =     0.00000000    0.00068734   -0.00009956
     atom   28 type  1   force =     0.00000000    0.00117671   -0.00105384
     atom   29 type  2   force =     0.00000000   -0.00131181   -0.00027436
     atom   30 type  2   force =     0.00000000    0.00131181   -0.00027436
     atom   31 type  2   force =    -0.00000000    0.00131175    0.00027449
     atom   32 type  2   force =    -0.00000000   -0.00131175    0.00027449

     Total force =     0.006200     Total SCF correction =     0.000022
     Energy error            =      5.0E-05 Ry
     Gradient error          =      1.3E-03 Ry/Bohr

     number of scf cycles    =  11
     number of bfgs steps    =  10

     energy             old  =    -451.7859748117 Ry
     energy             new  =    -451.7860248212 Ry

     CASE: energy            _new < energy            _old

     new trust radius        =       0.0048341161 bohr
     new conv_thr            =       0.0000000005 Ry


ATOMIC_POSITIONS (angstrom)
C                0.0000000000       -0.8000641084        9.3952462170
C                1.2634728927       -1.1626661673        8.5907591726
C                1.2634728926        0.0000000000        7.5486848709
C                0.0000000000        0.0000000000        6.6603201529
C                0.0000000000       -1.3642796214        5.9105409259
C                1.2634728927       -1.7268816683        5.1060538508
C                0.0000000000       -4.2538274616        9.3952462170
C                1.2634728927       -3.8912254027        8.5907591726
C                1.2634728929       -2.5269457800        7.8409799275
C                0.0000000000       -2.5269457800        6.9526152188
C                0.0000000000       -3.6896119486        5.9105409259
C                1.2634728927       -3.3270098917        5.1060538508
H                0.0000000000       -1.2319998843       10.4073169294
H                0.0000000000       -3.8218916857       10.4073169294
H                1.2634728917       -1.2949458966        4.0939831705
H                1.2634728917       -3.7589456734        4.0939831705
C                2.5269457800       -0.8000641084        9.3952462161
C                3.7904186773       -1.1626661673        8.5907591726
C                3.7904186774        0.0000000000        7.5486848709
C                2.5269457800        0.0000000000        6.6603201519
C                2.5269457800       -1.3642796216        5.9105409249
C                3.7904186773       -1.7268816683        5.1060538508
C                2.5269457800       -4.2538274616        9.3952462161
C                3.7904186773       -3.8912254027        8.5907591726
C                3.7904186771       -2.5269457800        7.8409799275
C                2.5269457800       -2.5269457800        6.9526152202
C                2.5269457800       -3.6896119484        5.9105409249
C                3.7904186773       -3.3270098917        5.1060538508
H                2.5269457800       -1.2319998849       10.4073169285
H                2.5269457800       -3.8218916851       10.4073169285
H                3.7904186783       -1.2949458966        4.0939831705
H                3.7904186783       -3.7589456734        4.0939831705



     Writing config-only to output data dir ./tmp/slab.save/ :
     XML data file
     NEW-OLD atomic charge density approx. for the potential

     Check: negative core charge=   -0.000002

     negative rho (up, down):  6.711E-05 0.000E+00

     total cpu time spent up to now is     1260.9 secs

     Self-consistent Calculation

     iteration #  1     ecut=    60.00 Ry     beta= 0.30
     Davidson diagonalization with overlap
     ethr =  1.00E-06,  avg # of iterations =  2.0

     Threshold (ethr) on eigenvalues was too large:
     Diagonalizing with lowered threshold

     Davidson diagonalization with overlap
     ethr =  8.04E-09,  avg # of iterations =  3.2

     negative rho (up, down):  6.708E-05 0.000E+00

     total cpu time spent up to now is     1280.5 secs

     total energy              =    -451.78607075 Ry
     estimated scf accuracy    <       0.00001012 Ry

     iteration #  2     ecut=    60.00 Ry     beta= 0.30
     Davidson diagonalization with overlap
     ethr =  9.73E-09,  avg # of iterations =  1.8

     negative rho (up, down):  6.714E-05 0.000E+00

     total cpu time spent up to now is     1288.6 secs

     total energy              =    -451.78607096 Ry
     estimated scf accuracy    <       0.00000301 Ry

     iteration #  3     ecut=    60.00 Ry     beta= 0.30
     Davidson diagonalization with overlap
     ethr =  2.90E-09,  avg # of iterations =  2.0

     negative rho (up, down):  6.722E-05 0.000E+00

     total cpu time spent up to now is     1297.6 secs

     total energy              =    -451.78607124 Ry
     estimated scf accuracy    <       0.00000056 Ry

     iteration #  4     ecut=    60.00 Ry     beta= 0.30
     Davidson diagonalization with overlap
     ethr =  5.35E-10,  avg # of iterations =  2.0

     negative rho (up, down):  6.721E-05 0.000E+00

     total cpu time spent up to now is     1306.1 secs

     total energy              =    -451.78607128 Ry
     estimated scf accuracy    <       0.00000004 Ry

     iteration #  5     ecut=    60.00 Ry     beta= 0.30
     Davidson diagonalization with overlap
     ethr =  3.73E-11,  avg # of iterations =  2.1

     negative rho (up, down):  6.720E-05 0.000E+00

     total cpu time spent up to now is     1315.7 secs

     total energy              =    -451.78607129 Ry
     estimated scf accuracy    <          6.2E-09 Ry

     iteration #  6     ecut=    60.00 Ry     beta= 0.30
     Davidson diagonalization with overlap
     ethr =  5.97E-12,  avg # of iterations =  3.3

     negative rho (up, down):  6.720E-05 0.000E+00

     total cpu time spent up to now is     1327.2 secs

     total energy              =    -451.78607130 Ry
     estimated scf accuracy    <          1.9E-09 Ry

     iteration #  7     ecut=    60.00 Ry     beta= 0.30
     Davidson diagonalization with overlap
     ethr =  1.81E-12,  avg # of iterations =  2.0

     negative rho (up, down):  6.719E-05 0.000E+00

     total cpu time spent up to now is     1337.2 secs

     End of self-consistent calculation

          k = 0.0000-0.0000 0.0000 ( 19679 PWs)   bands (ev):

   -17.7389 -16.0410 -13.3866 -13.3866 -13.1699 -12.9557 -12.8637 -11.8400
   -11.5604 -11.5604  -9.2965  -9.2965  -9.0374  -8.8418  -8.8418  -8.6994
    -8.1496  -8.1496  -7.8446  -7.7723  -7.7723  -5.4251  -5.3742  -5.1673
    -4.8134  -4.8134  -3.9149  -3.9149  -3.4830  -3.4830  -2.6902  -2.2227
    -2.1960  -2.1960  -2.1241  -2.1241  -1.8835  -1.7704  -1.6624  -1.2037
    -1.1692  -1.1692   0.2190   0.4015   0.4015   0.4504   0.5400   0.8021
     0.8533   0.9833   1.3432   1.6792   5.4332   5.8917   7.4664   7.7497
     7.7904   8.3963   8.6124   9.0004   9.0004   9.1675

          k = 0.0000-0.2000 0.0000 ( 19607 PWs)   bands (ev):

   -17.5738 -16.0570 -14.2613 -13.3605 -13.2297 -13.2297 -11.7162 -11.5779
   -11.5779 -11.5578 -10.3295 -10.3295  -9.1362  -8.5608  -8.5608  -8.1717
    -7.7667  -7.6303  -7.6303  -7.4635  -7.4635  -5.9263  -5.0471  -4.9255
    -4.9255  -4.7676  -3.8361  -3.8361  -3.2754  -3.2754  -3.2203  -2.5509
    -2.3074  -2.3074  -1.9281  -1.8630  -1.8630  -1.8489  -1.3119  -1.2238
    -1.1922  -1.1922  -0.3764  -0.3076  -0.3076  -0.2359   0.3872   0.5873
     1.2328   1.3158   1.3440   1.6221   5.6663   6.0942   7.7932   8.1336
     8.2537   8.5233   8.6092   8.8254   8.9143   8.9143

          k = 0.0000-0.4000 0.0000 ( 19598 PWs)   bands (ev):

   -17.0990 -16.4370 -14.6028 -14.1029 -12.7970 -12.7970 -11.9669 -11.9669
   -11.3572 -10.9866 -10.8333 -10.8333  -9.0030  -9.0030  -8.6211  -7.7901
    -7.2589  -7.1347  -7.1347  -6.8038  -6.8038  -6.3090  -4.9942  -4.6135
    -4.6135  -4.4658  -3.9936  -3.6943  -3.6943  -3.2239  -3.2239  -3.1419
    -2.1532  -2.0307  -2.0307  -1.9371  -1.9371  -1.6760  -1.5908  -1.4101
    -1.4101  -1.2720  -1.2720  -1.1035  -0.4981  -0.3397   0.0534   0.1013
     0.8815   1.2540   1.7359   1.8238   6.3158   6.6632   7.3620   7.5877
     8.2293   8.5984   8.6128   8.6128   8.8733   8.9480

          k = 0.2000-0.2000 0.0000 ( 19577 PWs)   bands (ev):

   -17.3909 -15.8773 -14.7069 -14.0873 -13.2914 -13.1897 -11.6795 -11.5527
   -11.3918 -11.0680 -10.8774  -9.9545  -9.0352  -8.9632  -8.6510  -8.0297
    -7.9419  -7.6250  -7.2700  -6.2644  -6.1439  -5.8483  -5.6058  -5.0686
    -4.9875  -4.6636  -4.3512  -3.6670  -3.5526  -3.1096  -3.0219  -2.6728
    -2.3758  -2.3380  -2.3030  -1.9201  -1.7544  -1.7428  -1.5036  -1.2932
    -1.1686  -1.0086  -0.9191  -0.5158  -0.4920  -0.1741   0.1330   0.3128
     0.5634   0.6958   1.2595   1.3808   5.8339   6.2897   8.0240   8.1630
     8.2756   8.6073   8.6635   8.8311   8.8470   8.9926

          k = 0.2000-0.4000 0.0000 ( 19611 PWs)   bands (ev):

   -16.9169 -16.2560 -14.4287 -14.2443 -13.9301 -13.6061 -12.0048 -11.5113
   -11.1958 -10.8275 -10.7727 -10.3677  -8.5264  -8.5161  -8.4277  -7.8983
    -7.6930  -7.5111  -7.1134  -6.1634  -5.7667  -5.4042  -5.4002  -4.8939
    -4.6917  -4.3826  -4.2016  -4.0033  -3.9328  -3.2529  -3.0974  -2.9845
    -2.7130  -2.6515  -2.4596  -1.9098  -1.8609  -1.7481  -1.5806  -1.2786
    -1.2710  -1.1129  -0.9304  -0.8928  -0.8434  -0.7854  -0.5095  -0.0096
     0.9192   1.0060   1.0317   1.3708   6.4818   6.8593   7.5249   7.7596
     8.0006   8.1789   8.3078   8.8452   8.9481   9.3399

          k = 0.4000-0.4000 0.0000 ( 19634 PWs)   bands (ev):

   -16.3727 -15.7152 -15.4748 -14.8234 -13.9108 -13.4165 -13.0687 -12.5816
   -10.7238 -10.3626 -10.0386  -9.7545  -8.7803  -8.3365  -8.1354  -7.5473
    -6.7340  -6.5089  -6.2580  -5.7788  -5.6844  -5.3771  -5.3330  -5.0335
    -4.8312  -4.8122  -4.4025  -4.1573  -3.9741  -3.9409  -3.5172  -3.2656
    -2.9354  -2.7820  -2.6992  -2.5083  -2.1913  -2.0343  -1.4986  -1.4728
    -1.2699  -1.1999  -1.0187  -0.8243  -0.6885  -0.5422  -0.1535  -0.0400
    -0.0379   0.1369   0.6072   0.9398   6.8968   7.3333   7.4171   7.6512
     7.7824   8.0730   8.1609   8.2398   8.4953   8.7550

          k =-0.2000 0.0000 0.0000 ( 19607 PWs)   bands (ev):

   -17.5558 -15.8617 -14.8679 -13.3050 -13.0005 -12.7854 -12.6901 -11.6769
   -11.3450 -10.6800 -10.4861 -10.1635  -9.3336  -9.1235  -8.9515  -8.5455
    -7.6946  -7.5275  -6.9743  -6.8294  -6.7210  -5.3922  -5.3796  -5.3007
    -5.2107  -5.0344  -4.1700  -3.7864  -3.7069  -3.3238  -2.7206  -2.4817
    -2.3992  -2.2501  -2.1043  -1.7300  -1.7195  -1.6185  -1.6144  -1.5607
    -1.1846  -0.8096  -0.5203  -0.1652  -0.0691   0.0260   0.2172   0.5635
     0.8048   0.8228   0.8522   1.5117   5.6024   6.0840   7.8562   8.0342
     8.1132   8.1487   8.3576   8.7641   9.1585   9.4553

          k =-0.4000 0.0000 0.0000 ( 19598 PWs)   bands (ev):

   -17.0087 -16.1057 -15.3270 -14.4512 -12.4957 -12.2813 -12.1725 -11.6718
   -11.4796 -11.3215 -11.1911 -10.3950  -9.6092  -8.8633  -8.1224  -7.8441
    -7.2696  -6.9405  -6.7082  -6.4368  -5.6177  -5.6083  -5.5715  -5.1903
    -4.6474  -4.5366  -4.4144  -3.9454  -3.8489  -3.7879  -3.3207  -2.7351
    -2.5572  -2.4795  -1.8229  -1.7692  -1.5839  -1.5535  -1.5454  -1.4840
    -1.3473  -1.2051  -1.1842  -0.8592  -0.4523  -0.4263  -0.3871   0.1039
     0.1861   0.7510   0.9471   0.9842   6.1124   6.5204   6.9913   7.1669
     8.4334   8.6618   9.1343   9.1987   9.2081   9.4028

          k =-0.4000 0.2000 0.0000 ( 19611 PWs)   bands (ev):

   -16.8446 -15.9429 -15.3410 -14.4605 -13.5692 -12.7235 -12.6823 -11.8626
   -11.0697 -10.8962 -10.3137 -10.0839  -9.5053  -8.8806  -7.7715  -7.6670
    -7.2530  -6.9337  -6.6516  -6.1161  -5.8223  -5.7222  -5.4266  -5.0482
    -4.7988  -4.6449  -4.2252  -4.0198  -3.6866  -3.6277  -2.9876  -2.9755
    -2.7601  -2.6905  -2.5312  -2.1537  -1.7635  -1.6890  -1.5861  -1.3172
    -1.2617  -1.1851  -0.7811  -0.7740  -0.7340  -0.4672  -0.3538  -0.3028
    -0.0653   0.6150   0.6837   1.0621   6.3167   6.7420   7.1447   7.3830
     8.3483   8.7526   8.8489   8.9005   8.9147   9.2210

     the Fermi energy is     3.3370 ev

!    total energy              =    -451.78607130 Ry
     estimated scf accuracy    <          3.5E-10 Ry
     smearing contrib. (-TS)   =       0.00000000 Ry
     internal energy E=F+TS    =    -451.78607130 Ry

     The total energy is F=E-TS. E is the sum of the following terms:
     one-electron contribution =   -2320.95646019 Ry
     hartree contribution      =    1201.30228610 Ry
     xc contribution           =    -117.68713296 Ry
     ewald contribution        =     933.47214673 Ry
     one-center paw contrib.   =    -147.91691098 Ry

     convergence has been achieved in   7 iterations

     negative rho (up, down):  6.719E-05 0.000E+00

     Forces acting on atoms (cartesian axes, Ry/au):

     atom    1 type  1   force =     0.00000000    0.00130881    0.00089993
     atom    2 type  1   force =    -0.00000000    0.00069992    0.00009791
     atom    3 type  1   force =    -0.00000000    0.00000000    0.00013630
     atom    4 type  1   force =     0.00000000   -0.00000000    0.00027748
     atom    5 type  1   force =     0.00000000   -0.00069991   -0.00009795
     atom    6 type  1   force =    -0.00000000   -0.00130883   -0.00089988
     atom    7 type  1   force =     0.00000000   -0.00130881    0.00089993
     atom    8 type  1   force =    -0.00000000   -0.00069992    0.00009791
     atom    9 type  1   force =    -0.00000000    0.00000000   -0.00027746
     atom   10 type  1   force =     0.00000000    0.00000000   -0.00013630
     atom   11 type  1   force =     0.00000000    0.00069991   -0.00009795
     atom   12 type  1   force =    -0.00000000    0.00130883   -0.00089988
     atom   13 type  2   force =     0.00000000   -0.00087516   -0.00037566
     atom   14 type  2   force =     0.00000000    0.00087516   -0.00037566
     atom   15 type  2   force =     0.00000000    0.00087517    0.00037563
     atom   16 type  2   force =     0.00000000   -0.00087517    0.00037563
     atom   17 type  1   force =     0.00000000    0.00130881    0.00089993
     atom   18 type  1   force =     0.00000000    0.00069992    0.00009791
     atom   19 type  1   force =     0.00000000   -0.00000000    0.00013630
     atom   20 type  1   force =     0.00000000   -0.00000000    0.00027748
     atom   21 type  1   force =     0.00000000   -0.00069991   -0.00009794
     atom   22 type  1   force =     0.00000000   -0.00130883   -0.00089988
     atom   23 type  1   force =     0.00000000   -0.00130881    0.00089993
     atom   24 type  1   force =     0.00000000   -0.00069992    0.00009791
     atom   25 type  1   force =     0.00000000    0.00000000   -0.00027746
     atom   26 type  1   force =     0.00000000    0.00000000   -0.00013631
     atom   27 type  1   force =     0.00000000    0.00069991   -0.00009794
     atom   28 type  1   force =     0.00000000    0.00130883   -0.00089988
     atom   29 type  2   force =     0.00000000   -0.00087516   -0.00037566
     atom   30 type  2   force =     0.00000000    0.00087516   -0.00037566
     atom   31 type  2   force =    -0.00000000    0.00087517    0.00037563
     atom   32 type  2   force =    -0.00000000   -0.00087517    0.00037563

     Total force =     0.005641     Total SCF correction =     0.000012
     Energy error            =      4.6E-05 Ry
     Gradient error          =      1.3E-03 Ry/Bohr

     number of scf cycles    =  12
     number of bfgs steps    =  11

     energy             old  =    -451.7860248212 Ry
     energy             new  =    -451.7860712992 Ry

     CASE: energy            _new < energy            _old

     new trust radius        =       0.0072511742 bohr
     new conv_thr            =       0.0000000005 Ry


ATOMIC_POSITIONS (angstrom)
C                0.0000000000       -0.8000664579        9.3961667301
C                1.2634728923       -1.1623769099        8.5910278154
C                1.2634728921        0.0000000000        7.5488135007
C                0.0000000000        0.0000000000        6.6602865000
C                0.0000000000       -1.3645688984        5.9102722025
C                1.2634728925       -1.7268793735        5.1051334803
C                0.0000000000       -4.2538251121        9.3961667301
C                1.2634728923       -3.8915146601        8.5910278154
C                1.2634728931       -2.5269457800        7.8410136361
C                0.0000000000       -2.5269457800        6.9524865699
C                0.0000000000       -3.6893226716        5.9102722025
C                1.2634728925       -3.3270121865        5.1051334803
H                0.0000000000       -1.2357947500       10.4067489649
H                0.0000000000       -3.8180968200       10.4067489649
H                1.2634728920       -1.2911509954        4.0945510545
H                1.2634728920       -3.7627405746        4.0945510545
C                2.5269457800       -0.8000664588        9.3961667310
C                3.7904186777       -1.1623769099        8.5910278154
C                3.7904186779        0.0000000000        7.5488135007
C                2.5269457800        0.0000000000        6.6602864993
C                2.5269457800       -1.3645688987        5.9102722017
C                3.7904186775       -1.7268793735        5.1051334803
C                2.5269457800       -4.2538251112        9.3961667310
C                3.7904186777       -3.8915146601        8.5910278154
C                3.7904186769       -2.5269457800        7.8410136361
C                2.5269457800       -2.5269457800        6.9524865716
C                2.5269457800       -3.6893226713        5.9102722017
C                3.7904186775       -3.3270121865        5.1051334803
H                2.5269457800       -1.2357947500       10.4067489625
H                2.5269457800       -3.8180968200       10.4067489625
H                3.7904186780       -1.2911509954        4.0945510545
H                3.7904186780       -3.7627405746        4.0945510545



     Writing config-only to output data dir ./tmp/slab.save/ :
     XML data file
     NEW-OLD atomic charge density approx. for the potential

     Check: negative core charge=   -0.000002

     negative rho (up, down):  6.752E-05 0.000E+00

     total cpu time spent up to now is     1341.0 secs

     Self-consistent Calculation

     iteration #  1     ecut=    60.00 Ry     beta= 0.30
     Davidson diagonalization with overlap
     ethr =  1.00E-06,  avg # of iterations =  2.0

     Threshold (ethr) on eigenvalues was too large:
     Diagonalizing with lowered threshold

     Davidson diagonalization with overlap
     ethr =  1.28E-08,  avg # of iterations =  3.4

     negative rho (up, down):  6.748E-05 0.000E+00

     total cpu time spent up to now is     1362.0 secs

     total energy              =    -451.78611821 Ry
     estimated scf accuracy    <       0.00001510 Ry

     iteration #  2     ecut=    60.00 Ry     beta= 0.30
     Davidson diagonalization with overlap
     ethr =  1.45E-08,  avg # of iterations =  1.1

     negative rho (up, down):  6.753E-05 0.000E+00

     total cpu time spent up to now is     1369.7 secs

     total energy              =    -451.78611838 Ry
     estimated scf accuracy    <       0.00000557 Ry

     iteration #  3     ecut=    60.00 Ry     beta= 0.30
     Davidson diagonalization with overlap
     ethr =  5.35E-09,  avg # of iterations =  2.0

     negative rho (up, down):  6.757E-05 0.000E+00

     total cpu time spent up to now is     1378.6 secs

     total energy              =    -451.78611881 Ry
     estimated scf accuracy    <       0.00000070 Ry

     iteration #  4     ecut=    60.00 Ry     beta= 0.30
     Davidson diagonalization with overlap
     ethr =  6.75E-10,  avg # of iterations =  2.0

     negative rho (up, down):  6.755E-05 0.000E+00

     total cpu time spent up to now is     1387.7 secs

     total energy              =    -451.78611887 Ry
     estimated scf accuracy    <       0.00000005 Ry

     iteration #  5     ecut=    60.00 Ry     beta= 0.30
     Davidson diagonalization with overlap
     ethr =  4.82E-11,  avg # of iterations =  2.3

     negative rho (up, down):  6.754E-05 0.000E+00

     total cpu time spent up to now is     1397.9 secs

     total energy              =    -451.78611887 Ry
     estimated scf accuracy    <          9.1E-09 Ry

     iteration #  6     ecut=    60.00 Ry     beta= 0.30
     Davidson diagonalization with overlap
     ethr =  8.75E-12,  avg # of iterations =  2.9

     negative rho (up, down):  6.754E-05 0.000E+00

     total cpu time spent up to now is     1409.7 secs

     total energy              =    -451.78611887 Ry
     estimated scf accuracy    <          1.5E-09 Ry

     iteration #  7     ecut=    60.00 Ry     beta= 0.30
     Davidson diagonalization with overlap
     ethr =  1.41E-12,  avg # of iterations =  2.9

     negative rho (up, down):  6.754E-05 0.000E+00

     total cpu time spent up to now is     1420.7 secs

     total energy              =    -451.78611887 Ry
     estimated scf accuracy    <          4.9E-10 Ry

     iteration #  8     ecut=    60.00 Ry     beta= 0.30
     Davidson diagonalization with overlap
     ethr =  4.67E-13,  avg # of iterations =  2.0

     negative rho (up, down):  6.754E-05 0.000E+00

     total cpu time spent up to now is     1431.3 secs

     End of self-consistent calculation

          k = 0.0000-0.0000 0.0000 ( 19679 PWs)   bands (ev):

   -17.7363 -16.0398 -13.3843 -13.3843 -13.1672 -12.9550 -12.8610 -11.8391
   -11.5586 -11.5586  -9.2941  -9.2941  -9.0353  -8.8386  -8.8386  -8.6999
    -8.1478  -8.1478  -7.8462  -7.7728  -7.7728  -5.4192  -5.3753  -5.1740
    -4.8103  -4.8103  -3.9137  -3.9137  -3.4823  -3.4823  -2.6863  -2.2189
    -2.2048  -2.2048  -2.1222  -2.1222  -1.8967  -1.7698  -1.6585  -1.2002
    -1.1706  -1.1706   0.2216   0.4045   0.4045   0.4426   0.5398   0.8061
     0.8580   0.9879   1.3445   1.6795   5.4342   5.8924   7.4684   7.7488
     7.7853   8.3952   8.6137   8.9974   8.9975   9.1666

          k = 0.0000-0.2000 0.0000 ( 19607 PWs)   bands (ev):

   -17.5712 -16.0557 -14.2584 -13.3591 -13.2274 -13.2274 -11.7164 -11.5760
   -11.5760 -11.5564 -10.3266 -10.3266  -9.1333  -8.5594  -8.5594  -8.1721
    -7.7692  -7.6280  -7.6280  -7.4639  -7.4639  -5.9227  -5.0473  -4.9214
    -4.9214  -4.7730  -3.8347  -3.8347  -3.2767  -3.2767  -3.2182  -2.5470
    -2.3055  -2.3055  -1.9246  -1.8706  -1.8706  -1.8492  -1.3214  -1.2204
    -1.1930  -1.1930  -0.3767  -0.3052  -0.3052  -0.2321   0.3868   0.5912
     1.2293   1.3192   1.3437   1.6242   5.6676   6.0949   7.7888   8.1315
     8.2558   8.5247   8.6103   8.8261   8.9137   8.9137

          k = 0.0000-0.4000 0.0000 ( 19598 PWs)   bands (ev):

   -17.0966 -16.4351 -14.6004 -14.1010 -12.7951 -12.7951 -11.9642 -11.9642
   -11.3580 -10.9873 -10.8307 -10.8307  -9.0017  -9.0017  -8.6172  -7.7894
    -7.2606  -7.1360  -7.1360  -6.8023  -6.8023  -6.3060  -4.9977  -4.6078
    -4.6078  -4.4698  -3.9893  -3.6911  -3.6911  -3.2259  -3.2259  -3.1368
    -2.1494  -2.0335  -2.0335  -1.9350  -1.9350  -1.6807  -1.5874  -1.4114
    -1.4114  -1.2763  -1.2763  -1.1105  -0.4960  -0.3356   0.0573   0.1039
     0.8762   1.2486   1.7387   1.8261   6.3171   6.6631   7.3657   7.5886
     8.2301   8.5983   8.6129   8.6129   8.8701   8.9493

          k = 0.2000-0.2000 0.0000 ( 19577 PWs)   bands (ev):

   -17.3884 -15.8759 -14.7044 -14.0844 -13.2900 -13.1882 -11.6760 -11.5529
   -11.3903 -11.0660 -10.8755  -9.9531  -9.0323  -8.9617  -8.6505  -8.0300
    -7.9398  -7.6274  -7.2678  -6.2644  -6.1425  -5.8446  -5.6027  -5.0680
    -4.9877  -4.6687  -4.3510  -3.6602  -3.5487  -3.1079  -3.0208  -2.6743
    -2.3741  -2.3386  -2.3068  -1.9171  -1.7545  -1.7458  -1.5083  -1.2952
    -1.1680  -1.0132  -0.9167  -0.5173  -0.4923  -0.1711   0.1356   0.3129
     0.5663   0.6964   1.2589   1.3792   5.8352   6.2904   8.0204   8.1648
     8.2761   8.6047   8.6654   8.8263   8.8500   8.9926

          k = 0.2000-0.4000 0.0000 ( 19611 PWs)   bands (ev):

   -16.9144 -16.2540 -14.4263 -14.2419 -13.9282 -13.6042 -12.0019 -11.5089
   -11.1966 -10.8282 -10.7705 -10.3658  -8.5270  -8.5124  -8.4282  -7.8963
    -7.6924  -7.5089  -7.1150  -6.1604  -5.7648  -5.4029  -5.3972  -4.8975
    -4.6894  -4.3862  -4.2016  -3.9999  -3.9284  -3.2487  -3.0962  -2.9804
    -2.7129  -2.6488  -2.4573  -1.9128  -1.8624  -1.7444  -1.5847  -1.2776
    -1.2751  -1.1139  -0.9365  -0.8896  -0.8429  -0.7908  -0.5078  -0.0073
     0.9148   1.0059   1.0338   1.3682   6.4831   6.8591   7.5285   7.7604
     8.0007   8.1795   8.3090   8.8446   8.9456   9.3392

          k = 0.4000-0.4000 0.0000 ( 19634 PWs)   bands (ev):

   -16.3703 -15.7132 -15.4724 -14.8215 -13.9084 -13.4145 -13.0661 -12.5795
   -10.7245 -10.3632 -10.0388  -9.7544  -8.7789  -8.3335  -8.1346  -7.5467
    -6.7349  -6.5056  -6.2562  -5.7762  -5.6835  -5.3743  -5.3310  -5.0302
    -4.8285  -4.8140  -4.4002  -4.1590  -3.9747  -3.9372  -3.5190  -3.2637
    -2.9324  -2.7814  -2.6957  -2.5065  -2.1874  -2.0304  -1.5003  -1.4749
    -1.2702  -1.2011  -1.0191  -0.8282  -0.6915  -0.5454  -0.1575  -0.0381
    -0.0374   0.1358   0.6027   0.9367   6.8979   7.3341   7.4181   7.6542
     7.7838   8.0739   8.1574   8.2399   8.4942   8.7564

          k =-0.2000 0.0000 0.0000 ( 19607 PWs)   bands (ev):

   -17.5532 -15.8605 -14.8653 -13.3037 -12.9978 -12.7846 -12.6874 -11.6761
   -11.3421 -10.6787 -10.4839 -10.1608  -9.3322  -9.1220  -8.9495  -8.5460
    -7.6962  -7.5252  -6.9732  -6.8260  -6.7220  -5.3903  -5.3737  -5.3018
    -5.2111  -5.0409  -4.1680  -3.7794  -3.7029  -3.3254  -2.7188  -2.4839
    -2.4089  -2.2489  -2.1005  -1.7295  -1.7178  -1.6238  -1.6107  -1.5671
    -1.1921  -0.8073  -0.5189  -0.1626  -0.0649   0.0209   0.2214   0.5636
     0.8032   0.8261   0.8563   1.5118   5.6035   6.0847   7.8545   8.0348
     8.1129   8.1492   8.3555   8.7657   9.1545   9.4541

          k =-0.4000 0.0000 0.0000 ( 19598 PWs)   bands (ev):

   -17.0061 -16.1032 -15.3258 -14.4499 -12.4930 -12.2805 -12.1698 -11.6690
   -11.4787 -11.3188 -11.1902 -10.3939  -9.6073  -8.8615  -8.1228  -7.8439
    -7.2713  -6.9381  -6.7100  -6.4319  -5.6133  -5.6085  -5.5677  -5.1914
    -4.6466  -4.5423  -4.4142  -3.9427  -3.8543  -3.7809  -3.3178  -2.7315
    -2.5555  -2.4773  -1.8191  -1.7687  -1.5791  -1.5507  -1.5437  -1.4894
    -1.3432  -1.2152  -1.1954  -0.8618  -0.4542  -0.4258  -0.3852   0.1034
     0.1838   0.7504   0.9510   0.9878   6.1136   6.5210   6.9923   7.1674
     8.4300   8.6649   9.1334   9.2014   9.2041   9.4030

          k =-0.4000 0.2000 0.0000 ( 19611 PWs)   bands (ev):

   -16.8420 -15.9404 -15.3397 -14.4591 -13.5663 -12.7205 -12.6808 -11.8609
   -11.0698 -10.8948 -10.3135 -10.0825  -9.5030  -8.8780  -7.7707  -7.6672
    -7.2552  -6.9326  -6.6494  -6.1143  -5.8186  -5.7224  -5.4229  -5.0493
    -4.7975  -4.6418  -4.2294  -4.0164  -3.6888  -3.6233  -2.9887  -2.9732
    -2.7584  -2.6885  -2.5279  -2.1508  -1.7654  -1.6877  -1.5823  -1.3179
    -1.2667  -1.1889  -0.7792  -0.7785  -0.7316  -0.4704  -0.3561  -0.3053
    -0.0656   0.6172   0.6822   1.0621   6.3179   6.7429   7.1456   7.3843
     8.3479   8.7502   8.8454   8.9018   8.9138   9.2255

     the Fermi energy is     3.3368 ev

!    total energy              =    -451.78611888 Ry
     estimated scf accuracy    <          9.2E-11 Ry
     smearing contrib. (-TS)   =       0.00000000 Ry
     internal energy E=F+TS    =    -451.78611888 Ry

     The total energy is F=E-TS. E is the sum of the following terms:
     one-electron contribution =   -2320.19787346 Ry
     hartree contribution      =    1200.92187415 Ry
     xc contribution           =    -117.68079811 Ry
     ewald contribution        =     933.08740684 Ry
     one-center paw contrib.   =    -147.91672830 Ry

     convergence has been achieved in   8 iterations

     negative rho (up, down):  6.754E-05 0.000E+00

     Forces acting on atoms (cartesian axes, Ry/au):

     atom    1 type  1   force =     0.00000000    0.00087707    0.00047024
     atom    2 type  1   force =     0.00000000    0.00043680    0.00000924
     atom    3 type  1   force =     0.00000000   -0.00000000    0.00017498
     atom    4 type  1   force =     0.00000000   -0.00000000    0.00012600
     atom    5 type  1   force =     0.00000000   -0.00043673   -0.00000901
     atom    6 type  1   force =    -0.00000000   -0.00087691   -0.00047064
     atom    7 type  1   force =     0.00000000   -0.00087707    0.00047024
     atom    8 type  1   force =     0.00000000   -0.00043680    0.00000924
     atom    9 type  1   force =    -0.00000000    0.00000000   -0.00012615
     atom   10 type  1   force =     0.00000000    0.00000000   -0.00017492
     atom   11 type  1   force =     0.00000000    0.00043673   -0.00000901
     atom   12 type  1   force =    -0.00000000    0.00087691   -0.00047064
     atom   13 type  2   force =     0.00000000   -0.00025153   -0.00031422
     atom   14 type  2   force =     0.00000000    0.00025153   -0.00031422
     atom   15 type  2   force =    -0.00000000    0.00025142    0.00031443
     atom   16 type  2   force =    -0.00000000   -0.00025142    0.00031443
     atom   17 type  1   force =     0.00000000    0.00087708    0.00047024
     atom   18 type  1   force =    -0.00000000    0.00043680    0.00000924
     atom   19 type  1   force =    -0.00000000    0.00000000    0.00017498
     atom   20 type  1   force =     0.00000000   -0.00000000    0.00012600
     atom   21 type  1   force =     0.00000000   -0.00043673   -0.00000901
     atom   22 type  1   force =     0.00000000   -0.00087691   -0.00047064
     atom   23 type  1   force =     0.00000000   -0.00087708    0.00047024
     atom   24 type  1   force =    -0.00000000   -0.00043680    0.00000924
     atom   25 type  1   force =     0.00000000    0.00000000   -0.00012615
     atom   26 type  1   force =     0.00000000    0.00000000   -0.00017492
     atom   27 type  1   force =     0.00000000    0.00043673   -0.00000901
     atom   28 type  1   force =     0.00000000    0.00087691   -0.00047064
     atom   29 type  2   force =     0.00000000   -0.00025153   -0.00031422
     atom   30 type  2   force =     0.00000000    0.00025153   -0.00031422
     atom   31 type  2   force =     0.00000000    0.00025142    0.00031443
     atom   32 type  2   force =     0.00000000   -0.00025142    0.00031443

     Total force =     0.003306     Total SCF correction =     0.000018
     Energy error            =      4.8E-05 Ry
     Gradient error          =      8.8E-04 Ry/Bohr

     number of scf cycles    =  13
     number of bfgs steps    =  12

     energy             old  =    -451.7860712992 Ry
     energy             new  =    -451.7861188759 Ry

     CASE: energy            _new < energy            _old

     new trust radius        =       0.0039321470 bohr
     new conv_thr            =       0.0000000005 Ry


ATOMIC_POSITIONS (angstrom)
C                0.0000000000       -0.7997310662        9.3966240786
C                1.2634728929       -1.1620444599        8.5910921730
C                1.2634728925        0.0000000000        7.5488541231
C                0.0000000000        0.0000000000        6.6601742788
C                0.0000000000       -1.3649013050        5.9102079864
C                1.2634728923       -1.7272146642        5.1046758899
C                0.0000000000       -4.2541605038        9.3966240786
C                1.2634728929       -3.8918471101        8.5910921730
C                1.2634728925       -2.5269457800        7.8411257667
C                0.0000000000       -2.5269457800        6.9524459850
C                0.0000000000       -3.6889902650        5.9102079864
C                1.2634728923       -3.3266768958        5.1046758899
H                0.0000000000       -1.2377803286       10.4061266998
H                0.0000000000       -3.8161112414       10.4061266998
H                1.2634728921       -1.2891654846        4.0951734469
H                1.2634728921       -3.7647260854        4.0951734469
C                2.5269457800       -0.7997310658        9.3966240768
C                3.7904186771       -1.1620444599        8.5910921730
C                3.7904186775        0.0000000000        7.5488541231
C                2.5269457800        0.0000000000        6.6601742786
C                2.5269457800       -1.3649013053        5.9102079862
C                3.7904186777       -1.7272146642        5.1046758899
C                2.5269457800       -4.2541605042        9.3966240768
C                3.7904186771       -3.8918471101        8.5910921730
C                3.7904186775       -2.5269457800        7.8411257667
C                2.5269457800       -2.5269457800        6.9524459850
C                2.5269457800       -3.6889902647        5.9102079862
C                3.7904186777       -3.3266768958        5.1046758899
H                2.5269457800       -1.2377803300       10.4061266993
H                2.5269457800       -3.8161112400       10.4061266993
H                3.7904186779       -1.2891654846        4.0951734469
H                3.7904186779       -3.7647260854        4.0951734469



     Writing config-only to output data dir ./tmp/slab.save/ :
     XML data file
     NEW-OLD atomic charge density approx. for the potential

     Check: negative core charge=   -0.000002

     negative rho (up, down):  6.785E-05 0.000E+00

     total cpu time spent up to now is     1435.1 secs

     Self-consistent Calculation

     iteration #  1     ecut=    60.00 Ry     beta= 0.30
     Davidson diagonalization with overlap
     ethr =  1.00E-06,  avg # of iterations =  2.0

     Threshold (ethr) on eigenvalues was too large:
     Diagonalizing with lowered threshold

     Davidson diagonalization with overlap
     ethr =  2.98E-09,  avg # of iterations =  4.0

     negative rho (up, down):  6.783E-05 0.000E+00

     total cpu time spent up to now is     1457.6 secs

     total energy              =    -451.78612993 Ry
     estimated scf accuracy    <       0.00000350 Ry

     iteration #  2     ecut=    60.00 Ry     beta= 0.30
     Davidson diagonalization with overlap
     ethr =  3.37E-09,  avg # of iterations =  1.0

     negative rho (up, down):  6.780E-05 0.000E+00

     total cpu time spent up to now is     1465.6 secs

     total energy              =    -451.78612992 Ry
     estimated scf accuracy    <       0.00000151 Ry

     iteration #  3     ecut=    60.00 Ry     beta= 0.30
     Davidson diagonalization with overlap
     ethr =  1.45E-09,  avg # of iterations =  2.0

     negative rho (up, down):  6.780E-05 0.000E+00

     total cpu time spent up to now is     1474.6 secs

     total energy              =    -451.78613001 Ry
     estimated scf accuracy    <       0.00000011 Ry

     iteration #  4     ecut=    60.00 Ry     beta= 0.30
     Davidson diagonalization with overlap
     ethr =  1.05E-10,  avg # of iterations =  3.0

     negative rho (up, down):  6.779E-05 0.000E+00

     total cpu time spent up to now is     1485.9 secs

     total energy              =    -451.78613004 Ry
     estimated scf accuracy    <       0.00000002 Ry

     iteration #  5     ecut=    60.00 Ry     beta= 0.30
     Davidson diagonalization with overlap
     ethr =  1.90E-11,  avg # of iterations =  2.4

     negative rho (up, down):  6.779E-05 0.000E+00

     total cpu time spent up to now is     1495.5 secs

     total energy              =    -451.78613004 Ry
     estimated scf accuracy    <          3.0E-09 Ry

     iteration #  6     ecut=    60.00 Ry     beta= 0.30
     Davidson diagonalization with overlap
     ethr =  2.92E-12,  avg # of iterations =  4.0

     negative rho (up, down):  6.778E-05 0.000E+00

     total cpu time spent up to now is     1508.9 secs

     total energy              =    -451.78613004 Ry
     estimated scf accuracy    <          5.8E-09 Ry

     iteration #  7     ecut=    60.00 Ry     beta= 0.30
     Davidson diagonalization with overlap
     ethr =  2.92E-12,  avg # of iterations =  3.9

     negative rho (up, down):  6.778E-05 0.000E+00

     total cpu time spent up to now is     1521.9 secs

     total energy              =    -451.78613004 Ry
     estimated scf accuracy    <          1.1E-09 Ry

     iteration #  8     ecut=    60.00 Ry     beta= 0.30
     Davidson diagonalization with overlap
     ethr =  1.05E-12,  avg # of iterations =  2.1

     negative rho (up, down):  6.778E-05 0.000E+00

     total cpu time spent up to now is     1530.8 secs

     End of self-consistent calculation

          k = 0.0000-0.0000 0.0000 ( 19679 PWs)   bands (ev):

   -17.7356 -16.0410 -13.3836 -13.3836 -13.1650 -12.9563 -12.8588 -11.8377
   -11.5599 -11.5599  -9.2927  -9.2927  -9.0360  -8.8361  -8.8361  -8.7005
    -8.1472  -8.1472  -7.8469  -7.7721  -7.7721  -5.4163  -5.3756  -5.1787
    -4.8097  -4.8097  -3.9128  -3.9128  -3.4808  -3.4808  -2.6841  -2.2164
    -2.2118  -2.2118  -2.1202  -2.1202  -1.9074  -1.7683  -1.6562  -1.1989
    -1.1721  -1.1721   0.2240   0.4058   0.4058   0.4361   0.5402   0.8088
     0.8627   0.9925   1.3453   1.6803   5.4346   5.8924   7.4686   7.7482
     7.7815   8.3936   8.6191   8.9961   8.9962   9.1659

          k = 0.0000-0.2000 0.0000 ( 19607 PWs)   bands (ev):

   -17.5706 -16.0570 -14.2558 -13.3594 -13.2268 -13.2268 -11.7160 -11.5774
   -11.5774 -11.5549 -10.3247 -10.3247  -9.1332  -8.5585  -8.5585  -8.1728
    -7.7706  -7.6262  -7.6262  -7.4636  -7.4636  -5.9209  -5.0472  -4.9201
    -4.9201  -4.7772  -3.8337  -3.8337  -3.2773  -3.2773  -3.2173  -2.5448
    -2.3037  -2.3037  -1.9225  -1.8764  -1.8764  -1.8485  -1.3296  -1.2194
    -1.1939  -1.1939  -0.3771  -0.3043  -0.3043  -0.2285   0.3871   0.5946
     1.2258   1.3230   1.3442   1.6264   5.6682   6.0951   7.7866   8.1300
     8.2563   8.5283   8.6114   8.8260   8.9137   8.9137

          k = 0.0000-0.4000 0.0000 ( 19598 PWs)   bands (ev):

   -17.0962 -16.4356 -14.5986 -14.1002 -12.7950 -12.7950 -11.9639 -11.9639
   -11.3584 -10.9875 -10.8300 -10.8300  -9.0004  -9.0004  -8.6160  -7.7899
    -7.2620  -7.1364  -7.1364  -6.8008  -6.8008  -6.3048  -4.9998  -4.6052
    -4.6052  -4.4731  -3.9866  -3.6894  -3.6894  -3.2270  -3.2270  -3.1335
    -2.1475  -2.0365  -2.0365  -1.9330  -1.9330  -1.6835  -1.5859  -1.4114
    -1.4114  -1.2804  -1.2804  -1.1165  -0.4944  -0.3321   0.0605   0.1057
     0.8730   1.2439   1.7419   1.8289   6.3179   6.6632   7.3679   7.5901
     8.2320   8.5981   8.6127   8.6127   8.8720   8.9520

          k = 0.2000-0.2000 0.0000 ( 19577 PWs)   bands (ev):

   -17.3877 -15.8773 -14.7037 -14.0817 -13.2912 -13.1885 -11.6732 -11.5525
   -11.3889 -11.0661 -10.8760  -9.9532  -9.0323  -8.9601  -8.6501  -8.0308
    -7.9378  -7.6288  -7.2668  -6.2647  -6.1413  -5.8429  -5.6016  -5.0682
    -4.9877  -4.6728  -4.3501  -3.6564  -3.5467  -3.1073  -3.0192  -2.6749
    -2.3744  -2.3388  -2.3101  -1.9155  -1.7536  -1.7477  -1.5127  -1.2960
    -1.1676  -1.0166  -0.9151  -0.5192  -0.4926  -0.1688   0.1368   0.3136
     0.5695   0.6974   1.2591   1.3779   5.8358   6.2906   8.0191   8.1661
     8.2767   8.6032   8.6691   8.8242   8.8515   8.9919

          k = 0.2000-0.4000 0.0000 ( 19611 PWs)   bands (ev):

   -16.9141 -16.2545 -14.4245 -14.2416 -13.9275 -13.6047 -11.9997 -11.5078
   -11.1970 -10.8284 -10.7710 -10.3668  -8.5264  -8.5113  -8.4279  -7.8946
    -7.6928  -7.5074  -7.1163  -6.1593  -5.7640  -5.4022  -5.3959  -4.8996
    -4.6883  -4.3893  -4.2015  -3.9981  -3.9257  -3.2462  -3.0953  -2.9781
    -2.7130  -2.6480  -2.4557  -1.9158  -1.8636  -1.7415  -1.5872  -1.2833
    -1.2722  -1.1135  -0.9417  -0.8871  -0.8424  -0.7955  -0.5065  -0.0058
     0.9123   1.0065   1.0366   1.3663   6.4838   6.8591   7.5307   7.7618
     8.0013   8.1803   8.3123   8.8480   8.9455   9.3411

          k = 0.4000-0.4000 0.0000 ( 19634 PWs)   bands (ev):

   -16.3699 -15.7137 -15.4720 -14.8220 -13.9066 -13.4137 -13.0642 -12.5786
   -10.7249 -10.3634 -10.0394  -9.7550  -8.7783  -8.3329  -8.1348  -7.5472
    -6.7357  -6.5037  -6.2548  -5.7752  -5.6836  -5.3734  -5.3301  -5.0288
    -4.8274  -4.8153  -4.3995  -4.1603  -3.9749  -3.9348  -3.5205  -3.2631
    -2.9303  -2.7806  -2.6929  -2.5044  -2.1844  -2.0277  -1.5013  -1.4761
    -1.2698  -1.2033  -1.0187  -0.8320  -0.6935  -0.5474  -0.1599  -0.0364
    -0.0363   0.1347   0.6001   0.9340   6.8987   7.3347   7.4193   7.6565
     7.7852   8.0755   8.1561   8.2416   8.4943   8.7592

          k =-0.2000 0.0000 0.0000 ( 19607 PWs)   bands (ev):

   -17.5525 -15.8617 -14.8646 -13.3047 -12.9955 -12.7859 -12.6852 -11.6746
   -11.3414 -10.6802 -10.4823 -10.1585  -9.3304  -9.1225  -8.9503  -8.5465
    -7.6969  -7.5230  -6.9720  -6.8253  -6.7221  -5.3901  -5.3709  -5.3023
    -5.2117  -5.0457  -4.1654  -3.7757  -3.7007  -3.3261  -2.7163  -2.4872
    -2.4167  -2.2475  -2.0980  -1.7280  -1.7158  -1.6280  -1.6088  -1.5724
    -1.1981  -0.8059  -0.5173  -0.1615  -0.0609   0.0164   0.2259   0.5646
     0.8021   0.8276   0.8589   1.5122   5.6039   6.0847   7.8524   8.0353
     8.1129   8.1491   8.3538   8.7712   9.1509   9.4541

          k =-0.4000 0.0000 0.0000 ( 19598 PWs)   bands (ev):

   -17.0054 -16.1024 -15.3270 -14.4510 -12.4907 -12.2818 -12.1676 -11.6667
   -11.4800 -11.3166 -11.1886 -10.3923  -9.6078  -8.8624  -8.1234  -7.8451
    -7.2721  -6.9366  -6.7109  -6.4299  -5.6116  -5.6084  -5.5658  -5.1920
    -4.6466  -4.5464  -4.4148  -3.9422  -3.8584  -3.7766  -3.3143  -2.7277
    -2.5541  -2.4771  -1.8164  -1.7671  -1.5747  -1.5483  -1.5416  -1.4936
    -1.3391  -1.2230  -1.2044  -0.8639  -0.4556  -0.4257  -0.3840   0.1035
     0.1822   0.7498   0.9533   0.9897   6.1142   6.5211   6.9930   7.1678
     8.4272   8.6667   9.1325   9.2007   9.2071   9.4032

          k =-0.4000 0.2000 0.0000 ( 19611 PWs)   bands (ev):

   -16.8414 -15.9397 -15.3410 -14.4604 -13.5636 -12.7178 -12.6810 -11.8611
   -11.0694 -10.8933 -10.3132 -10.0812  -9.5031  -8.8783  -7.7716  -7.6680
    -7.2563  -6.9321  -6.6479  -6.1139  -5.8172  -5.7224  -5.4212  -5.0500
    -4.7971  -4.6405  -4.2326  -4.0155  -3.6906  -3.6203  -2.9887  -2.9713
    -2.7562  -2.6884  -2.5253  -2.1489  -1.7655  -1.6860  -1.5788  -1.3181
    -1.2713  -1.1917  -0.7820  -0.7779  -0.7296  -0.4731  -0.3577  -0.3065
    -0.0655   0.6181   0.6816   1.0617   6.3185   6.7433   7.1464   7.3851
     8.3490   8.7490   8.8432   8.9036   8.9133   9.2303

     the Fermi energy is     3.3369 ev

!    total energy              =    -451.78613004 Ry
     estimated scf accuracy    <          3.0E-10 Ry
     smearing contrib. (-TS)   =       0.00000000 Ry
     internal energy E=F+TS    =    -451.78613004 Ry

     The total energy is F=E-TS. E is the sum of the following terms:
     one-electron contribution =   -2319.95515621 Ry
     hartree contribution      =    1200.80042011 Ry
     xc contribution           =    -117.67970424 Ry
     ewald contribution        =     932.96497792 Ry
     one-center paw contrib.   =    -147.91666762 Ry

     convergence has been achieved in   8 iterations

     negative rho (up, down):  6.778E-05 0.000E+00

     Forces acting on atoms (cartesian axes, Ry/au):

     atom    1 type  1   force =     0.00000000    0.00025100    0.00007983
     atom    2 type  1   force =    -0.00000000    0.00010891    0.00001809
     atom    3 type  1   force =     0.00000000   -0.00000000    0.00001100
     atom    4 type  1   force =     0.00000000   -0.00000000    0.00008330
     atom    5 type  1   force =     0.00000000   -0.00010897   -0.00001831
     atom    6 type  1   force =     0.00000000   -0.00025115   -0.00007946
     atom    7 type  1   force =     0.00000000   -0.00025100    0.00007983
     atom    8 type  1   force =    -0.00000000   -0.00010891    0.00001809
     atom    9 type  1   force =    -0.00000000    0.00000000   -0.00008316
     atom   10 type  1   force =     0.00000000    0.00000000   -0.00001106
     atom   11 type  1   force =     0.00000000    0.00010897   -0.00001831
     atom   12 type  1   force =     0.00000000    0.00025115   -0.00007946
     atom   13 type  2   force =     0.00000000    0.00004451   -0.00010888
     atom   14 type  2   force =     0.00000000   -0.00004451   -0.00010888
     atom   15 type  2   force =    -0.00000000   -0.00004441    0.00010868
     atom   16 type  2   force =    -0.00000000    0.00004441    0.00010868
     atom   17 type  1   force =     0.00000000    0.00025100    0.00007983
     atom   18 type  1   force =     0.00000000    0.00010891    0.00001809
     atom   19 type  1   force =    -0.00000000    0.00000000    0.00001100
     atom   20 type  1   force =     0.00000000   -0.00000000    0.00008330
     atom   21 type  1   force =     0.00000000   -0.00010897   -0.00001831
     atom   22 type  1   force =    -0.00000000   -0.00025115   -0.00007946
     atom   23 type  1   force =     0.00000000   -0.00025100    0.00007983
     atom   24 type  1   force =     0.00000000   -0.00010891    0.00001809
     atom   25 type  1   force =     0.00000000    0.00000000   -0.00008316
     atom   26 type  1   force =     0.00000000    0.00000000   -0.00001106
     atom   27 type  1   force =     0.00000000    0.00010897   -0.00001831
     atom   28 type  1   force =    -0.00000000    0.00025115   -0.00007946
     atom   29 type  2   force =     0.00000000    0.00004451   -0.00010888
     atom   30 type  2   force =     0.00000000   -0.00004451   -0.00010888
     atom   31 type  2   force =     0.00000000   -0.00004441    0.00010868
     atom   32 type  2   force =     0.00000000    0.00004441    0.00010868

     Total force =     0.000890     Total SCF correction =     0.000039
     Energy error            =      1.1E-05 Ry
     Gradient error          =      2.5E-04 Ry/Bohr

     number of scf cycles    =  14
     number of bfgs steps    =  13

     energy             old  =    -451.7861188759 Ry
     energy             new  =    -451.7861300441 Ry

     CASE: energy            _new < energy            _old

     new trust radius        =       0.0003068966 bohr
     new conv_thr            =       0.0000000001 Ry


ATOMIC_POSITIONS (angstrom)
C                0.0000000000       -0.7995698410        9.3966055182
C                1.2634728926       -1.1619647696        8.5910751835
C                1.2634728931        0.0000000000        7.5488088658
C                0.0000000000        0.0000000000        6.6601699985
C                0.0000000000       -1.3649810327        5.9102248468
C                1.2634728925       -1.7273759777        5.1046946671
C                0.0000000000       -4.2543217290        9.3966055182
C                1.2634728926       -3.8919268004        8.5910751835
C                1.2634728925       -2.5269457800        7.8411301299
C                0.0000000000       -2.5269457800        6.9524912079
C                0.0000000000       -3.6889105373        5.9102248468
C                1.2634728925       -3.3265155823        5.1046946671
H                0.0000000000       -1.2377387284       10.4059847617
H                0.0000000000       -3.8161528416       10.4059847617
H                1.2634728920       -1.2892070274        4.0953152726
H                1.2634728920       -3.7646845426        4.0953152726
C                2.5269457800       -0.7995698418        9.3966055182
C                3.7904186774       -1.1619647696        8.5910751835
C                3.7904186769        0.0000000000        7.5488088658
C                2.5269457800        0.0000000000        6.6601699973
C                2.5269457800       -1.3649810324        5.9102248473
C                3.7904186775       -1.7273759777        5.1046946671
C                2.5269457800       -4.2543217282        9.3966055182
C                3.7904186774       -3.8919268004        8.5910751835
C                3.7904186775       -2.5269457800        7.8411301299
C                2.5269457800       -2.5269457800        6.9524912059
C                2.5269457800       -3.6889105376        5.9102248473
C                3.7904186775       -3.3265155823        5.1046946671
H                2.5269457800       -1.2377387291       10.4059847606
H                2.5269457800       -3.8161528409       10.4059847606
H                3.7904186780       -1.2892070274        4.0953152726
H                3.7904186780       -3.7646845426        4.0953152726



     Writing config-only to output data dir ./tmp/slab.save/ :
     XML data file
     NEW-OLD atomic charge density approx. for the potential

     Check: negative core charge=   -0.000002

     negative rho (up, down):  6.783E-05 0.000E+00

     total cpu time spent up to now is     1534.7 secs

     Self-consistent Calculation

     iteration #  1     ecut=    60.00 Ry     beta= 0.30
     Davidson diagonalization with overlap
     ethr =  1.00E-06,  avg # of iterations =  2.0

     Threshold (ethr) on eigenvalues was too large:
     Diagonalizing with lowered threshold

     Davidson diagonalization with overlap
     ethr =  8.99E-11,  avg # of iterations =  5.0

     negative rho (up, down):  6.783E-05 0.000E+00

     total cpu time spent up to now is     1559.2 secs

     total energy              =    -451.78613061 Ry
     estimated scf accuracy    <       0.00000029 Ry

     iteration #  2     ecut=    60.00 Ry     beta= 0.30
     Davidson diagonalization with overlap
     ethr =  2.81E-10,  avg # of iterations =  2.0

     negative rho (up, down):  6.782E-05 0.000E+00

     total cpu time spent up to now is     1568.5 secs

     total energy              =    -451.78613063 Ry
     estimated scf accuracy    <       0.00000004 Ry

     iteration #  3     ecut=    60.00 Ry     beta= 0.30
     Davidson diagonalization with overlap
     ethr =  4.27E-11,  avg # of iterations =  3.0

     negative rho (up, down):  6.780E-05 0.000E+00

     total cpu time spent up to now is     1579.3 secs

     total energy              =    -451.78613064 Ry
     estimated scf accuracy    <          9.7E-09 Ry

     iteration #  4     ecut=    60.00 Ry     beta= 0.30
     Davidson diagonalization with overlap
     ethr =  9.37E-12,  avg # of iterations =  1.8

     negative rho (up, down):  6.779E-05 0.000E+00

     total cpu time spent up to now is     1588.7 secs

     total energy              =    -451.78613064 Ry
     estimated scf accuracy    <          2.1E-09 Ry

     iteration #  5     ecut=    60.00 Ry     beta= 0.30
     Davidson diagonalization with overlap
     ethr =  2.03E-12,  avg # of iterations =  2.3

     negative rho (up, down):  6.779E-05 0.000E+00

     total cpu time spent up to now is     1598.9 secs

     total energy              =    -451.78613064 Ry
     estimated scf accuracy    <          3.9E-10 Ry

     iteration #  6     ecut=    60.00 Ry     beta= 0.30
     Davidson diagonalization with overlap
     ethr =  3.75E-13,  avg # of iterations =  3.0

     negative rho (up, down):  6.780E-05 0.000E+00

     total cpu time spent up to now is     1609.8 secs

     End of self-consistent calculation

          k = 0.0000-0.0000 0.0000 ( 19679 PWs)   bands (ev):

   -17.7359 -16.0419 -13.3837 -13.3837 -13.1647 -12.9572 -12.8584 -11.8372
   -11.5611 -11.5611  -9.2928  -9.2928  -9.0368  -8.8355  -8.8355  -8.7003
    -8.1477  -8.1477  -7.8468  -7.7718  -7.7718  -5.4165  -5.3754  -5.1793
    -4.8101  -4.8101  -3.9127  -3.9127  -3.4803  -3.4803  -2.6843  -2.2160
    -2.2129  -2.2129  -2.1197  -2.1197  -1.9090  -1.7678  -1.6561  -1.1993
    -1.1727  -1.1727   0.2239   0.4062   0.4062   0.4352   0.5407   0.8095
     0.8635   0.9934   1.3447   1.6805   5.4345   5.8922   7.4684   7.7481
     7.7810   8.3932   8.6209   8.9963   8.9964   9.1659

          k = 0.0000-0.2000 0.0000 ( 19607 PWs)   bands (ev):

   -17.5709 -16.0580 -14.2553 -13.3599 -13.2270 -13.2270 -11.7159 -11.5785
   -11.5785 -11.5547 -10.3244 -10.3244  -9.1339  -8.5587  -8.5587  -8.1728
    -7.7706  -7.6259  -7.6259  -7.4635  -7.4635  -5.9209  -5.0471  -4.9204
    -4.9204  -4.7778  -3.8335  -3.8335  -3.2773  -3.2773  -3.2172  -2.5450
    -2.3033  -2.3033  -1.9224  -1.8774  -1.8774  -1.8480  -1.3310  -1.2198
    -1.1943  -1.1943  -0.3768  -0.3040  -0.3040  -0.2282   0.3876   0.5949
     1.2254   1.3235   1.3445   1.6264   5.6681   6.0949   7.7867   8.1297
     8.2561   8.5295   8.6116   8.8259   8.9138   8.9138

          k = 0.0000-0.4000 0.0000 ( 19598 PWs)   bands (ev):

   -17.0967 -16.4363 -14.5984 -14.1004 -12.7954 -12.7954 -11.9645 -11.9645
   -11.3584 -10.9875 -10.8304 -10.8304  -9.0002  -9.0002  -8.6164  -7.7902
    -7.2620  -7.1364  -7.1364  -6.8006  -6.8006  -6.3049  -4.9997  -4.6053
    -4.6053  -4.4736  -3.9864  -3.6892  -3.6892  -3.2270  -3.2270  -3.1331
    -2.1477  -2.0372  -2.0372  -1.9325  -1.9325  -1.6837  -1.5863  -1.4112
    -1.4112  -1.2813  -1.2813  -1.1175  -0.4940  -0.3318   0.0608   0.1061
     0.8730   1.2434   1.7422   1.8291   6.3179   6.6633   7.3680   7.5905
     8.2325   8.5977   8.6125   8.6125   8.8736   8.9527

          k = 0.2000-0.2000 0.0000 ( 19577 PWs)   bands (ev):

   -17.3880 -15.8782 -14.7040 -14.0813 -13.2920 -13.1890 -11.6728 -11.5523
   -11.3887 -11.0667 -10.8768  -9.9535  -9.0330  -8.9599  -8.6502  -8.0308
    -7.9374  -7.6288  -7.2670  -6.2650  -6.1410  -5.8430  -5.6019  -5.0686
    -4.9877  -4.6734  -4.3497  -3.6564  -3.5468  -3.1072  -3.0188  -2.6749
    -2.3751  -2.3388  -2.3106  -1.9155  -1.7532  -1.7478  -1.5136  -1.2960
    -1.1678  -1.0173  -0.9151  -0.5195  -0.4924  -0.1684   0.1371   0.3140
     0.5700   0.6975   1.2593   1.3777   5.8357   6.2905   8.0194   8.1662
     8.2769   8.6032   8.6701   8.8243   8.8515   8.9918

          k = 0.2000-0.4000 0.0000 ( 19611 PWs)   bands (ev):

   -16.9145 -16.2552 -14.4243 -14.2420 -13.9276 -13.6054 -11.9993 -11.5079
   -11.1970 -10.8284 -10.7718 -10.3677  -8.5262  -8.5117  -8.4277  -7.8945
    -7.6931  -7.5074  -7.1163  -6.1593  -5.7643  -5.4024  -5.3959  -4.8996
    -4.6882  -4.3899  -4.2014  -3.9979  -3.9255  -3.2462  -3.0952  -2.9781
    -2.7131  -2.6484  -2.4554  -1.9165  -1.8639  -1.7410  -1.5874  -1.2843
    -1.2720  -1.1132  -0.9426  -0.8869  -0.8422  -0.7964  -0.5062  -0.0054
     0.9123   1.0066   1.0371   1.3660   6.4838   6.8592   7.5308   7.7622
     8.0014   8.1804   8.3133   8.8496   8.9461   9.3422

          k = 0.4000-0.4000 0.0000 ( 19634 PWs)   bands (ev):

   -16.3703 -15.7144 -15.4724 -14.8227 -13.9063 -13.4139 -13.0639 -12.5788
   -10.7250 -10.3635 -10.0396  -9.7554  -8.7784  -8.3333  -8.1351  -7.5475
    -6.7357  -6.5037  -6.2547  -5.7752  -5.6839  -5.3738  -5.3302  -5.0292
    -4.8274  -4.8154  -4.3998  -4.1606  -3.9747  -3.9345  -3.5208  -3.2633
    -2.9301  -2.7804  -2.6926  -2.5040  -2.1841  -2.0273  -1.5014  -1.4762
    -1.2696  -1.2040  -1.0185  -0.8329  -0.6937  -0.5476  -0.1600  -0.0361
    -0.0359   0.1345   0.6001   0.9337   6.8988   7.3348   7.4196   7.6568
     7.7855   8.0759   8.1563   8.2424   8.4946   8.7601

          k =-0.2000 0.0000 0.0000 ( 19607 PWs)   bands (ev):

   -17.5528 -15.8625 -14.8648 -13.3053 -12.9953 -12.7869 -12.6848 -11.6741
   -11.3419 -10.6814 -10.4823 -10.1581  -9.3299  -9.1231  -8.9510  -8.5464
    -7.6968  -7.5226  -6.9717  -6.8261  -6.7219  -5.3906  -5.3712  -5.3020
    -5.2120  -5.0463  -4.1648  -3.7758  -3.7008  -3.3261  -2.7156  -2.4882
    -2.4179  -2.2471  -2.0976  -1.7274  -1.7152  -1.6288  -1.6088  -1.5732
    -1.1991  -0.8062  -0.5176  -0.1613  -0.0602   0.0155   0.2267   0.5652
     0.8017   0.8280   0.8596   1.5122   5.6039   6.0846   7.8521   8.0355
     8.1131   8.1490   8.3536   8.7730   9.1505   9.4542

          k =-0.4000 0.0000 0.0000 ( 19598 PWs)   bands (ev):

   -17.0057 -16.1027 -15.3278 -14.4518 -12.4905 -12.2827 -12.1672 -11.6665
   -11.4810 -11.3161 -11.1881 -10.3918  -9.6085  -8.8632  -8.1234  -7.8456
    -7.2720  -6.9365  -6.7108  -6.4304  -5.6121  -5.6082  -5.5660  -5.1918
    -4.6471  -4.5469  -4.4153  -3.9427  -3.8591  -3.7765  -3.3136  -2.7269
    -2.5542  -2.4776  -1.8159  -1.7666  -1.5740  -1.5477  -1.5410  -1.4941
    -1.3382  -1.2243  -1.2058  -0.8643  -0.4559  -0.4255  -0.3842   0.1039
     0.1818   0.7497   0.9540   0.9903   6.1142   6.5211   6.9931   7.1678
     8.4269   8.6667   9.1323   9.2003   9.2087   9.4032

          k =-0.4000 0.2000 0.0000 ( 19611 PWs)   bands (ev):

   -16.8417 -15.9400 -15.3419 -14.4613 -13.5632 -12.7173 -12.6816 -11.8617
   -11.0692 -10.8931 -10.3131 -10.0810  -9.5037  -8.8790  -7.7722  -7.6681
    -7.2563  -6.9322  -6.6477  -6.1142  -5.8174  -5.7223  -5.4214  -5.0499
    -4.7974  -4.6408  -4.2331  -4.0160  -3.6911  -3.6202  -2.9885  -2.9711
    -2.7557  -2.6891  -2.5251  -2.1486  -1.7651  -1.6856  -1.5782  -1.3182
    -1.2721  -1.1921  -0.7827  -0.7779  -0.7295  -0.4734  -0.3577  -0.3065
    -0.0652   0.6184   0.6817   1.0617   6.3186   6.7433   7.1465   7.3852
     8.3496   8.7490   8.8430   8.9039   8.9133   9.2312

     the Fermi energy is     3.3370 ev

!    total energy              =    -451.78613064 Ry
     estimated scf accuracy    <          8.1E-11 Ry
     smearing contrib. (-TS)   =       0.00000000 Ry
     internal energy E=F+TS    =    -451.78613064 Ry

     The total energy is F=E-TS. E is the sum of the following terms:
     one-electron contribution =   -2320.02872994 Ry
     hartree contribution      =    1200.83749330 Ry
     xc contribution           =    -117.68079948 Ry
     ewald contribution        =     933.00259135 Ry
     one-center paw contrib.   =    -147.91668588 Ry

     convergence has been achieved in   6 iterations

     negative rho (up, down):  6.780E-05 0.000E+00

     Forces acting on atoms (cartesian axes, Ry/au):

     atom    1 type  1   force =     0.00000000    0.00005746    0.00001076
     atom    2 type  1   force =     0.00000000    0.00002185   -0.00000427
     atom    3 type  1   force =    -0.00000000    0.00000000    0.00002465
     atom    4 type  1   force =     0.00000000    0.00000000   -0.00000334
     atom    5 type  1   force =     0.00000000   -0.00002179    0.00000446
     atom    6 type  1   force =     0.00000000   -0.00005733   -0.00001107
     atom    7 type  1   force =     0.00000000   -0.00005746    0.00001076
     atom    8 type  1   force =     0.00000000   -0.00002185   -0.00000427
     atom    9 type  1   force =    -0.00000000    0.00000000    0.00000321
     atom   10 type  1   force =     0.00000000    0.00000000   -0.00002459
     atom   11 type  1   force =     0.00000000    0.00002179    0.00000446
     atom   12 type  1   force =     0.00000000    0.00005733   -0.00001107
     atom   13 type  2   force =     0.00000000    0.00002471   -0.00002661
     atom   14 type  2   force =     0.00000000   -0.00002471   -0.00002661
     atom   15 type  2   force =     0.00000000   -0.00002479    0.00002677
     atom   16 type  2   force =     0.00000000    0.00002479    0.00002677
     atom   17 type  1   force =     0.00000000    0.00005746    0.00001076
     atom   18 type  1   force =    -0.00000000    0.00002185   -0.00000427
     atom   19 type  1   force =     0.00000000   -0.00000000    0.00002465
     atom   20 type  1   force =     0.00000000    0.00000000   -0.00000334
     atom   21 type  1   force =     0.00000000   -0.00002179    0.00000446
     atom   22 type  1   force =    -0.00000000   -0.00005733   -0.00001107
     atom   23 type  1   force =     0.00000000   -0.00005746    0.00001076
     atom   24 type  1   force =    -0.00000000   -0.00002185   -0.00000427
     atom   25 type  1   force =     0.00000000   -0.00000000    0.00000321
     atom   26 type  1   force =     0.00000000    0.00000000   -0.00002459
     atom   27 type  1   force =     0.00000000    0.00002179    0.00000446
     atom   28 type  1   force =    -0.00000000    0.00005733   -0.00001107
     atom   29 type  2   force =     0.00000000    0.00002471   -0.00002661
     atom   30 type  2   force =     0.00000000   -0.00002471   -0.00002661
     atom   31 type  2   force =    -0.00000000   -0.00002479    0.00002677
     atom   32 type  2   force =    -0.00000000    0.00002479    0.00002677

     Total force =     0.000211     Total SCF correction =     0.000021
     Energy error            =      6.0E-07 Ry
     Gradient error          =      5.7E-05 Ry/Bohr

     bfgs converged in  15 scf cycles and  14 bfgs steps
     (criteria: energy <  1.0E-05 Ry, force <  1.0E-04 Ry/Bohr)

     End of BFGS Geometry Optimization

     Final energy             =    -451.7861306417 Ry

     File ./tmp/slab.bfgs deleted, as requested
Begin final coordinates

ATOMIC_POSITIONS (angstrom)
C                0.0000000000       -0.7995698410        9.3966055182
C                1.2634728926       -1.1619647696        8.5910751835
C                1.2634728931        0.0000000000        7.5488088658
C                0.0000000000        0.0000000000        6.6601699985
C                0.0000000000       -1.3649810327        5.9102248468
C                1.2634728925       -1.7273759777        5.1046946671
C                0.0000000000       -4.2543217290        9.3966055182
C                1.2634728926       -3.8919268004        8.5910751835
C                1.2634728925       -2.5269457800        7.8411301299
C                0.0000000000       -2.5269457800        6.9524912079
C                0.0000000000       -3.6889105373        5.9102248468
C                1.2634728925       -3.3265155823        5.1046946671
H                0.0000000000       -1.2377387284       10.4059847617
H                0.0000000000       -3.8161528416       10.4059847617
H                1.2634728920       -1.2892070274        4.0953152726
H                1.2634728920       -3.7646845426        4.0953152726
C                2.5269457800       -0.7995698418        9.3966055182
C                3.7904186774       -1.1619647696        8.5910751835
C                3.7904186769        0.0000000000        7.5488088658
C                2.5269457800        0.0000000000        6.6601699973
C                2.5269457800       -1.3649810324        5.9102248473
C                3.7904186775       -1.7273759777        5.1046946671
C                2.5269457800       -4.2543217282        9.3966055182
C                3.7904186774       -3.8919268004        8.5910751835
C                3.7904186775       -2.5269457800        7.8411301299
C                2.5269457800       -2.5269457800        6.9524912059
C                2.5269457800       -3.6889105376        5.9102248473
C                3.7904186775       -3.3265155823        5.1046946671
H                2.5269457800       -1.2377387291       10.4059847606
H                2.5269457800       -3.8161528409       10.4059847606
H                3.7904186780       -1.2892070274        4.0953152726
H                3.7904186780       -3.7646845426        4.0953152726
End final coordinates



     Writing all to output data dir ./tmp/slab.save/ :
     XML data file, charge density, pseudopotentials, collected wavefunctions

     init_run     :      4.42s CPU      4.75s WALL (       1 calls)
     electrons    :   1196.58s CPU   1559.38s WALL (      15 calls)
     update_pot   :      7.13s CPU      8.21s WALL (      14 calls)
     forces       :     24.58s CPU     28.82s WALL (      15 calls)

     Called by init_run:
     wfcinit      :      3.67s CPU      3.89s WALL (       1 calls)
     potinit      :      0.45s CPU      0.48s WALL (       1 calls)
     hinit0       :      0.14s CPU      0.15s WALL (       1 calls)

     Called by electrons:
     c_bands      :    978.75s CPU   1319.33s WALL (     135 calls)
     sum_band     :    143.92s CPU    155.57s WALL (     135 calls)
     v_of_rho     :     22.32s CPU     24.38s WALL (     143 calls)
     newd         :     13.63s CPU     18.81s WALL (     143 calls)
     PAW_pot      :     46.07s CPU     50.92s WALL (     157 calls)
     mix_rho      :      2.46s CPU      3.04s WALL (     135 calls)

     Called by c_bands:
     init_us_2    :     11.44s CPU     12.78s WALL (    2700 calls)
     cegterg      :    953.65s CPU   1293.33s WALL (    1215 calls)

     Called by *egterg:
     cdiaghg      :     13.00s CPU     14.34s WALL (    4824 calls)
     h_psi        :    675.50s CPU    948.27s WALL (    5022 calls)
     s_psi        :     71.84s CPU     87.52s WALL (    5022 calls)
     g_psi        :      3.00s CPU      3.02s WALL (    3798 calls)

     Called by h_psi:
     h_psi:calbec :     64.37s CPU    312.71s WALL (    5022 calls)
     vloc_psi     :    533.78s CPU    539.06s WALL (    5022 calls)
                                        0.00s GPU  (    5022 calls)
     add_vuspsi   :     74.72s CPU     91.84s WALL (    5022 calls)

     General routines
     calbec       :     94.48s CPU    350.77s WALL (    6903 calls)
     fft          :     13.66s CPU     13.73s WALL (    2015 calls)
     ffts         :      0.74s CPU      0.74s WALL (     278 calls)
     fftw         :    574.05s CPU    576.86s WALL (  484030 calls)
     interpolate  :      1.51s CPU      1.69s WALL (     143 calls)


     PWSCF        :  20m41.46s CPU  26m52.23s WALL


   This run was terminated on:  18:23:54   5Jul2026            

=------------------------------------------------------------------------------=
   JOB DONE.
=------------------------------------------------------------------------------=
Note: The following floating-point exceptions are signalling: IEEE_INVALID_FLAG IEEE_DIVIDE_BY_ZERO IEEE_OVERFLOW_FLAG IEEE_UNDERFLOW_FLAG
