
     Program PWSCF v.7.3.1 starts on  1Aug2026 at 12:48: 5 

     This program is part of the open-source Quantum ESPRESSO suite
     for quantum simulation of materials; please cite
         "P. Giannozzi et al., J. Phys.:Condens. Matter 21 395502 (2009);
         "P. Giannozzi et al., J. Phys.:Condens. Matter 29 465901 (2017);
         "P. Giannozzi et al., J. Chem. Phys. 152 154105 (2020);
          URL http://www.quantum-espresso.org", 
     in publications or presentations arising from this work. More details at
     http://www.quantum-espresso.org/quote

     Parallel version (MPI), running on     8 processors

     MPI processes distributed on     1 nodes
     188226 MiB available memory on the printing compute node when the environment starts

     Reading input from pw.in

     Current dimensions of program PWSCF are:
     Max number of different atomic species (ntypx) = 10
     Max number of k-points (npk) =  40000
     Max angular momentum in pseudopotentials (lmaxx) =  4
     file C.pbe-n-kjpaw_psl.1.0.0.UPF: wavefunction(s)  2S 2P renormalized
     Message from routine setup:
     using ibrav=0 with symmetry is DISCOURAGED, use correct ibrav instead

     R & G space division:  proc/nbgrp/npool/nimage =       8
     Subspace diagonalization in iterative solution of the eigenvalue problem:
     a serial algorithm will be used


     Parallelization info
     --------------------
     sticks:   dense  smooth     PW     G-vecs:    dense   smooth      PW
     Min         141      69     20                40835    14375    2340
     Max         142      70     21                40874    14430    2385
     Sum        1135     559    163               326911   115333   18857

     Using Slab Decomposition



     bravais-lattice index     =            0
     lattice parameter (alat)  =       4.7752  a.u.
     unit-cell volume          =    1000.9561 (a.u.)^3
     number of atoms/cell      =            8
     number of atomic types    =            2
     number of electrons       =        26.00
     number of Kohn-Sham states=           17
     kinetic-energy cutoff     =      90.0000  Ry
     charge density cutoff     =     720.0000  Ry
     scf convergence threshold =      1.0E-08
     mixing beta               =       0.3000
     number of iterations used =            8  plain     mixing
     Exchange-correlation= PBE
                           (   1   4   3   4   0   0   0)

     celldm(1)=   4.775235  celldm(2)=   0.000000  celldm(3)=   0.000000
     celldm(4)=   0.000000  celldm(5)=   0.000000  celldm(6)=   0.000000

     crystal axes: (cart. coord. in units of alat)
               a(1) = (   1.000000   0.000000   0.000000 )  
               a(2) = (   0.500000   0.866025   0.000000 )  
               a(3) = (   0.000000   0.000000  10.614512 )  

     reciprocal axes: (cart. coord. in units 2 pi/alat)
               b(1) = (  1.000000 -0.577350  0.000000 )  
               b(2) = (  0.000000  1.154701  0.000000 )  
               b(3) = (  0.000000  0.000000  0.094211 )  


     PseudoPot. # 1 for C  read from file:
     ./C.pbe-n-kjpaw_psl.1.0.0.UPF
     MD5 check sum: 5d2aebdfa2cae82b50a7e79e9516da0f
     Pseudo is Projector augmented-wave + core cor, Zval =  4.0
     Generated using "atomic" code by A. Dal Corso  v.5.1
     Shape of augmentation charge: PSQ
     Using radial grid of 1073 points,  4 beta functions with: 
                l(1) =   0
                l(2) =   0
                l(3) =   1
                l(4) =   1
     Q(r) pseudized with 0 coefficients 


     PseudoPot. # 2 for H  read from file:
     ./H_ONCV_PBE-1.0.oncvpsp.upf
     MD5 check sum: 1790becc920ee074925cf490c71280fe
     Pseudo is Norm-conserving, Zval =  1.0
     Generated using ONCVPSP code by D. R. Hamann
     Using radial grid of 1166 points,  2 beta functions with: 
                l(1) =   0
                l(2) =   0

     atomic species   valence    mass     pseudopotential
     C                 4.00    12.01100     C ( 1.00)
     H                 1.00     1.00800     H ( 1.00)

      6 Sym. Ops. (no inversion) found



   Cartesian axes

     site n.     atom                  positions (alat units)
         1        C      tau(   1) = (   0.5000000   0.2886751   3.8425963  )
         2        C      tau(   2) = (   1.0000000   0.5773503   3.6495395  )
         3        C      tau(   3) = (   1.0000000   0.5773503   3.0344995  )
         4        C      tau(   4) = (  -0.0000000   0.0000000   2.8311966  )
         5        C      tau(   5) = (   0.0000000   0.0000000   2.2161565  )
         6        C      tau(   6) = (   0.5000000   0.2886751   2.0230997  )
         7        H      tau(   7) = (   0.5000000   0.2886751   4.2814431  )
         8        H      tau(   8) = (   0.5000000   0.2886751   1.5842529  )

     number of k points=    12  Marzari-Vanderbilt smearing, width (Ry)=  0.0100
                       cart. coord. in units 2pi/alat
        k(    1) = (   0.0000000   0.0000000   0.0000000), wk =   0.0246914
        k(    2) = (   0.0000000   0.1283001   0.0000000), wk =   0.1481481
        k(    3) = (   0.0000000   0.2566001   0.0000000), wk =   0.1481481
        k(    4) = (   0.0000000   0.3849002   0.0000000), wk =   0.1481481
        k(    5) = (   0.0000000   0.5132002   0.0000000), wk =   0.1481481
        k(    6) = (   0.1111111   0.1924501   0.0000000), wk =   0.1481481
        k(    7) = (   0.1111111   0.3207501   0.0000000), wk =   0.2962963
        k(    8) = (   0.1111111   0.4490502   0.0000000), wk =   0.2962963
        k(    9) = (   0.1111111  -0.5773503   0.0000000), wk =   0.1481481
        k(   10) = (   0.2222222   0.3849002   0.0000000), wk =   0.1481481
        k(   11) = (   0.2222222  -0.6415003   0.0000000), wk =   0.2962963
        k(   12) = (   0.3333333  -0.5773503   0.0000000), wk =   0.0493827

     Dense  grid:   326911 G-vectors     FFT dimensions: (  45,  45, 450)

     Smooth grid:   115333 G-vectors     FFT dimensions: (  30,  30, 320)

     Estimated max dynamical RAM per process >      71.77 MB

     Estimated total dynamical RAM >     574.19 MB

     Initial potential from superposition of free atoms

     starting charge      25.9997, renormalised to      26.0000

     negative rho (up, down):  3.567E-05 0.000E+00
     Starting wfcs are   26 randomized atomic wfcs
     Checking if some PAW data can be deallocated... 

     total cpu time spent up to now is        0.8 secs

     Self-consistent Calculation

     iteration #  1     ecut=    90.00 Ry     beta= 0.30
     Davidson diagonalization with overlap
     ethr =  1.00E-02,  avg # of iterations =  2.9

     negative rho (up, down):  3.731E-05 0.000E+00

     total cpu time spent up to now is        1.6 secs

     total energy              =    -113.01941477 Ry
     estimated scf accuracy    <       0.60045250 Ry

     iteration #  2     ecut=    90.00 Ry     beta= 0.30
     Davidson diagonalization with overlap
     ethr =  2.31E-03,  avg # of iterations =  3.0

     negative rho (up, down):  4.359E-05 0.000E+00

     total cpu time spent up to now is        2.2 secs

     total energy              =    -112.97846567 Ry
     estimated scf accuracy    <       0.18642760 Ry

     iteration #  3     ecut=    90.00 Ry     beta= 0.30
     Davidson diagonalization with overlap
     ethr =  7.17E-04,  avg # of iterations =  7.3

     negative rho (up, down):  4.610E-05 0.000E+00

     total cpu time spent up to now is        3.0 secs

     total energy              =    -112.98516317 Ry
     estimated scf accuracy    <       0.02624913 Ry

     iteration #  4     ecut=    90.00 Ry     beta= 0.30
     Davidson diagonalization with overlap
     ethr =  1.01E-04,  avg # of iterations =  4.7

     negative rho (up, down):  4.987E-05 0.000E+00

     total cpu time spent up to now is        3.6 secs

     total energy              =    -112.98629101 Ry
     estimated scf accuracy    <       0.00319679 Ry

     iteration #  5     ecut=    90.00 Ry     beta= 0.30
     Davidson diagonalization with overlap
     ethr =  1.23E-05,  avg # of iterations =  6.8

     negative rho (up, down):  4.864E-05 0.000E+00

     total cpu time spent up to now is        4.4 secs

     total energy              =    -112.98674313 Ry
     estimated scf accuracy    <       0.00021439 Ry

     iteration #  6     ecut=    90.00 Ry     beta= 0.30
     Davidson diagonalization with overlap
     ethr =  8.25E-07,  avg # of iterations =  4.2

     negative rho (up, down):  5.033E-05 0.000E+00

     total cpu time spent up to now is        5.1 secs

     total energy              =    -112.98676986 Ry
     estimated scf accuracy    <       0.00006999 Ry

     iteration #  7     ecut=    90.00 Ry     beta= 0.30
     Davidson diagonalization with overlap
     ethr =  2.69E-07,  avg # of iterations =  2.4

     negative rho (up, down):  4.997E-05 0.000E+00

     total cpu time spent up to now is        5.7 secs

     total energy              =    -112.98678389 Ry
     estimated scf accuracy    <       0.00001828 Ry

     iteration #  8     ecut=    90.00 Ry     beta= 0.30
     Davidson diagonalization with overlap
     ethr =  7.03E-08,  avg # of iterations =  1.6

     negative rho (up, down):  5.028E-05 0.000E+00

     total cpu time spent up to now is        6.3 secs

     total energy              =    -112.98678395 Ry
     estimated scf accuracy    <       0.00000337 Ry

     iteration #  9     ecut=    90.00 Ry     beta= 0.30
     Davidson diagonalization with overlap
     ethr =  1.30E-08,  avg # of iterations =  3.3

     negative rho (up, down):  5.035E-05 0.000E+00

     total cpu time spent up to now is        7.0 secs

     total energy              =    -112.98678517 Ry
     estimated scf accuracy    <       0.00000184 Ry

     iteration # 10     ecut=    90.00 Ry     beta= 0.30
     Davidson diagonalization with overlap
     ethr =  7.09E-09,  avg # of iterations =  1.8

     negative rho (up, down):  5.042E-05 0.000E+00

     total cpu time spent up to now is        7.6 secs

     total energy              =    -112.98678516 Ry
     estimated scf accuracy    <       0.00000042 Ry

     iteration # 11     ecut=    90.00 Ry     beta= 0.30
     Davidson diagonalization with overlap
     ethr =  1.61E-09,  avg # of iterations =  2.3

     negative rho (up, down):  5.047E-05 0.000E+00

     total cpu time spent up to now is        8.2 secs

     total energy              =    -112.98678519 Ry
     estimated scf accuracy    <       0.00000007 Ry

     iteration # 12     ecut=    90.00 Ry     beta= 0.30
     Davidson diagonalization with overlap
     ethr =  2.79E-10,  avg # of iterations =  3.3

     negative rho (up, down):  5.068E-05 0.000E+00

     total cpu time spent up to now is        8.9 secs

     End of self-consistent calculation

          k = 0.0000 0.0000 0.0000 ( 14331 PWs)   bands (ev):

   -20.1619 -18.6739 -16.4427 -11.6195  -8.5405  -4.6470  -1.7420  -1.7420
    -1.1588  -0.8844  -0.8844   0.2008   0.2008   3.0699   3.3708   3.9851
     4.4001

          k = 0.0000 0.1283 0.0000 ( 14435 PWs)   bands (ev):

   -19.8612 -18.3794 -16.1608 -11.3497  -8.3144  -4.5232  -3.1503  -2.3636
    -2.2328  -1.4118  -1.2687  -0.9399  -0.2395   3.4125   3.6136   4.3423
     4.7790

          k = 0.0000 0.2566 0.0000 ( 14405 PWs)   bands (ev):

   -18.9655 -17.5035 -15.3247 -10.5989  -7.7301  -6.1202  -5.0070  -4.1840
    -3.5831  -3.5337  -2.4900  -1.4744  -1.2155   4.2874   4.3933   5.4464
     5.8812

          k = 0.0000 0.3849 0.0000 ( 14452 PWs)   bands (ev):

   -17.4996 -16.0798 -13.9863 -10.0945  -9.0338  -7.7764  -7.1362  -5.9100
    -4.5275  -4.1101  -3.4431  -2.1712  -2.1198   5.2581   5.7082   6.2812
     7.1875

          k = 0.0000 0.5132 0.0000 ( 14450 PWs)   bands (ev):

   -15.5639 -14.3465 -12.9536 -11.4835 -11.2830  -9.4403  -7.1402  -5.8586
    -5.0688  -4.7017  -3.9693  -2.7053  -2.6272   5.6714   6.3970   7.0453
     7.5330

          k = 0.1111 0.1925 0.0000 ( 14427 PWs)   bands (ev):

   -19.2629 -17.7940 -15.6015 -10.8354  -7.9000  -4.9247  -4.3286  -4.2380
    -3.3233  -3.0347  -1.9292  -1.9129  -0.9465   4.0647   4.1261   5.0843
     5.5261

          k = 0.1111 0.3208 0.0000 ( 14392 PWs)   bands (ev):

   -18.0809 -16.6416 -14.5073 -10.0172  -7.7565  -7.2069  -6.3519  -5.5996
    -4.4765  -4.0557  -3.8191  -2.8544  -1.5663   5.1244   5.2531   6.5888
     6.8301

          k = 0.1111 0.4491 0.0000 ( 14430 PWs)   bands (ev):

   -16.3628 -14.9965 -13.0321 -10.8859  -9.9792  -8.1841  -7.5996  -5.9249
    -5.7074  -4.9302  -4.2387  -3.4202  -2.4332   6.0658   6.7424   7.3807
     8.1928

          k = 0.1111-0.5774 0.0000 ( 14462 PWs)   bands (ev):

   -14.5855 -14.0495 -12.8308 -11.8974 -10.7677 -10.2105  -6.6030  -6.3074
    -5.8723  -4.9439  -4.8867  -3.4625  -2.9307   6.3699   7.2452   8.1006
     8.3773

          k = 0.2222 0.3849 0.0000 ( 14405 PWs)   bands (ev):

   -16.6402 -15.2504 -13.2112 -10.0815  -8.8782  -8.1056  -7.2433  -6.6822
    -6.0045  -5.1849  -4.9622  -3.9113  -2.3426   6.2256   6.6469   7.9151
     8.2846

          k = 0.2222-0.6415 0.0000 ( 14471 PWs)   bands (ev):

   -14.7564 -13.5859 -12.2131 -11.2497 -10.6892  -9.4093  -7.7220  -7.3475
    -6.3027  -5.9081  -5.0036  -4.1837  -3.3259   6.9010   7.5509   8.7610
     8.9286

          k = 0.3333-0.5774 0.0000 ( 14511 PWs)   bands (ev):

   -13.1502 -13.1502 -12.0411 -11.7371 -10.3119 -10.3119  -8.1925  -7.8944
    -7.8944  -5.1526  -4.5719  -4.5719  -4.2640   7.5046   7.5046   8.1552
     9.8531

     the Fermi energy is     0.9836 ev

!    total energy              =    -112.98678521 Ry
     estimated scf accuracy    <          5.8E-09 Ry
     smearing contrib. (-TS)   =       0.00000000 Ry
     internal energy E=F+TS    =    -112.98678521 Ry

     The total energy is F=E-TS. E is the sum of the following terms:
     one-electron contribution =   -2033.93144045 Ry
     hartree contribution      =    1024.84148689 Ry
     xc contribution           =     -29.50879380 Ry
     ewald contribution        =     962.59034443 Ry
     one-center paw contrib.   =     -36.97838228 Ry

     convergence has been achieved in  12 iterations

     negative rho (up, down):  5.068E-05 0.000E+00

     Forces acting on atoms (cartesian axes, Ry/au):

     atom    1 type  1   force =     0.00000000    0.00000000   -0.00002821
     atom    2 type  1   force =     0.00000000    0.00000000   -0.00001928
     atom    3 type  1   force =     0.00000000    0.00000000    0.00003008
     atom    4 type  1   force =     0.00000000    0.00000000   -0.00003666
     atom    5 type  1   force =     0.00000000    0.00000000    0.00002526
     atom    6 type  1   force =     0.00000000    0.00000000    0.00003700
     atom    7 type  2   force =     0.00000000    0.00000000   -0.00001080
     atom    8 type  2   force =     0.00000000    0.00000000    0.00000261

     Total force =     0.000074     Total SCF correction =     0.000110
     SCF correction compared to forces is large: reduce conv_thr to get better values


     Computing stress (Cartesian axis) and pressure


     negative rho (up, down):  5.068E-05 0.000E+00
          total   stress  (Ry/bohr**3)                   (kbar)     P=        2.04
   0.00002132   0.00000000   0.00000000            3.14        0.00        0.00
   0.00000000   0.00002132   0.00000000            0.00        3.14        0.00
   0.00000000   0.00000000  -0.00000103            0.00        0.00       -0.15


     Writing all to output data dir /tmp/qe/slab.save/ :
     XML data file, charge density, pseudopotentials, collected wavefunctions

     init_run     :      0.49s CPU      0.68s WALL (       1 calls)
     electrons    :      7.87s CPU      8.04s WALL (       1 calls)
     forces       :      0.17s CPU      0.17s WALL (       1 calls)
     stress       :      0.87s CPU      0.87s WALL (       1 calls)

     Called by init_run:
     wfcinit      :      0.24s CPU      0.32s WALL (       1 calls)
     potinit      :      0.10s CPU      0.12s WALL (       1 calls)
     hinit0       :      0.05s CPU      0.12s WALL (       1 calls)

     Called by electrons:
     c_bands      :      5.00s CPU      5.10s WALL (      12 calls)
     sum_band     :      1.38s CPU      1.41s WALL (      12 calls)
     v_of_rho     :      0.74s CPU      0.76s WALL (      13 calls)
     newd         :      0.35s CPU      0.38s WALL (      13 calls)
     PAW_pot      :      0.41s CPU      0.41s WALL (      13 calls)
     mix_rho      :      0.06s CPU      0.07s WALL (      12 calls)

     Called by c_bands:
     init_us_2    :      0.16s CPU      0.17s WALL (     324 calls)
     cegterg      :      4.76s CPU      4.86s WALL (     144 calls)

     Called by *egterg:
     cdiaghg      :      0.20s CPU      0.29s WALL (     669 calls)
     h_psi        :      4.09s CPU      4.16s WALL (     681 calls)
     s_psi        :      0.13s CPU      0.13s WALL (     681 calls)
     g_psi        :      0.03s CPU      0.03s WALL (     525 calls)

     Called by h_psi:
     h_psi:calbec :      0.17s CPU      0.18s WALL (     681 calls)
     vloc_psi     :      3.75s CPU      3.80s WALL (     681 calls)
     add_vuspsi   :      0.15s CPU      0.16s WALL (     681 calls)

     General routines
     calbec       :      0.24s CPU      0.26s WALL (     885 calls)
     fft          :      0.33s CPU      0.41s WALL (     192 calls)
     ffts         :      0.01s CPU      0.02s WALL (      25 calls)
     fftw         :      3.27s CPU      3.31s WALL (   16084 calls)
     interpolate  :      0.03s CPU      0.03s WALL (      13 calls)

     Parallel routines

     PWSCF        :      9.49s CPU     10.00s WALL


   This run was terminated on:  12:48:15   1Aug2026            

=------------------------------------------------------------------------------=
   JOB DONE.
=------------------------------------------------------------------------------=
Note: The following floating-point exceptions are signalling: IEEE_UNDERFLOW_FLAG IEEE_DENORMAL
Note: The following floating-point exceptions are signalling: IEEE_UNDERFLOW_FLAG IEEE_DENORMAL
Note: The following floating-point exceptions are signalling: IEEE_UNDERFLOW_FLAG IEEE_DENORMAL
Note: The following floating-point exceptions are signalling: IEEE_UNDERFLOW_FLAG IEEE_DENORMAL
Note: The following floating-point exceptions are signalling: IEEE_UNDERFLOW_FLAG IEEE_DENORMAL
Note: The following floating-point exceptions are signalling: IEEE_UNDERFLOW_FLAG IEEE_DENORMAL
Note: The following floating-point exceptions are signalling: IEEE_UNDERFLOW_FLAG IEEE_DENORMAL
Note: The following floating-point exceptions are signalling: IEEE_UNDERFLOW_FLAG IEEE_DENORMAL
