
     Program PWSCF v.7.5 starts on 23Jun2026 at 12: 6:18 

     This program is part of the open-source Quantum ESPRESSO suite
     for quantum simulation of materials; please cite
         "P. Giannozzi et al., J. Phys.:Condens. Matter 21 395502 (2009);
         "P. Giannozzi et al., J. Phys.:Condens. Matter 29 465901 (2017);
         "P. Giannozzi et al., J. Chem. Phys. 152 154105 (2020);
          URL http://www.quantum-espresso.org", 
     in publications or presentations arising from this work. More details at
     http://www.quantum-espresso.org/quote

     Serial version
     0 MiB available memory on the printing compute node when the environment starts

     Waiting for input...
     Reading input from standard input

     Current dimensions of program PWSCF are:
     Max number of different atomic species (ntypx) = 10
     Max number of k-points (npk) =  40000
     Max angular momentum in pseudopotentials (lmaxx) =  4
     file C.pbe-n-kjpaw_psl.1.0.0.UPF: wavefunction(s)  2S 2P renormalized
     Message from routine volume:
     axis vectors are left-handed
     Message from routine setup:
     using ibrav=0 with symmetry is DISCOURAGED, use correct ibrav instead


     G-vector sticks info
     --------------------
     sticks:   dense  smooth     PW     G-vecs:    dense   smooth      PW
     Sum        1685     837    247               377669   133615   20939

     Using Slab Decomposition



     bravais-lattice index     =            0
     lattice parameter (alat)  =       4.8230  a.u.
     unit-cell volume          =    1380.5205 (a.u.)^3
     number of atoms/cell      =           14
     number of atomic types    =            2
     number of electrons       =        50.00
     number of Kohn-Sham states=           30
     kinetic-energy cutoff     =      80.0000  Ry
     charge density cutoff     =     640.0000  Ry
     scf convergence threshold =      1.0E-08
     mixing beta               =       0.3000
     number of iterations used =            8  plain     mixing
     Exchange-correlation= PBE
                           (   1   4   3   4   0   0   0)

     celldm(1)=   4.822988  celldm(2)=   0.000000  celldm(3)=   0.000000
     celldm(4)=   0.000000  celldm(5)=   0.000000  celldm(6)=   0.000000

     crystal axes: (cart. coord. in units of alat)
               a(1) = (   1.000000   0.000000   0.000000 )  
               a(2) = (   0.000000  -1.414214   0.000000 )  
               a(3) = (   0.000000   0.000000   8.701204 )  

     reciprocal axes: (cart. coord. in units 2 pi/alat)
               b(1) = (  1.000000 -0.000000 -0.000000 )  
               b(2) = ( -0.000000 -0.707107 -0.000000 )  
               b(3) = ( -0.000000 -0.000000  0.114927 )  


     PseudoPot. # 1 for C  read from file:
     ./C.pbe-n-kjpaw_psl.1.0.0.UPF
     MD5 check sum: 5d2aebdfa2cae82b50a7e79e9516da0f
     Pseudo is Projector augmented-wave + core cor, Zval =  4.0
     Generated using "atomic" code by A. Dal Corso  v.5.1
     Shape of augmentation charge: PSQ
     Using radial grid of 1073 points,  4 beta functions with: 
                l(1) =   0
                l(2) =   0
                l(3) =   1
                l(4) =   1
     Q(r) pseudized with 0 coefficients 


     PseudoPot. # 2 for H  read from file:
     ./H_ONCV_PBE-1.0.oncvpsp.upf
     MD5 check sum: 1790becc920ee074925cf490c71280fe
     Pseudo is Norm-conserving, Zval =  1.0
     Generated using ONCVPSP code by D. R. Hamann
     Using radial grid of 1166 points,  2 beta functions with: 
                l(1) =   0
                l(2) =   0

     atomic species   valence    mass     pseudopotential
     C                 4.00    12.01100     C ( 1.00)
     H                 1.00     1.00800     H ( 1.00)

      4 Sym. Ops. (no inversion) found ( 2 have fractional translation)



   Cartesian axes

     site n.     atom                  positions (alat units)
         1        C      tau(   1) = (   0.0000000  -0.3611383   5.4013994  )
         2        C      tau(   2) = (   0.5000000  -0.6995219   5.4013994  )
         3        C      tau(   3) = (   0.0000000   0.0012652   4.9174886  )
         4        C      tau(   4) = (   0.5000000  -1.0619254   4.9174886  )
         5        C      tau(   5) = (   0.0000000  -0.3539405   4.4212586  )
         6        C      tau(   6) = (   0.5000000  -0.7067197   4.4212586  )
         7        C      tau(   7) = (   0.0000000   0.0025088   3.9273466  )
         8        C      tau(   8) = (   0.5000000  -1.0631689   3.9273466  )
         9        C      tau(   9) = (   0.0000000  -0.3535534   3.4336731  )
        10        C      tau(  10) = (   0.5000000  -0.7071068   3.4336731  )
        11        C      tau(  11) = (   0.0000000   0.0000000   2.9386236  )
        12        C      tau(  12) = (   0.5000000  -1.0606602   2.9386236  )
        13        H      tau(  13) = (   0.0000000  -0.1241579   5.7622766  )
        14        H      tau(  14) = (   0.5000000  -0.9365023   5.7622766  )

     number of k points=    20  Marzari-Vanderbilt smearing, width (Ry)=  0.0100
                       cart. coord. in units 2pi/alat
        k(    1) = (   0.0000000  -0.0000000   0.0000000), wk =   0.0317460
        k(    2) = (   0.0000000  -0.1010153   0.0000000), wk =   0.0634921
        k(    3) = (   0.0000000  -0.2020305   0.0000000), wk =   0.0634921
        k(    4) = (   0.0000000  -0.3030458   0.0000000), wk =   0.0634921
        k(    5) = (   0.1111111  -0.0000000   0.0000000), wk =   0.0634921
        k(    6) = (   0.1111111  -0.1010153   0.0000000), wk =   0.1269841
        k(    7) = (   0.1111111  -0.2020305   0.0000000), wk =   0.1269841
        k(    8) = (   0.1111111  -0.3030458   0.0000000), wk =   0.1269841
        k(    9) = (   0.2222222  -0.0000000   0.0000000), wk =   0.0634921
        k(   10) = (   0.2222222  -0.1010153   0.0000000), wk =   0.1269841
        k(   11) = (   0.2222222  -0.2020305   0.0000000), wk =   0.1269841
        k(   12) = (   0.2222222  -0.3030458   0.0000000), wk =   0.1269841
        k(   13) = (   0.3333333  -0.0000000   0.0000000), wk =   0.0634921
        k(   14) = (   0.3333333  -0.1010153   0.0000000), wk =   0.1269841
        k(   15) = (   0.3333333  -0.2020305   0.0000000), wk =   0.1269841
        k(   16) = (   0.3333333  -0.3030458   0.0000000), wk =   0.1269841
        k(   17) = (   0.4444444  -0.0000000   0.0000000), wk =   0.0634921
        k(   18) = (   0.4444444  -0.1010153   0.0000000), wk =   0.1269841
        k(   19) = (   0.4444444  -0.2020305   0.0000000), wk =   0.1269841
        k(   20) = (   0.4444444  -0.3030458   0.0000000), wk =   0.1269841

     Dense  grid:   377669 G-vectors     FFT dimensions: (  40,  60, 360)

     Smooth grid:   133615 G-vectors     FFT dimensions: (  30,  40, 240)

     Estimated max dynamical RAM per process >     859.62 MB

     Initial potential from superposition of free atoms

     starting charge      49.9995, renormalised to      50.0000

     negative rho (up, down):  5.854E-05 0.000E+00
     Starting wfcs are   50 randomized atomic wfcs

     total cpu time spent up to now is        4.2 secs

     Self-consistent Calculation

     iteration #  1     ecut=    80.00 Ry     beta= 0.30
     Davidson diagonalization with overlap
     ethr =  1.00E-02,  avg # of iterations =  2.4

     negative rho (up, down):  5.585E-05 0.000E+00

     total cpu time spent up to now is       12.3 secs

     total energy              =    -223.35574180 Ry
     estimated scf accuracy    <       0.86220231 Ry

     iteration #  2     ecut=    80.00 Ry     beta= 0.30
     Davidson diagonalization with overlap
     ethr =  1.72E-03,  avg # of iterations =  4.0

     negative rho (up, down):  6.713E-05 0.000E+00

     total cpu time spent up to now is       19.1 secs

     total energy              =    -223.27448994 Ry
     estimated scf accuracy    <       0.29935244 Ry

     iteration #  3     ecut=    80.00 Ry     beta= 0.30
     Davidson diagonalization with overlap
     ethr =  5.99E-04,  avg # of iterations =  5.8

     negative rho (up, down):  6.959E-05 0.000E+00

     total cpu time spent up to now is       26.9 secs

     total energy              =    -223.28971388 Ry
     estimated scf accuracy    <       0.04034527 Ry

     iteration #  4     ecut=    80.00 Ry     beta= 0.30
     Davidson diagonalization with overlap
     ethr =  8.07E-05,  avg # of iterations =  9.1

     negative rho (up, down):  7.077E-05 0.000E+00

     total cpu time spent up to now is       36.0 secs

     total energy              =    -223.29173351 Ry
     estimated scf accuracy    <       0.00775089 Ry

     iteration #  5     ecut=    80.00 Ry     beta= 0.30
     Davidson diagonalization with overlap
     ethr =  1.55E-05,  avg # of iterations =  6.3

     negative rho (up, down):  7.089E-05 0.000E+00

     total cpu time spent up to now is       44.5 secs

     total energy              =    -223.29281904 Ry
     estimated scf accuracy    <       0.00085316 Ry

     iteration #  6     ecut=    80.00 Ry     beta= 0.30
     Davidson diagonalization with overlap
     ethr =  1.71E-06,  avg # of iterations =  7.2

     negative rho (up, down):  7.004E-05 0.000E+00

     total cpu time spent up to now is       54.0 secs

     total energy              =    -223.29288951 Ry
     estimated scf accuracy    <       0.00020463 Ry

     iteration #  7     ecut=    80.00 Ry     beta= 0.30
     Davidson diagonalization with overlap
     ethr =  4.09E-07,  avg # of iterations =  2.5

     negative rho (up, down):  6.978E-05 0.000E+00

     total cpu time spent up to now is       61.3 secs

     total energy              =    -223.29292314 Ry
     estimated scf accuracy    <       0.00003135 Ry

     iteration #  8     ecut=    80.00 Ry     beta= 0.30
     Davidson diagonalization with overlap
     ethr =  6.27E-08,  avg # of iterations =  2.5

     negative rho (up, down):  6.919E-05 0.000E+00

     total cpu time spent up to now is       68.6 secs

     total energy              =    -223.29292721 Ry
     estimated scf accuracy    <       0.00000800 Ry

     iteration #  9     ecut=    80.00 Ry     beta= 0.30
     Davidson diagonalization with overlap
     ethr =  1.60E-08,  avg # of iterations =  2.0

     negative rho (up, down):  6.892E-05 0.000E+00

     total cpu time spent up to now is       75.8 secs

     total energy              =    -223.29292911 Ry
     estimated scf accuracy    <       0.00000064 Ry

     iteration # 10     ecut=    80.00 Ry     beta= 0.30
     Davidson diagonalization with overlap
     ethr =  1.27E-09,  avg # of iterations =  3.3

     negative rho (up, down):  6.879E-05 0.000E+00

     total cpu time spent up to now is       83.4 secs

     total energy              =    -223.29292923 Ry
     estimated scf accuracy    <       0.00000015 Ry

     iteration # 11     ecut=    80.00 Ry     beta= 0.30
     Davidson diagonalization with overlap
     ethr =  2.99E-10,  avg # of iterations =  3.0

     negative rho (up, down):  6.870E-05 0.000E+00

     total cpu time spent up to now is       91.5 secs

     total energy              =    -223.29292927 Ry
     estimated scf accuracy    <       0.00000007 Ry

     iteration # 12     ecut=    80.00 Ry     beta= 0.30
     Davidson diagonalization with overlap
     ethr =  1.41E-10,  avg # of iterations =  2.0

     negative rho (up, down):  6.863E-05 0.000E+00

     total cpu time spent up to now is       98.4 secs

     End of self-consistent calculation

          k = 0.0000-0.0000 0.0000 ( 16649 PWs)   bands (ev):

   -19.3864 -18.0666 -16.1220 -13.8022 -11.6911 -10.9908 -10.9736  -9.7980
    -7.9471  -7.8443  -6.7551  -5.9310  -5.6090  -4.6492  -4.5574  -3.5222
    -2.9711  -2.9103  -2.1126  -0.7175  -0.6512  -0.1240   0.5826   1.2646
     1.4492   3.8045   3.8687   5.8908   6.2756   6.7222

          k = 0.0000-0.1010 0.0000 ( 16639 PWs)   bands (ev):

   -19.2041 -17.8898 -15.9630 -13.7494 -13.1245 -12.2110 -10.0530  -9.2347
    -8.7550  -7.0868  -6.6965  -5.8566  -4.9613  -4.4853  -4.3854  -3.3777
    -3.1777  -2.4585  -2.0318  -0.7168  -0.6955  -0.3093   0.2399   0.7805
     1.5163   3.4446   4.0104   6.0705   6.3650   6.9455

          k = 0.0000-0.2020 0.0000 ( 16615 PWs)   bands (ev):

   -18.6597 -17.3651 -15.5142 -14.9417 -14.0315 -13.2771 -10.5789  -9.7062
    -8.2358  -7.2145  -5.8767  -5.1008  -4.2920  -3.8766  -3.7946  -2.9587
    -2.6711  -2.2041  -1.8198  -0.9650  -0.9413  -0.7482  -0.4681  -0.0171
     1.4782   2.6995   4.5991   6.3934   6.9338   7.3562

          k = 0.0000-0.3030 0.0000 ( 16712 PWs)   bands (ev):

   -17.7620 -16.6117 -16.4076 -15.3515 -14.7838 -13.7137 -10.8624 -10.1702
    -8.2874  -7.4233  -5.4312  -4.4543  -3.4928  -3.0566  -2.6721  -2.3292
    -2.2580  -1.9546  -1.7680  -1.6317  -1.4824  -1.4813  -1.1003  -0.5178
     1.5475   2.0957   5.4743   6.5933   6.8900   7.7101

          k = 0.1111-0.0000 0.0000 ( 16611 PWs)   bands (ev):

   -19.1653 -17.8482 -15.9076 -13.5939 -11.4917 -10.9361 -10.7757  -9.7528
    -7.9166  -7.6541  -6.5792  -5.7640  -5.5996  -5.5411  -4.5213  -4.4677
    -3.0291  -2.9274  -2.9250  -1.5557  -0.9156  -0.3990  -0.2062   0.2233
     1.0710   3.8993   4.0011   6.1357   6.8270   7.2254

          k = 0.1111-0.1010 0.0000 ( 16645 PWs)   bands (ev):

   -18.9836 -17.6721 -15.7496 -13.5439 -12.9490 -12.0272  -9.9192  -9.1264
    -8.6975  -7.0100  -6.6086  -5.8034  -5.2699  -4.9601  -4.3911  -4.2185
    -3.1694  -2.8791  -2.5282  -1.6361  -1.1857  -0.7198  -0.4208  -0.0591
     1.3676   3.5197   4.2326   6.3789   7.1710   7.4474

          k = 0.1111-0.2020 0.0000 ( 16661 PWs)   bands (ev):

   -18.4409 -17.1495 -15.3041 -14.7443 -13.8366 -13.0778 -10.4045  -9.5287
    -8.0992  -7.1842  -6.0662  -5.1355  -4.7769  -4.4030  -3.8084  -3.3293
    -3.0402  -2.4901  -2.2677  -2.2149  -1.9657  -1.3525  -0.6625  -0.1503
     1.4678   2.8427   4.8542   7.0094   7.5975   7.8349

          k = 0.1111-0.3030 0.0000 ( 16665 PWs)   bands (ev):

   -17.5466 -16.4011 -16.1980 -15.1469 -14.5808 -13.5125 -10.6723  -9.9827
    -8.1249  -7.2651  -5.5184  -4.6273  -4.3619  -3.7923  -3.5277  -2.8775
    -2.8348  -2.6228  -2.2726  -2.0847  -1.9508  -1.3368  -1.0937  -0.8593
     1.6681   2.1923   5.7777   7.0543   7.6868   8.2373

          k = 0.2222-0.0000 0.0000 ( 16704 PWs)   bands (ev):

   -18.5055 -17.1965 -15.2682 -12.9726 -11.0685 -10.8956 -10.1838  -9.8985
    -8.0874  -7.1687  -7.1041  -6.0814  -6.0651  -5.8063  -5.2937  -4.6062
    -4.1958  -3.2820  -3.1469  -2.9446  -2.3128  -1.8252  -1.8139  -0.5080
     0.5090   3.6851   4.6315   6.3593   6.8553   7.0716

          k = 0.2222-0.1010 0.0000 ( 16686 PWs)   bands (ev):

   -18.3256 -17.0227 -15.1134 -12.9327 -12.4943 -11.5192  -9.7293  -9.2181
    -8.6862  -7.2477  -6.7331  -6.2955  -5.8265  -5.4237  -4.9016  -4.2316
    -4.0130  -3.5444  -3.2977  -3.2090  -2.8321  -2.1060  -1.0425  -0.8190
     0.8483   3.3910   4.8857   6.9438   7.1928   7.2965

          k = 0.2222-0.2020 0.0000 ( 16658 PWs)   bands (ev):

   -17.7890 -16.5075 -14.6787 -14.1770 -13.2674 -12.4914  -9.9479  -9.0881
    -8.3498  -7.6627  -6.7652  -6.0164  -5.3743  -4.9054  -4.6155  -4.3630
    -3.9036  -3.5676  -3.4130  -3.1674  -2.7648  -2.1625  -1.2603  -0.6547
     1.3179   2.8177   5.5332   7.8403   8.0984   8.2802

          k = 0.2222-0.3030 0.0000 ( 16662 PWs)   bands (ev):

   -16.9071 -15.7781 -15.5781 -14.5435 -13.9780 -12.9162 -10.1412  -9.4547
    -7.8127  -7.3018  -6.8106  -6.1086  -5.9429  -5.0850  -4.8310  -4.3378
    -3.9599  -3.6342  -2.6370  -2.3687  -2.3005  -2.0789  -1.3131  -1.1397
     1.7228   2.2676   6.4172   7.7892   8.9176   8.9691

          k = 0.3333-0.0000 0.0000 ( 16752 PWs)   bands (ev):

   -17.4193 -16.1246 -14.2169 -12.2515 -11.9499 -11.0500  -9.9094  -9.2338
    -9.2044  -7.5265  -7.0196  -6.4910  -6.2672  -5.3756  -5.1918  -4.8587
    -4.6569  -4.2160  -4.0499  -3.9288  -3.4392  -3.2421  -3.0178  -1.1324
     0.5187   3.0703   5.5476   6.2757   6.5551   8.1838

          k = 0.3333-0.1010 0.0000 ( 16704 PWs)   bands (ev):

   -17.2435 -15.9557 -14.0684 -12.4764 -11.9445 -11.2494 -10.2126  -9.7199
    -9.2344  -7.4575  -7.0830  -6.5120  -6.1026  -5.6614  -5.2157  -5.0570
    -4.7048  -4.4268  -4.1310  -3.8155  -3.1597  -3.0421  -2.3480  -1.3225
     0.7428   2.9290   5.8657   6.7063   6.9360   7.7863

          k = 0.3333-0.2020 0.0000 ( 16700 PWs)   bands (ev):

   -16.7211 -15.4570 -13.6618 -13.4199 -12.4466 -11.5885 -10.3105  -9.7693
    -9.1825  -8.0002  -7.1881  -7.1363  -6.8057  -6.2914  -5.3138  -5.2221
    -4.2832  -3.9264  -3.7587  -3.4872  -2.9090  -2.7603  -1.7649  -1.4933
     1.2466   2.5945   6.4934   7.6513   7.9092   8.5604

          k = 0.3333-0.3030 0.0000 ( 16676 PWs)   bands (ev):

   -15.8710 -14.7903 -14.5893 -13.5960 -13.0022 -11.9610  -9.6709  -9.5471
    -8.9018  -8.5844  -8.4220  -7.5276  -6.7123  -6.4898  -5.9468  -5.5777
    -3.9425  -3.7601  -3.4919  -3.0981  -2.3858  -2.2280  -1.9022  -1.4426
     1.7141   2.2591   7.1406   8.5625   8.7612   9.1093

          k = 0.4444-0.0000 0.0000 ( 16734 PWs)   bands (ev):

   -15.9364 -14.6630 -14.1325 -12.8895 -12.7837 -11.0439 -10.5518  -8.8408
    -8.5470  -7.8509  -6.8410  -6.6168  -6.1521  -5.7705  -5.3262  -5.1499
    -4.9006  -4.8170  -4.6061  -4.5193  -4.1363  -3.6110  -2.9402  -2.0282
     1.1460   2.1222   6.1125   6.6966   7.0489   7.3571

          k = 0.4444-0.1010 0.0000 ( 16740 PWs)   bands (ev):

   -15.7713 -14.5062 -14.0109 -12.7812 -12.6472 -10.9691 -10.4808  -9.3477
    -8.8380  -8.7172  -7.6874  -7.0861  -6.4124  -5.7511  -5.2033  -5.1639
    -4.7426  -4.5281  -4.2849  -4.0413  -3.7572  -3.5308  -2.7891  -2.0511
     1.2797   2.1389   6.6070   6.7452   7.2011   7.5137

          k = 0.4444-0.2020 0.0000 ( 16719 PWs)   bands (ev):

   -15.2899 -14.0530 -13.7444 -12.5613 -12.2643 -10.8577 -10.7369 -10.3377
    -9.5422  -9.2475  -8.9730  -8.1069  -6.8034  -6.2430  -5.6939  -5.0258
    -4.8040  -4.1737  -3.8872  -3.3806  -3.2396  -2.6848  -2.3691  -2.1003
     1.5863   2.1495   7.2388   7.5347   8.0222   8.3226

          k = 0.4444-0.3030 0.0000 ( 16690 PWs)   bands (ev):

   -14.5577 -13.8430 -13.3626 -12.6873 -11.7624 -11.2615 -10.9625 -10.5749
   -10.3063  -9.7139  -9.4940  -8.7301  -7.0061  -6.6307  -5.8301  -5.3086
    -4.9146  -4.3840  -3.6200  -3.1875  -2.6373  -2.3860  -1.9754  -1.8309
     1.8580   2.1091   7.7509   8.3478   9.2353   9.4880

     the Fermi energy is     1.9227 ev

!    total energy              =    -223.29292928 Ry
     estimated scf accuracy    <          5.9E-09 Ry
     smearing contrib. (-TS)   =       0.00048126 Ry
     internal energy E=F+TS    =    -223.29341054 Ry

     The total energy is F=E-TS. E is the sum of the following terms:
     one-electron contribution =   -2726.67866679 Ry
     hartree contribution      =    1380.24175986 Ry
     xc contribution           =     -57.03964174 Ry
     ewald contribution        =    1254.14055335 Ry
     one-center paw contrib.   =     -73.95741523 Ry

     convergence has been achieved in  12 iterations

     negative rho (up, down):  6.863E-05 0.000E+00

     Forces acting on atoms (cartesian axes, Ry/au):

     atom    1 type  1   force =     0.00000000   -0.00438022   -0.00016787
     atom    2 type  1   force =     0.00000000    0.00438022   -0.00016787
     atom    3 type  1   force =     0.00000000    0.00132608    0.00037093
     atom    4 type  1   force =     0.00000000   -0.00132608    0.00037093
     atom    5 type  1   force =     0.00000000   -0.00124923   -0.00026841
     atom    6 type  1   force =     0.00000000    0.00124923   -0.00026841
     atom    7 type  1   force =    -0.00000000    0.00251245   -0.00076393
     atom    8 type  1   force =     0.00000000   -0.00251245   -0.00076393
     atom    9 type  1   force =     0.00000000   -0.04855012   -0.05017793
     atom   10 type  1   force =     0.00000000    0.04855012   -0.05017793
     atom   11 type  1   force =     0.00000000    0.17842775    0.05297303
     atom   12 type  1   force =     0.00000000   -0.17842775    0.05297303
     atom   13 type  2   force =     0.00000000   -0.00390295   -0.00196581
     atom   14 type  2   force =     0.00000000    0.00390295   -0.00196581

     Total force =     0.009873     Total SCF correction =     0.000120


     Computing stress (Cartesian axis) and pressure


     negative rho (up, down):  6.863E-05 0.000E+00
          total   stress  (Ry/bohr**3)                   (kbar)     P=      -41.73
  -0.00043452   0.00000000   0.00000000          -63.92        0.00        0.00
   0.00000000  -0.00019454   0.00000000            0.00      -28.62        0.00
   0.00000000   0.00000000  -0.00022196            0.00        0.00      -32.65


     Writing all to output data dir ./tmp/slab.save/ :
     XML data file, charge density, pseudopotentials, collected wavefunctions

     init_run     :      3.88s CPU      4.15s WALL (       1 calls)
     electrons    :     86.27s CPU     94.25s WALL (       1 calls)
     forces       :      0.95s CPU      1.09s WALL (       1 calls)
     stress       :      2.82s CPU      3.37s WALL (       1 calls)

     Called by init_run:
     wfcinit      :      3.29s CPU      3.50s WALL (       1 calls)
     potinit      :      0.30s CPU      0.34s WALL (       1 calls)
     hinit0       :      0.14s CPU      0.15s WALL (       1 calls)

     Called by electrons:
     c_bands      :     71.03s CPU     77.96s WALL (      12 calls)
     sum_band     :     10.93s CPU     11.50s WALL (      12 calls)
     v_of_rho     :      1.61s CPU      1.72s WALL (      13 calls)
     newd         :      0.88s CPU      1.12s WALL (      13 calls)
     PAW_pot      :      1.80s CPU      1.93s WALL (      13 calls)
     mix_rho      :      0.21s CPU      0.24s WALL (      12 calls)

     Called by c_bands:
     init_us_2    :      1.03s CPU      1.14s WALL (     540 calls)
     cegterg      :     68.96s CPU     75.82s WALL (     240 calls)

     Called by *egterg:
     cdiaghg      :      0.69s CPU      0.69s WALL (    1244 calls)
     h_psi        :     53.89s CPU     56.91s WALL (    1264 calls)
     s_psi        :      5.08s CPU      5.94s WALL (    1264 calls)
     g_psi        :      0.22s CPU      0.22s WALL (    1004 calls)

     Called by h_psi:
     h_psi:calbec :      4.81s CPU      6.05s WALL (    1264 calls)
     vloc_psi     :     43.09s CPU     43.57s WALL (    1264 calls)
                                        0.00s GPU  (    1264 calls)
     add_vuspsi   :      5.80s CPU      6.96s WALL (    1264 calls)

     General routines
     calbec       :      7.84s CPU      9.82s WALL (    1844 calls)
     fft          :      1.18s CPU      1.19s WALL (     192 calls)
     ffts         :      0.04s CPU      0.04s WALL (      25 calls)
     fftw         :     45.99s CPU     46.11s WALL (   47084 calls)
     interpolate  :      0.12s CPU      0.13s WALL (      13 calls)


     PWSCF        :   1m33.96s CPU   1m42.94s WALL


   This run was terminated on:  12: 8: 1  23Jun2026            

=------------------------------------------------------------------------------=
   JOB DONE.
=------------------------------------------------------------------------------=
Note: The following floating-point exceptions are signalling: IEEE_INVALID_FLAG IEEE_DIVIDE_BY_ZERO IEEE_OVERFLOW_FLAG IEEE_UNDERFLOW_FLAG
