
     Program PWSCF v.7.5 starts on  7Jul2026 at 14:33:40 

     This program is part of the open-source Quantum ESPRESSO suite
     for quantum simulation of materials; please cite
         "P. Giannozzi et al., J. Phys.:Condens. Matter 21 395502 (2009);
         "P. Giannozzi et al., J. Phys.:Condens. Matter 29 465901 (2017);
         "P. Giannozzi et al., J. Chem. Phys. 152 154105 (2020);
          URL http://www.quantum-espresso.org", 
     in publications or presentations arising from this work. More details at
     http://www.quantum-espresso.org/quote

     Serial version
     0 MiB available memory on the printing compute node when the environment starts

     Waiting for input...
     Reading input from standard input

     Current dimensions of program PWSCF are:
     Max number of different atomic species (ntypx) = 10
     Max number of k-points (npk) =  40000
     Max angular momentum in pseudopotentials (lmaxx) =  4
     file C.pbe-n-kjpaw_psl.1.0.0.UPF: wavefunction(s)  2S 2P renormalized
     Message from routine volume:
     axis vectors are left-handed
     Found identity + (  0.5000  0.0000  0.0000) symmetry
     This is a supercell, fractional translations are disabled
     Message from routine setup:
     using ibrav=0 with symmetry is DISCOURAGED, use correct ibrav instead


     G-vector sticks info
     --------------------
     sticks:   dense  smooth     PW     G-vecs:    dense   smooth      PW
     Sum        3529    1761    485               448399   158563   22819

     Using Slab Decomposition



     bravais-lattice index     =            0
     lattice parameter (alat)  =       9.6460  a.u.
     unit-cell volume          =    2524.5080 (a.u.)^3
     number of atoms/cell      =           32
     number of atomic types    =            2
     number of electrons       =       104.00
     number of Kohn-Sham states=           62
     kinetic-energy cutoff     =      60.0000  Ry
     charge density cutoff     =     480.0000  Ry
     scf convergence threshold =      1.0E-08
     mixing beta               =       0.3000
     number of iterations used =            8  plain     mixing
     Exchange-correlation= PBE
                           (   1   4   3   4   0   0   0)

     celldm(1)=   9.645976  celldm(2)=   0.000000  celldm(3)=   0.000000
     celldm(4)=   0.000000  celldm(5)=   0.000000  celldm(6)=   0.000000

     crystal axes: (cart. coord. in units of alat)
               a(1) = (   1.000000   0.000000   0.000000 )  
               a(2) = (   0.000000  -0.990099   0.000000 )  
               a(3) = (   0.000000   0.000000   2.840924 )  

     reciprocal axes: (cart. coord. in units 2 pi/alat)
               b(1) = (  1.000000 -0.000000 -0.000000 )  
               b(2) = ( -0.000000 -1.010000 -0.000000 )  
               b(3) = ( -0.000000 -0.000000  0.351998 )  


     PseudoPot. # 1 for C  read from file:
     ./C.pbe-n-kjpaw_psl.1.0.0.UPF
     MD5 check sum: 5d2aebdfa2cae82b50a7e79e9516da0f
     Pseudo is Projector augmented-wave + core cor, Zval =  4.0
     Generated using "atomic" code by A. Dal Corso  v.5.1
     Shape of augmentation charge: PSQ
     Using radial grid of 1073 points,  4 beta functions with: 
                l(1) =   0
                l(2) =   0
                l(3) =   1
                l(4) =   1
     Q(r) pseudized with 0 coefficients 


     PseudoPot. # 2 for H  read from file:
     ./H_ONCV_PBE-1.0.oncvpsp.upf
     MD5 check sum: 1790becc920ee074925cf490c71280fe
     Pseudo is Norm-conserving, Zval =  1.0
     Generated using ONCVPSP code by D. R. Hamann
     Using radial grid of 1166 points,  2 beta functions with: 
                l(1) =   0
                l(2) =   0

     atomic species   valence    mass     pseudopotential
     C                 4.00    12.01100     C ( 1.00)
     H                 1.00     1.00800     H ( 1.00)

      4 Sym. Ops. (no inversion) found



   Cartesian axes

     site n.     atom                  positions (alat units)
         1        C      tau(   1) = (   0.0000000  -0.1566423   1.8408725  )
         2        C      tau(   2) = (   0.2500000  -0.2276385   1.6830624  )
         3        C      tau(   3) = (   0.2500000   0.0000000   1.4788739  )
         4        C      tau(   4) = (   0.0000000   0.0000000   1.3047822  )
         5        C      tau(   5) = (   0.0000000  -0.2674110   1.1578618  )
         6        C      tau(   6) = (   0.2500000  -0.3384072   1.0000518  )
         7        C      tau(   7) = (   0.0000000  -0.8334567   1.8408725  )
         8        C      tau(   8) = (   0.2500000  -0.7624605   1.6830624  )
         9        C      tau(   9) = (   0.2500000  -0.4950495   1.5361420  )
        10        C      tau(  10) = (   0.0000000  -0.4950495   1.3620503  )
        11        C      tau(  11) = (   0.0000000  -0.7226880   1.1578618  )
        12        C      tau(  12) = (   0.2500000  -0.6516918   1.0000518  )
        13        H      tau(  13) = (   0.0000000  -0.2424832   2.0386182  )
        14        H      tau(  14) = (   0.0000000  -0.7476158   2.0386182  )
        15        H      tau(  15) = (   0.2500000  -0.2525663   0.8023060  )
        16        H      tau(  16) = (   0.2500000  -0.7375327   0.8023060  )
        17        C      tau(  17) = (   0.5000000  -0.1566423   1.8408725  )
        18        C      tau(  18) = (   0.7500000  -0.2276385   1.6830624  )
        19        C      tau(  19) = (   0.7500000   0.0000000   1.4788739  )
        20        C      tau(  20) = (   0.5000000   0.0000000   1.3047822  )
        21        C      tau(  21) = (   0.5000000  -0.2674110   1.1578618  )
        22        C      tau(  22) = (   0.7500000  -0.3384072   1.0000518  )
        23        C      tau(  23) = (   0.5000000  -0.8334567   1.8408725  )
        24        C      tau(  24) = (   0.7500000  -0.7624605   1.6830624  )
        25        C      tau(  25) = (   0.7500000  -0.4950495   1.5361420  )
        26        C      tau(  26) = (   0.5000000  -0.4950495   1.3620503  )
        27        C      tau(  27) = (   0.5000000  -0.7226880   1.1578618  )
        28        C      tau(  28) = (   0.7500000  -0.6516918   1.0000518  )
        29        H      tau(  29) = (   0.5000000  -0.2424832   2.0386182  )
        30        H      tau(  30) = (   0.5000000  -0.7476158   2.0386182  )
        31        H      tau(  31) = (   0.7500000  -0.2525663   0.8023060  )
        32        H      tau(  32) = (   0.7500000  -0.7375327   0.8023060  )

     number of k points=     9  Marzari-Vanderbilt smearing, width (Ry)=  0.0100
                       cart. coord. in units 2pi/alat
        k(    1) = (   0.0000000  -0.0000000   0.0000000), wk =   0.0800000
        k(    2) = (   0.0000000  -0.2020000   0.0000000), wk =   0.1600000
        k(    3) = (   0.0000000  -0.4040000   0.0000000), wk =   0.1600000
        k(    4) = (   0.2000000  -0.0000000   0.0000000), wk =   0.1600000
        k(    5) = (   0.2000000  -0.2020000   0.0000000), wk =   0.3200000
        k(    6) = (   0.2000000  -0.4040000   0.0000000), wk =   0.3200000
        k(    7) = (   0.4000000  -0.0000000   0.0000000), wk =   0.1600000
        k(    8) = (   0.4000000  -0.2020000   0.0000000), wk =   0.3200000
        k(    9) = (   0.4000000  -0.4040000   0.0000000), wk =   0.3200000

     Dense  grid:   448399 G-vectors     FFT dimensions: (  72,  72, 192)

     Smooth grid:   158563 G-vectors     FFT dimensions: (  48,  48, 135)

     Estimated max dynamical RAM per process >       1.26 GB

     Check: negative core charge=   -0.000002

     Initial potential from superposition of free atoms

     starting charge     103.9989, renormalised to     104.0000

     negative rho (up, down):  4.643E-06 0.000E+00
     Starting wfcs are  104 randomized atomic wfcs

     total cpu time spent up to now is        4.9 secs

     Self-consistent Calculation

     iteration #  1     ecut=    60.00 Ry     beta= 0.30
     Davidson diagonalization with overlap
     ethr =  1.00E-02,  avg # of iterations =  3.0

     negative rho (up, down):  1.488E-05 0.000E+00

     total cpu time spent up to now is       15.2 secs

     total energy              =    -451.90157713 Ry
     estimated scf accuracy    <       2.40361657 Ry

     iteration #  2     ecut=    60.00 Ry     beta= 0.30
     Davidson diagonalization with overlap
     ethr =  2.31E-03,  avg # of iterations =  5.0

     negative rho (up, down):  4.933E-05 0.000E+00

     total cpu time spent up to now is       24.2 secs

     total energy              =    -451.74805605 Ry
     estimated scf accuracy    <       0.70774750 Ry

     iteration #  3     ecut=    60.00 Ry     beta= 0.30
     Davidson diagonalization with overlap
     ethr =  6.81E-04,  avg # of iterations =  6.8

     negative rho (up, down):  6.955E-05 0.000E+00

     total cpu time spent up to now is       34.9 secs

     total energy              =    -451.77330516 Ry
     estimated scf accuracy    <       0.10426344 Ry

     iteration #  4     ecut=    60.00 Ry     beta= 0.30
     Davidson diagonalization with overlap
     ethr =  1.00E-04,  avg # of iterations =  5.0

     negative rho (up, down):  8.741E-05 0.000E+00

     total cpu time spent up to now is       44.6 secs

     total energy              =    -451.78179379 Ry
     estimated scf accuracy    <       0.01026585 Ry

     iteration #  5     ecut=    60.00 Ry     beta= 0.30
     Davidson diagonalization with overlap
     c_bands:  1 eigenvalues not converged
     ethr =  9.87E-06,  avg # of iterations =  9.3

     negative rho (up, down):  7.252E-05 0.000E+00

     total cpu time spent up to now is       57.9 secs

     total energy              =    -451.78352059 Ry
     estimated scf accuracy    <       0.00297113 Ry

     iteration #  6     ecut=    60.00 Ry     beta= 0.30
     Davidson diagonalization with overlap
     ethr =  2.86E-06,  avg # of iterations =  7.6

     negative rho (up, down):  7.289E-05 0.000E+00

     total cpu time spent up to now is       68.9 secs

     total energy              =    -451.78393741 Ry
     estimated scf accuracy    <       0.00030663 Ry

     iteration #  7     ecut=    60.00 Ry     beta= 0.30
     Davidson diagonalization with overlap
     ethr =  2.95E-07,  avg # of iterations =  3.0

     negative rho (up, down):  7.179E-05 0.000E+00

     total cpu time spent up to now is       77.6 secs

     total energy              =    -451.78397806 Ry
     estimated scf accuracy    <       0.00004296 Ry

     iteration #  8     ecut=    60.00 Ry     beta= 0.30
     Davidson diagonalization with overlap
     ethr =  4.13E-08,  avg # of iterations =  3.0

     negative rho (up, down):  7.113E-05 0.000E+00

     total cpu time spent up to now is       86.5 secs

     total energy              =    -451.78398649 Ry
     estimated scf accuracy    <       0.00001639 Ry

     iteration #  9     ecut=    60.00 Ry     beta= 0.30
     Davidson diagonalization with overlap
     ethr =  1.58E-08,  avg # of iterations =  2.0

     negative rho (up, down):  7.107E-05 0.000E+00

     total cpu time spent up to now is       95.0 secs

     total energy              =    -451.78398970 Ry
     estimated scf accuracy    <       0.00000194 Ry

     iteration # 10     ecut=    60.00 Ry     beta= 0.30
     Davidson diagonalization with overlap
     ethr =  1.87E-09,  avg # of iterations =  3.8

     negative rho (up, down):  7.098E-05 0.000E+00

     total cpu time spent up to now is      104.8 secs

     total energy              =    -451.78398982 Ry
     estimated scf accuracy    <       0.00000129 Ry

     iteration # 11     ecut=    60.00 Ry     beta= 0.30
     Davidson diagonalization with overlap
     ethr =  1.24E-09,  avg # of iterations =  2.9

     negative rho (up, down):  7.110E-05 0.000E+00

     total cpu time spent up to now is      113.7 secs

     total energy              =    -451.78399018 Ry
     estimated scf accuracy    <       0.00000007 Ry

     iteration # 12     ecut=    60.00 Ry     beta= 0.30
     Davidson diagonalization with overlap
     ethr =  6.59E-11,  avg # of iterations =  2.0

     negative rho (up, down):  7.123E-05 0.000E+00

     total cpu time spent up to now is      121.4 secs

     total energy              =    -451.78399018 Ry
     estimated scf accuracy    <       0.00000003 Ry

     iteration # 13     ecut=    60.00 Ry     beta= 0.30
     Davidson diagonalization with overlap
     ethr =  3.02E-11,  avg # of iterations =  4.8

     negative rho (up, down):  7.133E-05 0.000E+00

     total cpu time spent up to now is      132.8 secs

     total energy              =    -451.78399019 Ry
     estimated scf accuracy    <       0.00000008 Ry

     iteration # 14     ecut=    60.00 Ry     beta= 0.30
     Davidson diagonalization with overlap
     ethr =  3.02E-11,  avg # of iterations =  3.2

     negative rho (up, down):  7.165E-05 0.000E+00

     total cpu time spent up to now is      141.9 secs

     End of self-consistent calculation

          k = 0.0000-0.0000 0.0000 ( 19831 PWs)   bands (ev):

   -17.6873 -15.9916 -13.4375 -13.4375 -13.1107 -12.9087 -12.8097 -11.7807
   -11.6016 -11.6016  -9.3340  -9.3340  -9.0593  -8.8902  -8.8902  -8.6923
    -8.1438  -8.1438  -7.8268  -7.7894  -7.7894  -5.4048  -5.4031  -5.1493
    -4.8455  -4.8455  -3.9290  -3.9290  -3.4858  -3.4858  -2.8517  -2.2609
    -2.2609  -2.1973  -2.1481  -2.1481  -1.9662  -1.7567  -1.6740  -1.3571
    -1.1693  -1.1693   0.0871   0.3349   0.3349   0.3622   0.4892   0.7284
     0.7715   0.8621   1.2081   1.6463   5.3765   5.8180   7.3258   7.5519
     7.7231   8.1499   8.6626   8.8962   8.8962   9.0582

          k = 0.0000-0.2020 0.0000 ( 19793 PWs)   bands (ev):

   -17.5221 -16.0067 -14.2085 -13.3106 -13.2803 -13.2803 -11.6652 -11.6179
   -11.6179 -11.4953 -10.3846 -10.3846  -9.1502  -8.5535  -8.5535  -8.1623
    -7.7592  -7.6515  -7.6514  -7.4825  -7.4825  -5.9259  -5.0517  -4.9614
    -4.9614  -4.7554  -3.8641  -3.8641  -3.2836  -3.2836  -3.2068  -2.7113
    -2.3292  -2.3292  -1.9180  -1.9160  -1.9160  -1.8443  -1.3855  -1.3766
    -1.1928  -1.1928  -0.4269  -0.3765  -0.3765  -0.3738   0.3351   0.4559
     1.1477   1.1961   1.3211   1.4967   5.6099   6.0247   7.6620   7.8667
     8.1418   8.5174   8.5205   8.6498   8.8252   8.8253

          k = 0.0000-0.4040 0.0000 ( 19794 PWs)   bands (ev):

   -17.0470 -16.3850 -14.5528 -14.0528 -12.8479 -12.8478 -12.0055 -12.0055
   -11.3103 -10.9325 -10.8991 -10.8991  -8.9896  -8.9896  -8.6207  -7.7910
    -7.2523  -7.1487  -7.1487  -6.8014  -6.8014  -6.2838  -4.9999  -4.6544
    -4.6544  -4.4658  -3.9863  -3.7356  -3.7356  -3.2538  -3.2538  -3.1273
    -2.3105  -2.0948  -2.0948  -1.9573  -1.9573  -1.7443  -1.6814  -1.4078
    -1.4078  -1.3193  -1.3193  -1.1552  -0.5384  -0.4815  -0.0849   0.0662
     0.8272   1.1613   1.6191   1.7043   6.2615   6.6025   7.3128   7.5363
     8.0740   8.2880   8.5274   8.5274   8.8101   8.8478

          k = 0.2000-0.0000 0.0000 ( 19784 PWs)   bands (ev):

   -17.5080 -15.8161 -14.8789 -13.3280 -12.9449 -12.7425 -12.6398 -11.6211
   -11.4139 -10.7414 -10.4893 -10.1703  -9.3365  -9.1312  -8.9853  -8.5446
    -7.6822  -7.5895  -7.0433  -6.8671  -6.7880  -5.3891  -5.3706  -5.3407
    -5.2131  -5.0250  -4.1420  -3.8329  -3.7983  -3.3426  -2.7089  -2.6122
    -2.4931  -2.2940  -2.0836  -1.7458  -1.7225  -1.6662  -1.6501  -1.6402
    -1.2179  -0.7997  -0.6222  -0.2163  -0.1640  -0.0895   0.1122   0.5005
     0.7253   0.7497   0.8179   1.4768   5.5419   6.0162   7.8046   7.9360
     8.0092   8.0323   8.2135   8.8084   8.9570   9.0093

          k = 0.2000-0.2020 0.0000 ( 19818 PWs)   bands (ev):

   -17.3430 -15.8308 -14.7178 -14.0383 -13.3105 -13.1437 -11.7080 -11.5057
   -11.3326 -11.1257 -10.9170 -10.0152  -9.0605  -8.9561  -8.6336  -8.0270
    -7.9802  -7.6234  -7.3169  -6.3208  -6.2174  -5.8574  -5.6017  -5.0835
    -5.0039  -4.6644  -4.3515  -3.6735  -3.6707  -3.1061  -3.0231  -2.6752
    -2.5025  -2.3797  -2.3699  -1.9271  -1.7899  -1.7559  -1.5631  -1.3005
    -1.2699  -1.0915  -0.9077  -0.5833  -0.5747  -0.2436   0.0553   0.2541
     0.4663   0.5898   1.2338   1.3004   5.7729   6.2251   7.9664   8.0721
     8.1767   8.5062   8.6390   8.7326   8.7382   8.8399

          k = 0.2000-0.4040 0.0000 ( 19806 PWs)   bands (ev):

   -16.8687 -16.2077 -14.3826 -14.2546 -13.8839 -13.6169 -12.0319 -11.5359
   -11.1533 -10.8476 -10.7777 -10.4531  -8.5319  -8.5257  -8.4331  -7.9016
    -7.7036  -7.5209  -7.1126  -6.1439  -5.8090  -5.4455  -5.4166  -4.9085
    -4.7161  -4.3952  -4.2196  -4.0275  -3.9347  -3.3375  -3.1231  -3.0208
    -2.7813  -2.7560  -2.4852  -1.9632  -1.8603  -1.7797  -1.5870  -1.3955
    -1.3432  -1.1148  -1.0038  -0.9759  -0.8760  -0.8484  -0.5642  -0.0586
     0.8500   0.9130   0.9529   1.2789   6.4213   6.8008   7.4694   7.7062
     7.9234   8.1021   8.2414   8.7828   8.8424   9.1677

          k = 0.4000-0.0000 0.0000 ( 19830 PWs)   bands (ev):

   -16.9724 -16.0887 -15.2932 -14.4380 -12.4512 -12.2516 -12.1332 -11.6470
   -11.4764 -11.3008 -11.1456 -10.3678  -9.7257  -8.9426  -8.1428  -7.9167
    -7.2746  -6.9938  -6.7484  -6.4398  -5.7154  -5.6774  -5.6339  -5.2628
    -4.6877  -4.5289  -4.4582  -3.9959  -3.8680  -3.7756  -3.3369  -2.7194
    -2.6372  -2.5604  -1.8297  -1.8114  -1.6152  -1.5752  -1.5720  -1.5602
    -1.3758  -1.2594  -1.2532  -0.9223  -0.4881  -0.4837  -0.3890   0.0404
     0.1413   0.7079   0.8993   0.9198   6.0409   6.4474   6.9046   7.0815
     8.3764   8.5973   9.0718   9.1162   9.2250   9.3116

          k = 0.4000-0.2020 0.0000 ( 19822 PWs)   bands (ev):

   -16.8081 -15.9258 -15.3061 -14.4458 -13.5318 -12.7065 -12.6486 -11.8518
   -11.0353 -10.8472 -10.3075 -10.0549  -9.6183  -8.9504  -7.8434  -7.6898
    -7.2701  -6.9644  -6.7106  -6.1322  -5.8715  -5.7923  -5.4882  -5.1199
    -4.8410  -4.6772  -4.2296  -4.0720  -3.7270  -3.6259  -3.0097  -2.9986
    -2.7704  -2.7640  -2.5495  -2.1617  -1.8082  -1.7061  -1.6030  -1.3916
    -1.3417  -1.2475  -0.8256  -0.7896  -0.7550  -0.5274  -0.4213  -0.3323
    -0.1275   0.5431   0.6508   0.9897   6.2437   6.6712   7.0593   7.2996
     8.2919   8.6513   8.7702   8.8235   8.8444   9.1977

          k = 0.4000-0.4040 0.0000 ( 19834 PWs)   bands (ev):

   -16.3359 -15.6783 -15.4572 -14.8058 -13.8768 -13.3823 -13.0561 -12.5689
   -10.6962 -10.3280 -10.0534  -9.7895  -8.8264  -8.3850  -8.2039  -7.5957
    -6.7518  -6.5415  -6.3315  -5.7837  -5.7064  -5.3775  -5.3696  -5.0949
    -4.8658  -4.8485  -4.4665  -4.2012  -4.0200  -3.9694  -3.5682  -3.3081
    -2.9491  -2.7993  -2.7317  -2.5221  -2.2119  -2.0402  -1.5184  -1.4807
    -1.3469  -1.2579  -1.0947  -0.8679  -0.7403  -0.5888  -0.2013  -0.0876
    -0.0812   0.0649   0.5557   0.8545   6.8192   7.2655   7.3370   7.5729
     7.6969   8.0030   8.0656   8.1789   8.4232   8.6877

     the Fermi energy is     3.2422 ev

!    total energy              =    -451.78399019 Ry
     estimated scf accuracy    <          4.5E-09 Ry
     smearing contrib. (-TS)   =       0.00000000 Ry
     internal energy E=F+TS    =    -451.78399019 Ry

     The total energy is F=E-TS. E is the sum of the following terms:
     one-electron contribution =   -2297.41569716 Ry
     hartree contribution      =    1189.28693767 Ry
     xc contribution           =    -117.47738670 Ry
     ewald contribution        =     921.73383171 Ry
     one-center paw contrib.   =    -147.91167571 Ry

     convergence has been achieved in  14 iterations

     negative rho (up, down):  7.165E-05 0.000E+00

     Forces acting on atoms (cartesian axes, Ry/au):

     atom    1 type  1   force =     0.00000000    0.00032228   -0.00235313
     atom    2 type  1   force =    -0.00000005   -0.00004426    0.00079265
     atom    3 type  1   force =    -0.00000008    0.00000000    0.00029045
     atom    4 type  1   force =     0.00000000   -0.00000000    0.00179930
     atom    5 type  1   force =     0.00000000    0.00004426   -0.00079251
     atom    6 type  1   force =     0.00000001   -0.00032221    0.00235284
     atom    7 type  1   force =     0.00000000   -0.00032228   -0.00235313
     atom    8 type  1   force =    -0.00000005    0.00004426    0.00079265
     atom    9 type  1   force =    -0.00000009    0.00000000   -0.00179941
     atom   10 type  1   force =     0.00000000    0.00000000   -0.00029046
     atom   11 type  1   force =     0.00000000   -0.00004426   -0.00079251
     atom   12 type  1   force =     0.00000001    0.00032221    0.00235284
     atom   13 type  2   force =     0.00000000    0.00023392   -0.00024532
     atom   14 type  2   force =     0.00000000   -0.00023392   -0.00024532
     atom   15 type  2   force =    -0.00000001   -0.00023402    0.00024559
     atom   16 type  2   force =    -0.00000001    0.00023402    0.00024559
     atom   17 type  1   force =     0.00000000    0.00032233   -0.00235308
     atom   18 type  1   force =     0.00000005   -0.00004426    0.00079265
     atom   19 type  1   force =     0.00000008   -0.00000000    0.00029045
     atom   20 type  1   force =     0.00000000   -0.00000000    0.00179920
     atom   21 type  1   force =     0.00000000    0.00004424   -0.00079256
     atom   22 type  1   force =    -0.00000001   -0.00032221    0.00235284
     atom   23 type  1   force =     0.00000000   -0.00032233   -0.00235308
     atom   24 type  1   force =     0.00000005    0.00004426    0.00079265
     atom   25 type  1   force =     0.00000009    0.00000000   -0.00179941
     atom   26 type  1   force =     0.00000000    0.00000000   -0.00029058
     atom   27 type  1   force =     0.00000000   -0.00004424   -0.00079256
     atom   28 type  1   force =    -0.00000001    0.00032221    0.00235284
     atom   29 type  2   force =     0.00000000    0.00023392   -0.00024532
     atom   30 type  2   force =     0.00000000   -0.00023392   -0.00024532
     atom   31 type  2   force =     0.00000001   -0.00023402    0.00024559
     atom   32 type  2   force =     0.00000001    0.00023402    0.00024559

     Total force =     0.008023     Total SCF correction =     0.000187


     Computing stress (Cartesian axis) and pressure


     negative rho (up, down):  7.165E-05 0.000E+00
          total   stress  (Ry/bohr**3)                   (kbar)     P=      -31.30
  -0.00024292   0.00000000   0.00000000          -35.73        0.00        0.00
   0.00000000  -0.00034926   0.00000000            0.00      -51.38        0.00
   0.00000000   0.00000000  -0.00004605            0.00        0.00       -6.77


     Writing all to output data dir ./tmp/slab.save/ :
     XML data file, charge density, pseudopotentials, collected wavefunctions

     init_run     :      4.47s CPU      4.86s WALL (       1 calls)
     electrons    :    123.73s CPU    137.02s WALL (       1 calls)
     forces       :      1.47s CPU      1.66s WALL (       1 calls)
     stress       :      3.69s CPU      4.38s WALL (       1 calls)

     Called by init_run:
     wfcinit      :      3.69s CPU      3.94s WALL (       1 calls)
     potinit      :      0.47s CPU      0.50s WALL (       1 calls)
     hinit0       :      0.15s CPU      0.15s WALL (       1 calls)

     Called by electrons:
     c_bands      :    102.13s CPU    113.39s WALL (      14 calls)
     sum_band     :     13.97s CPU     14.93s WALL (      14 calls)
     v_of_rho     :      2.18s CPU      2.34s WALL (      15 calls)
     newd         :      1.33s CPU      1.85s WALL (      15 calls)
     PAW_pot      :      4.18s CPU      4.63s WALL (      15 calls)
     mix_rho      :      0.28s CPU      0.33s WALL (      14 calls)

     Called by c_bands:
     init_us_2    :      1.12s CPU      1.23s WALL (     279 calls)
     cegterg      :     99.66s CPU    110.86s WALL (     126 calls)

     Called by *egterg:
     cdiaghg      :      1.71s CPU      1.74s WALL (     678 calls)
     h_psi        :     71.47s CPU     76.06s WALL (     687 calls)
     s_psi        :      8.49s CPU     10.21s WALL (     687 calls)
     g_psi        :      0.30s CPU      0.30s WALL (     552 calls)

     Called by h_psi:
     h_psi:calbec :      7.63s CPU      9.59s WALL (     687 calls)
     vloc_psi     :     54.53s CPU     55.04s WALL (     687 calls)
                                        0.00s GPU  (     687 calls)
     add_vuspsi   :      9.06s CPU     10.97s WALL (     687 calls)

     General routines
     calbec       :     11.82s CPU     14.80s WALL (     966 calls)
     fft          :      1.39s CPU      1.40s WALL (     218 calls)
     ffts         :      0.07s CPU      0.07s WALL (      29 calls)
     fftw         :     58.24s CPU     58.41s WALL (   51960 calls)
     interpolate  :      0.15s CPU      0.16s WALL (      15 calls)


     PWSCF        :   2m13.40s CPU   2m28.03s WALL


   This run was terminated on:  14:36: 8   7Jul2026            

=------------------------------------------------------------------------------=
   JOB DONE.
=------------------------------------------------------------------------------=
Note: The following floating-point exceptions are signalling: IEEE_INVALID_FLAG IEEE_DIVIDE_BY_ZERO IEEE_OVERFLOW_FLAG IEEE_UNDERFLOW_FLAG
