
     Program PWSCF v.7.3.1 starts on  1Aug2026 at 11:41:16 

     This program is part of the open-source Quantum ESPRESSO suite
     for quantum simulation of materials; please cite
         "P. Giannozzi et al., J. Phys.:Condens. Matter 21 395502 (2009);
         "P. Giannozzi et al., J. Phys.:Condens. Matter 29 465901 (2017);
         "P. Giannozzi et al., J. Chem. Phys. 152 154105 (2020);
          URL http://www.quantum-espresso.org", 
     in publications or presentations arising from this work. More details at
     http://www.quantum-espresso.org/quote

     Parallel version (MPI), running on     4 processors

     MPI processes distributed on     1 nodes
     180440 MiB available memory on the printing compute node when the environment starts

     Reading input from pw.in

     Current dimensions of program PWSCF are:
     Max number of different atomic species (ntypx) = 10
     Max number of k-points (npk) =  40000
     Max angular momentum in pseudopotentials (lmaxx) =  4
     file C.pbe-n-kjpaw_psl.1.0.0.UPF: wavefunction(s)  2S 2P renormalized
     Message from routine setup:
     using ibrav=0 with symmetry is DISCOURAGED, use correct ibrav instead

     R & G space division:  proc/nbgrp/npool/nimage =       4
     Subspace diagonalization in iterative solution of the eigenvalue problem:
     a serial algorithm will be used


     Parallelization info
     --------------------
     sticks:   dense  smooth     PW     G-vecs:    dense   smooth      PW
     Min         315     159     46                52865    18681    3006
     Max         316     160     47                52890    18696    3025
     Sum        1261     637    187               211501    74747   12067

     Using Slab Decomposition



     bravais-lattice index     =            0
     lattice parameter (alat)  =       4.7752  a.u.
     unit-cell volume          =     553.1394 (a.u.)^3
     number of atoms/cell      =            8
     number of atomic types    =            2
     number of electrons       =        26.00
     number of Kohn-Sham states=           17
     kinetic-energy cutoff     =     100.0000  Ry
     charge density cutoff     =     800.0000  Ry
     scf convergence threshold =      1.0E-08
     mixing beta               =       0.3000
     number of iterations used =            8  plain     mixing
     Exchange-correlation= PBE
                           (   1   4   3   4   0   0   0)

     celldm(1)=   4.775235  celldm(2)=   0.000000  celldm(3)=   0.000000
     celldm(4)=   0.000000  celldm(5)=   0.000000  celldm(6)=   0.000000

     crystal axes: (cart. coord. in units of alat)
               a(1) = (   1.000000   0.000000   0.000000 )  
               a(2) = (   0.500000   0.866025   0.000000 )  
               a(3) = (   0.000000   0.000000   5.865696 )  

     reciprocal axes: (cart. coord. in units 2 pi/alat)
               b(1) = (  1.000000 -0.577350  0.000000 )  
               b(2) = (  0.000000  1.154701  0.000000 )  
               b(3) = (  0.000000  0.000000  0.170483 )  


     PseudoPot. # 1 for C  read from file:
     ./C.pbe-n-kjpaw_psl.1.0.0.UPF
     MD5 check sum: 5d2aebdfa2cae82b50a7e79e9516da0f
     Pseudo is Projector augmented-wave + core cor, Zval =  4.0
     Generated using "atomic" code by A. Dal Corso  v.5.1
     Shape of augmentation charge: PSQ
     Using radial grid of 1073 points,  4 beta functions with: 
                l(1) =   0
                l(2) =   0
                l(3) =   1
                l(4) =   1
     Q(r) pseudized with 0 coefficients 


     PseudoPot. # 2 for H  read from file:
     ./H_ONCV_PBE-1.0.oncvpsp.upf
     MD5 check sum: 1790becc920ee074925cf490c71280fe
     Pseudo is Norm-conserving, Zval =  1.0
     Generated using ONCVPSP code by D. R. Hamann
     Using radial grid of 1166 points,  2 beta functions with: 
                l(1) =   0
                l(2) =   0

     atomic species   valence    mass     pseudopotential
     C                 4.00    12.01100     C ( 1.00)
     H                 1.00     1.00800     H ( 1.00)

     12 Sym. Ops., with inversion, found ( 6 have fractional translation)



   Cartesian axes

     site n.     atom                  positions (alat units)
         1        C      tau(   1) = (   0.5000000   0.2886751   3.8425963  )
         2        C      tau(   2) = (   1.0000000   0.5773503   3.6495395  )
         3        C      tau(   3) = (   1.0000000   0.5773503   3.0344995  )
         4        C      tau(   4) = (  -0.0000000   0.0000000   2.8311966  )
         5        C      tau(   5) = (   0.0000000   0.0000000   2.2161565  )
         6        C      tau(   6) = (   0.5000000   0.2886751   2.0230997  )
         7        H      tau(   7) = (   0.5000000   0.2886751   4.2814431  )
         8        H      tau(   8) = (   0.5000000   0.2886751   1.5842529  )

     number of k points=    12  Marzari-Vanderbilt smearing, width (Ry)=  0.0100
                       cart. coord. in units 2pi/alat
        k(    1) = (   0.0000000   0.0000000   0.0000000), wk =   0.0246914
        k(    2) = (   0.0000000   0.1283001   0.0000000), wk =   0.1481481
        k(    3) = (   0.0000000   0.2566001   0.0000000), wk =   0.1481481
        k(    4) = (   0.0000000   0.3849002   0.0000000), wk =   0.1481481
        k(    5) = (   0.0000000   0.5132002   0.0000000), wk =   0.1481481
        k(    6) = (   0.1111111   0.1924501   0.0000000), wk =   0.1481481
        k(    7) = (   0.1111111   0.3207501   0.0000000), wk =   0.2962963
        k(    8) = (   0.1111111   0.4490502   0.0000000), wk =   0.2962963
        k(    9) = (   0.1111111  -0.5773503   0.0000000), wk =   0.1481481
        k(   10) = (   0.2222222   0.3849002   0.0000000), wk =   0.1481481
        k(   11) = (   0.2222222  -0.6415003   0.0000000), wk =   0.2962963
        k(   12) = (   0.3333333  -0.5773503   0.0000000), wk =   0.0493827

     Dense  grid:   211501 G-vectors     FFT dimensions: (  45,  45, 256)

     Smooth grid:    74747 G-vectors     FFT dimensions: (  36,  36, 180)

     Estimated max dynamical RAM per process >      91.29 MB

     Estimated total dynamical RAM >     365.16 MB

     Initial potential from superposition of free atoms

     starting charge      25.9997, renormalised to      26.0000
     Starting wfcs are   26 randomized atomic wfcs
     Checking if some PAW data can be deallocated... 

     total cpu time spent up to now is       32.6 secs

     Self-consistent Calculation

     iteration #  1     ecut=   100.00 Ry     beta= 0.30
     Davidson diagonalization with overlap
     ethr =  1.00E-02,  avg # of iterations =  2.9

     total cpu time spent up to now is       85.1 secs

     total energy              =    -113.01823283 Ry
     estimated scf accuracy    <       0.60574002 Ry

     iteration #  2     ecut=   100.00 Ry     beta= 0.30
     Davidson diagonalization with overlap
     ethr =  2.33E-03,  avg # of iterations =  3.3

     total cpu time spent up to now is      133.3 secs

     total energy              =    -112.97927790 Ry
     estimated scf accuracy    <       0.18519199 Ry

     iteration #  3     ecut=   100.00 Ry     beta= 0.30
     Davidson diagonalization with overlap
     ethr =  7.12E-04,  avg # of iterations =  4.6

     total cpu time spent up to now is      187.8 secs

     total energy              =    -112.98529309 Ry
     estimated scf accuracy    <       0.02657125 Ry

     iteration #  4     ecut=   100.00 Ry     beta= 0.30
     Davidson diagonalization with overlap
     ethr =  1.02E-04,  avg # of iterations =  4.8

     total cpu time spent up to now is      237.1 secs

     total energy              =    -112.98640174 Ry
     estimated scf accuracy    <       0.00317578 Ry

     iteration #  5     ecut=   100.00 Ry     beta= 0.30
     Davidson diagonalization with overlap
     ethr =  1.22E-05,  avg # of iterations =  5.2

     total cpu time spent up to now is      293.9 secs

     total energy              =    -112.98683087 Ry
     estimated scf accuracy    <       0.00023817 Ry

     iteration #  6     ecut=   100.00 Ry     beta= 0.30
     Davidson diagonalization with overlap
     ethr =  9.16E-07,  avg # of iterations =  3.2

     total cpu time spent up to now is      342.4 secs

     total energy              =    -112.98685977 Ry
     estimated scf accuracy    <       0.00007414 Ry

     iteration #  7     ecut=   100.00 Ry     beta= 0.30
     Davidson diagonalization with overlap
     ethr =  2.85E-07,  avg # of iterations =  2.0

     total cpu time spent up to now is      396.0 secs

     total energy              =    -112.98687347 Ry
     estimated scf accuracy    <       0.00002612 Ry

     iteration #  8     ecut=   100.00 Ry     beta= 0.30
     Davidson diagonalization with overlap
     ethr =  1.00E-07,  avg # of iterations =  1.8

     total cpu time spent up to now is      432.1 secs

     total energy              =    -112.98687591 Ry
     estimated scf accuracy    <       0.00000260 Ry

     iteration #  9     ecut=   100.00 Ry     beta= 0.30
     Davidson diagonalization with overlap
     ethr =  9.98E-09,  avg # of iterations =  2.4

     total cpu time spent up to now is      482.0 secs

     total energy              =    -112.98687627 Ry
     estimated scf accuracy    <       0.00000051 Ry

     iteration # 10     ecut=   100.00 Ry     beta= 0.30
     Davidson diagonalization with overlap
     ethr =  1.96E-09,  avg # of iterations =  2.2

     total cpu time spent up to now is      522.3 secs

     total energy              =    -112.98687634 Ry
     estimated scf accuracy    <       0.00000003 Ry

     iteration # 11     ecut=   100.00 Ry     beta= 0.30
     Davidson diagonalization with overlap
     ethr =  1.26E-10,  avg # of iterations =  2.7

     total cpu time spent up to now is      564.5 secs

     total energy              =    -112.98687635 Ry
     estimated scf accuracy    <       0.00000002 Ry

     iteration # 12     ecut=   100.00 Ry     beta= 0.30
     Davidson diagonalization with overlap
     ethr =  7.00E-11,  avg # of iterations =  2.2

     total cpu time spent up to now is      590.7 secs

     End of self-consistent calculation

          k = 0.0000 0.0000 0.0000 (  9383 PWs)   bands (ev):

   -16.9010 -15.4130 -13.1817  -8.3583  -5.2791  -1.3853   1.5189   1.5189
     2.1009   2.3765   2.3765   3.4617   3.4617   6.3953   6.6341   9.1990
    10.3599

          k = 0.0000 0.1283 0.0000 (  9371 PWs)   bands (ev):

   -16.6004 -15.1185 -12.8998  -8.0885  -5.0530  -1.2616   0.1107   0.8973
     1.0281   1.8491   1.9919   2.3209   3.0214   6.6475   6.9620   9.2018
    10.4082

          k = 0.0000 0.2566 0.0000 (  9365 PWs)   bands (ev):

   -15.7046 -14.2426 -12.0637  -7.3377  -4.4688  -2.8593  -1.7461  -0.9225
    -0.3221  -0.2728   0.7710   1.7866   2.0454   7.4093   7.8472   9.3322
    10.2759

          k = 0.0000 0.3849 0.0000 (  9349 PWs)   bands (ev):

   -14.2388 -12.8189 -10.7253  -6.8334  -5.7728  -4.5154  -3.8750  -2.6489
    -1.2665  -0.8487  -0.1822   1.0900   1.1411   8.5249   8.9131   9.6259
    10.4377

          k = 0.0000 0.5132 0.0000 (  9322 PWs)   bands (ev):

   -12.3030 -11.0856  -9.6927  -8.2225  -8.0220  -6.1793  -3.8790  -2.5974
    -1.8078  -1.4404  -0.7084   0.5559   0.6337   8.9330   9.6570  10.3033
    10.8043

          k = 0.1111 0.1925 0.0000 (  9387 PWs)   bands (ev):

   -16.0021 -14.5331 -12.3405  -7.5742  -4.6386  -1.6637  -1.0677  -0.9765
    -0.0624   0.2263   1.3317   1.3481   2.3144   7.1913   7.5734   9.6384
    10.4939

          k = 0.1111 0.3208 0.0000 (  9362 PWs)   bands (ev):

   -14.8201 -13.3807 -11.2463  -6.7560  -4.4955  -3.9458  -3.0909  -2.3386
    -1.2155  -0.7946  -0.5579   0.4065   1.6948   8.3013   8.6053  10.1887
    10.9498

          k = 0.1111 0.4491 0.0000 (  9311 PWs)   bands (ev):

   -13.1019 -11.7356  -9.7711  -7.6250  -6.7183  -4.9231  -4.3385  -2.6638
    -2.4463  -1.6692  -0.9775  -0.1592   0.8279   9.3403   9.9464  10.6986
    11.4617

          k = 0.1111-0.5774 0.0000 (  9340 PWs)   bands (ev):

   -11.3247 -10.7886  -9.5698  -8.6365  -7.5067  -6.9496  -3.3418  -3.0464
    -2.6113  -1.6829  -1.6254  -0.2015   0.3305   9.6308  10.5065  11.3692
    11.6400

          k = 0.2222 0.3849 0.0000 (  9314 PWs)   bands (ev):

   -13.3793 -11.9895  -9.9502  -6.8205  -5.6173  -4.8446  -3.9823  -3.4211
    -2.7433  -1.9239  -1.7012  -0.6500   0.9185   9.5289   9.8226  11.1742
    11.7587

          k = 0.2222-0.6415 0.0000 (  9314 PWs)   bands (ev):

   -11.4956 -10.3250  -8.9522  -7.9887  -7.4283  -6.1484  -4.4610  -4.0865
    -3.0416  -2.6470  -1.7424  -0.9224  -0.0648  10.1619  10.8187  12.0189
    12.1514

          k = 0.3333-0.5774 0.0000 (  9312 PWs)   bands (ev):

    -9.8893  -9.8893  -8.7801  -8.4761  -7.0509  -7.0509  -4.9315  -4.6335
    -4.6335  -1.8912  -1.3109  -1.3109  -1.0026  10.7658  10.7658  11.4175
    13.1181

     the Fermi energy is     4.2473 ev

!    total energy              =    -112.98687635 Ry
     estimated scf accuracy    <          3.7E-09 Ry
     smearing contrib. (-TS)   =       0.00000000 Ry
     internal energy E=F+TS    =    -112.98687635 Ry

     The total energy is F=E-TS. E is the sum of the following terms:
     one-electron contribution =    -588.52468850 Ry
     hartree contribution      =     305.25410997 Ry
     xc contribution           =     -29.50878013 Ry
     ewald contribution        =     236.77085212 Ry
     one-center paw contrib.   =     -36.97836981 Ry

     convergence has been achieved in  12 iterations

     Forces acting on atoms (cartesian axes, Ry/au):

     atom    1 type  1   force =     0.00000000    0.00000000   -0.00003092
     atom    2 type  1   force =     0.00000000    0.00000000    0.00000923
     atom    3 type  1   force =     0.00000000    0.00000000   -0.00001727
     atom    4 type  1   force =     0.00000000    0.00000000    0.00001727
     atom    5 type  1   force =     0.00000000    0.00000000   -0.00000923
     atom    6 type  1   force =     0.00000000    0.00000000    0.00003092
     atom    7 type  2   force =     0.00000000    0.00000000   -0.00000580
     atom    8 type  2   force =     0.00000000    0.00000000    0.00000580

     Total force =     0.000052     Total SCF correction =     0.000098
     SCF correction compared to forces is large: reduce conv_thr to get better values


     Computing stress (Cartesian axis) and pressure

          total   stress  (Ry/bohr**3)                   (kbar)     P=        3.67
   0.00003847  -0.00000000   0.00000000            5.66       -0.00        0.00
  -0.00000000   0.00003847   0.00000000           -0.00        5.66        0.00
   0.00000000   0.00000000  -0.00000201            0.00        0.00       -0.30


     Writing all to output data dir ./tmp/slab.save/ :
     XML data file, charge density, pseudopotentials, collected wavefunctions

     init_run     :      5.40s CPU     22.08s WALL (       1 calls)
     electrons    :    141.66s CPU    558.48s WALL (       1 calls)
     forces       :      0.34s CPU      0.69s WALL (       1 calls)
     stress       :      1.51s CPU      2.98s WALL (       1 calls)

     Called by init_run:
     wfcinit      :      4.55s CPU     18.41s WALL (       1 calls)
     potinit      :      0.44s CPU      1.86s WALL (       1 calls)
     hinit0       :      0.20s CPU      0.97s WALL (       1 calls)

     Called by electrons:
     c_bands      :    115.93s CPU    457.87s WALL (      12 calls)
     sum_band     :     16.97s CPU     66.21s WALL (      12 calls)
     v_of_rho     :      2.38s CPU      9.30s WALL (      13 calls)
     newd         :      0.66s CPU      2.62s WALL (      13 calls)
     PAW_pot      :      1.45s CPU      5.68s WALL (      13 calls)
     mix_rho      :      3.51s CPU     14.02s WALL (      12 calls)

     Called by c_bands:
     init_us_2    :      0.27s CPU      0.44s WALL (     324 calls)
     cegterg      :    113.14s CPU    446.23s WALL (     144 calls)

     Called by *egterg:
     cdiaghg      :      2.71s CPU     10.79s WALL (     592 calls)
     h_psi        :     90.46s CPU    356.30s WALL (     604 calls)
     s_psi        :      0.22s CPU      0.54s WALL (     604 calls)
     g_psi        :      0.04s CPU      0.08s WALL (     448 calls)

     Called by h_psi:
     h_psi:calbec :     10.31s CPU     40.99s WALL (     604 calls)
     vloc_psi     :     79.79s CPU    314.85s WALL (     604 calls)
     add_vuspsi   :      0.31s CPU      0.40s WALL (     604 calls)

     General routines
     calbec       :     12.88s CPU     50.79s WALL (     808 calls)
     fft          :      1.24s CPU      5.16s WALL (     192 calls)
     ffts         :      0.19s CPU      0.72s WALL (      25 calls)
     fftw         :     90.90s CPU    363.77s WALL (   15702 calls)
     interpolate  :      0.20s CPU      0.79s WALL (      13 calls)

     Parallel routines

     PWSCF        :   2m33.38s CPU   9m58.50s WALL


   This run was terminated on:  11:51:15   1Aug2026            

=------------------------------------------------------------------------------=
   JOB DONE.
=------------------------------------------------------------------------------=
Note: The following floating-point exceptions are signalling: IEEE_UNDERFLOW_FLAG IEEE_DENORMAL
Note: The following floating-point exceptions are signalling: IEEE_UNDERFLOW_FLAG IEEE_DENORMAL
Note: The following floating-point exceptions are signalling: IEEE_UNDERFLOW_FLAG IEEE_DENORMAL
Note: The following floating-point exceptions are signalling: IEEE_UNDERFLOW_FLAG IEEE_DENORMAL
