
     Program PWSCF v.7.5 starts on 23Jun2026 at 13:34:14 

     This program is part of the open-source Quantum ESPRESSO suite
     for quantum simulation of materials; please cite
         "P. Giannozzi et al., J. Phys.:Condens. Matter 21 395502 (2009);
         "P. Giannozzi et al., J. Phys.:Condens. Matter 29 465901 (2017);
         "P. Giannozzi et al., J. Chem. Phys. 152 154105 (2020);
          URL http://www.quantum-espresso.org", 
     in publications or presentations arising from this work. More details at
     http://www.quantum-espresso.org/quote

     Serial version
     0 MiB available memory on the printing compute node when the environment starts

     Waiting for input...
     Reading input from standard input

     Current dimensions of program PWSCF are:
     Max number of different atomic species (ntypx) = 10
     Max number of k-points (npk) =  40000
     Max angular momentum in pseudopotentials (lmaxx) =  4
     file C.pbe-n-kjpaw_psl.1.0.0.UPF: wavefunction(s)  2S 2P renormalized
     Message from routine volume:
     axis vectors are left-handed
     Message from routine setup:
     using ibrav=0 with symmetry is DISCOURAGED, use correct ibrav instead


     G-vector sticks info
     --------------------
     sticks:   dense  smooth     PW     G-vecs:    dense   smooth      PW
     Sum        2347    1177    343               487665   172493   26601

     Using Slab Decomposition



     bravais-lattice index     =            0
     lattice parameter (alat)  =       4.8230  a.u.
     unit-cell volume          =    1783.0286 (a.u.)^3
     number of atoms/cell      =           14
     number of atomic types    =            2
     number of electrons       =        50.00
     number of Kohn-Sham states=           30
     kinetic-energy cutoff     =      80.0000  Ry
     charge density cutoff     =     640.0000  Ry
     scf convergence threshold =      1.0E-08
     mixing beta               =       0.3000
     number of iterations used =            8  plain     mixing
     Exchange-correlation= PBE
                           (   1   4   3   4   0   0   0)

     celldm(1)=   4.822988  celldm(2)=   0.000000  celldm(3)=   0.000000
     celldm(4)=   0.000000  celldm(5)=   0.000000  celldm(6)=   0.000000

     crystal axes: (cart. coord. in units of alat)
               a(1) = (   1.000000   0.000000   0.000000 )  
               a(2) = (   0.000000  -1.980198   0.000000 )  
               a(3) = (   0.000000   0.000000   8.026038 )  

     reciprocal axes: (cart. coord. in units 2 pi/alat)
               b(1) = (  1.000000 -0.000000 -0.000000 )  
               b(2) = ( -0.000000 -0.505000 -0.000000 )  
               b(3) = ( -0.000000 -0.000000  0.124594 )  


     PseudoPot. # 1 for C  read from file:
     ./C.pbe-n-kjpaw_psl.1.0.0.UPF
     MD5 check sum: 5d2aebdfa2cae82b50a7e79e9516da0f
     Pseudo is Projector augmented-wave + core cor, Zval =  4.0
     Generated using "atomic" code by A. Dal Corso  v.5.1
     Shape of augmentation charge: PSQ
     Using radial grid of 1073 points,  4 beta functions with: 
                l(1) =   0
                l(2) =   0
                l(3) =   1
                l(4) =   1
     Q(r) pseudized with 0 coefficients 


     PseudoPot. # 2 for H  read from file:
     ./H_ONCV_PBE-1.0.oncvpsp.upf
     MD5 check sum: 1790becc920ee074925cf490c71280fe
     Pseudo is Norm-conserving, Zval =  1.0
     Generated using ONCVPSP code by D. R. Hamann
     Using radial grid of 1166 points,  2 beta functions with: 
                l(1) =   0
                l(2) =   0

     atomic species   valence    mass     pseudopotential
     C                 4.00    12.01100     C ( 1.00)
     H                 1.00     1.00800     H ( 1.00)

      4 Sym. Ops. (no inversion) found



   Cartesian axes

     site n.     atom                  positions (alat units)
         1        C      tau(   1) = (   0.0000000  -0.3180560   4.6619383  )
         2        C      tau(   2) = (   0.5000000  -0.4596697   4.3442261  )
         3        C      tau(   3) = (   0.5000000   0.0000000   3.9536374  )
         4        C      tau(   4) = (   0.0000000   0.0000000   3.6214161  )
         5        C      tau(   5) = (   0.0000000  -0.4950495   3.2886765  )
         6        C      tau(   6) = (   0.5000000  -0.4950495   2.9386236  )
         7        C      tau(   7) = (   0.0000000  -1.6621420   4.6619383  )
         8        C      tau(   8) = (   0.5000000  -1.5205283   4.3442261  )
         9        C      tau(   9) = (   0.5000000  -0.9900990   4.0259534  )
        10        C      tau(  10) = (   0.0000000  -0.9900990   3.6632276  )
        11        C      tau(  11) = (   0.0000000  -1.4851485   3.2886765  )
        12        C      tau(  12) = (   0.5000000  -1.4851485   2.9386236  )
        13        H      tau(  13) = (   0.0000000  -0.4854254   5.0587789  )
        14        H      tau(  14) = (   0.0000000  -1.4947726   5.0587789  )

     number of k points=    15  Marzari-Vanderbilt smearing, width (Ry)=  0.0100
                       cart. coord. in units 2pi/alat
        k(    1) = (   0.0000000  -0.0000000   0.0000000), wk =   0.0444444
        k(    2) = (   0.0000000  -0.1010000   0.0000000), wk =   0.0888889
        k(    3) = (   0.0000000  -0.2020000   0.0000000), wk =   0.0888889
        k(    4) = (   0.1111111  -0.0000000   0.0000000), wk =   0.0888889
        k(    5) = (   0.1111111  -0.1010000   0.0000000), wk =   0.1777778
        k(    6) = (   0.1111111  -0.2020000   0.0000000), wk =   0.1777778
        k(    7) = (   0.2222222  -0.0000000   0.0000000), wk =   0.0888889
        k(    8) = (   0.2222222  -0.1010000   0.0000000), wk =   0.1777778
        k(    9) = (   0.2222222  -0.2020000   0.0000000), wk =   0.1777778
        k(   10) = (   0.3333333  -0.0000000   0.0000000), wk =   0.0888889
        k(   11) = (   0.3333333  -0.1010000   0.0000000), wk =   0.1777778
        k(   12) = (   0.3333333  -0.2020000   0.0000000), wk =   0.1777778
        k(   13) = (   0.4444444  -0.0000000   0.0000000), wk =   0.0888889
        k(   14) = (   0.4444444  -0.1010000   0.0000000), wk =   0.1777778
        k(   15) = (   0.4444444  -0.2020000   0.0000000), wk =   0.1777778

     Dense  grid:   487665 G-vectors     FFT dimensions: (  40,  80, 320)

     Smooth grid:   172493 G-vectors     FFT dimensions: (  27,  60, 225)

     Estimated max dynamical RAM per process >       1.03 GB

     Initial potential from superposition of free atoms

     starting charge      49.9995, renormalised to      50.0000

     negative rho (up, down):  7.376E-05 0.000E+00
     Starting wfcs are   50 randomized atomic wfcs

     total cpu time spent up to now is        4.6 secs

     Self-consistent Calculation

     iteration #  1     ecut=    80.00 Ry     beta= 0.30
     Davidson diagonalization with overlap
     ethr =  1.00E-02,  avg # of iterations =  2.5

     negative rho (up, down):  7.082E-05 0.000E+00

     total cpu time spent up to now is       13.2 secs

     total energy              =    -223.06501403 Ry
     estimated scf accuracy    <       0.87464357 Ry

     iteration #  2     ecut=    80.00 Ry     beta= 0.30
     Davidson diagonalization with overlap
     ethr =  1.75E-03,  avg # of iterations =  3.2

     negative rho (up, down):  7.668E-05 0.000E+00

     total cpu time spent up to now is       20.0 secs

     total energy              =    -223.01513560 Ry
     estimated scf accuracy    <       0.28579101 Ry

     iteration #  3     ecut=    80.00 Ry     beta= 0.30
     Davidson diagonalization with overlap
     ethr =  5.72E-04,  avg # of iterations =  5.7

     negative rho (up, down):  8.407E-05 0.000E+00

     total cpu time spent up to now is       28.2 secs

     total energy              =    -223.01939369 Ry
     estimated scf accuracy    <       0.06580079 Ry

     iteration #  4     ecut=    80.00 Ry     beta= 0.30
     Davidson diagonalization with overlap
     ethr =  1.32E-04,  avg # of iterations =  4.9

     negative rho (up, down):  8.855E-05 0.000E+00

     total cpu time spent up to now is       36.0 secs

     total energy              =    -223.02371597 Ry
     estimated scf accuracy    <       0.01027514 Ry

     iteration #  5     ecut=    80.00 Ry     beta= 0.30
     Davidson diagonalization with overlap
     ethr =  2.06E-05,  avg # of iterations =  5.7

     negative rho (up, down):  9.065E-05 0.000E+00

     total cpu time spent up to now is       45.0 secs

     total energy              =    -223.02502045 Ry
     estimated scf accuracy    <       0.00123867 Ry

     iteration #  6     ecut=    80.00 Ry     beta= 0.30
     Davidson diagonalization with overlap
     c_bands:  1 eigenvalues not converged
     c_bands:  1 eigenvalues not converged
     c_bands:  1 eigenvalues not converged
     ethr =  2.48E-06,  avg # of iterations =  8.6

     negative rho (up, down):  8.792E-05 0.000E+00

     total cpu time spent up to now is       55.8 secs

     total energy              =    -223.02517027 Ry
     estimated scf accuracy    <       0.00023073 Ry

     iteration #  7     ecut=    80.00 Ry     beta= 0.30
     Davidson diagonalization with overlap
     ethr =  4.61E-07,  avg # of iterations =  4.5

     negative rho (up, down):  8.801E-05 0.000E+00

     total cpu time spent up to now is       64.2 secs

     total energy              =    -223.02520811 Ry
     estimated scf accuracy    <       0.00006232 Ry

     iteration #  8     ecut=    80.00 Ry     beta= 0.30
     Davidson diagonalization with overlap
     ethr =  1.25E-07,  avg # of iterations =  2.0

     negative rho (up, down):  8.753E-05 0.000E+00

     total cpu time spent up to now is       71.4 secs

     total energy              =    -223.02521602 Ry
     estimated scf accuracy    <       0.00000776 Ry

     iteration #  9     ecut=    80.00 Ry     beta= 0.30
     Davidson diagonalization with overlap
     ethr =  1.55E-08,  avg # of iterations =  3.2

     negative rho (up, down):  8.720E-05 0.000E+00

     total cpu time spent up to now is       79.7 secs

     total energy              =    -223.02521744 Ry
     estimated scf accuracy    <       0.00000109 Ry

     iteration # 10     ecut=    80.00 Ry     beta= 0.30
     Davidson diagonalization with overlap
     ethr =  2.18E-09,  avg # of iterations =  3.7

     negative rho (up, down):  8.696E-05 0.000E+00

     total cpu time spent up to now is       88.6 secs

     total energy              =    -223.02521772 Ry
     estimated scf accuracy    <       0.00000048 Ry

     iteration # 11     ecut=    80.00 Ry     beta= 0.30
     Davidson diagonalization with overlap
     ethr =  9.52E-10,  avg # of iterations =  2.0

     negative rho (up, down):  8.688E-05 0.000E+00

     total cpu time spent up to now is       95.6 secs

     total energy              =    -223.02521777 Ry
     estimated scf accuracy    <       0.00000006 Ry

     iteration # 12     ecut=    80.00 Ry     beta= 0.30
     Davidson diagonalization with overlap
     ethr =  1.14E-10,  avg # of iterations =  4.3

     negative rho (up, down):  8.682E-05 0.000E+00

     total cpu time spent up to now is      105.3 secs

     total energy              =    -223.02521779 Ry
     estimated scf accuracy    <       0.00000002 Ry

     iteration # 13     ecut=    80.00 Ry     beta= 0.30
     Davidson diagonalization with overlap
     ethr =  4.21E-11,  avg # of iterations =  2.2

     negative rho (up, down):  8.677E-05 0.000E+00

     total cpu time spent up to now is      112.5 secs

     End of self-consistent calculation

          k = 0.0000-0.0000 0.0000 ( 21513 PWs)   bands (ev):

   -21.0392 -18.7793 -16.6194 -16.2396 -15.2044 -15.0982 -12.0354 -11.3203
   -10.9429  -8.0422  -7.9757  -7.1701  -6.2562  -5.6517  -4.3056  -4.2340
    -4.1133  -3.3981  -3.2521  -2.8192  -2.7366  -2.5979  -1.7139  -0.9505
    -0.5114  -0.0362   2.5834   3.1610   4.0581   4.2092

          k = 0.0000-0.1010 0.0000 ( 21531 PWs)   bands (ev):

   -20.8886 -18.7163 -17.8016 -15.8179 -14.9388 -14.8378 -11.5667 -11.2160
   -10.8844  -8.2603  -7.6109  -7.3030  -6.2082  -6.1427  -4.5749  -4.1919
    -4.1748  -3.9057  -3.6130  -2.8795  -2.7418  -2.3023  -1.6587  -1.0338
    -0.6779   0.2694   2.7758   2.8035   4.3838   4.9144

          k = 0.0000-0.2020 0.0000 ( 21475 PWs)   bands (ev):

   -20.5228 -19.0773 -18.1992 -16.5336 -14.6492 -13.9826 -11.3621 -10.4684
   -10.1750  -8.9976  -8.0308  -7.0708  -6.7757  -5.8861  -5.3137  -4.5866
    -4.3525  -3.9833  -3.4076  -3.2804  -2.9761  -1.9544  -1.5670  -1.0587
    -0.9572   0.9788   1.9383   3.3885   4.3177   4.7946

          k = 0.1111-0.0000 0.0000 ( 21497 PWs)   bands (ev):

   -20.8188 -18.5664 -16.4141 -16.0300 -15.0060 -14.9027 -11.8578 -11.2508
   -10.7693  -7.9608  -7.9259  -7.5407  -6.9824  -5.5052  -5.3468  -4.5543
    -4.2353  -3.9810  -3.5759  -3.4934  -3.4724  -2.7465  -2.4881  -1.0868
    -0.5441  -0.0370   2.8026   3.2695   4.7218   4.8586

          k = 0.1111-0.1010 0.0000 ( 21516 PWs)   bands (ev):

   -20.6686 -18.5029 -17.5909 -15.6188 -14.7382 -14.6409 -11.4366 -11.0663
   -10.7462  -8.2075  -7.6660  -7.4209  -6.9293  -6.1333  -5.2897  -4.9900
    -4.4360  -4.2585  -3.6389  -3.4681  -3.1978  -3.1064  -2.3525  -1.1077
    -0.6657   0.2592   2.8530   3.0175   5.0093   5.4539

          k = 0.1111-0.2020 0.0000 ( 21494 PWs)   bands (ev):

   -20.3035 -18.8610 -17.9892 -16.3317 -14.4572 -13.7846 -11.2518 -10.3140
   -10.0657  -8.8434  -7.9167  -7.4021  -6.7361  -6.5642  -5.6921  -5.3468
    -5.0791  -4.3552  -3.9373  -3.3666  -3.1407  -2.7670  -2.4840  -1.0746
    -0.8970   0.9788   1.9581   3.5839   4.4779   5.1093

          k = 0.2222-0.0000 0.0000 ( 21544 PWs)   bands (ev):

   -20.1617 -17.9364 -15.8039 -15.4065 -14.4358 -14.3220 -11.5112 -11.3636
   -10.2946  -9.1592  -8.4274  -8.0217  -7.4279  -6.4018  -6.0675  -5.5166
    -5.3665  -5.2596  -5.0652  -4.1878  -4.1528  -3.0948  -2.6256  -1.4348
    -0.9699  -0.1832   3.3398   3.5240   5.4356   5.6883

          k = 0.2222-0.1010 0.0000 ( 21521 PWs)   bands (ev):

   -20.0124 -17.8707 -16.9652 -15.0342 -14.1549 -14.0590 -11.4586 -10.7640
   -10.3523  -9.0416  -8.5258  -8.1056  -7.2465  -6.5487  -6.1978  -5.7704
    -5.7035  -5.1386  -4.9111  -4.4274  -4.1378  -3.3524  -2.9038  -1.3636
    -0.9499   0.0695   2.9351   3.5627   5.5200   5.7246

          k = 0.2222-0.2020 0.0000 ( 21535 PWs)   bands (ev):

   -19.6496 -18.2171 -17.3678 -15.7393 -13.9104 -13.1944 -11.2694 -10.2068
    -9.7916  -8.8725  -8.5561  -7.9451  -7.6458  -7.2069  -6.6064  -6.1553
    -5.8623  -5.2476  -4.6666  -4.4777  -4.2705  -3.4197  -3.2080  -1.2277
    -1.0295   0.7789   1.8246   4.0522   4.7000   5.2149

          k = 0.3333-0.0000 0.0000 ( 21578 PWs)   bands (ev):

   -19.0830 -16.9400 -14.8215 -14.3884 -13.8992 -13.3844 -12.7090 -11.1217
   -10.7085  -9.8940  -9.0358  -9.0226  -8.1477  -7.6352  -7.2499  -6.8422
    -6.0346  -5.6553  -5.1507  -4.7055  -4.1264  -4.0277  -2.6045  -1.7121
    -1.3669  -0.4366   3.7558   4.2053   5.7680   6.3989

          k = 0.3333-0.1010 0.0000 ( 21563 PWs)   bands (ev):

   -18.9352 -16.8641 -15.9530 -14.1815 -13.6000 -13.0996 -12.5426 -11.0661
   -10.5568  -9.8293  -9.1872  -8.8111  -8.0805  -7.7020  -7.3853  -6.2065
    -6.1339  -5.5928  -5.3962  -4.9246  -4.4795  -3.9309  -3.2922  -1.6134
    -1.3464  -0.2136   3.1122   4.3750   5.3690   6.0798

          k = 0.3333-0.2020 0.0000 ( 21548 PWs)   bands (ev):

   -18.5757 -17.1655 -16.3814 -14.8410 -13.4943 -12.2367 -12.2221 -11.3770
   -10.4371  -9.5002  -8.8477  -8.4573  -7.9056  -7.4304  -7.2552  -7.1615
    -6.2519  -5.6158  -5.5036  -4.9802  -4.7358  -4.1611  -3.8760  -1.4721
    -1.3654   0.5315   1.7784   4.5256   4.8490   5.6156

          k = 0.4444-0.0000 0.0000 ( 21622 PWs)   bands (ev):

   -17.6335 -16.2023 -14.9656 -13.4397 -13.0416 -12.9988 -12.2937 -12.0390
   -11.4878 -11.0025 -10.2045  -9.9317  -8.2252  -7.8516  -7.3931  -7.1002
    -6.4124  -5.7902  -5.6347  -5.3511  -4.4752  -3.4606  -2.8737  -1.8797
    -1.5957  -0.6436   3.8772   5.2899   5.6912   6.3240

          k = 0.4444-0.1010 0.0000 ( 21591 PWs)   bands (ev):

   -17.4875 -16.0608 -14.9891 -14.5078 -13.4326 -12.8525 -11.8890 -11.6724
   -11.4380 -10.6748 -10.1324  -9.7546  -8.2261  -7.8103  -7.6347  -6.4304
    -6.3394  -5.8237  -5.5826  -5.1764  -4.6896  -4.0754  -3.6385  -1.7592
    -1.6032  -0.4242   3.2250   5.1544   5.7029   6.0684

          k = 0.4444-0.2020 0.0000 ( 21574 PWs)   bands (ev):

   -17.1304 -15.8162 -15.5710 -14.6452 -14.3899 -12.5870 -12.2668 -11.2431
   -11.1882 -10.6944  -9.5511  -9.1503  -8.0572  -7.5057  -7.2273  -6.4556
    -6.0454  -5.8708  -5.4834  -5.3209  -5.1506  -4.9574  -4.6289  -1.6812
    -1.6091   0.4374   1.8185   4.7884   5.5548   6.1839

     the Fermi energy is    -0.5490 ev

!    total energy              =    -223.02521779 Ry
     estimated scf accuracy    <          2.1E-09 Ry
     smearing contrib. (-TS)   =      -0.00010750 Ry
     internal energy E=F+TS    =    -223.02511029 Ry

     The total energy is F=E-TS. E is the sum of the following terms:
     one-electron contribution =   -2250.70697157 Ry
     hartree contribution      =    1139.06023865 Ry
     xc contribution           =     -56.60937223 Ry
     ewald contribution        =    1019.20829705 Ry
     one-center paw contrib.   =     -73.97730218 Ry

     convergence has been achieved in  13 iterations

     negative rho (up, down):  8.677E-05 0.000E+00

     Forces acting on atoms (cartesian axes, Ry/au):

     atom    1 type  1   force =     0.00000000    0.00055799   -0.00230533
     atom    2 type  1   force =     0.00000000   -0.00014131    0.00049785
     atom    3 type  1   force =     0.00000000   -0.00000000    0.00009398
     atom    4 type  1   force =     0.00000000   -0.00000000    0.00105269
     atom    5 type  1   force =     0.00000000   -0.03090005   -0.08826663
     atom    6 type  1   force =     0.00000000   -0.00698544    0.09045598
     atom    7 type  1   force =     0.00000000   -0.00055799   -0.00230533
     atom    8 type  1   force =     0.00000000    0.00014131    0.00049785
     atom    9 type  1   force =     0.00000000    0.00000000   -0.00037396
     atom   10 type  1   force =     0.00000000    0.00000000   -0.00100321
     atom   11 type  1   force =     0.00000000    0.03090005   -0.08826663
     atom   12 type  1   force =     0.00000000    0.00698544    0.09045598
     atom   13 type  2   force =     0.00000000    0.00019766   -0.00026662
     atom   14 type  2   force =     0.00000000   -0.00019766   -0.00026662

     Total force =     0.003778     Total SCF correction =     0.000074


     Computing stress (Cartesian axis) and pressure


     negative rho (up, down):  8.677E-05 0.000E+00
          total   stress  (Ry/bohr**3)                   (kbar)     P=      -45.09
  -0.00023961   0.00000000   0.00000000          -35.25        0.00        0.00
   0.00000000  -0.00048723   0.00000000            0.00      -71.67        0.00
   0.00000000   0.00000000  -0.00019265            0.00        0.00      -28.34


     Writing all to output data dir ./tmp/slab.save/ :
     XML data file, charge density, pseudopotentials, collected wavefunctions

     init_run     :      4.29s CPU      4.58s WALL (       1 calls)
     electrons    :     97.87s CPU    107.89s WALL (       1 calls)
     forces       :      1.13s CPU      1.32s WALL (       1 calls)
     stress       :      3.24s CPU      3.90s WALL (       1 calls)

     Called by init_run:
     wfcinit      :      3.56s CPU      3.80s WALL (       1 calls)
     potinit      :      0.37s CPU      0.39s WALL (       1 calls)
     hinit0       :      0.17s CPU      0.17s WALL (       1 calls)

     Called by electrons:
     c_bands      :     79.36s CPU     87.73s WALL (      13 calls)
     sum_band     :     12.57s CPU     13.38s WALL (      13 calls)
     v_of_rho     :      2.37s CPU      2.55s WALL (      14 calls)
     newd         :      1.32s CPU      1.68s WALL (      14 calls)
     PAW_pot      :      2.10s CPU      2.36s WALL (      14 calls)
     mix_rho      :      0.35s CPU      0.41s WALL (      13 calls)

     Called by c_bands:
     init_us_2    :      1.18s CPU      1.39s WALL (     435 calls)
     cegterg      :     77.07s CPU     85.30s WALL (     195 calls)

     Called by *egterg:
     cdiaghg      :      0.56s CPU      0.58s WALL (     981 calls)
     h_psi        :     59.39s CPU     63.04s WALL (     996 calls)
     s_psi        :      5.88s CPU      6.97s WALL (     996 calls)
     g_psi        :      0.25s CPU      0.25s WALL (     786 calls)

     Called by h_psi:
     h_psi:calbec :      5.21s CPU      6.54s WALL (     996 calls)
     vloc_psi     :     47.30s CPU     48.06s WALL (     996 calls)
                                        0.00s GPU  (     996 calls)
     add_vuspsi   :      6.67s CPU      8.06s WALL (     996 calls)

     General routines
     calbec       :      8.45s CPU     10.62s WALL (    1446 calls)
     fft          :      1.96s CPU      1.96s WALL (     205 calls)
     ffts         :      0.07s CPU      0.07s WALL (      27 calls)
     fftw         :     50.37s CPU     50.48s WALL (   38066 calls)
     interpolate  :      0.19s CPU      0.20s WALL (      14 calls)


     PWSCF        :   1m46.58s CPU   1m57.83s WALL


   This run was terminated on:  13:36:11  23Jun2026            

=------------------------------------------------------------------------------=
   JOB DONE.
=------------------------------------------------------------------------------=
Note: The following floating-point exceptions are signalling: IEEE_INVALID_FLAG IEEE_DIVIDE_BY_ZERO IEEE_OVERFLOW_FLAG IEEE_UNDERFLOW_FLAG
