
     Program PWSCF v.7.5 starts on  7Jul2026 at 13:33: 4 

     This program is part of the open-source Quantum ESPRESSO suite
     for quantum simulation of materials; please cite
         "P. Giannozzi et al., J. Phys.:Condens. Matter 21 395502 (2009);
         "P. Giannozzi et al., J. Phys.:Condens. Matter 29 465901 (2017);
         "P. Giannozzi et al., J. Chem. Phys. 152 154105 (2020);
          URL http://www.quantum-espresso.org", 
     in publications or presentations arising from this work. More details at
     http://www.quantum-espresso.org/quote

     Serial version
     0 MiB available memory on the printing compute node when the environment starts

     Waiting for input...
     Reading input from standard input

     Current dimensions of program PWSCF are:
     Max number of different atomic species (ntypx) = 10
     Max number of k-points (npk) =  40000
     Max angular momentum in pseudopotentials (lmaxx) =  4
     file C.pbe-n-kjpaw_psl.1.0.0.UPF: wavefunction(s)  2S 2P renormalized
     Message from routine volume:
     axis vectors are left-handed
     Message from routine setup:
     using ibrav=0 with symmetry is DISCOURAGED, use correct ibrav instead


     G-vector sticks info
     --------------------
     sticks:   dense  smooth     PW     G-vecs:    dense   smooth      PW
     Sum        1223     611    183               172671    61021    9891

     Using Slab Decomposition



     bravais-lattice index     =            0
     lattice parameter (alat)  =       4.7514  a.u.
     unit-cell volume          =     971.1882 (a.u.)^3
     number of atoms/cell      =           16
     number of atomic types    =            2
     number of electrons       =        52.00
     number of Kohn-Sham states=           31
     kinetic-energy cutoff     =      60.0000  Ry
     charge density cutoff     =     480.0000  Ry
     scf convergence threshold =      1.0E-08
     mixing beta               =       0.3000
     number of iterations used =            8  plain     mixing
     Exchange-correlation= PBE
                           (   1   4   3   4   0   0   0)

     celldm(1)=   4.751359  celldm(2)=   0.000000  celldm(3)=   0.000000
     celldm(4)=   0.000000  celldm(5)=   0.000000  celldm(6)=   0.000000

     crystal axes: (cart. coord. in units of alat)
               a(1) = (   1.000000   0.000000   0.000000 )  
               a(2) = (   0.000000  -1.414214   0.000000 )  
               a(3) = (   0.000000   0.000000   6.402281 )  

     reciprocal axes: (cart. coord. in units 2 pi/alat)
               b(1) = (  1.000000 -0.000000 -0.000000 )  
               b(2) = ( -0.000000 -0.707107 -0.000000 )  
               b(3) = ( -0.000000 -0.000000  0.156194 )  


     PseudoPot. # 1 for C  read from file:
     ./C.pbe-n-kjpaw_psl.1.0.0.UPF
     MD5 check sum: 5d2aebdfa2cae82b50a7e79e9516da0f
     Pseudo is Projector augmented-wave + core cor, Zval =  4.0
     Generated using "atomic" code by A. Dal Corso  v.5.1
     Shape of augmentation charge: PSQ
     Using radial grid of 1073 points,  4 beta functions with: 
                l(1) =   0
                l(2) =   0
                l(3) =   1
                l(4) =   1
     Q(r) pseudized with 0 coefficients 


     PseudoPot. # 2 for H  read from file:
     ./H_ONCV_PBE-1.0.oncvpsp.upf
     MD5 check sum: 1790becc920ee074925cf490c71280fe
     Pseudo is Norm-conserving, Zval =  1.0
     Generated using ONCVPSP code by D. R. Hamann
     Using radial grid of 1166 points,  2 beta functions with: 
                l(1) =   0
                l(2) =   0

     atomic species   valence    mass     pseudopotential
     C                 4.00    12.01100     C ( 1.00)
     H                 1.00     1.00800     H ( 1.00)

      8 Sym. Ops., with inversion, found ( 6 have fractional translation)



   Cartesian axes

     site n.     atom                  positions (alat units)
         1        C      tau(   1) = (   0.0000000  -0.3611404   4.4469959  )
         2        C      tau(   2) = (   0.5000000  -0.6995197   4.4469959  )
         3        C      tau(   3) = (   0.0000000   0.0011500   3.9558196  )
         4        C      tau(   4) = (   0.5000000  -1.0618102   3.9558196  )
         5        C      tau(   5) = (   0.0000000  -0.3533013   3.4522680  )
         6        C      tau(   6) = (   0.5000000  -0.7073588   3.4522680  )
         7        C      tau(   7) = (   0.0000000  -0.0002520   2.9500135  )
         8        C      tau(   8) = (   0.5000000  -1.0604081   2.9500135  )
         9        C      tau(   9) = (   0.0000000  -0.3547034   2.4464619  )
        10        C      tau(  10) = (   0.5000000  -0.7059567   2.4464619  )
        11        C      tau(  11) = (   0.0000000   0.0075871   1.9552855  )
        12        C      tau(  12) = (   0.5000000  -1.0682472   1.9552855  )
        13        H      tau(  13) = (   0.0000000  -0.1238861   4.8134296  )
        14        H      tau(  14) = (   0.5000000  -0.9367741   4.8134296  )
        15        H      tau(  15) = (   0.0000000  -0.2296673   1.5888519  )
        16        H      tau(  16) = (   0.5000000  -0.8309929   1.5888519  )

     number of k points=    20  Marzari-Vanderbilt smearing, width (Ry)=  0.0100
                       cart. coord. in units 2pi/alat
        k(    1) = (   0.0000000  -0.0000000   0.0000000), wk =   0.0317460
        k(    2) = (   0.0000000  -0.1010153   0.0000000), wk =   0.0634921
        k(    3) = (   0.0000000  -0.2020305   0.0000000), wk =   0.0634921
        k(    4) = (   0.0000000  -0.3030458   0.0000000), wk =   0.0634921
        k(    5) = (   0.1111111  -0.0000000   0.0000000), wk =   0.0634921
        k(    6) = (   0.1111111  -0.1010153   0.0000000), wk =   0.1269841
        k(    7) = (   0.1111111  -0.2020305   0.0000000), wk =   0.1269841
        k(    8) = (   0.1111111  -0.3030458   0.0000000), wk =   0.1269841
        k(    9) = (   0.2222222  -0.0000000   0.0000000), wk =   0.0634921
        k(   10) = (   0.2222222  -0.1010153   0.0000000), wk =   0.1269841
        k(   11) = (   0.2222222  -0.2020305   0.0000000), wk =   0.1269841
        k(   12) = (   0.2222222  -0.3030458   0.0000000), wk =   0.1269841
        k(   13) = (   0.3333333  -0.0000000   0.0000000), wk =   0.0634921
        k(   14) = (   0.3333333  -0.1010153   0.0000000), wk =   0.1269841
        k(   15) = (   0.3333333  -0.2020305   0.0000000), wk =   0.1269841
        k(   16) = (   0.3333333  -0.3030458   0.0000000), wk =   0.1269841
        k(   17) = (   0.4444444  -0.0000000   0.0000000), wk =   0.0634921
        k(   18) = (   0.4444444  -0.1010153   0.0000000), wk =   0.1269841
        k(   19) = (   0.4444444  -0.2020305   0.0000000), wk =   0.1269841
        k(   20) = (   0.4444444  -0.3030458   0.0000000), wk =   0.1269841

     Dense  grid:   172671 G-vectors     FFT dimensions: (  36,  48, 216)

     Smooth grid:    61021 G-vectors     FFT dimensions: (  24,  36, 160)

     Estimated max dynamical RAM per process >     394.86 MB

     Check: negative core charge=   -0.000002

     Initial potential from superposition of free atoms

     starting charge      51.9995, renormalised to      52.0000

     negative rho (up, down):  1.133E-07 0.000E+00
     Starting wfcs are   52 randomized atomic wfcs

     total cpu time spent up to now is        2.0 secs

     Self-consistent Calculation

     iteration #  1     ecut=    60.00 Ry     beta= 0.30
     Davidson diagonalization with overlap
     ethr =  1.00E-02,  avg # of iterations =  2.7

     negative rho (up, down):  8.324E-07 0.000E+00

     total cpu time spent up to now is        5.5 secs

     total energy              =    -226.00595908 Ry
     estimated scf accuracy    <       1.22820222 Ry

     iteration #  2     ecut=    60.00 Ry     beta= 0.30
     Davidson diagonalization with overlap
     ethr =  2.36E-03,  avg # of iterations =  3.6

     negative rho (up, down):  7.938E-06 0.000E+00

     total cpu time spent up to now is        9.3 secs

     total energy              =    -225.91898795 Ry
     estimated scf accuracy    <       0.38004483 Ry

     iteration #  3     ecut=    60.00 Ry     beta= 0.30
     Davidson diagonalization with overlap
     ethr =  7.31E-04,  avg # of iterations =  5.5

     negative rho (up, down):  1.699E-05 0.000E+00

     total cpu time spent up to now is       12.9 secs

     total energy              =    -225.93134323 Ry
     estimated scf accuracy    <       0.05325763 Ry

     iteration #  4     ecut=    60.00 Ry     beta= 0.30
     Davidson diagonalization with overlap
     ethr =  1.02E-04,  avg # of iterations =  4.5

     negative rho (up, down):  2.161E-05 0.000E+00

     total cpu time spent up to now is       16.1 secs

     total energy              =    -225.93407965 Ry
     estimated scf accuracy    <       0.00533325 Ry

     iteration #  5     ecut=    60.00 Ry     beta= 0.30
     Davidson diagonalization with overlap
     c_bands:  1 eigenvalues not converged
     ethr =  1.03E-05,  avg # of iterations =  7.3

     negative rho (up, down):  2.044E-05 0.000E+00

     total cpu time spent up to now is       20.3 secs

     total energy              =    -225.93463830 Ry
     estimated scf accuracy    <       0.00054835 Ry

     iteration #  6     ecut=    60.00 Ry     beta= 0.30
     Davidson diagonalization with overlap
     ethr =  1.05E-06,  avg # of iterations =  4.0

     negative rho (up, down):  2.039E-05 0.000E+00

     total cpu time spent up to now is       23.8 secs

     total energy              =    -225.93474680 Ry
     estimated scf accuracy    <       0.00006920 Ry

     iteration #  7     ecut=    60.00 Ry     beta= 0.30
     Davidson diagonalization with overlap
     ethr =  1.33E-07,  avg # of iterations =  2.5

     negative rho (up, down):  1.994E-05 0.000E+00

     total cpu time spent up to now is       26.8 secs

     total energy              =    -225.93475243 Ry
     estimated scf accuracy    <       0.00001823 Ry

     iteration #  8     ecut=    60.00 Ry     beta= 0.30
     Davidson diagonalization with overlap
     ethr =  3.51E-08,  avg # of iterations =  2.0

     negative rho (up, down):  1.980E-05 0.000E+00

     total cpu time spent up to now is       29.8 secs

     total energy              =    -225.93475482 Ry
     estimated scf accuracy    <       0.00000270 Ry

     iteration #  9     ecut=    60.00 Ry     beta= 0.30
     Davidson diagonalization with overlap
     ethr =  5.19E-09,  avg # of iterations =  3.0

     negative rho (up, down):  1.971E-05 0.000E+00

     total cpu time spent up to now is       33.2 secs

     total energy              =    -225.93475547 Ry
     estimated scf accuracy    <       0.00000285 Ry

     iteration # 10     ecut=    60.00 Ry     beta= 0.30
     Davidson diagonalization with overlap
     ethr =  5.19E-09,  avg # of iterations =  2.0

     negative rho (up, down):  1.972E-05 0.000E+00

     total cpu time spent up to now is       36.0 secs

     total energy              =    -225.93475568 Ry
     estimated scf accuracy    <       0.00000025 Ry

     iteration # 11     ecut=    60.00 Ry     beta= 0.30
     Davidson diagonalization with overlap
     ethr =  4.85E-10,  avg # of iterations =  3.3

     negative rho (up, down):  1.974E-05 0.000E+00

     total cpu time spent up to now is       39.6 secs

     total energy              =    -225.93475581 Ry
     estimated scf accuracy    <       0.00000015 Ry

     iteration # 12     ecut=    60.00 Ry     beta= 0.30
     Davidson diagonalization with overlap
     ethr =  2.93E-10,  avg # of iterations =  2.0

     negative rho (up, down):  1.977E-05 0.000E+00

     total cpu time spent up to now is       42.5 secs

     total energy              =    -225.93475581 Ry
     estimated scf accuracy    <       0.00000002 Ry

     iteration # 13     ecut=    60.00 Ry     beta= 0.30
     Davidson diagonalization with overlap
     ethr =  4.41E-11,  avg # of iterations =  3.2

     negative rho (up, down):  1.988E-05 0.000E+00

     total cpu time spent up to now is       45.9 secs

     End of self-consistent calculation

          k = 0.0000-0.0000 0.0000 (  7641 PWs)   bands (ev):

   -15.9639 -14.8913 -13.1366 -10.9359  -8.7408  -7.6052  -7.2203  -6.2869
    -4.7023  -4.4249  -4.0225  -2.9071  -2.6241  -2.1293  -0.8146  -0.6515
    -0.2993  -0.0112   1.2797   1.8258   2.2446   2.7810   4.0686   4.0727
     4.4086   4.9193   7.0192   7.2811   9.7896  10.3435  10.9581

          k = 0.0000-0.1010 0.0000 (  7597 PWs)   bands (ev):

   -15.7758 -14.7090 -12.9715 -10.8475  -9.4749  -9.2366  -6.7935  -5.9382
    -5.4964  -3.9872  -3.5427  -2.9326  -1.8803  -1.7757  -0.9449  -0.6375
     0.1398   0.3094   1.3687   1.6080   2.4495   2.7343   3.7862   3.8361
     4.2401   4.3605   7.2251   7.5239   9.9830  10.2864  11.2000

          k = 0.0000-0.2020 0.0000 (  7608 PWs)   bands (ev):

   -15.2143 -14.1678 -12.4996 -11.4069 -10.6414 -10.5559  -7.3100  -6.7349
    -5.3967  -4.3880  -2.9805  -1.7078  -1.6439  -0.6836  -0.1138  -0.0972
     0.5508   0.5796   1.6120   2.1158   2.1638   2.5766   3.0712   3.1653
     3.4394   3.7450   7.8792   8.1200  10.4111  10.4656  10.9952

          k = 0.0000-0.3030 0.0000 (  7616 PWs)   bands (ev):

   -14.2888 -13.3254 -12.9533 -12.1794 -11.5655 -10.9189  -7.7130  -7.0619
    -5.6486  -4.6896  -2.9355  -1.9061  -0.3667   0.2787   0.7304   0.8298
     1.2572   1.3296   1.8560   1.8957   2.1527   2.2338   2.3299   2.3484
     2.7828   2.8747   8.9372   8.9817  10.0212  10.4271  10.8673

          k = 0.1111-0.0000 0.0000 (  7601 PWs)   bands (ev):

   -15.7354 -14.6655 -12.9148 -10.7196  -8.5329  -7.4032  -7.1483  -6.2231
    -4.6540  -4.2299  -3.8114  -2.7520  -2.6006  -1.9274  -1.8521  -1.0112
    -0.5773  -0.3133   0.3252   1.7235   1.8320   2.1918   3.0826   3.6003
     3.8349   4.3010   7.2355   7.5176   9.8559  11.1064  11.1499

          k = 0.1111-0.1010 0.0000 (  7597 PWs)   bands (ev):

   -15.5479 -14.4838 -12.7506 -10.6333  -9.2888  -9.0397  -6.6354  -5.7994
    -5.4101  -3.8815  -3.4311  -2.9103  -1.7609  -1.7123  -1.5745  -0.9336
    -0.7490   0.2650   0.4854   1.5700   1.8122   2.1770   2.8460   2.8556
     3.7943   4.2423   7.4689   7.7594  10.1652  11.2958  11.6402

          k = 0.1111-0.2020 0.0000 (  7599 PWs)   bands (ev):

   -14.9880 -13.9447 -12.2818 -11.2002 -10.4338 -10.3547  -7.1226  -6.5388
    -5.2386  -4.2422  -2.9516  -2.0206  -1.6901  -1.0871  -0.5680  -0.1100
     0.0325   0.2405   1.0987   1.5588   1.6652   1.7489   1.9297   2.1965
     3.4071   4.0327   8.1390   8.3905  10.7928  11.3497  11.6150

          k = 0.1111-0.3030 0.0000 (  7599 PWs)   bands (ev):

   -14.0657 -13.1061 -12.7365 -11.9661 -11.3551 -10.7135  -7.5088  -6.8634
    -5.4663  -4.5139  -2.8214  -1.7949  -1.0003  -0.3023  -0.1979   0.2865
     0.6292   0.6919   1.0264   1.2549   1.3090   1.7734   2.0804   2.4512
     2.9055   3.0264   9.2021   9.3170  10.5137  10.7070  11.6885

          k = 0.2222-0.0000 0.0000 (  7618 PWs)   bands (ev):

   -15.0533 -13.9913 -12.2531 -10.0746  -7.9124  -7.2487  -6.7988  -6.3328
    -4.7846  -3.6650  -3.5749  -3.1949  -2.7671  -2.7010  -2.3205  -1.3448
    -1.3373  -0.5274  -0.4279   0.1200   1.1752   1.2839   1.6705   1.9026
     2.2586   3.8855   7.9580   8.1893  10.2603  10.3105  10.9124

          k = 0.2222-0.1010 0.0000 (  7609 PWs)   bands (ev):

   -14.8675 -13.8117 -12.0921  -9.9949  -8.7953  -8.4732  -6.3333  -5.6631
    -5.5085  -3.8731  -3.5368  -3.3469  -2.3673  -2.2904  -1.7615  -1.1404
    -1.0654  -0.4925  -0.3586   0.3824   0.5593   0.6894   1.4969   1.7029
     3.0754   3.5052   8.2076   8.4405  10.7115  10.9185  11.1172

          k = 0.2222-0.2020 0.0000 (  7610 PWs)   bands (ev):

   -14.3132 -13.2795 -11.6331 -10.6009  -9.8168  -9.7689  -6.6195  -6.0195
    -4.8628  -4.6882  -3.3225  -3.2417  -2.4210  -1.7685  -1.0856  -0.9029
    -0.5212  -0.3942  -0.2663   0.2318   0.3420   0.6847   1.1919   1.9313
     2.7956   3.4398   8.8887   9.0974  11.4341  12.0532  12.1441

          k = 0.2222-0.3030 0.0000 (  7620 PWs)   bands (ev):

   -13.4022 -12.4542 -12.0953 -11.3343 -10.7311 -10.1037  -6.9313  -6.3012
    -4.9963  -4.0586  -3.6693  -2.6389  -2.3527  -2.1343  -1.4436  -1.2566
    -1.0960  -0.7790   0.2569   1.1071   1.2779   1.2910   1.4908   1.7848
     2.5018   2.8745   9.8995  10.0139  11.3011  11.3973  12.6683

          k = 0.3333-0.0000 0.0000 (  7628 PWs)   bands (ev):

   -13.9291 -12.8810 -11.1643  -9.0137  -8.5144  -7.5599  -6.8891  -5.9710
    -5.7977  -3.9375  -3.9006  -3.0944  -2.7987  -2.2308  -1.8917  -1.8078
    -1.7265  -0.7376  -0.5962  -0.4375  -0.3921  -0.0352   0.3357   0.4671
     1.2644   3.1019   9.1490   9.1809  10.0813  10.3917  11.4599

          k = 0.3333-0.1010 0.0000 (  7656 PWs)   bands (ev):

   -13.7470 -12.7059 -11.0094  -8.9618  -8.7054  -7.9353  -6.7010  -6.5632
    -6.0240  -4.2132  -3.9431  -3.0915  -3.0387  -2.2241  -1.8302  -1.6369
    -1.5925  -1.1118  -0.5936  -0.5310  -0.2824  -0.1560   0.6102   1.0525
     1.4588   2.9107   9.3920   9.5002  10.5581  10.7887  11.4353

          k = 0.3333-0.2020 0.0000 (  7637 PWs)   bands (ev):

   -13.2054 -12.1888 -10.5704  -9.7726  -8.9342  -8.8195  -6.7191  -6.2391
    -6.1961  -4.8223  -4.0989  -3.6806  -3.4247  -3.1389  -2.4222  -2.0759
    -1.4189  -0.3689  -0.2047  -0.0757   0.1430   0.4978   0.6070   0.9405
     2.3155   2.4094  10.0271  10.1237  11.5461  11.7571  12.1965

          k = 0.3333-0.3030 0.0000 (  7627 PWs)   bands (ev):

   -12.3226 -11.3971 -11.0806 -10.3253  -9.7274  -9.1183  -6.2524  -5.9754
    -5.6111  -5.4220  -4.8404  -4.4142  -3.6657  -3.3121  -2.7765  -2.6748
    -1.3440  -0.6668  -0.1257   0.0354   0.6665   1.0366   1.3441   1.5797
     1.8405   2.4205  10.7770  10.8501  12.1756  12.2731  12.6083

          k = 0.4444-0.0000 0.0000 (  7666 PWs)   bands (ev):

   -12.3903 -11.3631 -10.5073  -9.6780  -9.5102  -7.8677  -7.5655  -5.7989
    -5.4832  -4.4115  -3.7396  -2.9082  -2.6633  -2.2583  -1.7815  -1.4152
    -1.3549  -1.2585  -1.0207  -0.8883  -0.8809  -0.7778  -0.7479   0.2346
     0.7577   1.9980   9.8628  10.4711  10.6257  10.9015  11.0552

          k = 0.4444-0.1010 0.0000 (  7655 PWs)   bands (ev):

   -12.2175 -11.1987 -10.3729  -9.5381  -9.3853  -7.8037  -7.4549  -5.7917
    -5.7748  -5.6633  -4.1063  -3.9372  -3.0460  -2.3668  -1.8982  -1.6486
    -1.3402  -1.0798  -0.7558  -0.6526  -0.5679  -0.3048  -0.1019   0.3848
     0.8803   1.9818  10.4795  10.4822  10.5998  11.1119  11.4772

          k = 0.4444-0.2020 0.0000 (  7638 PWs)   bands (ev):

   -11.7116 -10.7214 -10.0651  -9.1942  -9.0605  -7.7466  -7.2712  -6.9933
    -6.5914  -5.8489  -5.5153  -5.0916  -3.3308  -3.2595  -2.2215  -2.0217
    -1.5191  -1.2733  -0.7215  -0.1016   0.1239   0.2164   0.6758   1.0929
     1.3455   1.9094  11.0010  11.1401  11.4709  11.5981  12.1618

          k = 0.4444-0.3030 0.0000 (  7624 PWs)   bands (ev):

   -10.9329 -10.1709  -9.9647  -9.2697  -8.5084  -7.9658  -7.7588  -7.0454
    -6.8756  -6.5983  -6.1457  -5.9956  -3.6733  -3.3322  -2.6916  -2.3357
    -1.7005  -1.4134  -0.5982  -0.2517   0.2797   0.3938   1.4360   1.5781
     1.7939   1.8723  11.5376  11.5377  12.1629  12.2724  13.3416

     the Fermi energy is     5.6947 ev

!    total energy              =    -225.93475582 Ry
     estimated scf accuracy    <          3.3E-09 Ry
     smearing contrib. (-TS)   =       0.00000000 Ry
     internal energy E=F+TS    =    -225.93475582 Ry

     The total energy is F=E-TS. E is the sum of the following terms:
     one-electron contribution =   -1244.13351385 Ry
     hartree contribution      =     646.31952249 Ry
     xc contribution           =     -59.24373136 Ry
     ewald contribution        =     505.08182123 Ry
     one-center paw contrib.   =     -73.95885434 Ry

     convergence has been achieved in  13 iterations

     negative rho (up, down):  1.988E-05 0.000E+00

     Forces acting on atoms (cartesian axes, Ry/au):

     atom    1 type  1   force =    -0.00000000    0.00254935    0.00013908
     atom    2 type  1   force =    -0.00000000   -0.00254935    0.00013908
     atom    3 type  1   force =     0.00000000   -0.00080627   -0.00026014
     atom    4 type  1   force =     0.00000000    0.00080627   -0.00026014
     atom    5 type  1   force =    -0.00000000    0.00057527   -0.00000163
     atom    6 type  1   force =     0.00000000   -0.00057527   -0.00000163
     atom    7 type  1   force =     0.00000000   -0.00057527    0.00000163
     atom    8 type  1   force =    -0.00000000    0.00057527    0.00000163
     atom    9 type  1   force =     0.00000000    0.00080627    0.00026014
     atom   10 type  1   force =     0.00000000   -0.00080627    0.00026014
     atom   11 type  1   force =    -0.00000000   -0.00254935   -0.00013908
     atom   12 type  1   force =    -0.00000000    0.00254935   -0.00013908
     atom   13 type  2   force =     0.00000000    0.00195520    0.00097891
     atom   14 type  2   force =    -0.00000000   -0.00195520    0.00097891
     atom   15 type  2   force =     0.00000000   -0.00195520   -0.00097891
     atom   16 type  2   force =    -0.00000000    0.00195520   -0.00097891

     Total force =     0.007028     Total SCF correction =     0.000127


     Computing stress (Cartesian axis) and pressure


     negative rho (up, down):  1.988E-05 0.000E+00
          total   stress  (Ry/bohr**3)                   (kbar)     P=       45.62
   0.00037561   0.00000000   0.00000000           55.25        0.00        0.00
   0.00000000   0.00054308   0.00000000            0.00       79.89        0.00
   0.00000000   0.00000000   0.00001162            0.00        0.00        1.71


     Writing all to output data dir ./tmp/slab.save/ :
     XML data file, charge density, pseudopotentials, collected wavefunctions

     init_run     :      1.78s CPU      1.93s WALL (       1 calls)
     electrons    :     39.33s CPU     43.92s WALL (       1 calls)
     forces       :      0.43s CPU      0.49s WALL (       1 calls)
     stress       :      1.27s CPU      1.48s WALL (       1 calls)

     Called by init_run:
     wfcinit      :      1.39s CPU      1.50s WALL (       1 calls)
     potinit      :      0.21s CPU      0.23s WALL (       1 calls)
     hinit0       :      0.11s CPU      0.12s WALL (       1 calls)

     Called by electrons:
     c_bands      :     31.20s CPU     35.17s WALL (      13 calls)
     sum_band     :      5.08s CPU      5.44s WALL (      13 calls)
     v_of_rho     :      0.74s CPU      0.79s WALL (      14 calls)
     newd         :      0.43s CPU      0.52s WALL (      14 calls)
     PAW_pot      :      1.95s CPU      2.07s WALL (      14 calls)
     mix_rho      :      0.09s CPU      0.11s WALL (      13 calls)

     Called by c_bands:
     init_us_2    :      0.54s CPU      0.59s WALL (     580 calls)
     cegterg      :     30.17s CPU     34.10s WALL (     260 calls)

     Called by *egterg:
     cdiaghg      :      0.70s CPU      0.76s WALL (    1173 calls)
     h_psi        :     23.39s CPU     25.32s WALL (    1193 calls)
     s_psi        :      1.89s CPU      2.35s WALL (    1193 calls)
     g_psi        :      0.12s CPU      0.12s WALL (     913 calls)

     Called by h_psi:
     h_psi:calbec :      2.34s CPU      3.01s WALL (    1193 calls)
     vloc_psi     :     18.85s CPU     19.48s WALL (    1193 calls)
                                        0.00s GPU  (    1193 calls)
     add_vuspsi   :      2.09s CPU      2.66s WALL (    1193 calls)

     General routines
     calbec       :      3.73s CPU      4.71s WALL (    1793 calls)
     fft          :      0.45s CPU      0.46s WALL (     205 calls)
     ffts         :      0.02s CPU      0.02s WALL (      27 calls)
     fftw         :     19.84s CPU     20.34s WALL (   52658 calls)
     interpolate  :      0.05s CPU      0.05s WALL (      14 calls)


     PWSCF        :     42.86s CPU     47.88s WALL


   This run was terminated on:  13:33:52   7Jul2026            

=------------------------------------------------------------------------------=
   JOB DONE.
=------------------------------------------------------------------------------=
Note: The following floating-point exceptions are signalling: IEEE_INVALID_FLAG IEEE_DIVIDE_BY_ZERO IEEE_OVERFLOW_FLAG IEEE_UNDERFLOW_FLAG
