
     Program PWSCF v.7.5 starts on  7Jul2026 at 13:22:49 

     This program is part of the open-source Quantum ESPRESSO suite
     for quantum simulation of materials; please cite
         "P. Giannozzi et al., J. Phys.:Condens. Matter 21 395502 (2009);
         "P. Giannozzi et al., J. Phys.:Condens. Matter 29 465901 (2017);
         "P. Giannozzi et al., J. Chem. Phys. 152 154105 (2020);
          URL http://www.quantum-espresso.org", 
     in publications or presentations arising from this work. More details at
     http://www.quantum-espresso.org/quote

     Serial version
     0 MiB available memory on the printing compute node when the environment starts

     Waiting for input...
     Reading input from standard input

     Current dimensions of program PWSCF are:
     Max number of different atomic species (ntypx) = 10
     Max number of k-points (npk) =  40000
     Max angular momentum in pseudopotentials (lmaxx) =  4
     file C.pbe-n-kjpaw_psl.1.0.0.UPF: wavefunction(s)  2S 2P renormalized
     Message from routine volume:
     axis vectors are left-handed
     Found identity + (  0.5000  0.0000  0.0000) symmetry
     This is a supercell, fractional translations are disabled
     Message from routine setup:
     using ibrav=0 with symmetry is DISCOURAGED, use correct ibrav instead


     G-vector sticks info
     --------------------
     sticks:   dense  smooth     PW     G-vecs:    dense   smooth      PW
     Sum        3397    1701    481               435091   153787   22231

     Using Slab Decomposition



     bravais-lattice index     =            0
     lattice parameter (alat)  =       9.4550  a.u.
     unit-cell volume          =    2449.7726 (a.u.)^3
     number of atoms/cell      =           32
     number of atomic types    =            2
     number of electrons       =       104.00
     number of Kohn-Sham states=           62
     kinetic-energy cutoff     =      60.0000  Ry
     charge density cutoff     =     480.0000  Ry
     scf convergence threshold =      1.0E-08
     mixing beta               =       0.3000
     number of iterations used =            8  plain     mixing
     Exchange-correlation= PBE
                           (   1   4   3   4   0   0   0)

     celldm(1)=   9.454966  celldm(2)=   0.000000  celldm(3)=   0.000000
     celldm(4)=   0.000000  celldm(5)=   0.000000  celldm(6)=   0.000000

     crystal axes: (cart. coord. in units of alat)
               a(1) = (   1.000000   0.000000   0.000000 )  
               a(2) = (   0.000000  -1.000000   0.000000 )  
               a(3) = (   0.000000   0.000000   2.898317 )  

     reciprocal axes: (cart. coord. in units 2 pi/alat)
               b(1) = (  1.000000 -0.000000 -0.000000 )  
               b(2) = ( -0.000000 -1.000000 -0.000000 )  
               b(3) = ( -0.000000 -0.000000  0.345028 )  


     PseudoPot. # 1 for C  read from file:
     ./C.pbe-n-kjpaw_psl.1.0.0.UPF
     MD5 check sum: 5d2aebdfa2cae82b50a7e79e9516da0f
     Pseudo is Projector augmented-wave + core cor, Zval =  4.0
     Generated using "atomic" code by A. Dal Corso  v.5.1
     Shape of augmentation charge: PSQ
     Using radial grid of 1073 points,  4 beta functions with: 
                l(1) =   0
                l(2) =   0
                l(3) =   1
                l(4) =   1
     Q(r) pseudized with 0 coefficients 


     PseudoPot. # 2 for H  read from file:
     ./H_ONCV_PBE-1.0.oncvpsp.upf
     MD5 check sum: 1790becc920ee074925cf490c71280fe
     Pseudo is Norm-conserving, Zval =  1.0
     Generated using ONCVPSP code by D. R. Hamann
     Using radial grid of 1166 points,  2 beta functions with: 
                l(1) =   0
                l(2) =   0

     atomic species   valence    mass     pseudopotential
     C                 4.00    12.01100     C ( 1.00)
     H                 1.00     1.00800     H ( 1.00)

      4 Sym. Ops. (no inversion) found



   Cartesian axes

     site n.     atom                  positions (alat units)
         1        C      tau(   1) = (   0.0000000  -0.1582087   1.8780618  )
         2        C      tau(   2) = (   0.2500000  -0.2299149   1.7170637  )
         3        C      tau(   3) = (   0.2500000   0.0000000   1.5087501  )
         4        C      tau(   4) = (   0.0000000   0.0000000   1.3311414  )
         5        C      tau(   5) = (   0.0000000  -0.2700851   1.1812529  )
         6        C      tau(   6) = (   0.2500000  -0.3417913   1.0202548  )
         7        C      tau(   7) = (   0.0000000  -0.8417913   1.8780618  )
         8        C      tau(   8) = (   0.2500000  -0.7700851   1.7170637  )
         9        C      tau(   9) = (   0.2500000  -0.5000000   1.5671752  )
        10        C      tau(  10) = (   0.0000000  -0.5000000   1.3895665  )
        11        C      tau(  11) = (   0.0000000  -0.7299149   1.1812529  )
        12        C      tau(  12) = (   0.2500000  -0.6582087   1.0202548  )
        13        H      tau(  13) = (   0.0000000  -0.2449080   2.0798024  )
        14        H      tau(  14) = (   0.0000000  -0.7550920   2.0798024  )
        15        H      tau(  15) = (   0.2500000  -0.2550919   0.8185142  )
        16        H      tau(  16) = (   0.2500000  -0.7449081   0.8185142  )
        17        C      tau(  17) = (   0.5000000  -0.1582087   1.8780618  )
        18        C      tau(  18) = (   0.7500000  -0.2299149   1.7170637  )
        19        C      tau(  19) = (   0.7500000   0.0000000   1.5087501  )
        20        C      tau(  20) = (   0.5000000   0.0000000   1.3311414  )
        21        C      tau(  21) = (   0.5000000  -0.2700851   1.1812529  )
        22        C      tau(  22) = (   0.7500000  -0.3417913   1.0202548  )
        23        C      tau(  23) = (   0.5000000  -0.8417913   1.8780618  )
        24        C      tau(  24) = (   0.7500000  -0.7700851   1.7170637  )
        25        C      tau(  25) = (   0.7500000  -0.5000000   1.5671752  )
        26        C      tau(  26) = (   0.5000000  -0.5000000   1.3895665  )
        27        C      tau(  27) = (   0.5000000  -0.7299149   1.1812529  )
        28        C      tau(  28) = (   0.7500000  -0.6582087   1.0202548  )
        29        H      tau(  29) = (   0.5000000  -0.2449080   2.0798024  )
        30        H      tau(  30) = (   0.5000000  -0.7550920   2.0798024  )
        31        H      tau(  31) = (   0.7500000  -0.2550919   0.8185142  )
        32        H      tau(  32) = (   0.7500000  -0.7449081   0.8185142  )

     number of k points=     9  Marzari-Vanderbilt smearing, width (Ry)=  0.0100
                       cart. coord. in units 2pi/alat
        k(    1) = (   0.0000000  -0.0000000   0.0000000), wk =   0.0800000
        k(    2) = (   0.0000000  -0.2000000   0.0000000), wk =   0.1600000
        k(    3) = (   0.0000000  -0.4000000   0.0000000), wk =   0.1600000
        k(    4) = (   0.2000000  -0.2000000   0.0000000), wk =   0.3200000
        k(    5) = (   0.2000000  -0.4000000   0.0000000), wk =   0.3200000
        k(    6) = (   0.4000000  -0.4000000   0.0000000), wk =   0.3200000
        k(    7) = (  -0.2000000   0.0000000   0.0000000), wk =   0.1600000
        k(    8) = (  -0.4000000   0.0000000   0.0000000), wk =   0.1600000
        k(    9) = (  -0.4000000   0.2000000   0.0000000), wk =   0.3200000

     Dense  grid:   435091 G-vectors     FFT dimensions: (  72,  72, 192)

     Smooth grid:   153787 G-vectors     FFT dimensions: (  48,  48, 135)

     Estimated max dynamical RAM per process >       1.23 GB

     Check: negative core charge=   -0.000002

     Initial potential from superposition of free atoms

     starting charge     103.9989, renormalised to     104.0000

     negative rho (up, down):  4.019E-06 0.000E+00
     Starting wfcs are  104 randomized atomic wfcs

     total cpu time spent up to now is        4.8 secs

     Self-consistent Calculation

     iteration #  1     ecut=    60.00 Ry     beta= 0.30
     Davidson diagonalization with overlap
     ethr =  1.00E-02,  avg # of iterations =  3.0

     negative rho (up, down):  1.366E-05 0.000E+00

     total cpu time spent up to now is       14.8 secs

     total energy              =    -451.90455778 Ry
     estimated scf accuracy    <       2.56830216 Ry

     iteration #  2     ecut=    60.00 Ry     beta= 0.30
     Davidson diagonalization with overlap
     ethr =  2.47E-03,  avg # of iterations =  3.8

     negative rho (up, down):  4.547E-05 0.000E+00

     total cpu time spent up to now is       23.1 secs

     total energy              =    -451.75050651 Ry
     estimated scf accuracy    <       0.74283566 Ry

     iteration #  3     ecut=    60.00 Ry     beta= 0.30
     Davidson diagonalization with overlap
     ethr =  7.14E-04,  avg # of iterations =  7.1

     negative rho (up, down):  6.538E-05 0.000E+00

     total cpu time spent up to now is       34.2 secs

     total energy              =    -451.77451616 Ry
     estimated scf accuracy    <       0.11269378 Ry

     iteration #  4     ecut=    60.00 Ry     beta= 0.30
     Davidson diagonalization with overlap
     ethr =  1.08E-04,  avg # of iterations =  5.0

     negative rho (up, down):  8.340E-05 0.000E+00

     total cpu time spent up to now is       43.7 secs

     total energy              =    -451.78330550 Ry
     estimated scf accuracy    <       0.01067985 Ry

     iteration #  5     ecut=    60.00 Ry     beta= 0.30
     Davidson diagonalization with overlap
     ethr =  1.03E-05,  avg # of iterations =  7.3

     negative rho (up, down):  7.035E-05 0.000E+00

     total cpu time spent up to now is       55.9 secs

     total energy              =    -451.78496155 Ry
     estimated scf accuracy    <       0.00242955 Ry

     iteration #  6     ecut=    60.00 Ry     beta= 0.30
     Davidson diagonalization with overlap
     ethr =  2.34E-06,  avg # of iterations =  7.9

     negative rho (up, down):  7.174E-05 0.000E+00

     total cpu time spent up to now is       67.4 secs

     total energy              =    -451.78537859 Ry
     estimated scf accuracy    <       0.00031283 Ry

     iteration #  7     ecut=    60.00 Ry     beta= 0.30
     Davidson diagonalization with overlap
     ethr =  3.01E-07,  avg # of iterations =  2.2

     negative rho (up, down):  7.096E-05 0.000E+00

     total cpu time spent up to now is       75.7 secs

     total energy              =    -451.78542171 Ry
     estimated scf accuracy    <       0.00002998 Ry

     iteration #  8     ecut=    60.00 Ry     beta= 0.30
     Davidson diagonalization with overlap
     ethr =  2.88E-08,  avg # of iterations =  3.1

     negative rho (up, down):  7.061E-05 0.000E+00

     total cpu time spent up to now is       84.4 secs

     total energy              =    -451.78542399 Ry
     estimated scf accuracy    <       0.00001690 Ry

     iteration #  9     ecut=    60.00 Ry     beta= 0.30
     Davidson diagonalization with overlap
     ethr =  1.63E-08,  avg # of iterations =  2.2

     negative rho (up, down):  7.072E-05 0.000E+00

     total cpu time spent up to now is       92.9 secs

     total energy              =    -451.78542796 Ry
     estimated scf accuracy    <       0.00000162 Ry

     iteration # 10     ecut=    60.00 Ry     beta= 0.30
     Davidson diagonalization with overlap
     ethr =  1.56E-09,  avg # of iterations =  3.4

     negative rho (up, down):  7.077E-05 0.000E+00

     total cpu time spent up to now is      102.4 secs

     total energy              =    -451.78542797 Ry
     estimated scf accuracy    <       0.00000094 Ry

     iteration # 11     ecut=    60.00 Ry     beta= 0.30
     Davidson diagonalization with overlap
     ethr =  9.01E-10,  avg # of iterations =  2.9

     negative rho (up, down):  7.096E-05 0.000E+00

     total cpu time spent up to now is      111.4 secs

     total energy              =    -451.78542823 Ry
     estimated scf accuracy    <       0.00000004 Ry

     iteration # 12     ecut=    60.00 Ry     beta= 0.30
     Davidson diagonalization with overlap
     ethr =  4.28E-11,  avg # of iterations =  2.2

     negative rho (up, down):  7.112E-05 0.000E+00

     total cpu time spent up to now is      119.5 secs

     total energy              =    -451.78542823 Ry
     estimated scf accuracy    <       0.00000002 Ry

     iteration # 13     ecut=    60.00 Ry     beta= 0.30
     Davidson diagonalization with overlap
     ethr =  1.56E-11,  avg # of iterations =  4.7

     negative rho (up, down):  7.125E-05 0.000E+00

     total cpu time spent up to now is      130.8 secs

     total energy              =    -451.78542823 Ry
     estimated scf accuracy    <       0.00000004 Ry

     iteration # 14     ecut=    60.00 Ry     beta= 0.30
     Davidson diagonalization with overlap
     ethr =  1.56E-11,  avg # of iterations =  3.3

     negative rho (up, down):  7.162E-05 0.000E+00

     total cpu time spent up to now is      140.1 secs

     End of self-consistent calculation

          k = 0.0000-0.0000 0.0000 ( 19223 PWs)   bands (ev):

   -17.8163 -16.1207 -13.3652 -13.3652 -13.1429 -13.0177 -12.8354 -11.7876
   -11.5460 -11.5460  -9.2010  -9.2010  -9.0535  -8.7222  -8.7222  -8.7097
    -8.1298  -8.1298  -7.8161  -7.6454  -7.6454  -5.4166  -5.2901  -5.1860
    -4.7702  -4.7702  -3.8947  -3.8947  -3.4185  -3.4185  -2.5177  -2.1544
    -2.1544  -2.0439  -2.0025  -2.0025  -1.8356  -1.6794  -1.6318  -1.1197
    -1.1197  -1.0325   0.4583   0.5196   0.6404   0.6404   0.6435   1.0120
     1.1012   1.2291   1.5472   1.7575   5.5382   6.0087   7.8462   7.9175
     8.0790   8.7285   8.8737   9.1714   9.1714   9.3125

          k = 0.0000-0.2000 0.0000 ( 19279 PWs)   bands (ev):

   -17.6482 -16.1307 -14.2716 -13.4048 -13.2056 -13.2056 -11.7009 -11.5582
   -11.5582 -11.4934 -10.2476 -10.2476  -9.1564  -8.5248  -8.5248  -8.1536
    -7.7493  -7.5167  -7.5167  -7.3492  -7.3492  -5.8846  -4.9939  -4.8819
    -4.8819  -4.7550  -3.7899  -3.7899  -3.2321  -3.2321  -3.0888  -2.3754
    -2.1984  -2.1984  -1.8805  -1.8077  -1.8077  -1.7605  -1.2316  -1.1170
    -1.1170  -1.0457  -0.2734  -0.0936  -0.0936  -0.0148   0.4746   0.8068
     1.3632   1.4234   1.5709   1.8516   5.7772   6.2148   7.9887   8.4375
     8.6088   8.7161   8.8421   9.0951   9.0951   9.1731

          k = 0.0000-0.4000 0.0000 ( 19214 PWs)   bands (ev):

   -17.1653 -16.4978 -14.6440 -14.1458 -12.7655 -12.7655 -11.9320 -11.9320
   -11.3549 -10.9518 -10.7763 -10.7763  -8.9722  -8.9722  -8.6060  -7.7586
    -7.2196  -7.0553  -7.0553  -6.6957  -6.6957  -6.2328  -4.9093  -4.5333
    -4.5333  -4.4125  -3.9512  -3.6026  -3.6026  -3.1753  -3.1753  -3.0574
    -1.9697  -1.9173  -1.9173  -1.8096  -1.8096  -1.6126  -1.4002  -1.3457
    -1.3457  -1.1626  -1.1626  -1.0186  -0.4450  -0.1408   0.1645   0.2575
     0.9702   1.3671   1.9903   2.0682   6.4432   6.8021   7.5092   7.7610
     8.4706   8.8034   8.8035   8.9563   9.1080   9.1214

          k = 0.2000-0.2000 0.0000 ( 19243 PWs)   bands (ev):

   -17.4615 -15.9471 -14.7194 -14.0938 -13.2989 -13.2299 -11.6235 -11.5338
   -11.3242 -11.0204 -10.8468  -9.8799  -9.0461  -8.8492  -8.6081  -8.0057
    -7.8532  -7.6014  -7.1851  -6.1615  -5.9854  -5.7994  -5.6097  -5.0029
    -4.9258  -4.6426  -4.3091  -3.6200  -3.4129  -2.9762  -2.9749  -2.6174
    -2.2308  -2.2296  -2.2230  -1.8623  -1.6596  -1.6469  -1.3871  -1.2395
    -1.0228  -0.8720  -0.8412  -0.3727  -0.3574  -0.0047   0.3540   0.4156
     0.7917   0.8898   1.3412   1.5414   5.9504   6.4091   8.2079   8.3125
     8.4385   8.8073   8.8475   9.0144   9.0966   9.3318

          k = 0.2000-0.4000 0.0000 ( 19221 PWs)   bands (ev):

   -16.9794 -16.3130 -14.4660 -14.2491 -13.9692 -13.6054 -11.9742 -11.4839
   -11.1896 -10.7893 -10.7141 -10.2969  -8.4931  -8.4499  -8.3355  -7.8593
    -7.6536  -7.4398  -7.0674  -6.0829  -5.6812  -5.3408  -5.2804  -4.8044
    -4.5913  -4.3230  -4.1347  -3.9022  -3.8790  -3.1234  -3.0444  -2.8716
    -2.6281  -2.4929  -2.3522  -1.8168  -1.7993  -1.6251  -1.5111  -1.1717
    -1.1124  -1.0379  -0.8400  -0.7289  -0.7075  -0.6762  -0.4419   0.0617
     1.0266   1.1888   1.2561   1.5359   6.6161   6.9990   7.6796   7.9345
     8.1772   8.3699   8.5127   9.0724   9.1553   9.3474

          k = 0.4000-0.4000 0.0000 ( 19228 PWs)   bands (ev):

   -16.4238 -15.7608 -15.5067 -14.8500 -13.9363 -13.4437 -13.0735 -12.5881
   -10.7052 -10.3142  -9.9938  -9.6856  -8.6834  -8.2806  -8.0365  -7.4767
    -6.6648  -6.4209  -6.1535  -5.6826  -5.6349  -5.3300  -5.2740  -4.9475
    -4.7379  -4.7064  -4.3108  -4.0806  -3.8306  -3.8122  -3.3968  -3.1451
    -2.8801  -2.7033  -2.6164  -2.4065  -2.0945  -1.9393  -1.4152  -1.3992
    -1.1529  -1.1119  -0.8668  -0.7411  -0.5960  -0.4341  -0.0560   0.0864
     0.0887   0.2888   0.7084   1.0860   7.0536   7.4785   7.5980   7.8211
     7.9751   8.2436   8.3492   8.4439   8.6590   8.9510

          k =-0.2000 0.0000 0.0000 ( 19279 PWs)   bands (ev):

   -17.6294 -15.9375 -14.8833 -13.3152 -12.9701 -12.8432 -12.6583 -11.6214
   -11.2958 -10.6468 -10.4058 -10.0777  -9.2292  -9.1118  -8.9574  -8.5501
    -7.6613  -7.4169  -6.8262  -6.7822  -6.5767  -5.3980  -5.3607  -5.2093
    -5.1654  -5.0465  -4.1061  -3.7498  -3.5690  -3.2950  -2.6536  -2.3672
    -2.3392  -2.1206  -1.9242  -1.6341  -1.5982  -1.5875  -1.5709  -1.4676
    -1.1313  -0.7496  -0.3138   0.0620   0.1267   0.1292   0.4470   0.7025
     0.9495   1.0626   1.0643   1.5880   5.7127   6.1985   8.0830   8.1770
     8.2658   8.4204   8.6701   9.0249   9.3808   9.5363

          k =-0.4000 0.0000 0.0000 ( 19214 PWs)   bands (ev):

   -17.0708 -16.1486 -15.3911 -14.4949 -12.4550 -12.3261 -12.1298 -11.6137
   -11.4997 -11.2608 -11.1261 -10.3140  -9.5258  -8.8280  -8.1074  -7.7779
    -7.2204  -6.8889  -6.6231  -6.4305  -5.5506  -5.4994  -5.4458  -5.0718
    -4.5411  -4.5342  -4.3579  -3.8780  -3.8337  -3.7457  -3.1806  -2.6373
    -2.3933  -2.3891  -1.6512  -1.6256  -1.4326  -1.4217  -1.4040  -1.4031
    -1.1932  -1.1392  -1.1221  -0.7972  -0.4085  -0.3077  -0.2448   0.2353
     0.2865   0.8178   1.1678   1.2160   6.2355   6.6420   7.1310   7.2992
     8.6226   8.9177   9.4021   9.4533   9.4570   9.5508

          k =-0.4000 0.2000 0.0000 ( 19221 PWs)   bands (ev):

   -16.9037 -15.9828 -15.3993 -14.4990 -13.5644 -12.7103 -12.6991 -11.8690
   -11.0394 -10.8192 -10.2617  -9.9911  -9.4229  -8.8534  -7.6825  -7.6208
    -7.2090  -6.8821  -6.5780  -6.0823  -5.7481  -5.6121  -5.3513  -4.9463
    -4.7312  -4.5446  -4.1941  -3.9364  -3.6208  -3.5502  -2.8968  -2.8207
    -2.6552  -2.5867  -2.4033  -2.0076  -1.6456  -1.5947  -1.4861  -1.1847
    -1.1561  -1.1094  -0.6699  -0.6627  -0.5981  -0.3362  -0.2433  -0.2397
     0.0444   0.7597   0.8111   1.2318   6.4479   6.8698   7.2941   7.5216
     8.5449   8.9512   9.0333   9.0956   9.1277   9.4146

     the Fermi energy is     3.3893 ev

!    total energy              =    -451.78542821 Ry
     estimated scf accuracy    <          8.4E-10 Ry
     smearing contrib. (-TS)   =       0.00000000 Ry
     internal energy E=F+TS    =    -451.78542821 Ry

     The total energy is F=E-TS. E is the sum of the following terms:
     one-electron contribution =   -2365.97846723 Ry
     hartree contribution      =    1224.36472386 Ry
     xc contribution           =    -118.09074129 Ry
     ewald contribution        =     955.84606332 Ry
     one-center paw contrib.   =    -147.92700687 Ry

     convergence has been achieved in  14 iterations

     negative rho (up, down):  7.162E-05 0.000E+00

     Forces acting on atoms (cartesian axes, Ry/au):

     atom    1 type  1   force =     0.00000000   -0.00572345    0.00279591
     atom    2 type  1   force =     0.00000001   -0.00569009   -0.00049491
     atom    3 type  1   force =     0.00000000   -0.00000000    0.00140198
     atom    4 type  1   force =     0.00000000   -0.00000000    0.00063279
     atom    5 type  1   force =     0.00000000    0.00569014    0.00049513
     atom    6 type  1   force =     0.00000000    0.00572353   -0.00279622
     atom    7 type  1   force =     0.00000000    0.00572345    0.00279591
     atom    8 type  1   force =     0.00000001    0.00569009   -0.00049491
     atom    9 type  1   force =    -0.00000001    0.00000000   -0.00063299
     atom   10 type  1   force =     0.00000000    0.00000000   -0.00140194
     atom   11 type  1   force =     0.00000000   -0.00569014    0.00049513
     atom   12 type  1   force =     0.00000000   -0.00572353   -0.00279622
     atom   13 type  2   force =     0.00000000   -0.00248826    0.00134143
     atom   14 type  2   force =     0.00000000    0.00248826    0.00134143
     atom   15 type  2   force =     0.00000000    0.00248817   -0.00134123
     atom   16 type  2   force =     0.00000000   -0.00248817   -0.00134123
     atom   17 type  1   force =     0.00000000   -0.00572343    0.00279592
     atom   18 type  1   force =    -0.00000001   -0.00569009   -0.00049491
     atom   19 type  1   force =    -0.00000000    0.00000000    0.00140198
     atom   20 type  1   force =     0.00000000   -0.00000000    0.00063279
     atom   21 type  1   force =     0.00000000    0.00569013    0.00049511
     atom   22 type  1   force =    -0.00000000    0.00572353   -0.00279622
     atom   23 type  1   force =     0.00000000    0.00572343    0.00279592
     atom   24 type  1   force =    -0.00000001    0.00569009   -0.00049491
     atom   25 type  1   force =     0.00000001    0.00000000   -0.00063299
     atom   26 type  1   force =     0.00000000    0.00000000   -0.00140198
     atom   27 type  1   force =     0.00000000   -0.00569013    0.00049511
     atom   28 type  1   force =    -0.00000000   -0.00572353   -0.00279622
     atom   29 type  2   force =     0.00000000   -0.00248825    0.00134142
     atom   30 type  2   force =     0.00000000    0.00248825    0.00134142
     atom   31 type  2   force =    -0.00000000    0.00248817   -0.00134123
     atom   32 type  2   force =    -0.00000000   -0.00248817   -0.00134123

     Total force =     0.025671     Total SCF correction =     0.000072


     Computing stress (Cartesian axis) and pressure


     negative rho (up, down):  7.162E-05 0.000E+00
          total   stress  (Ry/bohr**3)                   (kbar)     P=       17.21
   0.00035752   0.00000000   0.00000000           52.59        0.00        0.00
   0.00000000  -0.00005076   0.00000000            0.00       -7.47        0.00
   0.00000000   0.00000000   0.00004425            0.00        0.00        6.51


     Writing all to output data dir ./tmp/slab.save/ :
     XML data file, charge density, pseudopotentials, collected wavefunctions

     init_run     :      4.43s CPU      4.73s WALL (       1 calls)
     electrons    :    122.45s CPU    135.39s WALL (       1 calls)
     forces       :      1.47s CPU      1.72s WALL (       1 calls)
     stress       :      3.56s CPU      4.18s WALL (       1 calls)

     Called by init_run:
     wfcinit      :      3.67s CPU      3.91s WALL (       1 calls)
     potinit      :      0.46s CPU      0.49s WALL (       1 calls)
     hinit0       :      0.14s CPU      0.15s WALL (       1 calls)

     Called by electrons:
     c_bands      :    100.99s CPU    111.92s WALL (      14 calls)
     sum_band     :     13.85s CPU     14.80s WALL (      14 calls)
     v_of_rho     :      2.18s CPU      2.34s WALL (      15 calls)
     newd         :      1.29s CPU      1.72s WALL (      15 calls)
     PAW_pot      :      4.18s CPU      4.63s WALL (      15 calls)
     mix_rho      :      0.28s CPU      0.33s WALL (      14 calls)

     Called by c_bands:
     init_us_2    :      1.09s CPU      1.21s WALL (     279 calls)
     cegterg      :     98.59s CPU    109.45s WALL (     126 calls)

     Called by *egterg:
     cdiaghg      :      1.71s CPU      1.83s WALL (     650 calls)
     h_psi        :     71.15s CPU     75.63s WALL (     659 calls)
     s_psi        :      8.34s CPU     10.02s WALL (     659 calls)
     g_psi        :      0.30s CPU      0.30s WALL (     524 calls)

     Called by h_psi:
     h_psi:calbec :      7.47s CPU      9.41s WALL (     659 calls)
     vloc_psi     :     54.72s CPU     55.22s WALL (     659 calls)
                                        0.00s GPU  (     659 calls)
     add_vuspsi   :      8.71s CPU     10.55s WALL (     659 calls)

     General routines
     calbec       :     11.57s CPU     14.49s WALL (     938 calls)
     fft          :      1.39s CPU      1.39s WALL (     218 calls)
     ffts         :      0.07s CPU      0.07s WALL (      29 calls)
     fftw         :     58.42s CPU     58.59s WALL (   52206 calls)
     interpolate  :      0.15s CPU      0.17s WALL (      15 calls)


     PWSCF        :   2m11.97s CPU   2m26.13s WALL


   This run was terminated on:  13:25:15   7Jul2026            

=------------------------------------------------------------------------------=
   JOB DONE.
=------------------------------------------------------------------------------=
Note: The following floating-point exceptions are signalling: IEEE_INVALID_FLAG IEEE_DIVIDE_BY_ZERO IEEE_OVERFLOW_FLAG IEEE_UNDERFLOW_FLAG
