
     Program PWSCF v.7.3.1 starts on  2Aug2026 at 14:21:24 

     This program is part of the open-source Quantum ESPRESSO suite
     for quantum simulation of materials; please cite
         "P. Giannozzi et al., J. Phys.:Condens. Matter 21 395502 (2009);
         "P. Giannozzi et al., J. Phys.:Condens. Matter 29 465901 (2017);
         "P. Giannozzi et al., J. Chem. Phys. 152 154105 (2020);
          URL http://www.quantum-espresso.org", 
     in publications or presentations arising from this work. More details at
     http://www.quantum-espresso.org/quote

     Parallel version (MPI), running on     8 processors

     MPI processes distributed on     1 nodes
     96536 MiB available memory on the printing compute node when the environment starts

     Reading input from pw.in

     Current dimensions of program PWSCF are:
     Max number of different atomic species (ntypx) = 10
     Max number of k-points (npk) =  40000
     Max angular momentum in pseudopotentials (lmaxx) =  4
     file C.pbe-n-kjpaw_psl.1.0.0.UPF: wavefunction(s)  2S 2P renormalized
     Message from routine volume:
     axis vectors are left-handed
     Message from routine setup:
     using ibrav=0 with symmetry is DISCOURAGED, use correct ibrav instead

     R & G space division:  proc/nbgrp/npool/nimage =       8
     Subspace diagonalization in iterative solution of the eigenvalue problem:
     a serial algorithm will be used


     Parallelization info
     --------------------
     sticks:   dense  smooth     PW     G-vecs:    dense   smooth      PW
     Min         326     163     46                50928    18007    2788
     Max         327     164     47                50941    18015    2803
     Sum        2609    1305    373               407467   144097   22373

     Using Slab Decomposition



     bravais-lattice index     =            0
     lattice parameter (alat)  =       4.7740  a.u.
     unit-cell volume          =    1248.9852 (a.u.)^3
     number of atoms/cell      =           16
     number of atomic types    =            2
     number of electrons       =        52.00
     number of Kohn-Sham states=           31
     kinetic-energy cutoff     =      90.0000  Ry
     charge density cutoff     =     720.0000  Ry
     scf convergence threshold =      1.0E-09
     mixing beta               =       0.3000
     number of iterations used =            8  plain     mixing
     energy convergence thresh.=      1.0E-05
     force convergence thresh. =      1.0E-04
     press convergence thresh. =      1.0E-01
     Exchange-correlation= PBE
                           (   1   4   3   4   0   0   0)
     nstep                     =           50


     celldm(1)=   4.773978  celldm(2)=   0.000000  celldm(3)=   0.000000
     celldm(4)=   0.000000  celldm(5)=   0.000000  celldm(6)=   0.000000

     crystal axes: (cart. coord. in units of alat)
               a(1) = (   1.000000   0.000000   0.000000 )  
               a(2) = (   0.000000  -2.000000   0.000000 )  
               a(3) = (   0.000000   0.000000   5.739658 )  

     reciprocal axes: (cart. coord. in units 2 pi/alat)
               b(1) = (  1.000000 -0.000000 -0.000000 )  
               b(2) = ( -0.000000 -0.500000 -0.000000 )  
               b(3) = ( -0.000000 -0.000000  0.174226 )  


     PseudoPot. # 1 for C  read from file:
     ./C.pbe-n-kjpaw_psl.1.0.0.UPF
     MD5 check sum: 5d2aebdfa2cae82b50a7e79e9516da0f
     Pseudo is Projector augmented-wave + core cor, Zval =  4.0
     Generated using "atomic" code by A. Dal Corso  v.5.1
     Shape of augmentation charge: PSQ
     Using radial grid of 1073 points,  4 beta functions with: 
                l(1) =   0
                l(2) =   0
                l(3) =   1
                l(4) =   1
     Q(r) pseudized with 0 coefficients 


     PseudoPot. # 2 for H  read from file:
     ./H_ONCV_PBE-1.0.oncvpsp.upf
     MD5 check sum: 1790becc920ee074925cf490c71280fe
     Pseudo is Norm-conserving, Zval =  1.0
     Generated using ONCVPSP code by D. R. Hamann
     Using radial grid of 1166 points,  2 beta functions with: 
                l(1) =   0
                l(2) =   0

     atomic species   valence    mass     pseudopotential
     C                 4.00    12.01100     C ( 1.00)
     H                 1.00     1.00800     H ( 1.00)

      8 Sym. Ops., with inversion, found ( 4 have fractional translation)



   Cartesian axes

     site n.     atom                  positions (alat units)
         1        C      tau(   1) = (   0.0000000  -0.3166711   3.7537126  )
         2        C      tau(   2) = (   0.5000000  -0.5000000   3.4001592  )
         3        C      tau(   3) = (   0.5000000   0.0000000   3.0466058  )
         4        C      tau(   4) = (   0.0000000   0.0000000   2.6930524  )
         5        C      tau(   5) = (   0.0000000  -0.5000000   2.3394990  )
         6        C      tau(   6) = (   0.5000000  -0.3166711   1.9859456  )
         7        C      tau(   7) = (   0.0000000  -1.6833289   3.7537126  )
         8        C      tau(   8) = (   0.5000000  -1.5000000   3.4001592  )
         9        C      tau(   9) = (   0.5000000  -1.0000000   3.0466058  )
        10        C      tau(  10) = (   0.0000000  -1.0000000   2.6930524  )
        11        C      tau(  11) = (   0.0000000  -1.5000000   2.3394990  )
        12        C      tau(  12) = (   0.5000000  -1.6833289   1.9859456  )
        13        H      tau(  13) = (   0.0000000  -0.4718572   4.1563026  )
        14        H      tau(  14) = (   0.0000000  -1.5281428   4.1563026  )
        15        H      tau(  15) = (   0.5000000  -0.4718572   1.5833555  )
        16        H      tau(  16) = (   0.5000000  -1.5281428   1.5833555  )

     number of k points=    18  Marzari-Vanderbilt smearing, width (Ry)=  0.0100
                       cart. coord. in units 2pi/alat
        k(    1) = (   0.0000000  -0.0000000   0.0000000), wk =   0.0400000
        k(    2) = (   0.0000000  -0.1000000   0.0000000), wk =   0.0800000
        k(    3) = (   0.0000000  -0.2000000   0.0000000), wk =   0.0800000
        k(    4) = (   0.1000000  -0.0000000   0.0000000), wk =   0.0800000
        k(    5) = (   0.1000000  -0.1000000   0.0000000), wk =   0.1600000
        k(    6) = (   0.1000000  -0.2000000   0.0000000), wk =   0.1600000
        k(    7) = (   0.2000000  -0.0000000   0.0000000), wk =   0.0800000
        k(    8) = (   0.2000000  -0.1000000   0.0000000), wk =   0.1600000
        k(    9) = (   0.2000000  -0.2000000   0.0000000), wk =   0.1600000
        k(   10) = (   0.3000000  -0.0000000   0.0000000), wk =   0.0800000
        k(   11) = (   0.3000000  -0.1000000   0.0000000), wk =   0.1600000
        k(   12) = (   0.3000000  -0.2000000   0.0000000), wk =   0.1600000
        k(   13) = (   0.4000000  -0.0000000   0.0000000), wk =   0.0800000
        k(   14) = (   0.4000000  -0.1000000   0.0000000), wk =   0.1600000
        k(   15) = (   0.4000000  -0.2000000   0.0000000), wk =   0.1600000
        k(   16) = (  -0.5000000   0.0000000   0.0000000), wk =   0.0400000
        k(   17) = (  -0.5000000  -0.1000000   0.0000000), wk =   0.0800000
        k(   18) = (  -0.5000000  -0.2000000   0.0000000), wk =   0.0800000

     Dense  grid:   407467 G-vectors     FFT dimensions: (  48,  81, 240)

     Smooth grid:   144097 G-vectors     FFT dimensions: (  30,  60, 180)

     Estimated max dynamical RAM per process >     116.99 MB

     Estimated total dynamical RAM >     935.91 MB

     Initial potential from superposition of free atoms

     starting charge      51.9995, renormalised to      52.0000
     Starting wfcs are   52 randomized atomic wfcs
     Checking if some PAW data can be deallocated... 

     total cpu time spent up to now is        1.8 secs

     Self-consistent Calculation

     iteration #  1     ecut=    90.00 Ry     beta= 0.30
     Davidson diagonalization with overlap
     ethr =  1.00E-02,  avg # of iterations =  2.6

     negative rho (up, down):  1.810E-08 0.000E+00

     total cpu time spent up to now is        4.0 secs

     total energy              =    -225.80197781 Ry
     estimated scf accuracy    <       1.15535958 Ry

     iteration #  2     ecut=    90.00 Ry     beta= 0.30
     Davidson diagonalization with overlap
     ethr =  2.22E-03,  avg # of iterations =  3.7

     negative rho (up, down):  8.638E-07 0.000E+00

     total cpu time spent up to now is        5.8 secs

     total energy              =    -225.73540424 Ry
     estimated scf accuracy    <       0.34041400 Ry

     iteration #  3     ecut=    90.00 Ry     beta= 0.30
     Davidson diagonalization with overlap
     ethr =  6.55E-04,  avg # of iterations =  5.2

     negative rho (up, down):  4.311E-07 0.000E+00

     total cpu time spent up to now is        7.8 secs

     total energy              =    -225.74413187 Ry
     estimated scf accuracy    <       0.05311063 Ry

     iteration #  4     ecut=    90.00 Ry     beta= 0.30
     Davidson diagonalization with overlap
     ethr =  1.02E-04,  avg # of iterations =  5.7

     negative rho (up, down):  7.715E-07 0.000E+00

     total cpu time spent up to now is        9.8 secs

     total energy              =    -225.74855518 Ry
     estimated scf accuracy    <       0.00367893 Ry

     iteration #  5     ecut=    90.00 Ry     beta= 0.30
     Davidson diagonalization with overlap
     ethr =  7.07E-06,  avg # of iterations =  8.7

     negative rho (up, down):  6.000E-07 0.000E+00

     total cpu time spent up to now is       12.3 secs

     total energy              =    -225.74911891 Ry
     estimated scf accuracy    <       0.00050980 Ry

     iteration #  6     ecut=    90.00 Ry     beta= 0.30
     Davidson diagonalization with overlap
     ethr =  9.80E-07,  avg # of iterations =  2.8

     negative rho (up, down):  6.166E-07 0.000E+00

     total cpu time spent up to now is       14.3 secs

     total energy              =    -225.74921426 Ry
     estimated scf accuracy    <       0.00009461 Ry

     iteration #  7     ecut=    90.00 Ry     beta= 0.30
     Davidson diagonalization with overlap
     ethr =  1.82E-07,  avg # of iterations =  2.7

     negative rho (up, down):  6.058E-07 0.000E+00

     total cpu time spent up to now is       16.0 secs

     total energy              =    -225.74922154 Ry
     estimated scf accuracy    <       0.00001271 Ry

     iteration #  8     ecut=    90.00 Ry     beta= 0.30
     Davidson diagonalization with overlap
     ethr =  2.44E-08,  avg # of iterations =  3.3

     negative rho (up, down):  5.936E-07 0.000E+00

     total cpu time spent up to now is       18.0 secs

     total energy              =    -225.74922414 Ry
     estimated scf accuracy    <       0.00000310 Ry

     iteration #  9     ecut=    90.00 Ry     beta= 0.30
     Davidson diagonalization with overlap
     ethr =  5.95E-09,  avg # of iterations =  2.3

     negative rho (up, down):  5.844E-07 0.000E+00

     total cpu time spent up to now is       19.9 secs

     total energy              =    -225.74922472 Ry
     estimated scf accuracy    <       0.00000041 Ry

     iteration # 10     ecut=    90.00 Ry     beta= 0.30
     Davidson diagonalization with overlap
     ethr =  7.88E-10,  avg # of iterations =  3.4

     negative rho (up, down):  5.882E-07 0.000E+00

     total cpu time spent up to now is       22.0 secs

     total energy              =    -225.74922473 Ry
     estimated scf accuracy    <       0.00000023 Ry

     iteration # 11     ecut=    90.00 Ry     beta= 0.30
     Davidson diagonalization with overlap
     ethr =  4.49E-10,  avg # of iterations =  2.9

     negative rho (up, down):  5.907E-07 0.000E+00

     total cpu time spent up to now is       23.9 secs

     total energy              =    -225.74922477 Ry
     estimated scf accuracy    <       0.00000003 Ry

     iteration # 12     ecut=    90.00 Ry     beta= 0.30
     Davidson diagonalization with overlap
     ethr =  5.40E-11,  avg # of iterations =  2.6

     negative rho (up, down):  5.938E-07 0.000E+00

     total cpu time spent up to now is       25.8 secs

     total energy              =    -225.74922477 Ry
     estimated scf accuracy    <          5.1E-09 Ry

     iteration # 13     ecut=    90.00 Ry     beta= 0.30
     Davidson diagonalization with overlap
     ethr =  9.79E-12,  avg # of iterations =  3.1

     negative rho (up, down):  5.964E-07 0.000E+00

     total cpu time spent up to now is       27.8 secs

     total energy              =    -225.74922477 Ry
     estimated scf accuracy    <          1.6E-09 Ry

     iteration # 14     ecut=    90.00 Ry     beta= 0.30
     Davidson diagonalization with overlap
     ethr =  3.06E-12,  avg # of iterations =  3.6

     negative rho (up, down):  6.038E-07 0.000E+00

     total cpu time spent up to now is       30.0 secs

     End of self-consistent calculation

          k = 0.0000-0.0000 0.0000 ( 17977 PWs)   bands (ev):

   -17.5681 -15.4913 -13.8964 -12.6120 -11.9477 -11.4124  -9.8688  -8.2693
    -7.9125  -5.8354  -5.5656  -5.0040  -2.6817  -2.3224  -2.2627  -1.7797
    -1.3699  -0.5849  -0.2161  -0.0731  -0.0313   1.1944   1.4537   1.9634
     2.1224   2.2334   5.4630   5.9439   7.8759   7.8806   8.0931

          k = 0.0000-0.1000 0.0000 ( 18029 PWs)   bands (ev):

   -17.3984 -15.3898 -14.7943 -12.1607 -12.0899 -11.3670  -9.2294  -8.0861
    -7.9924  -5.6940  -5.6816  -4.7050  -3.1918  -2.4261  -2.1786  -1.9648
    -1.7311  -0.5805  -0.4191  -0.0762  -0.0019   0.7487   1.4733   1.9787
     2.1101   2.3759   5.6812   6.1641   7.8153   8.3277   8.6315

          k = 0.0000-0.2000 0.0000 ( 17997 PWs)   bands (ev):

   -16.9288 -15.8673 -15.1850 -12.8246 -11.9476 -10.6309  -8.6794  -7.6158
    -7.5950  -5.9259  -5.2355  -5.0899  -3.5507  -3.3873  -2.2551  -1.7633
    -1.6463  -1.1281  -0.4028  -0.2192   0.1348   0.2149   1.5388   1.7311
     2.1586   2.6954   6.2978   6.6917   7.2459   7.5732   8.0194

          k = 0.1000-0.0000 0.0000 ( 17999 PWs)   bands (ev):

   -17.3849 -15.3114 -13.7239 -12.4364 -11.7834 -11.2470  -9.7610  -8.1416
    -7.7628  -5.7720  -5.4950  -4.8660  -3.4782  -2.5811  -2.3028  -1.5575
    -1.2852  -1.2581  -0.7013  -0.6773  -0.3621   0.9307   1.2994   1.3611
     1.4381   1.5667   5.6232   6.1740   8.0832   8.3391   8.4491

          k = 0.1000-0.1000 0.0000 ( 17998 PWs)   bands (ev):

   -17.2154 -15.2098 -14.6183 -11.9930 -11.9266 -11.2003  -9.1341  -7.9317
    -7.8639  -5.6250  -5.6002  -4.5833  -3.3325  -3.0785  -2.4267  -1.9169
    -1.6099  -1.1720  -1.0705  -0.6643  -0.2595   0.7223   1.2167   1.3705
     1.5403   1.6304   5.8408   6.3798   7.9797   8.5561   8.7859

          k = 0.1000-0.2000 0.0000 ( 18005 PWs)   bands (ev):

   -16.7459 -15.6895 -15.0048 -12.6601 -11.7845 -10.4634  -8.5936  -7.5012
    -7.4630  -5.8072  -5.1156  -4.9811  -3.4597  -3.3435  -2.9314  -2.2071
    -2.1556  -1.2695  -1.0353  -0.5680  -0.3175   0.2945   1.0288   1.4089
     1.7320   1.8389   6.4555   6.8857   7.3913   7.7450   8.0532

          k = 0.2000-0.0000 0.0000 ( 17977 PWs)   bands (ev):

   -16.8381 -14.7764 -13.2098 -11.9138 -11.3001 -10.7556  -9.5363  -7.8304
    -7.3367  -5.7752  -5.3742  -5.3541  -4.4824  -3.1817  -3.1278  -2.3399
    -2.0060  -1.1938  -1.1922  -1.0487  -0.9242  -0.4708  -0.3438  -0.1364
     1.1602   1.2469   6.0942   6.6983   8.1085   8.5705   8.6189

          k = 0.2000-0.1000 0.0000 ( 18002 PWs)   bands (ev):

   -16.6691 -14.6745 -14.0934 -11.5003 -11.4493 -10.7037  -8.9645  -7.5437
    -7.4918  -5.6056  -5.4673  -5.1833  -4.2743  -3.3426  -3.1461  -2.7012
    -2.1812  -1.8442  -1.4095  -0.9678  -0.9552  -0.3933  -0.1757   0.0230
     0.8613   1.2830   6.2879   6.8908   8.0032   8.5535   8.6183

          k = 0.2000-0.2000 0.0000 ( 17978 PWs)   bands (ev):

   -16.1995 -15.1593 -14.4680 -12.1802 -11.3073  -9.9631  -8.4680  -7.3387
    -7.0323  -5.5648  -4.9002  -4.7440  -4.6895  -3.8924  -3.4005  -3.1126
    -3.0536  -1.9079  -1.7029  -1.2615  -0.5582  -0.0931  -0.0681   0.0183
     0.4004   1.4158   6.8091   7.3949   7.6277   7.9504   8.0608

          k = 0.3000-0.0000 0.0000 ( 18006 PWs)   bands (ev):

   -15.9370 -13.9079 -12.3672 -11.0588 -10.5492  -9.9586  -9.7951  -7.7005
    -6.7493  -6.7467  -6.5370  -5.6163  -4.7458  -4.0538  -3.8711  -3.3099
    -2.6511  -2.2124  -1.8029  -1.7575  -1.2746  -1.2673  -0.6812  -0.6673
     0.2405   1.1044   6.9253   7.2651   8.0061   8.4449   9.1003

          k = 0.3000-0.1000 0.0000 ( 18004 PWs)   bands (ev):

   -15.7690 -13.8041 -13.2315 -10.7470 -10.7361  -9.8917  -9.3439  -7.4443
    -6.9609  -6.4809  -6.4345  -5.5964  -4.5917  -4.1548  -3.9681  -3.3214
    -2.4757  -2.3541  -2.1303  -1.5059  -1.4848  -1.1587  -1.0826  -0.6889
     0.4245   0.6186   7.0165   7.4530   7.9719   8.2425   8.6817

          k = 0.3000-0.2000 0.0000 ( 18022 PWs)   bands (ev):

   -15.2990 -14.2885 -13.5907 -11.4598 -10.5797  -9.1393  -8.9801  -7.7540
    -6.6902  -5.9765  -5.9607  -5.0628  -4.8526  -4.3043  -3.9157  -3.6596
    -3.2545  -2.8071  -1.8907  -1.6817  -1.6492  -0.9348  -0.9289  -0.6616
    -0.0695   0.5677   6.8847   7.5541   7.9339   8.3837   8.4627

          k = 0.4000-0.0000 0.0000 ( 18042 PWs)   bands (ev):

   -14.7068 -12.8353 -11.2505 -11.1152  -9.9111  -9.9053  -8.9405  -8.2575
    -8.1114  -6.8778  -6.6787  -6.4935  -5.2332  -4.5112  -4.0579  -3.8296
    -3.7040  -2.4143  -2.2837  -2.2665  -1.8111  -1.4261  -0.8536  -0.7018
    -0.1784   0.8360   7.2175   7.8493   8.4912   8.7998   8.9670

          k = 0.4000-0.1000 0.0000 ( 18026 PWs)   bands (ev):

   -14.5400 -12.7147 -12.0642 -11.0471 -10.0792  -9.7545  -8.8202  -8.2319
    -7.9937  -6.6090  -6.5831  -6.1156  -5.0970  -4.7983  -4.4376  -3.9031
    -2.7266  -2.5530  -2.2517  -2.1950  -1.9002  -1.3532  -1.1122  -0.8730
    -0.3592   0.1897   7.3702   7.4543   8.5328   8.7964   9.0339

          k = 0.4000-0.2000 0.0000 ( 18001 PWs)   bands (ev):

   -14.0681 -13.1073 -12.4459 -11.0423 -10.3954 -10.0089  -8.7004  -8.0282
    -7.7502  -6.5922  -6.2976  -5.2346  -4.9407  -4.5794  -4.2681  -3.7956
    -3.3202  -2.9569  -1.9706  -1.8980  -1.6939  -1.6433  -1.6048  -0.9392
    -0.7131  -0.3869   6.7549   7.9370   8.1927   9.3151   9.3679

          k =-0.5000 0.0000 0.0000 ( 18082 PWs)   bands (ev):

   -13.2448 -13.2448 -11.0500 -11.0500  -9.6306  -9.6306  -8.6685  -8.6685
    -7.6272  -7.6272  -7.2146  -7.2146  -4.8846  -4.8846  -4.1540  -4.1540
    -3.3266  -3.3266  -2.0789  -2.0789  -1.8405  -1.8405  -1.0361  -1.0361
     0.3832   0.3832   7.4919   7.4919   9.2174   9.2174   9.4046

          k =-0.5000-0.1000 0.0000 ( 18012 PWs)   bands (ev):

   -13.0790 -13.0790 -11.0090 -11.0090 -10.5810 -10.5810  -7.9079  -7.9079
    -7.4053  -7.4053  -7.3304  -7.3304  -4.8462  -4.8462  -4.1466  -4.1466
    -3.0845  -3.0845  -2.1603  -2.1603  -1.6362  -1.6362  -1.1041  -1.1041
    -0.2788  -0.2788   7.3699   7.3699   9.3019   9.3019   9.5887

          k =-0.5000-0.2000 0.0000 ( 17986 PWs)   bands (ev):

   -12.5989 -12.5989 -11.7133 -11.7133 -10.8394 -10.8394  -8.0872  -8.0872
    -7.3160  -7.3160  -6.5795  -6.5795  -4.3659  -4.3659  -4.0203  -4.0203
    -3.1779  -3.1779  -1.9369  -1.9369  -1.7510  -1.7510  -1.4442  -1.4442
    -0.9665  -0.9665   7.2074   7.2074   9.2309   9.2309   9.7441

     the Fermi energy is     3.5963 ev

!    total energy              =    -225.74922477 Ry
     estimated scf accuracy    <          9.7E-10 Ry
     smearing contrib. (-TS)   =       0.00000000 Ry
     internal energy E=F+TS    =    -225.74922477 Ry

     The total energy is F=E-TS. E is the sum of the following terms:
     one-electron contribution =   -1119.42649761 Ry
     hartree contribution      =     580.17205058 Ry
     xc contribution           =     -58.52816968 Ry
     ewald contribution        =     445.98704557 Ry
     one-center paw contrib.   =     -73.95365362 Ry

     convergence has been achieved in  14 iterations

     negative rho (up, down):  6.038E-07 0.000E+00

     Forces acting on atoms (cartesian axes, Ry/au):

     atom    1 type  1   force =     0.00000000   -0.05827425   -0.08385525
     atom    2 type  1   force =     0.00000000    0.16098695    0.08046536
     atom    3 type  1   force =     0.00000000    0.00000000   -0.07879645
     atom    4 type  1   force =     0.00000000   -0.00000000    0.07879645
     atom    5 type  1   force =     0.00000000    0.16098695   -0.08046536
     atom    6 type  1   force =     0.00000000   -0.05827425    0.08385525
     atom    7 type  1   force =     0.00000000    0.05827425   -0.08385525
     atom    8 type  1   force =     0.00000000   -0.16098695    0.08046536
     atom    9 type  1   force =     0.00000000   -0.00000000    0.07872650
     atom   10 type  1   force =     0.00000000    0.00000000   -0.07872650
     atom   11 type  1   force =     0.00000000   -0.16098695   -0.08046536
     atom   12 type  1   force =     0.00000000    0.05827425    0.08385525
     atom   13 type  2   force =     0.00000000   -0.01092177    0.00688176
     atom   14 type  2   force =     0.00000000    0.01092177    0.00688176
     atom   15 type  2   force =     0.00000000   -0.01092177   -0.00688176
     atom   16 type  2   force =     0.00000000    0.01092177   -0.00688176

     Total force =     0.443572     Total SCF correction =     0.000071


     Computing stress (Cartesian axis) and pressure


     negative rho (up, down):  6.038E-07 0.000E+00
          total   stress  (Ry/bohr**3)                   (kbar)     P=      -50.06
   0.00015340   0.00000000   0.00000000           22.57        0.00        0.00
   0.00000000  -0.00082785   0.00000000            0.00     -121.78        0.00
   0.00000000   0.00000000  -0.00034643            0.00        0.00      -50.96


     BFGS Geometry Optimization
     Energy error            =      0.0E+00 Ry
     Gradient error          =      1.6E-01 Ry/Bohr
     Cell gradient error     =      1.2E+02 kbar

     number of scf cycles    =   1
     number of bfgs steps    =   0

     enthalpy           new  =    -225.7492247676 Ry

     new trust radius        =       0.1799763137 bohr
     Message from routine volume:
     axis vectors are left-handed
     new conv_thr            =       0.0000000010 Ry

     new unit-cell volume =   1227.82664 a.u.^3 (   181.94514 Ang^3 )
     density =      1.35223 g/cm^3

CELL_PARAMETERS (angstrom)
   2.535968846   0.000000000   0.000000000
   0.000000000  -4.947991620   0.000000000
   0.000000000   0.000000000  14.499985940

ATOMIC_POSITIONS (crystal)
C                0.0000000000        0.1644388716        0.6509355413
C                0.5000000000        0.2331391188        0.5953340845
C                0.5000000000       -0.0000000000        0.5279234925
C                0.0000000000       -0.0000000000        0.4720765075
C                0.0000000000        0.2331391188        0.4046659155
C                0.5000000000        0.1644388716        0.3490644587
C                0.0000000000        0.8355611284        0.6509355413
C                0.5000000000        0.7668608812        0.5953340845
C                0.5000000000        0.5000000000        0.5336722949
C                0.0000000000        0.5000000000        0.4663277051
C                0.0000000000        0.7668608812        0.4046659155
C                0.5000000000        0.8355611284        0.3490644587
H                0.0000000000        0.2370724852        0.7243888099
H                0.0000000000        0.7629275148        0.7243888099
H                0.5000000000        0.2370724852        0.2756111901
H                0.5000000000        0.7629275148        0.2756111901



     Writing config-only to output data dir /tmp/qe/slab.save/ :
     XML data file
     NEW-OLD atomic charge density approx. for the potential

     negative rho (up, down):  9.894E-08 0.000E+00

     total cpu time spent up to now is       34.5 secs

     Self-consistent Calculation

     iteration #  1     ecut=    90.00 Ry     beta= 0.30
     Davidson diagonalization with overlap
     c_bands:  1 eigenvalues not converged
     c_bands:  1 eigenvalues not converged
     c_bands:  1 eigenvalues not converged
     c_bands:  1 eigenvalues not converged
     c_bands:  2 eigenvalues not converged
     c_bands:  1 eigenvalues not converged
     ethr =  1.00E-06,  avg # of iterations = 17.8

     negative rho (up, down):  2.307E-07 0.000E+00

     total cpu time spent up to now is       40.8 secs

     total energy              =    -225.83956387 Ry
     estimated scf accuracy    <       0.01580959 Ry

     iteration #  2     ecut=    90.00 Ry     beta= 0.30
     Davidson diagonalization with overlap
     ethr =  3.04E-05,  avg # of iterations =  1.9

     negative rho (up, down):  4.976E-07 0.000E+00

     total cpu time spent up to now is       42.4 secs

     total energy              =    -225.83990129 Ry
     estimated scf accuracy    <       0.00446523 Ry

     iteration #  3     ecut=    90.00 Ry     beta= 0.30
     Davidson diagonalization with overlap
     ethr =  8.59E-06,  avg # of iterations =  2.0

     negative rho (up, down):  1.064E-06 0.000E+00

     total cpu time spent up to now is       44.1 secs

     total energy              =    -225.84022041 Ry
     estimated scf accuracy    <       0.00093017 Ry

     iteration #  4     ecut=    90.00 Ry     beta= 0.30
     Davidson diagonalization with overlap
     ethr =  1.79E-06,  avg # of iterations =  3.9

     negative rho (up, down):  1.303E-06 0.000E+00

     total cpu time spent up to now is       45.8 secs

     total energy              =    -225.84028793 Ry
     estimated scf accuracy    <       0.00010752 Ry

     iteration #  5     ecut=    90.00 Ry     beta= 0.30
     Davidson diagonalization with overlap
     ethr =  2.07E-07,  avg # of iterations =  2.2

     negative rho (up, down):  1.166E-06 0.000E+00

     total cpu time spent up to now is       47.7 secs

     total energy              =    -225.84030125 Ry
     estimated scf accuracy    <       0.00001199 Ry

     iteration #  6     ecut=    90.00 Ry     beta= 0.30
     Davidson diagonalization with overlap
     ethr =  2.31E-08,  avg # of iterations =  3.1

     negative rho (up, down):  1.070E-06 0.000E+00

     total cpu time spent up to now is       49.6 secs

     total energy              =    -225.84030387 Ry
     estimated scf accuracy    <       0.00000279 Ry

     iteration #  7     ecut=    90.00 Ry     beta= 0.30
     Davidson diagonalization with overlap
     ethr =  5.37E-09,  avg # of iterations =  2.5

     negative rho (up, down):  1.049E-06 0.000E+00

     total cpu time spent up to now is       51.5 secs

     total energy              =    -225.84030432 Ry
     estimated scf accuracy    <       0.00000078 Ry

     iteration #  8     ecut=    90.00 Ry     beta= 0.30
     Davidson diagonalization with overlap
     ethr =  1.49E-09,  avg # of iterations =  2.2

     negative rho (up, down):  1.024E-06 0.000E+00

     total cpu time spent up to now is       53.3 secs

     total energy              =    -225.84030444 Ry
     estimated scf accuracy    <       0.00000006 Ry

     iteration #  9     ecut=    90.00 Ry     beta= 0.30
     Davidson diagonalization with overlap
     ethr =  1.07E-10,  avg # of iterations =  3.8

     negative rho (up, down):  1.021E-06 0.000E+00

     total cpu time spent up to now is       55.5 secs

     total energy              =    -225.84030444 Ry
     estimated scf accuracy    <       0.00000005 Ry

     iteration # 10     ecut=    90.00 Ry     beta= 0.30
     Davidson diagonalization with overlap
     ethr =  1.05E-10,  avg # of iterations =  3.0

     negative rho (up, down):  1.022E-06 0.000E+00

     total cpu time spent up to now is       57.4 secs

     total energy              =    -225.84030445 Ry
     estimated scf accuracy    <       0.00000002 Ry

     iteration # 11     ecut=    90.00 Ry     beta= 0.30
     Davidson diagonalization with overlap
     ethr =  3.77E-11,  avg # of iterations =  1.4

     negative rho (up, down):  1.027E-06 0.000E+00

     total cpu time spent up to now is       59.0 secs

     total energy              =    -225.84030445 Ry
     estimated scf accuracy    <          5.5E-09 Ry

     iteration # 12     ecut=    90.00 Ry     beta= 0.30
     Davidson diagonalization with overlap
     ethr =  1.05E-11,  avg # of iterations =  3.2

     negative rho (up, down):  1.046E-06 0.000E+00

     total cpu time spent up to now is       61.0 secs

     End of self-consistent calculation

          k = 0.0000-0.0000 0.0000 ( 17977 PWs)   bands (ev):

   -17.8262 -16.0380 -13.1359 -12.6237 -12.2273 -11.6113  -9.1851  -8.4635
    -7.6768  -5.5811  -5.2274  -4.9065  -2.9469  -2.0024  -1.8359  -1.3643
    -1.2257  -1.1223  -0.0256   0.5437   0.5469   0.8554   0.9659   1.3397
     1.4761   1.5370   5.5178   5.9327   7.8729   7.8952   8.3648

          k = 0.0000-0.1021 0.0000 ( 18029 PWs)   bands (ev):

   -17.6959 -15.9533 -14.2714 -12.3574 -12.1543 -11.2047  -8.8958  -7.8760
    -7.8056  -5.5271  -5.3964  -4.5297  -2.8590  -2.2304  -1.9780  -1.7373
    -1.6101  -1.1705  -0.0124   0.0557   0.7175   0.8643   1.0133   1.0836
     1.1262   1.8145   5.7362   6.1608   7.9373   8.0447   8.4556

          k = 0.0000-0.2042 0.0000 ( 17997 PWs)   bands (ev):

   -17.4149 -15.7931 -15.2223 -12.8063 -12.2113 -10.4209  -8.6765  -7.1389
    -6.9878  -5.6533  -5.0887  -4.9693  -3.0586  -2.7687  -2.6867  -1.7773
    -1.6192  -1.0697  -0.5620   0.0616   0.3061   0.6906   0.8283   1.0526
     1.1628   2.1975   6.3827   6.7638   7.4115   7.6531   8.0383

          k = 0.0996-0.0000 0.0000 ( 17999 PWs)   bands (ev):

   -17.6451 -15.8603 -12.9630 -12.4525 -12.0643 -11.4509  -9.0901  -8.3214
    -7.5280  -5.5302  -5.1523  -4.7663  -4.0015  -2.2885  -1.8518  -1.7711
    -1.4260  -1.0153  -0.2697  -0.1903   0.2239   0.2338   0.4985   0.7177
     1.2375   1.5778   5.6720   6.1640   8.2195   8.7339   8.7879

          k = 0.0996-0.1021 0.0000 ( 17998 PWs)   bands (ev):

   -17.5150 -15.7757 -14.0960 -12.1923 -11.9919 -11.0406  -8.8129  -7.7357
    -7.6500  -5.4724  -5.3131  -4.4005  -3.9083  -2.2742  -2.0928  -1.8993
    -1.6737  -1.5436  -0.8175  -0.0809   0.0237   0.2651   0.7019   0.8869
     1.1600   1.3553   5.8934   6.3854   8.1653   8.6533   8.9531

          k = 0.0996-0.2042 0.0000 ( 18005 PWs)   bands (ev):

   -17.2347 -15.6156 -15.0448 -12.6417 -12.0486 -10.2582  -8.5931  -6.9850
    -6.8984  -5.5594  -4.9645  -4.8480  -3.7239  -2.9682  -2.7172  -2.1676
    -1.6060  -1.5426  -1.4864  -0.3602   0.0561   0.2976   0.3533   0.9505
     1.2847   1.4977   6.5459   6.9789   7.5711   7.8534   8.0895

          k = 0.1992-0.0000 0.0000 ( 17977 PWs)   bands (ev):

   -17.1041 -15.3309 -12.4485 -11.9421 -11.5815 -10.9730  -8.9716  -7.9415
    -7.1049  -5.7597  -5.7570  -5.0339  -4.3966  -3.8376  -2.5701  -2.1403
    -1.7242  -1.6003  -1.3402  -1.1495  -0.6952  -0.3647  -0.2312  -0.0421
     0.6639   1.6234   6.1064   6.6661   8.5907   9.1700   9.4749

          k = 0.1992-0.1021 0.0000 ( 18002 PWs)   bands (ev):

   -16.9747 -15.2465 -13.5733 -11.7047 -11.5114 -10.5505  -8.7443  -7.3624
    -7.2084  -5.6711  -5.6594  -5.1730  -4.1133  -3.8044  -2.7477  -2.3637
    -1.8535  -1.8044  -1.3394  -1.3074  -1.0327  -0.6143  -0.1874   0.1683
     0.7581   1.2736   6.3226   6.8757   8.4055   9.0123   9.1394

          k = 0.1992-0.2042 0.0000 ( 17978 PWs)   bands (ev):

   -16.6963 -15.0866 -14.5156 -12.1557 -11.5691  -9.7727  -8.5250  -6.7582
    -6.5688  -5.5561  -5.4858  -4.5918  -4.5844  -3.7941  -3.2475  -2.8313
    -2.6762  -2.1452  -1.5995  -1.4491  -0.9200  -0.5007  -0.0885   0.2141
     0.8751   0.9583   6.9367   7.4599   7.8453   8.1728   8.2526

          k = 0.2989-0.0000 0.0000 ( 18006 PWs)   bands (ev):

   -16.2116 -14.4668 -11.6127 -11.1036 -10.8120 -10.1907  -9.7192  -7.5213
    -7.3402  -6.5381  -6.5160  -5.4342  -4.2435  -4.1475  -3.8729  -3.6841
    -3.2514  -2.6777  -1.4896  -1.1950  -1.1257  -1.0555  -0.4938  -0.3351
    -0.1852   1.6152   6.9073   7.3204   8.9198   9.3604   9.5910

          k = 0.2989-0.1021 0.0000 ( 18004 PWs)   bands (ev):

   -16.0835 -14.3820 -12.7156 -10.9390 -10.7506  -9.7424  -9.5568  -7.2930
    -7.1224  -6.5328  -6.4377  -5.4783  -4.1076  -4.0878  -4.0748  -3.8309
    -2.8259  -2.6227  -1.6820  -1.1794  -1.1502  -1.0682  -0.7656  -0.7204
    -0.0273   1.0779   7.0945   7.5202   8.7116   9.0313   9.0905

          k = 0.2989-0.2042 0.0000 ( 18022 PWs)   bands (ev):

   -15.8077 -14.2204 -13.6471 -11.3885 -10.8201  -9.3541  -8.9751  -7.2469
    -7.1686  -6.2614  -5.8177  -4.6565  -4.4233  -4.0048  -3.9825  -3.8642
    -3.4773  -2.7175  -1.7663  -1.7472  -1.5068  -1.1359  -0.7229  -0.4621
     0.1965   0.3305   7.3911   7.8764   8.0932   8.5084   8.8282

          k = 0.3985-0.0000 0.0000 ( 18042 PWs)   bands (ev):

   -14.9904 -13.3639 -11.3672 -10.6489 -10.0232  -9.9659  -9.1545  -8.8273
    -7.6832  -6.7748  -6.7403  -6.5250  -5.1676  -4.7824  -4.1126  -3.9943
    -3.3549  -2.7011  -2.0909  -1.9378  -1.6263  -1.3790  -1.2301  -0.7743
     0.4378   1.4428   8.0533   8.0672   8.5355   9.5038   9.5298

          k = 0.3985-0.1021 0.0000 ( 18026 PWs)   bands (ev):

   -14.8636 -13.2713 -11.5604 -11.2757 -10.3231  -9.8020  -8.7487  -8.6347
    -7.9748  -6.6490  -6.6100  -5.9525  -5.1040  -4.6740  -4.5057  -3.9318
    -2.8137  -2.6044  -2.0579  -1.8217  -1.7165  -1.3264  -1.2695  -0.7661
    -0.2012   0.6763   8.0992   8.2270   8.6498   8.9118   9.4755

          k = 0.3985-0.2042 0.0000 ( 18001 PWs)   bands (ev):

   -14.5901 -13.0905 -12.4735 -11.0716 -10.5581 -10.2447  -8.5859  -8.4831
    -7.9305  -6.5923  -6.5139  -4.9973  -4.8036  -4.4859  -3.9687  -3.8059
    -2.9095  -2.8513  -1.8398  -1.7013  -1.6795  -1.5131  -1.4470  -1.1300
    -0.5274  -0.4718   7.6702   8.3570   8.7259   9.2607   9.3214

          k =-0.4981 0.0000 0.0000 ( 18082 PWs)   bands (ev):

   -13.5432 -13.5432 -11.5052 -11.5052  -8.9361  -8.9361  -8.6944  -8.6944
    -8.0335  -8.0335  -7.5360  -7.5360  -4.5591  -4.5591  -4.0869  -4.0869
    -3.4399  -3.4399  -2.0045  -2.0045  -1.7615  -1.7615  -1.2323  -1.2323
     1.0309   1.0309   8.5549   8.5549   9.2366   9.2366   9.8223

          k =-0.4981-0.1021 0.0000 ( 18012 PWs)   bands (ev):

   -13.4165 -13.4165 -11.4425 -11.4425 -10.1923 -10.1923  -8.0340  -8.0340
    -7.7925  -7.7925  -7.2666  -7.2666  -4.4841  -4.4841  -4.1721  -4.1721
    -3.0309  -3.0309  -2.0917  -2.0917  -1.6878  -1.6878  -1.1228  -1.1228
     0.2164   0.2164   8.3819   8.3819   9.4485   9.4486   9.7366

          k =-0.4981-0.2042 0.0000 ( 17986 PWs)   bands (ev):

   -13.1399 -13.1399 -11.3288 -11.3288 -11.1210 -11.1210  -8.2512  -8.2512
    -7.8487  -7.8487  -6.3495  -6.3495  -4.3384  -4.3384  -3.6289  -3.6289
    -2.7177  -2.7177  -1.8866  -1.8866  -1.7965  -1.7965  -1.3780  -1.3780
    -0.9717  -0.9717   8.2702   8.2702   9.3543   9.3545   9.6545

     the Fermi energy is     3.5904 ev

!    total energy              =    -225.84030445 Ry
     estimated scf accuracy    <          9.2E-10 Ry
     smearing contrib. (-TS)   =       0.00000000 Ry
     internal energy E=F+TS    =    -225.84030445 Ry

     The total energy is F=E-TS. E is the sum of the following terms:
     one-electron contribution =   -1145.58402426 Ry
     hartree contribution      =     593.42352492 Ry
     xc contribution           =     -58.77897125 Ry
     ewald contribution        =     459.05966353 Ry
     one-center paw contrib.   =     -73.96049739 Ry

     convergence has been achieved in  12 iterations

     negative rho (up, down):  1.046E-06 0.000E+00

     Forces acting on atoms (cartesian axes, Ry/au):

     atom    1 type  1   force =     0.00000000   -0.00104869    0.02852095
     atom    2 type  1   force =     0.00000000   -0.03258929   -0.01910750
     atom    3 type  1   force =     0.00000000   -0.00000000    0.02357531
     atom    4 type  1   force =     0.00000000    0.00000000   -0.02357531
     atom    5 type  1   force =     0.00000000   -0.03258929    0.01910750
     atom    6 type  1   force =     0.00000000   -0.00104869   -0.02852095
     atom    7 type  1   force =     0.00000000    0.00104869    0.02852095
     atom    8 type  1   force =    -0.00000000    0.03258929   -0.01910750
     atom    9 type  1   force =     0.00000000   -0.00000000    0.00415901
     atom   10 type  1   force =     0.00000000    0.00000000   -0.00415901
     atom   11 type  1   force =     0.00000000    0.03258929    0.01910750
     atom   12 type  1   force =     0.00000000    0.00104869   -0.02852095
     atom   13 type  2   force =    -0.00000000   -0.00389816   -0.03078757
     atom   14 type  2   force =     0.00000000    0.00389816   -0.03078757
     atom   15 type  2   force =     0.00000000   -0.00389816    0.03078757
     atom   16 type  2   force =     0.00000000    0.00389816    0.03078757

     Total force =     0.118175     Total SCF correction =     0.000097


     Computing stress (Cartesian axis) and pressure


     negative rho (up, down):  1.046E-06 0.000E+00
          total   stress  (Ry/bohr**3)                   (kbar)     P=      -16.22
   0.00002787   0.00000000   0.00000000            4.10        0.00        0.00
   0.00000000   0.00000163   0.00000000            0.00        0.24        0.00
   0.00000000   0.00000000  -0.00036019            0.00        0.00      -52.99

     Energy error            =      9.1E-02 Ry
     Gradient error          =      3.3E-02 Ry/Bohr
     Cell gradient error     =      4.1E+00 kbar

     number of scf cycles    =   2
     number of bfgs steps    =   1

     enthalpy           old  =    -225.7492247676 Ry
     enthalpy           new  =    -225.8403044487 Ry

     CASE: enthalpy          _new < enthalpy          _old

     new trust radius        =       0.0271882604 bohr
     Message from routine volume:
     axis vectors are left-handed
     new conv_thr            =       0.0000000010 Ry

     new unit-cell volume =   1228.11558 a.u.^3 (   181.98795 Ang^3 )
     density =      1.35191 g/cm^3

CELL_PARAMETERS (angstrom)
   2.537638002   0.000000000   0.000000000
   0.000000000  -4.945900679   0.000000000
   0.000000000   0.000000000  14.499985940

ATOMIC_POSITIONS (crystal)
C                0.0000000000        0.1646621714        0.6517503682
C                0.5000000000        0.2356033976        0.5948073995
C                0.5000000000       -0.0000000000        0.5285895274
C                0.0000000000       -0.0000000000        0.4714104726
C                0.0000000000        0.2356033976        0.4051926005
C                0.5000000000        0.1646621714        0.3482496318
C                0.0000000000        0.8353378286        0.6517503682
C                0.5000000000        0.7643966024        0.5948073995
C                0.5000000000        0.5000000000        0.5338630392
C                0.0000000000        0.5000000000        0.4661369608
C                0.0000000000        0.7643966024        0.4051926005
C                0.5000000000        0.8353378286        0.3482496318
H               -0.0000000000        0.2374357347        0.7234430892
H                0.0000000000        0.7625642653        0.7234430892
H                0.5000000000        0.2374357347        0.2765569108
H                0.5000000000        0.7625642653        0.2765569108



     Writing config-only to output data dir /tmp/qe/slab.save/ :
     XML data file
     NEW-OLD atomic charge density approx. for the potential

     negative rho (up, down):  1.312E-06 0.000E+00

     total cpu time spent up to now is       65.5 secs

     Self-consistent Calculation

     iteration #  1     ecut=    90.00 Ry     beta= 0.30
     Davidson diagonalization with overlap
     ethr =  1.00E-06,  avg # of iterations =  9.8

     negative rho (up, down):  1.362E-06 0.000E+00

     total cpu time spent up to now is       69.3 secs

     total energy              =    -225.84580819 Ry
     estimated scf accuracy    <       0.00103300 Ry

     iteration #  2     ecut=    90.00 Ry     beta= 0.30
     Davidson diagonalization with overlap
     ethr =  1.99E-06,  avg # of iterations =  1.1

     negative rho (up, down):  1.466E-06 0.000E+00

     total cpu time spent up to now is       70.9 secs

     total energy              =    -225.84570089 Ry
     estimated scf accuracy    <       0.00038153 Ry

     iteration #  3     ecut=    90.00 Ry     beta= 0.30
     Davidson diagonalization with overlap
     ethr =  7.34E-07,  avg # of iterations =  2.0

     negative rho (up, down):  1.382E-06 0.000E+00

     total cpu time spent up to now is       72.6 secs

     total energy              =    -225.84574377 Ry
     estimated scf accuracy    <       0.00001806 Ry

     iteration #  4     ecut=    90.00 Ry     beta= 0.30
     Davidson diagonalization with overlap
     ethr =  3.47E-08,  avg # of iterations =  2.1

     negative rho (up, down):  1.320E-06 0.000E+00

     total cpu time spent up to now is       74.4 secs

     total energy              =    -225.84574689 Ry
     estimated scf accuracy    <       0.00000292 Ry

     iteration #  5     ecut=    90.00 Ry     beta= 0.30
     Davidson diagonalization with overlap
     ethr =  5.62E-09,  avg # of iterations =  2.1

     negative rho (up, down):  1.287E-06 0.000E+00

     total cpu time spent up to now is       76.3 secs

     total energy              =    -225.84574729 Ry
     estimated scf accuracy    <       0.00000049 Ry

     iteration #  6     ecut=    90.00 Ry     beta= 0.30
     Davidson diagonalization with overlap
     ethr =  9.49E-10,  avg # of iterations =  2.1

     negative rho (up, down):  1.269E-06 0.000E+00

     total cpu time spent up to now is       77.9 secs

     total energy              =    -225.84574734 Ry
     estimated scf accuracy    <       0.00000011 Ry

     iteration #  7     ecut=    90.00 Ry     beta= 0.30
     Davidson diagonalization with overlap
     ethr =  2.17E-10,  avg # of iterations =  2.3

     negative rho (up, down):  1.267E-06 0.000E+00

     total cpu time spent up to now is       79.8 secs

     total energy              =    -225.84574735 Ry
     estimated scf accuracy    <          7.5E-09 Ry

     iteration #  8     ecut=    90.00 Ry     beta= 0.30
     Davidson diagonalization with overlap
     ethr =  1.44E-11,  avg # of iterations =  3.7

     negative rho (up, down):  1.267E-06 0.000E+00

     total cpu time spent up to now is       82.0 secs

     total energy              =    -225.84574735 Ry
     estimated scf accuracy    <          5.4E-09 Ry

     iteration #  9     ecut=    90.00 Ry     beta= 0.30
     Davidson diagonalization with overlap
     ethr =  1.03E-11,  avg # of iterations =  2.8

     negative rho (up, down):  1.267E-06 0.000E+00

     total cpu time spent up to now is       83.9 secs

     total energy              =    -225.84574736 Ry
     estimated scf accuracy    <          2.4E-09 Ry

     iteration # 10     ecut=    90.00 Ry     beta= 0.30
     Davidson diagonalization with overlap
     ethr =  4.68E-12,  avg # of iterations =  2.0

     negative rho (up, down):  1.271E-06 0.000E+00

     total cpu time spent up to now is       85.8 secs

     End of self-consistent calculation

          k = 0.0000-0.0000 0.0000 ( 17977 PWs)   bands (ev):

   -17.7208 -15.9065 -13.1382 -12.5721 -12.1485 -11.5368  -9.2871  -8.4716
    -7.7220  -5.6291  -5.3584  -4.8707  -2.7506  -2.0080  -1.9388  -1.4225
    -1.1648  -0.9931  -0.1417   0.4775   0.6699   1.0896   1.2072   1.3442
     1.4635   1.6620   5.5293   5.9827   7.9806   8.0078   8.3945

          k = 0.0000-0.1022 0.0000 ( 18029 PWs)   bands (ev):

   -17.5825 -15.8162 -14.2718 -12.2819 -12.1120 -11.1519  -8.9570  -7.9122
    -7.8521  -5.5698  -5.5054  -4.5049  -2.6526  -2.3159  -1.9825  -1.8019
    -1.6619  -0.9327  -0.0535   0.0874   0.6325   0.9927   1.0947   1.1716
     1.2788   1.9892   5.7495   6.2095   8.0056   8.1713   8.5909

          k = 0.0000-0.2043 0.0000 ( 17997 PWs)   bands (ev):

   -17.2752 -15.6429 -15.2511 -12.7922 -12.1260 -10.3779  -8.7103  -7.1714
    -7.1124  -5.6722  -5.0955  -4.9877  -3.1013  -2.8955  -2.4538  -1.7959
    -1.6416  -0.8210  -0.5042   0.0334   0.2225   0.6916   0.9016   1.1928
     1.3262   2.3862   6.3993   6.8058   7.4283   7.7091   8.0768

          k = 0.0996-0.0000 0.0000 ( 17999 PWs)   bands (ev):

   -17.5398 -15.7290 -12.9659 -12.4008 -11.9855 -11.3761  -9.1918  -8.3334
    -7.5750  -5.5756  -5.2857  -4.7321  -3.8394  -2.0818  -1.8753  -1.8287
    -1.4752  -1.0600  -0.3260  -0.0587   0.3957   0.4059   0.4536   0.8786
     1.2917   1.5067   5.6848   6.2081   8.2798   8.8090   8.8214

          k = 0.0996-0.1022 0.0000 ( 17998 PWs)   bands (ev):

   -17.4017 -15.6388 -14.0969 -12.1169 -11.9499 -10.9876  -8.8745  -7.7752
    -7.6984  -5.5122  -5.4234  -4.3793  -3.7379  -2.2337  -2.0168  -1.8912
    -1.7299  -1.5747  -0.7372  -0.1475   0.1630   0.4622   0.6913   0.9692
     1.2346   1.3779   5.9075   6.4274   8.2235   8.7611   8.9528

          k = 0.0996-0.2043 0.0000 ( 18005 PWs)   bands (ev):

   -17.0950 -15.4656 -15.0741 -12.6281 -11.9636 -10.2146  -8.6278  -7.0249
    -7.0195  -5.5793  -4.9725  -4.8662  -3.5324  -3.0121  -2.8438  -1.9663
    -1.5910  -1.5450  -1.4467  -0.3066   0.1431   0.3462   0.4168   0.9644
     1.3336   1.6457   6.5615   7.0114   7.5830   7.8946   8.1332

          k = 0.1991-0.0000 0.0000 ( 17977 PWs)   bands (ev):

   -16.9992 -15.2007 -12.4536 -11.8905 -11.5036 -10.8975  -9.0552  -7.9680
    -7.1577  -5.7402  -5.6204  -5.1675  -4.3693  -3.7074  -2.5288  -2.0659
    -1.7870  -1.4497  -1.1722  -1.0700  -0.7474  -0.4155  -0.1647  -0.1425
     0.7508   1.5373   6.1345   6.7134   8.6056   9.0544   9.4138

          k = 0.1991-0.1022 0.0000 ( 18002 PWs)   bands (ev):

   -16.8618 -15.1107 -13.5757 -11.6305 -11.4710 -10.4974  -8.7907  -7.4139
    -7.2626  -5.6477  -5.5157  -5.2754  -4.0958  -3.6799  -2.7273  -2.2587
    -1.9414  -1.7505  -1.2850  -1.2462  -0.8906  -0.6280  -0.1518   0.1191
     0.8341   1.1932   6.3498   6.9216   8.4240   9.0701   9.1407

          k = 0.1991-0.2043 0.0000 ( 17978 PWs)   bands (ev):

   -16.5567 -14.9373 -14.5467 -12.1446 -11.4860  -9.7276  -8.5471  -6.8842
    -6.6050  -5.5367  -5.3249  -4.5954  -4.5816  -3.6697  -3.2510  -2.9075
    -2.6808  -2.0557  -1.5379  -1.4339  -0.7995  -0.3757  -0.0659   0.1707
     0.8162   1.0079   6.9576   7.4982   7.8502   8.2132   8.2832

          k = 0.2987-0.0000 0.0000 ( 18006 PWs)   bands (ev):

   -16.1079 -14.3400 -11.6219 -11.0530 -10.7397 -10.1158  -9.6932  -7.5837
    -7.1949  -6.5983  -6.4898  -5.5049  -4.1639  -4.1527  -3.7482  -3.6571
    -3.0690  -2.5749  -1.5793  -1.1894  -1.1511  -1.1264  -0.4700  -0.2526
    -0.2360   1.5139   6.9597   7.3691   8.8493   9.3261   9.4758

          k = 0.2987-0.1022 0.0000 ( 18004 PWs)   bands (ev):

   -15.9717 -14.2492 -12.7214 -10.8708 -10.7197  -9.6899  -9.5032  -7.1851
    -7.1559  -6.5815  -6.4032  -5.5069  -4.1016  -4.0400  -3.9914  -3.7914
    -2.7031  -2.4738  -1.7631  -1.2357  -1.1744  -1.0630  -0.7838  -0.7052
     0.0233   0.9907   7.1412   7.5681   8.6991   9.0183   9.0397

          k = 0.2987-0.2043 0.0000 ( 18022 PWs)   bands (ev):

   -15.6689 -14.0735 -13.6819 -11.3869 -10.7447  -9.2836  -8.9288  -7.3189
    -7.0147  -6.2050  -5.8509  -4.6339  -4.4254  -3.9951  -3.9864  -3.7804
    -3.4797  -2.6457  -1.8162  -1.7041  -1.4829  -1.0715  -0.7127  -0.5070
     0.2336   0.2725   7.4113   7.8709   8.1354   8.5500   8.8305

          k = 0.3982-0.0000 0.0000 ( 18042 PWs)   bands (ev):

   -14.8901 -13.2512 -11.2677 -10.6446  -9.9790  -9.9196  -9.0878  -8.6516
    -7.7494  -6.7499  -6.7219  -6.5298  -5.0517  -4.7504  -4.0395  -3.9949
    -3.3793  -2.6498  -2.1852  -1.9372  -1.7183  -1.3336  -1.1204  -0.7438
     0.3524   1.3352   8.0184   8.1306   8.5803   9.4266   9.5563

          k = 0.3982-0.1022 0.0000 ( 18026 PWs)   bands (ev):

   -14.7549 -13.1514 -11.5731 -11.1746 -10.2609  -9.7857  -8.6028  -8.5502
    -7.9614  -6.6171  -6.6073  -5.9619  -4.9866  -4.6502  -4.5138  -3.9741
    -2.7743  -2.5546  -2.1070  -1.9166  -1.6906  -1.2721  -1.2086  -0.7601
    -0.2611   0.5866   8.1199   8.1998   8.6818   8.9565   9.4541

          k = 0.3982-0.2043 0.0000 ( 18001 PWs)   bands (ev):

   -14.4537 -12.9517 -12.5158 -10.9638 -10.5768 -10.1791  -8.4631  -8.3875
    -7.8917  -6.5368  -6.4619  -4.8810  -4.7803  -4.5303  -4.0422  -3.8501
    -2.9081  -2.9080  -1.7598  -1.7492  -1.6699  -1.5094  -1.4391  -1.1212
    -0.5111  -0.4989   7.6619   8.3673   8.6969   9.3339   9.3711

          k =-0.4978 0.0000 0.0000 ( 18082 PWs)   bands (ev):

   -13.4530 -13.4530 -11.3836 -11.3836  -8.9610  -8.9610  -8.6646  -8.6646
    -7.9249  -7.9249  -7.4598  -7.4598  -4.5691  -4.5691  -4.1056  -4.1056
    -3.4019  -3.4019  -2.0922  -2.0922  -1.7156  -1.7156  -1.1668  -1.1668
     0.9298   0.9298   8.4715   8.4715   9.3186   9.3186   9.8541

          k =-0.4978-0.1022 0.0000 ( 18012 PWs)   bands (ev):

   -13.3177 -13.3177 -11.3186 -11.3186 -10.2149 -10.2149  -7.9402  -7.9402
    -7.7054  -7.7054  -7.2275  -7.2275  -4.4996  -4.4996  -4.2228  -4.2228
    -2.9820  -2.9820  -2.1664  -2.1664  -1.6213  -1.6213  -1.0826  -1.0826
     0.1262   0.1262   8.3307   8.3307   9.5061   9.5062   9.8406

          k =-0.4978-0.2043 0.0000 ( 17986 PWs)   bands (ev):

   -13.0111 -13.0111 -11.2207 -11.2207 -11.1557 -11.1557  -8.1970  -8.1970
    -7.7167  -7.7167  -6.2870  -6.2870  -4.3348  -4.3348  -3.7408  -3.7408
    -2.7693  -2.7693  -1.8464  -1.8464  -1.7630  -1.7630  -1.3859  -1.3859
    -0.9693  -0.9693   8.2361   8.2361   9.3597   9.3599   9.7209

     the Fermi energy is     3.6406 ev

!    total energy              =    -225.84574736 Ry
     estimated scf accuracy    <          1.4E-10 Ry
     smearing contrib. (-TS)   =       0.00000000 Ry
     internal energy E=F+TS    =    -225.84574736 Ry

     The total energy is F=E-TS. E is the sum of the following terms:
     one-electron contribution =   -1143.48763023 Ry
     hartree contribution      =     592.43994021 Ry
     xc contribution           =     -58.79118992 Ry
     ewald contribution        =     457.95313608 Ry
     one-center paw contrib.   =     -73.96000350 Ry

     convergence has been achieved in  10 iterations

     negative rho (up, down):  1.271E-06 0.000E+00

     Forces acting on atoms (cartesian axes, Ry/au):

     atom    1 type  1   force =     0.00000000    0.00280063   -0.01262917
     atom    2 type  1   force =     0.00000000   -0.00709385    0.00424506
     atom    3 type  1   force =     0.00000000    0.00000000   -0.00194022
     atom    4 type  1   force =     0.00000000   -0.00000000    0.00194022
     atom    5 type  1   force =     0.00000000   -0.00709385   -0.00424506
     atom    6 type  1   force =    -0.00000000    0.00280063    0.01262917
     atom    7 type  1   force =     0.00000000   -0.00280063   -0.01262917
     atom    8 type  1   force =    -0.00000000    0.00709385    0.00424506
     atom    9 type  1   force =     0.00000000    0.00000000   -0.00371903
     atom   10 type  1   force =     0.00000000   -0.00000000    0.00371903
     atom   11 type  1   force =    -0.00000000    0.00709385   -0.00424506
     atom   12 type  1   force =     0.00000000   -0.00280063    0.01262917
     atom   13 type  2   force =    -0.00000000   -0.01180515   -0.00615307
     atom   14 type  2   force =     0.00000000    0.01180515   -0.00615307
     atom   15 type  2   force =     0.00000000   -0.01180515    0.00615307
     atom   16 type  2   force =     0.00000000    0.01180515    0.00615307

     Total force =     0.041071     Total SCF correction =     0.000033


     Computing stress (Cartesian axis) and pressure


     negative rho (up, down):  1.271E-06 0.000E+00
          total   stress  (Ry/bohr**3)                   (kbar)     P=      -15.75
  -0.00001365   0.00000000   0.00000000           -2.01        0.00        0.00
   0.00000000  -0.00004087   0.00000000            0.00       -6.01        0.00
   0.00000000   0.00000000  -0.00026676            0.00        0.00      -39.24

     Energy error            =      5.4E-03 Ry
     Gradient error          =      1.3E-02 Ry/Bohr
     Cell gradient error     =      6.0E+00 kbar

     number of scf cycles    =   3
     number of bfgs steps    =   2

     enthalpy           old  =    -225.8403044487 Ry
     enthalpy           new  =    -225.8457473588 Ry

     CASE: enthalpy          _new < enthalpy          _old

     new trust radius        =       0.0157310723 bohr
     Message from routine volume:
     axis vectors are left-handed
     new conv_thr            =       0.0000000010 Ry

     new unit-cell volume =   1226.45878 a.u.^3 (   181.74244 Ang^3 )
     density =      1.35374 g/cm^3

CELL_PARAMETERS (angstrom)
   2.537078266   0.000000000   0.000000000
   0.000000000  -4.940318038   0.000000000
   0.000000000   0.000000000  14.499985940

ATOMIC_POSITIONS (crystal)
C                0.0000000000        0.1644172205        0.6514226254
C                0.5000000000        0.2367192671        0.5948775281
C                0.5000000000       -0.0000000000        0.5286260486
C                0.0000000000       -0.0000000000        0.4713739514
C                0.0000000000        0.2367192671        0.4051224719
C                0.5000000000        0.1644172205        0.3485773746
C                0.0000000000        0.8355827795        0.6514226254
C                0.5000000000        0.7632807329        0.5948775281
C                0.5000000000        0.5000000000        0.5337612008
C                0.0000000000        0.5000000000        0.4662387992
C               -0.0000000000        0.7632807329        0.4051224719
C                0.5000000000        0.8355827795        0.3485773746
H               -0.0000000000        0.2387014721        0.7230646732
H                0.0000000000        0.7612985279        0.7230646732
H                0.5000000000        0.2387014721        0.2769353268
H                0.5000000000        0.7612985279        0.2769353268



     Writing config-only to output data dir /tmp/qe/slab.save/ :
     XML data file
     NEW-OLD atomic charge density approx. for the potential

     negative rho (up, down):  1.364E-06 0.000E+00

     total cpu time spent up to now is       90.3 secs

     Self-consistent Calculation

     iteration #  1     ecut=    90.00 Ry     beta= 0.30
     Davidson diagonalization with overlap
     ethr =  1.00E-06,  avg # of iterations =  4.1

     negative rho (up, down):  1.281E-06 0.000E+00

     total cpu time spent up to now is       92.9 secs

     total energy              =    -225.84699518 Ry
     estimated scf accuracy    <       0.00007723 Ry

     iteration #  2     ecut=    90.00 Ry     beta= 0.30
     Davidson diagonalization with overlap
     ethr =  1.49E-07,  avg # of iterations =  2.0

     negative rho (up, down):  1.157E-06 0.000E+00

     total cpu time spent up to now is       94.6 secs

     total energy              =    -225.84699391 Ry
     estimated scf accuracy    <       0.00003536 Ry

     iteration #  3     ecut=    90.00 Ry     beta= 0.30
     Davidson diagonalization with overlap
     ethr =  6.80E-08,  avg # of iterations =  2.0

     negative rho (up, down):  1.146E-06 0.000E+00

     total cpu time spent up to now is       96.5 secs

     total energy              =    -225.84699881 Ry
     estimated scf accuracy    <       0.00000367 Ry

     iteration #  4     ecut=    90.00 Ry     beta= 0.30
     Davidson diagonalization with overlap
     ethr =  7.06E-09,  avg # of iterations =  1.8

     negative rho (up, down):  1.145E-06 0.000E+00

     total cpu time spent up to now is       98.1 secs

     total energy              =    -225.84699841 Ry
     estimated scf accuracy    <       0.00000150 Ry

     iteration #  5     ecut=    90.00 Ry     beta= 0.30
     Davidson diagonalization with overlap
     ethr =  2.89E-09,  avg # of iterations =  3.3

     negative rho (up, down):  1.141E-06 0.000E+00

     total cpu time spent up to now is      100.1 secs

     total energy              =    -225.84699887 Ry
     estimated scf accuracy    <       0.00000071 Ry

     iteration #  6     ecut=    90.00 Ry     beta= 0.30
     Davidson diagonalization with overlap
     ethr =  1.36E-09,  avg # of iterations =  2.0

     negative rho (up, down):  1.143E-06 0.000E+00

     total cpu time spent up to now is      101.8 secs

     total energy              =    -225.84699888 Ry
     estimated scf accuracy    <       0.00000010 Ry

     iteration #  7     ecut=    90.00 Ry     beta= 0.30
     Davidson diagonalization with overlap
     ethr =  1.84E-10,  avg # of iterations =  3.6

     negative rho (up, down):  1.143E-06 0.000E+00

     total cpu time spent up to now is      104.0 secs

     total energy              =    -225.84699894 Ry
     estimated scf accuracy    <       0.00000005 Ry

     iteration #  8     ecut=    90.00 Ry     beta= 0.30
     Davidson diagonalization with overlap
     ethr =  1.02E-10,  avg # of iterations =  1.0

     negative rho (up, down):  1.146E-06 0.000E+00

     total cpu time spent up to now is      105.5 secs

     total energy              =    -225.84699891 Ry
     estimated scf accuracy    <       0.00000003 Ry

     iteration #  9     ecut=    90.00 Ry     beta= 0.30
     Davidson diagonalization with overlap
     ethr =  6.40E-11,  avg # of iterations =  2.8

     negative rho (up, down):  1.146E-06 0.000E+00

     total cpu time spent up to now is      107.6 secs

     total energy              =    -225.84699892 Ry
     estimated scf accuracy    <          8.2E-09 Ry

     iteration # 10     ecut=    90.00 Ry     beta= 0.30
     Davidson diagonalization with overlap
     ethr =  1.58E-11,  avg # of iterations =  2.4

     negative rho (up, down):  1.146E-06 0.000E+00

     total cpu time spent up to now is      109.4 secs

     End of self-consistent calculation

          k = 0.0000-0.0000 0.0000 ( 17977 PWs)   bands (ev):

   -17.7343 -15.9267 -13.1784 -12.5943 -12.1407 -11.5611  -9.3226  -8.4695
    -7.7238  -5.6048  -5.3473  -4.9186  -2.7582  -1.9533  -1.9310  -1.4710
    -1.1272  -1.0266  -0.1331   0.4579   0.6475   1.0594   1.1764   1.3596
     1.4947   1.6363   5.5469   5.9915   7.9693   7.9971   8.4079

          k = 0.0000-0.1023 0.0000 ( 18029 PWs)   bands (ev):

   -17.5933 -15.8346 -14.3105 -12.2825 -12.1476 -11.1694  -8.9509  -7.9387
    -7.8614  -5.5431  -5.5030  -4.5331  -2.6570  -2.3379  -1.9415  -1.7679
    -1.6803  -0.9651  -0.0569   0.0482   0.6063   1.0205   1.0617   1.2121
     1.2688   1.9573   5.7677   6.2194   8.0017   8.1606   8.5993

          k = 0.0000-0.2045 0.0000 ( 17997 PWs)   bands (ev):

   -17.2770 -15.6570 -15.2998 -12.8379 -12.1201 -10.4042  -8.6812  -7.1821
    -7.1439  -5.6531  -5.1133  -4.9746  -3.1201  -2.9093  -2.4495  -1.7380
    -1.6661  -0.8509  -0.5566   0.0133   0.2543   0.6698   0.8644   1.2488
     1.3196   2.3558   6.4186   6.8175   7.4504   7.7270   8.0867

          k = 0.0996-0.0000 0.0000 ( 17999 PWs)   bands (ev):

   -17.5531 -15.7492 -13.0061 -12.4230 -11.9777 -11.4003  -9.2249  -8.3330
    -7.5766  -5.5529  -5.2748  -4.7793  -3.8418  -2.1049  -1.8655  -1.8004
    -1.5094  -1.0248  -0.3167  -0.0765   0.3656   0.3659   0.4235   0.8554
     1.3157   1.5362   5.7022   6.2196   8.2768   8.7950   8.8312

          k = 0.0996-0.1023 0.0000 ( 17998 PWs)   bands (ev):

   -17.4123 -15.6572 -14.1355 -12.1174 -11.9855 -11.0053  -8.8681  -7.8014
    -7.7075  -5.4864  -5.4213  -4.4079  -3.7372  -2.2569  -2.0357  -1.8933
    -1.6990  -1.5626  -0.7672  -0.1602   0.1284   0.4665   0.6573   0.9701
     1.2740   1.3660   5.9256   6.4397   8.2252   8.7720   8.9693

          k = 0.0996-0.2045 0.0000 ( 18005 PWs)   bands (ev):

   -17.0966 -15.4796 -15.1228 -12.6737 -11.9577 -10.2410  -8.5986  -7.0564
    -7.0300  -5.5589  -4.9906  -4.8543  -3.5235  -3.0298  -2.8607  -1.9911
    -1.5636  -1.5591  -1.4783  -0.3316   0.1346   0.3726   0.3857   0.9461
     1.3785   1.6191   6.5809   7.0246   7.6043   7.9153   8.1409

          k = 0.1991-0.0000 0.0000 ( 17977 PWs)   bands (ev):

   -17.0120 -15.2204 -12.4939 -11.9125 -11.4954 -10.9217  -9.0782  -7.9775
    -7.1592  -5.7341  -5.6247  -5.1590  -4.4079  -3.7180  -2.5627  -2.0694
    -1.7784  -1.4634  -1.1941  -1.0530  -0.7194  -0.4172  -0.1997  -0.1922
     0.7805   1.5614   6.1505   6.7260   8.6197   9.0354   9.3780

          k = 0.1991-0.1023 0.0000 ( 18002 PWs)   bands (ev):

   -16.8719 -15.1285 -13.6143 -11.6306 -11.5067 -10.5154  -8.7839  -7.4401
    -7.2711  -5.6358  -5.5172  -5.2774  -4.1225  -3.6879  -2.7589  -2.2543
    -1.9601  -1.7551  -1.3143  -1.2449  -0.8694  -0.6355  -0.1612   0.0772
     0.8704   1.2076   6.3667   6.9349   8.4328   9.0884   9.1369

          k = 0.1991-0.2045 0.0000 ( 17978 PWs)   bands (ev):

   -16.5577 -14.9508 -14.5954 -12.1902 -11.4800  -9.7539  -8.5197  -6.9167
    -6.6152  -5.5186  -5.3218  -4.6111  -4.5791  -3.6788  -3.2822  -2.9392
    -2.7042  -2.0526  -1.5354  -1.4692  -0.7646  -0.3915  -0.0945   0.1674
     0.8104   1.0425   6.9754   7.5121   7.8602   8.2263   8.3024

          k = 0.2987-0.0000 0.0000 ( 18006 PWs)   bands (ev):

   -16.1198 -14.3585 -11.6624 -11.0746 -10.7312 -10.1396  -9.7043  -7.6182
    -7.2121  -6.6008  -6.4792  -5.5089  -4.1908  -4.1462  -3.7590  -3.6964
    -3.0959  -2.5818  -1.5578  -1.1916  -1.1827  -1.1210  -0.5089  -0.2326
    -0.2101   1.5313   6.9749   7.3833   8.8086   9.3448   9.4569

          k = 0.2987-0.1023 0.0000 ( 18004 PWs)   bands (ev):

   -15.9808 -14.2658 -12.7599 -10.8702 -10.7564  -9.7084  -9.5016  -7.2163
    -7.1721  -6.5864  -6.3932  -5.5265  -4.0816  -4.0778  -4.0119  -3.7959
    -2.7252  -2.4986  -1.7653  -1.2402  -1.1677  -1.0310  -0.8084  -0.7391
     0.0475   1.0049   7.1581   7.5832   8.7056   9.0094   9.0156

          k = 0.2987-0.2045 0.0000 ( 18022 PWs)   bands (ev):

   -15.6686 -14.0855 -13.7306 -11.4331 -10.7390  -9.2704  -8.9550  -7.3577
    -7.0259  -6.1871  -5.8546  -4.6650  -4.4629  -3.9972  -3.9734  -3.7876
    -3.4865  -2.6786  -1.8119  -1.7234  -1.4956  -1.0327  -0.7456  -0.5066
     0.2471   0.2720   7.4261   7.8686   8.1542   8.5606   8.8438

          k = 0.3983-0.0000 0.0000 ( 18042 PWs)   bands (ev):

   -14.9002 -13.2648 -11.2840 -10.6808  -9.9829  -9.9403  -9.1102  -8.6649
    -7.7859  -6.7675  -6.7133  -6.5433  -5.0486  -4.7953  -4.0178  -4.0106
    -3.4191  -2.6552  -2.1661  -1.9890  -1.6943  -1.3092  -1.1130  -0.7882
     0.3671   1.3488   8.0303   8.1432   8.5511   9.4058   9.5827

          k = 0.3983-0.1023 0.0000 ( 18026 PWs)   bands (ev):

   -14.7622 -13.1629 -11.6118 -11.1895 -10.2656  -9.8163  -8.6259  -8.5594
    -7.9951  -6.6255  -6.6035  -5.9857  -4.9814  -4.6785  -4.5501  -3.9494
    -2.7825  -2.5775  -2.1027  -1.9094  -1.7247  -1.2400  -1.2028  -0.8045
    -0.2516   0.6013   8.1297   8.2147   8.6811   8.9305   9.4544

          k = 0.3983-0.2045 0.0000 ( 18001 PWs)   bands (ev):

   -14.4512 -12.9578 -12.5646 -10.9759 -10.6145 -10.1820  -8.5048  -8.3940
    -7.9180  -6.5709  -6.4421  -4.8806  -4.7950  -4.5481  -4.0764  -3.8243
    -2.9213  -2.9091  -1.7622  -1.7256  -1.6764  -1.5140  -1.4715  -1.0984
    -0.5340  -0.5068   7.6660   8.3650   8.7179   9.3526   9.3944

          k =-0.4979 0.0000 0.0000 ( 18082 PWs)   bands (ev):

   -13.4592 -13.4592 -11.4083 -11.4083  -8.9963  -8.9963  -8.6825  -8.6825
    -7.9208  -7.9208  -7.4842  -7.4842  -4.5691  -4.5691  -4.1373  -4.1373
    -3.4086  -3.4086  -2.0688  -2.0688  -1.7174  -1.7174  -1.1969  -1.1969
     0.9425   0.9425   8.4535   8.4535   9.3357   9.3357   9.8828

          k =-0.4979-0.1023 0.0000 ( 18012 PWs)   bands (ev):

   -13.3207 -13.3207 -11.3422 -11.3422 -10.2490 -10.2490  -7.9517  -7.9517
    -7.7237  -7.7237  -7.2455  -7.2455  -4.5005  -4.5005  -4.2325  -4.2325
    -3.0079  -3.0079  -2.1482  -2.1482  -1.6051  -1.6051  -1.1237  -1.1237
     0.1380   0.1380   8.3203   8.3203   9.5304   9.5304   9.8517

          k =-0.4979-0.2045 0.0000 ( 17986 PWs)   bands (ev):

   -13.0029 -13.0029 -11.2583 -11.2583 -11.1863 -11.1863  -8.2354  -8.2354
    -7.7095  -7.7095  -6.3134  -6.3134  -4.3145  -4.3145  -3.7576  -3.7576
    -2.7902  -2.7902  -1.8412  -1.8412  -1.7440  -1.7440  -1.3645  -1.3645
    -1.0228  -1.0228   8.2352   8.2352   9.3748   9.3753   9.7276

     the Fermi energy is     3.6588 ev

!    total energy              =    -225.84699893 Ry
     estimated scf accuracy    <          1.2E-10 Ry
     smearing contrib. (-TS)   =       0.00000000 Ry
     internal energy E=F+TS    =    -225.84699893 Ry

     The total energy is F=E-TS. E is the sum of the following terms:
     one-electron contribution =   -1146.84432860 Ry
     hartree contribution      =     594.11103050 Ry
     xc contribution           =     -58.80821557 Ry
     ewald contribution        =     459.65470142 Ry
     one-center paw contrib.   =     -73.96018667 Ry

     convergence has been achieved in  10 iterations

     negative rho (up, down):  1.146E-06 0.000E+00

     Forces acting on atoms (cartesian axes, Ry/au):

     atom    1 type  1   force =    -0.00000000   -0.00299210   -0.00577674
     atom    2 type  1   force =     0.00000000    0.00358820   -0.00183144
     atom    3 type  1   force =     0.00000000    0.00000000   -0.00343363
     atom    4 type  1   force =     0.00000000   -0.00000000    0.00343363
     atom    5 type  1   force =     0.00000000    0.00358820    0.00183144
     atom    6 type  1   force =     0.00000000   -0.00299210    0.00577674
     atom    7 type  1   force =     0.00000000    0.00299210   -0.00577674
     atom    8 type  1   force =     0.00000000   -0.00358820   -0.00183144
     atom    9 type  1   force =     0.00000000    0.00000000   -0.00132799
     atom   10 type  1   force =     0.00000000   -0.00000000    0.00132799
     atom   11 type  1   force =     0.00000000   -0.00358820    0.00183144
     atom   12 type  1   force =    -0.00000000    0.00299210    0.00577674
     atom   13 type  2   force =    -0.00000000   -0.00961818   -0.00684018
     atom   14 type  2   force =     0.00000000    0.00961818   -0.00684018
     atom   15 type  2   force =    -0.00000000   -0.00961818    0.00684018
     atom   16 type  2   force =     0.00000000    0.00961818    0.00684018

     Total force =     0.028610     Total SCF correction =     0.000012


     Computing stress (Cartesian axis) and pressure


     negative rho (up, down):  1.146E-06 0.000E+00
          total   stress  (Ry/bohr**3)                   (kbar)     P=      -13.35
   0.00000026   0.00000000   0.00000000            0.04        0.00        0.00
   0.00000000  -0.00003533   0.00000000            0.00       -5.20        0.00
   0.00000000   0.00000000  -0.00023722            0.00        0.00      -34.90

     Energy error            =      1.3E-03 Ry
     Gradient error          =      9.6E-03 Ry/Bohr
     Cell gradient error     =      5.2E+00 kbar

     number of scf cycles    =   4
     number of bfgs steps    =   3

     enthalpy           old  =    -225.8457473588 Ry
     enthalpy           new  =    -225.8469989252 Ry

     CASE: enthalpy          _new < enthalpy          _old

     new trust radius        =       0.0414405394 bohr
     Message from routine volume:
     axis vectors are left-handed
     new conv_thr            =       0.0000000010 Ry

     new unit-cell volume =   1222.59429 a.u.^3 (   181.16978 Ang^3 )
     density =      1.35802 g/cm^3

CELL_PARAMETERS (angstrom)
   2.536923749   0.000000000   0.000000000
   0.000000000  -4.925051382   0.000000000
   0.000000000   0.000000000  14.499985940

ATOMIC_POSITIONS (crystal)
C               -0.0000000000        0.1648336402        0.6508250753
C                0.5000000000        0.2375123303        0.5947406310
C                0.5000000000       -0.0000000000        0.5285332463
C                0.0000000000       -0.0000000000        0.4714667537
C                0.0000000000        0.2375123303        0.4052593690
C                0.5000000000        0.1648336402        0.3491749247
C                0.0000000000        0.8351663598        0.6508250753
C                0.5000000000        0.7624876697        0.5947406310
C                0.5000000000        0.5000000000        0.5336212798
C                0.0000000000        0.5000000000        0.4663787202
C               -0.0000000000        0.7624876697        0.4052593690
C                0.5000000000        0.8351663598        0.3491749247
H               -0.0000000000        0.2419329775        0.7220278298
H                0.0000000000        0.7580670225        0.7220278298
H                0.5000000000        0.2419329775        0.2779721702
H                0.5000000000        0.7580670225        0.2779721702



     Writing config-only to output data dir /tmp/qe/slab.save/ :
     XML data file
     NEW-OLD atomic charge density approx. for the potential

     negative rho (up, down):  1.383E-06 0.000E+00

     total cpu time spent up to now is      113.9 secs

     Self-consistent Calculation

     iteration #  1     ecut=    90.00 Ry     beta= 0.30
     Davidson diagonalization with overlap
     ethr =  1.00E-06,  avg # of iterations =  5.9

     negative rho (up, down):  1.325E-06 0.000E+00

     total cpu time spent up to now is      117.0 secs

     total energy              =    -225.84878941 Ry
     estimated scf accuracy    <       0.00042912 Ry

     iteration #  2     ecut=    90.00 Ry     beta= 0.30
     Davidson diagonalization with overlap
     ethr =  8.25E-07,  avg # of iterations =  1.2

     negative rho (up, down):  1.151E-06 0.000E+00

     total cpu time spent up to now is      118.5 secs

     total energy              =    -225.84877990 Ry
     estimated scf accuracy    <       0.00015383 Ry

     iteration #  3     ecut=    90.00 Ry     beta= 0.30
     Davidson diagonalization with overlap
     ethr =  2.96E-07,  avg # of iterations =  2.0

     negative rho (up, down):  1.078E-06 0.000E+00

     total cpu time spent up to now is      120.2 secs

     total energy              =    -225.84879262 Ry
     estimated scf accuracy    <       0.00001887 Ry

     iteration #  4     ecut=    90.00 Ry     beta= 0.30
     Davidson diagonalization with overlap
     ethr =  3.63E-08,  avg # of iterations =  2.1

     negative rho (up, down):  1.083E-06 0.000E+00

     total cpu time spent up to now is      122.0 secs

     total energy              =    -225.84879464 Ry
     estimated scf accuracy    <       0.00000488 Ry

     iteration #  5     ecut=    90.00 Ry     beta= 0.30
     Davidson diagonalization with overlap
     ethr =  9.39E-09,  avg # of iterations =  2.1

     negative rho (up, down):  1.084E-06 0.000E+00

     total cpu time spent up to now is      123.8 secs

     total energy              =    -225.84879536 Ry
     estimated scf accuracy    <       0.00000185 Ry

     iteration #  6     ecut=    90.00 Ry     beta= 0.30
     Davidson diagonalization with overlap
     ethr =  3.56E-09,  avg # of iterations =  2.0

     negative rho (up, down):  1.097E-06 0.000E+00

     total cpu time spent up to now is      125.6 secs

     total energy              =    -225.84879564 Ry
     estimated scf accuracy    <       0.00000008 Ry

     iteration #  7     ecut=    90.00 Ry     beta= 0.30
     Davidson diagonalization with overlap
     ethr =  1.61E-10,  avg # of iterations =  4.3

     negative rho (up, down):  1.098E-06 0.000E+00

     total cpu time spent up to now is      127.8 secs

     total energy              =    -225.84879566 Ry
     estimated scf accuracy    <       0.00000013 Ry

     iteration #  8     ecut=    90.00 Ry     beta= 0.30
     Davidson diagonalization with overlap
     ethr =  1.61E-10,  avg # of iterations =  2.5

     negative rho (up, down):  1.099E-06 0.000E+00

     total cpu time spent up to now is      129.6 secs

     total energy              =    -225.84879567 Ry
     estimated scf accuracy    <          8.1E-09 Ry

     iteration #  9     ecut=    90.00 Ry     beta= 0.30
     Davidson diagonalization with overlap
     ethr =  1.55E-11,  avg # of iterations =  3.9

     negative rho (up, down):  1.100E-06 0.000E+00

     total cpu time spent up to now is      131.8 secs

     total energy              =    -225.84879568 Ry
     estimated scf accuracy    <          4.6E-09 Ry

     iteration # 10     ecut=    90.00 Ry     beta= 0.30
     Davidson diagonalization with overlap
     ethr =  8.81E-12,  avg # of iterations =  1.0

     negative rho (up, down):  1.100E-06 0.000E+00

     total cpu time spent up to now is      133.3 secs

     total energy              =    -225.84879567 Ry
     estimated scf accuracy    <          3.8E-09 Ry

     iteration # 11     ecut=    90.00 Ry     beta= 0.30
     Davidson diagonalization with overlap
     ethr =  7.25E-12,  avg # of iterations =  2.2

     negative rho (up, down):  1.101E-06 0.000E+00

     total cpu time spent up to now is      135.1 secs

     End of self-consistent calculation

          k = 0.0000-0.0000 0.0000 ( 17977 PWs)   bands (ev):

   -17.7757 -15.9580 -13.2035 -12.6273 -12.1377 -11.5843  -9.3406  -8.4872
    -7.7411  -5.5573  -5.3440  -4.9540  -2.8064  -1.9073  -1.8870  -1.4826
    -1.0802  -1.0796  -0.1070   0.4560   0.6193   1.0094   1.1273   1.4117
     1.5450   1.6129   5.5807   6.0157   7.9384   7.9918   8.4452

          k = 0.0000-0.1026 0.0000 ( 18029 PWs)   bands (ev):

   -17.6316 -15.8631 -14.3537 -12.2818 -12.1867 -11.1799  -8.9354  -7.9696
    -7.8881  -5.5101  -5.4956  -4.5480  -2.7022  -2.3378  -1.8769  -1.7308
    -1.6752  -1.0168  -0.0423  -0.0023   0.6131   1.0095   1.0648   1.2445
     1.2710   1.9274   5.8029   6.2459   8.0077   8.1264   8.6357

          k = 0.0000-0.2052 0.0000 ( 17997 PWs)   bands (ev):

   -17.3057 -15.6788 -15.3588 -12.8927 -12.1093 -10.4220  -8.6483  -7.1980
    -7.1728  -5.6188  -5.1283  -4.9602  -3.1199  -2.9156  -2.4865  -1.6655
    -1.6577  -0.8988  -0.6220   0.0270   0.2915   0.6804   0.8066   1.3006
     1.3091   2.3276   6.4578   6.8478   7.4986   7.7713   8.1130

          k = 0.0996-0.0000 0.0000 ( 17999 PWs)   bands (ev):

   -17.5945 -15.7805 -13.0313 -12.4560 -11.9746 -11.4238  -9.2413  -8.3526
    -7.5940  -5.5074  -5.2724  -4.8159  -3.8797  -2.1458  -1.8416  -1.7482
    -1.5278  -0.9794  -0.2991  -0.0988   0.3260   0.3499   0.3775   0.8394
     1.3646   1.5832   5.7359   6.2477   8.2852   8.7764   8.8530

          k = 0.0996-0.1026 0.0000 ( 17998 PWs)   bands (ev):

   -17.4506 -15.6856 -14.1788 -12.1165 -12.0248 -11.0160  -8.8532  -7.8320
    -7.7340  -5.4408  -5.4296  -4.4243  -3.7716  -2.2644  -2.0661  -1.8655
    -1.6662  -1.5417  -0.8045  -0.1572   0.0941   0.4608   0.6434   0.9689
     1.3235   1.3742   5.9610   6.4697   8.2447   8.8057   9.0177

          k = 0.0996-0.2052 0.0000 ( 18005 PWs)   bands (ev):

   -17.1252 -15.5014 -15.1818 -12.7287 -11.9470 -10.2590  -8.5663  -7.0862
    -7.0452  -5.5238  -5.0067  -4.8426  -3.5488  -3.0292  -2.8713  -2.0266
    -1.5709  -1.5561  -1.4674  -0.3469   0.1343   0.3587   0.3990   0.9385
     1.4260   1.6012   6.6206   7.0569   7.6514   7.9652   8.1684

          k = 0.1992-0.0000 0.0000 ( 17977 PWs)   bands (ev):

   -17.0532 -15.2518 -12.5194 -11.9457 -11.4921 -10.9458  -9.0905  -8.0062
    -7.1769  -5.7175  -5.6570  -5.1617  -4.4446  -3.7265  -2.5744  -2.0790
    -1.7650  -1.4892  -1.2234  -1.0435  -0.6797  -0.4122  -0.2296  -0.1856
     0.8178   1.6027   6.1847   6.7561   8.6524   9.0529   9.3879

          k = 0.1992-0.1026 0.0000 ( 18002 PWs)   bands (ev):

   -16.9101 -15.1570 -13.6578 -11.6292 -11.5464 -10.5270  -8.7749  -7.4707
    -7.2966  -5.6174  -5.5471  -5.2914  -4.1447  -3.6952  -2.7874  -2.2443
    -1.9593  -1.7695  -1.3383  -1.2424  -0.8520  -0.6299  -0.1603   0.0672
     0.9059   1.2409   6.4034   6.9663   8.4718   9.1427   9.1681

          k = 0.1992-0.2052 0.0000 ( 17978 PWs)   bands (ev):

   -16.5862 -14.9726 -14.6545 -12.2454 -11.4691  -9.7727  -8.4943  -6.9512
    -6.6271  -5.4979  -5.3469  -4.6242  -4.5812  -3.6897  -3.3230  -2.9727
    -2.7091  -2.0481  -1.5440  -1.4715  -0.7281  -0.4115  -0.0992   0.1762
     0.8283   1.0749   7.0169   7.5450   7.8949   8.2674   8.3506

          k = 0.2987-0.0000 0.0000 ( 18006 PWs)   bands (ev):

   -16.1608 -14.3897 -11.6882 -11.1078 -10.7274 -10.1647  -9.7283  -7.6620
    -7.2406  -6.6201  -6.4781  -5.5289  -4.2190  -4.1237  -3.7754  -3.7176
    -3.1307  -2.5955  -1.5338  -1.2334  -1.1786  -1.1028  -0.5023  -0.1994
    -0.1876   1.5659   7.0125   7.4185   8.8280   9.4066   9.4686

          k = 0.2987-0.1026 0.0000 ( 18004 PWs)   bands (ev):

   -16.0187 -14.2942 -12.8036 -10.8676 -10.7973  -9.7216  -9.5178  -7.2518
    -7.1969  -6.6131  -6.3899  -5.5610  -4.1170  -4.0492  -4.0282  -3.8053
    -2.7434  -2.5238  -1.7591  -1.2418  -1.1613  -1.0087  -0.8059  -0.7332
     0.0674   1.0343   7.2010   7.6204   8.7617   9.0398   9.0448

          k = 0.2987-0.2052 0.0000 ( 18022 PWs)   bands (ev):

   -15.6968 -14.1071 -13.7900 -11.4889 -10.7278  -9.2753  -8.9755  -7.4074
    -7.0433  -6.1775  -5.8732  -4.6980  -4.4968  -4.0055  -3.9504  -3.7965
    -3.4976  -2.7006  -1.8088  -1.7351  -1.4904  -0.9842  -0.7560  -0.5052
     0.2599   0.2884   7.4806   7.8973   8.1989   8.5999   8.8805

          k = 0.3983-0.0000 0.0000 ( 18042 PWs)   bands (ev):

   -14.9405 -13.2958 -11.3195 -10.7038  -9.9914  -9.9732  -9.1359  -8.6920
    -7.8226  -6.8015  -6.7032  -6.5707  -5.0507  -4.8373  -4.0343  -3.9856
    -3.4481  -2.6648  -2.1579  -2.0329  -1.6739  -1.2982  -1.0995  -0.7899
     0.3963   1.3787   8.0894   8.1855   8.5608   9.4420   9.6563

          k = 0.3983-0.1026 0.0000 ( 18026 PWs)   bands (ev):

   -14.7994 -13.1909 -11.6556 -11.2227 -10.2693  -9.8556  -8.6492  -8.5778
    -8.0369  -6.6589  -6.5904  -6.0134  -4.9808  -4.7159  -4.5821  -3.9117
    -2.7952  -2.5926  -2.1059  -1.9068  -1.7454  -1.2132  -1.1911  -0.8129
    -0.2330   0.6274   8.1894   8.2746   8.7106   8.9479   9.4997

          k = 0.3983-0.2052 0.0000 ( 18001 PWs)   bands (ev):

   -14.4784 -12.9781 -12.6241 -11.0063 -10.6634 -10.1793  -8.5620  -8.4121
    -7.9460  -6.6102  -6.4234  -4.8824  -4.8070  -4.5717  -4.1057  -3.7842
    -2.9370  -2.9122  -1.7648  -1.7094  -1.6726  -1.5070  -1.4830  -1.0770
    -0.5431  -0.5024   7.7299   8.3864   8.7876   9.3877   9.4190

          k =-0.4979 0.0000 0.0000 ( 18082 PWs)   bands (ev):

   -13.4974 -13.4974 -11.4371 -11.4371  -9.0260  -9.0260  -8.7112  -8.7112
    -7.9233  -7.9233  -7.5190  -7.5190  -4.5603  -4.5603  -4.1690  -4.1690
    -3.4251  -3.4251  -2.0525  -2.0525  -1.7319  -1.7319  -1.1925  -1.1925
     0.9707   0.9707   8.5007   8.5007   9.3738   9.3738   9.9612

          k =-0.4979-0.1026 0.0000 ( 18012 PWs)   bands (ev):

   -13.3557 -13.3557 -11.3684 -11.3684 -10.2916 -10.2916  -7.9689  -7.9689
    -7.7534  -7.7534  -7.2598  -7.2598  -4.4996  -4.4996  -4.2443  -4.2443
    -3.0320  -3.0320  -2.1397  -2.1397  -1.5947  -1.5947  -1.1340  -1.1340
     0.1604   0.1604   8.3731   8.3731   9.5751   9.5751   9.8929

          k =-0.4979-0.2052 0.0000 ( 17986 PWs)   bands (ev):

   -13.0275 -13.0275 -11.3076 -11.3076 -11.2157 -11.2157  -8.2910  -8.2910
    -7.7068  -7.7068  -6.3306  -6.3306  -4.2883  -4.2883  -3.7781  -3.7781
    -2.8080  -2.8080  -1.8351  -1.8351  -1.7250  -1.7250  -1.3444  -1.3444
    -1.0517  -1.0517   8.2960   8.2960   9.3995   9.3996   9.7570

     the Fermi energy is     3.7073 ev

!    total energy              =    -225.84879567 Ry
     estimated scf accuracy    <          3.9E-11 Ry
     smearing contrib. (-TS)   =       0.00000000 Ry
     internal energy E=F+TS    =    -225.84879567 Ry

     The total energy is F=E-TS. E is the sum of the following terms:
     one-electron contribution =   -1155.46631251 Ry
     hartree contribution      =     598.43885994 Ry
     xc contribution           =     -58.86346214 Ry
     ewald contribution        =     464.00346555 Ry
     one-center paw contrib.   =     -73.96134651 Ry

     convergence has been achieved in  11 iterations

     negative rho (up, down):  1.101E-06 0.000E+00

     Forces acting on atoms (cartesian axes, Ry/au):

     atom    1 type  1   force =     0.00000000   -0.00443829    0.00016893
     atom    2 type  1   force =     0.00000000    0.00890737   -0.00714342
     atom    3 type  1   force =     0.00000000    0.00000000   -0.00295169
     atom    4 type  1   force =     0.00000000   -0.00000000    0.00295169
     atom    5 type  1   force =     0.00000000    0.00890737    0.00714342
     atom    6 type  1   force =    -0.00000000   -0.00443829   -0.00016893
     atom    7 type  1   force =     0.00000000    0.00443829    0.00016893
     atom    8 type  1   force =    -0.00000000   -0.00890737   -0.00714342
     atom    9 type  1   force =     0.00000000    0.00000000   -0.00018370
     atom   10 type  1   force =     0.00000000   -0.00000000    0.00018370
     atom   11 type  1   force =     0.00000000   -0.00890737    0.00714342
     atom   12 type  1   force =     0.00000000    0.00443829   -0.00016893
     atom   13 type  2   force =    -0.00000000   -0.00752121   -0.00352366
     atom   14 type  2   force =     0.00000000    0.00752121   -0.00352366
     atom   15 type  2   force =     0.00000000   -0.00752121    0.00352366
     atom   16 type  2   force =     0.00000000    0.00752121    0.00352366

     Total force =     0.029897     Total SCF correction =     0.000016


     Computing stress (Cartesian axis) and pressure


     negative rho (up, down):  1.101E-06 0.000E+00
          total   stress  (Ry/bohr**3)                   (kbar)     P=       -4.82
   0.00001506   0.00000000   0.00000000            2.22        0.00        0.00
   0.00000000   0.00002019   0.00000000            0.00        2.97        0.00
   0.00000000   0.00000000  -0.00013345            0.00        0.00      -19.63

     Energy error            =      1.8E-03 Ry
     Gradient error          =      8.9E-03 Ry/Bohr
     Cell gradient error     =      3.0E+00 kbar

     number of scf cycles    =   5
     number of bfgs steps    =   4

     enthalpy           old  =    -225.8469989252 Ry
     enthalpy           new  =    -225.8487956736 Ry

     CASE: enthalpy          _new < enthalpy          _old

     new trust radius        =       0.0558812269 bohr
     Message from routine volume:
     axis vectors are left-handed
     new conv_thr            =       0.0000000009 Ry

     new unit-cell volume =   1220.49462 a.u.^3 (   180.85864 Ang^3 )
     density =      1.36036 g/cm^3

CELL_PARAMETERS (angstrom)
   2.537982860   0.000000000   0.000000000
   0.000000000  -4.914541437   0.000000000
   0.000000000   0.000000000  14.499985940

ATOMIC_POSITIONS (crystal)
C               -0.0000000000        0.1656158521        0.6501342824
C                0.5000000000        0.2376332832        0.5942683627
C                0.5000000000       -0.0000000000        0.5283415510
C                0.0000000000       -0.0000000000        0.4716584490
C                0.0000000000        0.2376332832        0.4057316373
C                0.5000000000        0.1656158521        0.3498657176
C                0.0000000000        0.8343841479        0.6501342824
C                0.5000000000        0.7623667168        0.5942683627
C                0.5000000000        0.5000000000        0.5334301799
C                0.0000000000        0.5000000000        0.4665698201
C               -0.0000000000        0.7623667168        0.4057316373
C                0.5000000000        0.8343841479        0.3498657176
H               -0.0000000000        0.2466209916        0.7207536269
H                0.0000000000        0.7533790084        0.7207536269
H                0.5000000000        0.2466209916        0.2792463731
H                0.5000000000        0.7533790084        0.2792463731



     Writing config-only to output data dir /tmp/qe/slab.save/ :
     XML data file
     NEW-OLD atomic charge density approx. for the potential

     negative rho (up, down):  1.421E-06 0.000E+00

     total cpu time spent up to now is      139.7 secs

     Self-consistent Calculation

     iteration #  1     ecut=    90.00 Ry     beta= 0.30
     Davidson diagonalization with overlap
     ethr =  1.00E-06,  avg # of iterations =  7.1

     negative rho (up, down):  1.380E-06 0.000E+00

     total cpu time spent up to now is      143.0 secs

     total energy              =    -225.85026538 Ry
     estimated scf accuracy    <       0.00080992 Ry

     iteration #  2     ecut=    90.00 Ry     beta= 0.30
     Davidson diagonalization with overlap
     ethr =  1.56E-06,  avg # of iterations =  2.3

     negative rho (up, down):  1.209E-06 0.000E+00

     total cpu time spent up to now is      144.7 secs

     total energy              =    -225.85027648 Ry
     estimated scf accuracy    <       0.00026034 Ry

     iteration #  3     ecut=    90.00 Ry     beta= 0.30
     Davidson diagonalization with overlap
     ethr =  5.01E-07,  avg # of iterations =  1.1

     negative rho (up, down):  1.121E-06 0.000E+00

     total cpu time spent up to now is      146.2 secs

     total energy              =    -225.85028753 Ry
     estimated scf accuracy    <       0.00005117 Ry

     iteration #  4     ecut=    90.00 Ry     beta= 0.30
     Davidson diagonalization with overlap
     ethr =  9.84E-08,  avg # of iterations =  2.0

     negative rho (up, down):  1.133E-06 0.000E+00

     total cpu time spent up to now is      147.9 secs

     total energy              =    -225.85029138 Ry
     estimated scf accuracy    <       0.00000301 Ry

     iteration #  5     ecut=    90.00 Ry     beta= 0.30
     Davidson diagonalization with overlap
     ethr =  5.79E-09,  avg # of iterations =  2.9

     negative rho (up, down):  1.152E-06 0.000E+00

     total cpu time spent up to now is      149.8 secs

     total energy              =    -225.85029177 Ry
     estimated scf accuracy    <       0.00000050 Ry

     iteration #  6     ecut=    90.00 Ry     beta= 0.30
     Davidson diagonalization with overlap
     ethr =  9.62E-10,  avg # of iterations =  2.1

     negative rho (up, down):  1.159E-06 0.000E+00

     total cpu time spent up to now is      151.6 secs

     total energy              =    -225.85029185 Ry
     estimated scf accuracy    <       0.00000006 Ry

     iteration #  7     ecut=    90.00 Ry     beta= 0.30
     Davidson diagonalization with overlap
     ethr =  1.19E-10,  avg # of iterations =  3.4

     negative rho (up, down):  1.165E-06 0.000E+00

     total cpu time spent up to now is      153.6 secs

     total energy              =    -225.85029186 Ry
     estimated scf accuracy    <       0.00000001 Ry

     iteration #  8     ecut=    90.00 Ry     beta= 0.30
     Davidson diagonalization with overlap
     ethr =  2.76E-11,  avg # of iterations =  2.0

     negative rho (up, down):  1.167E-06 0.000E+00

     total cpu time spent up to now is      155.5 secs

     total energy              =    -225.85029186 Ry
     estimated scf accuracy    <          1.8E-09 Ry

     iteration #  9     ecut=    90.00 Ry     beta= 0.30
     Davidson diagonalization with overlap
     ethr =  3.54E-12,  avg # of iterations =  3.2

     negative rho (up, down):  1.173E-06 0.000E+00

     total cpu time spent up to now is      157.7 secs

     End of self-consistent calculation

          k = 0.0000-0.0000 0.0000 ( 17977 PWs)   bands (ev):

   -17.8383 -15.9855 -13.2282 -12.6793 -12.1480 -11.6107  -9.3281  -8.5249
    -7.7774  -5.4989  -5.3544  -4.9670  -2.8908  -1.9056  -1.8444  -1.4645
    -1.1302  -1.0823  -0.0906   0.4560   0.5575   0.9516   1.0733   1.4749
     1.5485   1.5853   5.6086   6.0316   7.8719   7.9699   8.4419

          k = 0.0000-0.1028 0.0000 ( 18029 PWs)   bands (ev):

   -17.6926 -15.8885 -14.4075 -12.2780 -12.2223 -11.2085  -8.9068  -8.0076
    -7.9342  -5.5299  -5.4393  -4.5552  -2.7850  -2.3635  -1.8102  -1.7157
    -1.6808  -1.0655  -0.0737  -0.0332   0.6299   0.9539   1.0737   1.2068
     1.3178   1.8883   5.8317   6.2637   7.9918   8.0593   8.6675

          k = 0.0000-0.2056 0.0000 ( 17997 PWs)   bands (ev):

   -17.3613 -15.6992 -15.4244 -12.9388 -12.0964 -10.4425  -8.6173  -7.2427
    -7.1932  -5.6042  -5.1545  -4.9598  -3.1321  -2.9165  -2.5655  -1.6406
    -1.6069  -0.9447  -0.7016   0.0493   0.3066   0.6882   0.7474   1.2695
     1.3374   2.2871   6.4886   6.8664   7.5364   7.8028   8.1318

          k = 0.0995-0.0000 0.0000 ( 17999 PWs)   bands (ev):

   -17.6573 -15.8082 -13.0563 -12.5081 -11.9849 -11.4506  -9.2282  -8.3927
    -7.6306  -5.4496  -5.2846  -4.8330  -3.9522  -2.1871  -1.8381  -1.6816
    -1.5550  -0.9862  -0.2967  -0.1531   0.2830   0.3269   0.3472   0.8212
     1.4174   1.5828   5.7635   6.2687   8.2815   8.7190   8.8387

          k = 0.0995-0.1028 0.0000 ( 17998 PWs)   bands (ev):

   -17.5118 -15.7112 -14.2328 -12.1127 -12.0606 -11.0450  -8.8267  -7.8699
    -7.7800  -5.4516  -5.3868  -4.4334  -3.8418  -2.2960  -2.1000  -1.8291
    -1.6549  -1.5350  -0.8620  -0.1612   0.0602   0.4354   0.6420   0.9445
     1.3587   1.3666   5.9898   6.4918   8.2455   8.8317   9.0572

          k = 0.0995-0.2056 0.0000 ( 18005 PWs)   bands (ev):

   -17.1811 -15.5221 -15.2476 -12.7750 -11.9341 -10.2798  -8.5369  -7.1082
    -7.0891  -5.5061  -5.0349  -4.8485  -3.6132  -3.0412  -2.8768  -2.0631
    -1.6351  -1.5412  -1.4288  -0.3626   0.1242   0.3403   0.4025   0.9234
     1.4461   1.5716   6.6515   7.0774   7.6878   8.0058   8.1922

          k = 0.1991-0.0000 0.0000 ( 17977 PWs)   bands (ev):

   -17.1167 -15.2802 -12.5450 -11.9981 -11.5025 -10.9737  -9.0821  -8.0558
    -7.2143  -5.7138  -5.6933  -5.1822  -4.4725  -3.7239  -2.5759  -2.1085
    -1.7686  -1.5268  -1.2575  -1.0636  -0.6953  -0.4134  -0.2379  -0.1630
     0.8475   1.5937   6.2127   6.7791   8.6725   9.0759   9.4091

          k = 0.1991-0.1028 0.0000 ( 18002 PWs)   bands (ev):

   -16.9718 -15.1833 -13.7122 -11.6251 -11.5830 -10.5570  -8.7630  -7.5088
    -7.3419  -5.6034  -5.5971  -5.3218  -4.1622  -3.6981  -2.8278  -2.2313
    -1.9799  -1.7975  -1.3678  -1.2529  -0.8578  -0.6415  -0.1596   0.0748
     0.9206   1.2397   6.4334   6.9895   8.4999   9.1674   9.1909

          k = 0.1991-0.2056 0.0000 ( 17978 PWs)   bands (ev):

   -16.6427 -14.9940 -14.7208 -12.2924 -11.4562  -9.7948  -8.4784  -6.9817
    -6.6653  -5.4893  -5.4010  -4.6518  -4.6153  -3.6950  -3.3793  -3.0042
    -2.7229  -2.0433  -1.5644  -1.4575  -0.7128  -0.4402  -0.0919   0.1679
     0.8301   1.0798   7.0493   7.5645   7.9224   8.3019   8.3884

          k = 0.2986-0.0000 0.0000 ( 18006 PWs)   bands (ev):

   -16.2251 -14.4197 -11.7138 -11.1608 -10.7383 -10.1946  -9.7614  -7.7136
    -7.2689  -6.6592  -6.4858  -5.5708  -4.2450  -4.1037  -3.8073  -3.7142
    -3.1691  -2.6145  -1.5245  -1.2503  -1.1881  -1.1152  -0.4648  -0.2245
    -0.1782   1.5480   7.0436   7.4461   8.8838   9.4578   9.4954

          k = 0.2986-0.1028 0.0000 ( 18004 PWs)   bands (ev):

   -16.0814 -14.3221 -12.8588 -10.8625 -10.8351  -9.7534  -9.5533  -7.2944
    -7.2221  -6.6639  -6.3933  -5.6153  -4.1515  -4.0471  -4.0096  -3.8277
    -2.7604  -2.5495  -1.7672  -1.2597  -1.1718  -1.0159  -0.8006  -0.7066
     0.0606   1.0208   7.2370   7.6488   8.8193   9.0747   9.0939

          k = 0.2986-0.2056 0.0000 ( 18022 PWs)   bands (ev):

   -15.7543 -14.1299 -13.8569 -11.5371 -10.7142  -9.3052  -9.0003  -7.4632
    -7.0638  -6.1795  -5.9259  -4.7370  -4.5345  -4.0373  -3.9252  -3.8038
    -3.5322  -2.7230  -1.8111  -1.7588  -1.4821  -0.9444  -0.7521  -0.5278
     0.2485   0.2807   7.5270   7.9263   8.2304   8.6305   8.9027

          k = 0.3982-0.0000 0.0000 ( 18042 PWs)   bands (ev):

   -15.0061 -13.3326 -11.3682 -10.7175 -10.0268 -10.0209  -9.1693  -8.7228
    -7.8713  -6.8547  -6.6949  -6.6116  -5.0519  -4.8846  -4.0662  -3.9471
    -3.4670  -2.6778  -2.1709  -2.0626  -1.6679  -1.3137  -1.0877  -0.7572
     0.3672   1.3543   8.1567   8.2222   8.5901   9.5054   9.7248

          k = 0.3982-0.1028 0.0000 ( 18026 PWs)   bands (ev):

   -14.8634 -13.2255 -11.7107 -11.2693 -10.2690  -9.9011  -8.6838  -8.6076
    -8.0893  -6.7063  -6.5833  -6.0572  -4.9804  -4.7582  -4.6189  -3.8667
    -2.8106  -2.6055  -2.1267  -1.9148  -1.7575  -1.2087  -1.1927  -0.7959
    -0.2579   0.6011   8.2540   8.3380   8.7384   8.9858   9.5462

          k = 0.3982-0.2056 0.0000 ( 18001 PWs)   bands (ev):

   -14.5374 -13.0067 -12.6914 -11.0506 -10.7161 -10.1705  -8.6274  -8.4374
    -7.9799  -6.6538  -6.4139  -4.8853  -4.8299  -4.6190  -4.1348  -3.7365
    -2.9640  -2.9489  -1.7676  -1.7200  -1.6805  -1.5091  -1.4822  -1.0756
    -0.5590  -0.5226   7.7996   8.3968   8.8567   9.4016   9.4199

          k =-0.4977 0.0000 0.0000 ( 18082 PWs)   bands (ev):

   -13.5636 -13.5636 -11.4563 -11.4563  -9.0712  -9.0712  -8.7622  -8.7622
    -7.9336  -7.9336  -7.5593  -7.5593  -4.5366  -4.5366  -4.2064  -4.2064
    -3.4545  -3.4545  -2.0510  -2.0510  -1.7596  -1.7596  -1.1625  -1.1625
     0.9422   0.9422   8.5789   8.5789   9.3985   9.3985  10.0356

          k =-0.4977-0.1028 0.0000 ( 18012 PWs)   bands (ev):

   -13.4206 -13.4206 -11.3850 -11.3850 -10.3497 -10.3497  -7.9891  -7.9891
    -7.7876  -7.7876  -7.2959  -7.2959  -4.4946  -4.4946  -4.2620  -4.2620
    -3.0575  -3.0575  -2.1473  -2.1473  -1.5990  -1.5990  -1.1217  -1.1217
     0.1294   0.1294   8.4482   8.4482   9.6062   9.6062   9.9218

          k =-0.4977-0.2056 0.0000 ( 17986 PWs)   bands (ev):

   -13.0882 -13.0882 -11.3658 -11.3658 -11.2346 -11.2346  -8.3474  -8.3474
    -7.7112  -7.7112  -6.3560  -6.3560  -4.2584  -4.2584  -3.8193  -3.8193
    -2.8272  -2.8272  -1.8389  -1.8389  -1.7428  -1.7428  -1.3521  -1.3521
    -1.0651  -1.0651   8.3647   8.3647   9.3987   9.3988   9.7811

     the Fermi energy is     3.7474 ev

!    total energy              =    -225.85029186 Ry
     estimated scf accuracy    <          6.5E-10 Ry
     smearing contrib. (-TS)   =       0.00000000 Ry
     internal energy E=F+TS    =    -225.85029186 Ry

     The total energy is F=E-TS. E is the sum of the following terms:
     one-electron contribution =   -1164.74243408 Ry
     hartree contribution      =     603.07283183 Ry
     xc contribution           =     -58.91402299 Ry
     ewald contribution        =     468.69589461 Ry
     one-center paw contrib.   =     -73.96256123 Ry

     convergence has been achieved in   9 iterations

     negative rho (up, down):  1.173E-06 0.000E+00

     Forces acting on atoms (cartesian axes, Ry/au):

     atom    1 type  1   force =     0.00000000   -0.00232597    0.00468184
     atom    2 type  1   force =     0.00000000    0.00799979   -0.00621943
     atom    3 type  1   force =     0.00000000    0.00000000   -0.00180056
     atom    4 type  1   force =     0.00000000   -0.00000000    0.00180056
     atom    5 type  1   force =     0.00000000    0.00799979    0.00621943
     atom    6 type  1   force =     0.00000000   -0.00232597   -0.00468184
     atom    7 type  1   force =     0.00000000    0.00232597    0.00468184
     atom    8 type  1   force =     0.00000000   -0.00799979   -0.00621943
     atom    9 type  1   force =     0.00000000   -0.00000000    0.00030704
     atom   10 type  1   force =     0.00000000    0.00000000   -0.00030704
     atom   11 type  1   force =     0.00000000   -0.00799979    0.00621943
     atom   12 type  1   force =    -0.00000000    0.00232597   -0.00468184
     atom   13 type  2   force =     0.00000000   -0.00456131   -0.00055716
     atom   14 type  2   force =    -0.00000000    0.00456131   -0.00055716
     atom   15 type  2   force =     0.00000000   -0.00456131    0.00055716
     atom   16 type  2   force =     0.00000000    0.00456131    0.00055716

     Total force =     0.024722     Total SCF correction =     0.000064


     Computing stress (Cartesian axis) and pressure


     negative rho (up, down):  1.173E-06 0.000E+00
          total   stress  (Ry/bohr**3)                   (kbar)     P=        3.22
   0.00001564   0.00000000   0.00000000            2.30        0.00        0.00
   0.00000000   0.00005350   0.00000000            0.00        7.87        0.00
   0.00000000   0.00000000  -0.00000340            0.00        0.00       -0.50

     Energy error            =      1.5E-03 Ry
     Gradient error          =      8.0E-03 Ry/Bohr
     Cell gradient error     =      7.9E+00 kbar

     number of scf cycles    =   6
     number of bfgs steps    =   5

     enthalpy           old  =    -225.8487956736 Ry
     enthalpy           new  =    -225.8502918623 Ry

     CASE: enthalpy          _new < enthalpy          _old

     new trust radius        =       0.0334159011 bohr
     Message from routine volume:
     axis vectors are left-handed
     new conv_thr            =       0.0000000008 Ry

     new unit-cell volume =   1221.61496 a.u.^3 (   181.02466 Ang^3 )
     density =      1.35911 g/cm^3

CELL_PARAMETERS (angstrom)
   2.539197968   0.000000000   0.000000000
   0.000000000  -4.916698717   0.000000000
   0.000000000   0.000000000  14.499985940

ATOMIC_POSITIONS (crystal)
C                0.0000000000        0.1660234009        0.6498853242
C                0.5000000000        0.2371546083        0.5938829548
C                0.5000000000       -0.0000000000        0.5281741289
C                0.0000000000       -0.0000000000        0.4718258711
C                0.0000000000        0.2371546083        0.4061170452
C                0.5000000000        0.1660234009        0.3501146758
C                0.0000000000        0.8339765991        0.6498853242
C                0.5000000000        0.7628453917        0.5938829548
C                0.5000000000        0.5000000000        0.5333097353
C                0.0000000000        0.5000000000        0.4666902647
C               -0.0000000000        0.7628453917        0.4061170452
C                0.5000000000        0.8339765991        0.3501146758
H               -0.0000000000        0.2496497310        0.7200952786
H               -0.0000000000        0.7503502690        0.7200952786
H                0.5000000000        0.2496497310        0.2799047214
H                0.5000000000        0.7503502690        0.2799047214



     Writing config-only to output data dir /tmp/qe/slab.save/ :
     XML data file
     NEW-OLD atomic charge density approx. for the potential

     negative rho (up, down):  1.359E-06 0.000E+00

     total cpu time spent up to now is      162.3 secs

     Self-consistent Calculation

     iteration #  1     ecut=    90.00 Ry     beta= 0.30
     Davidson diagonalization with overlap
     ethr =  1.00E-06,  avg # of iterations =  5.1

     negative rho (up, down):  1.361E-06 0.000E+00

     total cpu time spent up to now is      165.2 secs

     total energy              =    -225.85088072 Ry
     estimated scf accuracy    <       0.00023972 Ry

     iteration #  2     ecut=    90.00 Ry     beta= 0.30
     Davidson diagonalization with overlap
     ethr =  4.61E-07,  avg # of iterations =  1.3

     negative rho (up, down):  1.286E-06 0.000E+00

     total cpu time spent up to now is      166.7 secs

     total energy              =    -225.85087812 Ry
     estimated scf accuracy    <       0.00009185 Ry

     iteration #  3     ecut=    90.00 Ry     beta= 0.30
     Davidson diagonalization with overlap
     ethr =  1.77E-07,  avg # of iterations =  2.0

     negative rho (up, down):  1.245E-06 0.000E+00

     total cpu time spent up to now is      168.4 secs

     total energy              =    -225.85088406 Ry
     estimated scf accuracy    <       0.00001260 Ry

     iteration #  4     ecut=    90.00 Ry     beta= 0.30
     Davidson diagonalization with overlap
     ethr =  2.42E-08,  avg # of iterations =  2.4

     negative rho (up, down):  1.256E-06 0.000E+00

     total cpu time spent up to now is      170.3 secs

     total energy              =    -225.85088554 Ry
     estimated scf accuracy    <       0.00000624 Ry

     iteration #  5     ecut=    90.00 Ry     beta= 0.30
     Davidson diagonalization with overlap
     ethr =  1.20E-08,  avg # of iterations =  2.2

     negative rho (up, down):  1.263E-06 0.000E+00

     total cpu time spent up to now is      172.1 secs

     total energy              =    -225.85088680 Ry
     estimated scf accuracy    <       0.00000089 Ry

     iteration #  6     ecut=    90.00 Ry     beta= 0.30
     Davidson diagonalization with overlap
     ethr =  1.72E-09,  avg # of iterations =  2.0

     negative rho (up, down):  1.265E-06 0.000E+00

     total cpu time spent up to now is      173.9 secs

     total energy              =    -225.85088698 Ry
     estimated scf accuracy    <       0.00000003 Ry

     iteration #  7     ecut=    90.00 Ry     beta= 0.30
     Davidson diagonalization with overlap
     ethr =  5.08E-11,  avg # of iterations =  2.5

     negative rho (up, down):  1.273E-06 0.000E+00

     total cpu time spent up to now is      175.8 secs

     total energy              =    -225.85088699 Ry
     estimated scf accuracy    <          6.8E-09 Ry

     iteration #  8     ecut=    90.00 Ry     beta= 0.30
     Davidson diagonalization with overlap
     ethr =  1.31E-11,  avg # of iterations =  3.2

     negative rho (up, down):  1.273E-06 0.000E+00

     total cpu time spent up to now is      177.9 secs

     total energy              =    -225.85088699 Ry
     estimated scf accuracy    <          2.1E-09 Ry

     iteration #  9     ecut=    90.00 Ry     beta= 0.30
     Davidson diagonalization with overlap
     ethr =  4.10E-12,  avg # of iterations =  1.9

     negative rho (up, down):  1.276E-06 0.000E+00

     total cpu time spent up to now is      179.5 secs

     End of self-consistent calculation

          k = 0.0000-0.0000 0.0000 ( 17977 PWs)   bands (ev):

   -17.8709 -15.9881 -13.2402 -12.7090 -12.1640 -11.6226  -9.2966  -8.5527
    -7.8074  -5.4755  -5.3700  -4.9569  -2.9435  -1.9266  -1.8561  -1.4412
    -1.1383  -1.1226  -0.0928   0.4490   0.5033   0.9317   1.0568   1.5053
     1.5176   1.5669   5.6123   6.0301   7.8200   7.9472   8.4043

          k = 0.0000-0.1028 0.0000 ( 18029 PWs)   bands (ev):

   -17.7258 -15.8912 -14.4326 -12.2773 -12.2300 -11.2359  -8.8872  -8.0249
    -7.9658  -5.5478  -5.4163  -4.5583  -2.8387  -2.3938  -1.7843  -1.7296
    -1.7040  -1.0739  -0.1145  -0.0358   0.6324   0.9382   1.0532   1.1801
     1.3277   1.8646   5.8352   6.2625   7.9636   8.0097   8.6702

          k = 0.0000-0.2055 0.0000 ( 17997 PWs)   bands (ev):

   -17.3968 -15.7023 -15.4487 -12.9442 -12.0944 -10.4573  -8.6087  -7.2806
    -7.1965  -5.6192  -5.1730  -4.9718  -3.1481  -2.9119  -2.6221  -1.6369
    -1.6002  -0.9534  -0.7376   0.0569   0.2978   0.6830   0.7331   1.2443
     1.3231   2.2605   6.4904   6.8617   7.5384   7.8030   8.1290

          k = 0.0995-0.0000 0.0000 ( 17999 PWs)   bands (ev):

   -17.6902 -15.8110 -13.0685 -12.5380 -12.0011 -11.4627  -9.1974  -8.4215
    -7.6607  -5.4246  -5.3015  -4.8273  -3.9993  -2.1953  -1.8570  -1.6616
    -1.5705  -1.0293  -0.3053  -0.2040   0.2688   0.3111   0.3469   0.8069
     1.4392   1.5499   5.7670   6.2693   8.2678   8.6663   8.8042

          k = 0.0995-0.1028 0.0000 ( 17998 PWs)   bands (ev):

   -17.5453 -15.7142 -14.2581 -12.1121 -12.0684 -11.0725  -8.8087  -7.8873
    -7.8117  -5.4709  -5.3646  -4.4375  -3.8893  -2.3250  -2.1107  -1.8129
    -1.6693  -1.5511  -0.8983  -0.1703   0.0519   0.4088   0.6433   0.9218
     1.3469   1.3615   5.9931   6.4921   8.2241   8.8313   9.0613

          k = 0.0995-0.2055 0.0000 ( 18005 PWs)   bands (ev):

   -17.2168 -15.5254 -15.2721 -12.7805 -11.9322 -10.2949  -8.5295  -7.1266
    -7.1125  -5.5178  -5.0549  -4.8655  -3.6619  -3.0570  -2.8736  -2.0734
    -1.6685  -1.5365  -1.4232  -0.3664   0.1073   0.3383   0.3884   0.9074
     1.4308   1.5479   6.6532   7.0724   7.6892   8.0107   8.1936

          k = 0.1990-0.0000 0.0000 ( 17977 PWs)   bands (ev):

   -17.1502 -15.2836 -12.5575 -12.0281 -11.5190 -10.9864  -9.0606  -8.0859
    -7.2449  -5.7488  -5.6784  -5.2038  -4.4816  -3.7105  -2.5747  -2.1357
    -1.7844  -1.5437  -1.2714  -1.1042  -0.7434  -0.4194  -0.2324  -0.1513
     0.8520   1.5551   6.2169   6.7805   8.6692   9.0801   9.4140

          k = 0.1990-0.1028 0.0000 ( 18002 PWs)   bands (ev):

   -17.0060 -15.1870 -13.7379 -11.6247 -11.5911 -10.5849  -8.7561  -7.5260
    -7.3736  -5.6403  -5.5879  -5.3444  -4.1708  -3.6932  -2.8538  -2.2244
    -2.0063  -1.8140  -1.3879  -1.2662  -0.8832  -0.6617  -0.1626   0.0831
     0.9097   1.2141   6.4376   6.9899   8.4944   9.1602   9.1843

          k = 0.1990-0.2055 0.0000 ( 17978 PWs)   bands (ev):

   -16.6791 -14.9979 -14.7456 -12.2982 -11.4545  -9.8107  -8.4798  -6.9911
    -6.6995  -5.4957  -5.4405  -4.6715  -4.6532  -3.6922  -3.4098  -3.0097
    -2.7366  -2.0419  -1.5734  -1.4504  -0.7317  -0.4570  -0.0852   0.1493
     0.8141   1.0573   7.0512   7.5578   7.9235   8.3043   8.3907

          k = 0.2985-0.0000 0.0000 ( 18006 PWs)   bands (ev):

   -16.2598 -14.4247 -11.7261 -11.1911 -10.7556 -10.2084  -9.7771  -7.7315
    -7.2745  -6.6902  -6.4954  -5.6012  -4.2574  -4.1018  -3.8327  -3.6955
    -3.1830  -2.6229  -1.5344  -1.2437  -1.2023  -1.1510  -0.4383  -0.2784
    -0.1865   1.5043   7.0495   7.4495   8.9211   9.4572   9.5153

          k = 0.2985-0.1028 0.0000 ( 18004 PWs)   bands (ev):

   -16.1167 -14.3272 -12.8849 -10.8619 -10.8430  -9.7819  -9.5773  -7.3131
    -7.2278  -6.6998  -6.4002  -5.6460  -4.1594  -4.0611  -3.9921  -3.8469
    -2.7681  -2.5582  -1.7826  -1.2790  -1.1885  -1.0469  -0.8017  -0.6920
     0.0362   0.9850   7.2438   7.6513   8.8301   9.0820   9.1149

          k = 0.2985-0.2055 0.0000 ( 18022 PWs)   bands (ev):

   -15.7920 -14.1355 -13.8820 -11.5432 -10.7119  -9.3317  -9.0177  -7.4867
    -7.0707  -6.1901  -5.9697  -4.7523  -4.5498  -4.0688  -3.9174  -3.8072
    -3.5613  -2.7323  -1.8149  -1.7767  -1.4817  -0.9420  -0.7440  -0.5584
     0.2210   0.2559   7.5323   7.9294   8.2295   8.6295   8.8940

          k = 0.3980-0.0000 0.0000 ( 18042 PWs)   bands (ev):

   -15.0422 -13.3442 -11.3921 -10.7181 -10.0575 -10.0473  -9.1853  -8.7348
    -7.8947  -6.8864  -6.6964  -6.6377  -5.0522  -4.9070  -4.0824  -3.9299
    -3.4658  -2.6825  -2.1940  -2.0703  -1.6783  -1.3458  -1.0887  -0.7298
     0.3128   1.3062   8.1809   8.2305   8.6104   9.5388   9.7345

          k = 0.3980-0.1028 0.0000 ( 18026 PWs)   bands (ev):

   -14.9003 -13.2372 -11.7364 -11.2928 -10.2666  -9.9173  -8.7058  -8.6263
    -8.1164  -6.7337  -6.5885  -6.0825  -4.9801  -4.7736  -4.6394  -3.8468
    -2.8159  -2.6091  -2.1491  -1.9269  -1.7636  -1.2309  -1.2080  -0.7801
    -0.2986   0.5539   8.2749   8.3584   8.7400   9.0077   9.5547

          k = 0.3980-0.2055 0.0000 ( 18001 PWs)   bands (ev):

   -14.5770 -13.0188 -12.7166 -11.0729 -10.7321 -10.1646  -8.6560  -8.4509
    -8.0008  -6.6710  -6.4212  -4.8945  -4.8442  -4.6502  -4.1448  -3.7158
    -2.9877  -2.9795  -1.7755  -1.7387  -1.6942  -1.5172  -1.4780  -1.0967
    -0.5767  -0.5544   7.8179   8.3846   8.8757   9.3903   9.4032

          k =-0.4975 0.0000 0.0000 ( 18082 PWs)   bands (ev):

   -13.6011 -13.6011 -11.4544 -11.4544  -9.0995  -9.0995  -8.7916  -8.7916
    -7.9453  -7.9453  -7.5800  -7.5800  -4.5143  -4.5143  -4.2258  -4.2258
    -3.4736  -3.4736  -2.0630  -2.0630  -1.7860  -1.7860  -1.1410  -1.1410
     0.8903   0.8903   8.6205   8.6205   9.3953   9.3953  10.0491

          k =-0.4975-0.1028 0.0000 ( 18012 PWs)   bands (ev):

   -13.4591 -13.4591 -11.3824 -11.3824 -10.3779 -10.3779  -7.9976  -7.9976
    -7.8064  -7.8064  -7.3268  -7.3268  -4.4867  -4.4867  -4.2742  -4.2742
    -3.0676  -3.0676  -2.1633  -2.1633  -1.6178  -1.6178  -1.1106  -1.1106
     0.0800   0.0800   8.4808   8.4808   9.6047   9.6048   9.9212

          k =-0.4975-0.2055 0.0000 ( 17986 PWs)   bands (ev):

   -13.1307 -13.1307 -11.3863 -11.3863 -11.2338 -11.2338  -8.3665  -8.3665
    -7.7215  -7.7215  -6.3755  -6.3755  -4.2446  -4.2446  -3.8479  -3.8479
    -2.8356  -2.8356  -1.8489  -1.8489  -1.7781  -1.7781  -1.3770  -1.3770
    -1.0690  -1.0690   8.3824   8.3824   9.3774   9.3776   9.7805

     the Fermi energy is     3.7494 ev

!    total energy              =    -225.85088699 Ry
     estimated scf accuracy    <          3.9E-10 Ry
     smearing contrib. (-TS)   =       0.00000000 Ry
     internal energy E=F+TS    =    -225.85088699 Ry

     The total energy is F=E-TS. E is the sum of the following terms:
     one-electron contribution =   -1167.58532704 Ry
     hartree contribution      =     604.47175126 Ry
     xc contribution           =     -58.92277487 Ry
     ewald contribution        =     470.14829831 Ry
     one-center paw contrib.   =     -73.96283464 Ry

     convergence has been achieved in   9 iterations

     negative rho (up, down):  1.276E-06 0.000E+00

     Forces acting on atoms (cartesian axes, Ry/au):

     atom    1 type  1   force =     0.00000000    0.00022784    0.00394800
     atom    2 type  1   force =     0.00000000    0.00358124   -0.00163460
     atom    3 type  1   force =     0.00000000   -0.00000000    0.00079204
     atom    4 type  1   force =     0.00000000    0.00000000   -0.00079204
     atom    5 type  1   force =     0.00000000    0.00358124    0.00163460
     atom    6 type  1   force =    -0.00000000    0.00022784   -0.00394800
     atom    7 type  1   force =     0.00000000   -0.00022784    0.00394800
     atom    8 type  1   force =     0.00000000   -0.00358124   -0.00163460
     atom    9 type  1   force =     0.00000000   -0.00000000    0.00108616
     atom   10 type  1   force =     0.00000000    0.00000000   -0.00108616
     atom   11 type  1   force =     0.00000000   -0.00358124    0.00163460
     atom   12 type  1   force =     0.00000000   -0.00022784   -0.00394800
     atom   13 type  2   force =     0.00000000   -0.00268431    0.00079602
     atom   14 type  2   force =     0.00000000    0.00268431    0.00079602
     atom   15 type  2   force =     0.00000000   -0.00268431   -0.00079602
     atom   16 type  2   force =     0.00000000    0.00268431   -0.00079602

     Total force =     0.012630     Total SCF correction =     0.000027


     Computing stress (Cartesian axis) and pressure


     negative rho (up, down):  1.276E-06 0.000E+00
          total   stress  (Ry/bohr**3)                   (kbar)     P=        4.66
   0.00000404   0.00000000   0.00000000            0.59        0.00        0.00
   0.00000000   0.00003445   0.00000000            0.00        5.07        0.00
   0.00000000   0.00000000   0.00005663            0.00        0.00        8.33

     Energy error            =      6.0E-04 Ry
     Gradient error          =      3.9E-03 Ry/Bohr
     Cell gradient error     =      5.1E+00 kbar

     number of scf cycles    =   7
     number of bfgs steps    =   6

     enthalpy           old  =    -225.8502918623 Ry
     enthalpy           new  =    -225.8508869876 Ry

     CASE: enthalpy          _new < enthalpy          _old

     new trust radius        =       0.0119667581 bohr
     Message from routine volume:
     axis vectors are left-handed
     new conv_thr            =       0.0000000004 Ry

     new unit-cell volume =   1223.12466 a.u.^3 (   181.24837 Ang^3 )
     density =      1.35743 g/cm^3

CELL_PARAMETERS (angstrom)
   2.539593027   0.000000000   0.000000000
   0.000000000  -4.922009117   0.000000000
   0.000000000   0.000000000  14.499985940

ATOMIC_POSITIONS (crystal)
C                0.0000000000        0.1660111464        0.6499355073
C                0.5000000000        0.2366948365        0.5937618274
C                0.5000000000       -0.0000000000        0.5281655063
C                0.0000000000       -0.0000000000        0.4718344937
C                0.0000000000        0.2366948365        0.4062381726
C                0.5000000000        0.1660111464        0.3500644927
C                0.0000000000        0.8339888536        0.6499355073
C                0.5000000000        0.7633051635        0.5937618274
C                0.5000000000        0.5000000000        0.5333146317
C                0.0000000000        0.5000000000        0.4666853683
C               -0.0000000000        0.7633051635        0.4062381726
C                0.5000000000        0.8339888536        0.3500644927
H               -0.0000000000        0.2508769406        0.7199627278
H               -0.0000000000        0.7491230594        0.7199627278
H                0.5000000000        0.2508769406        0.2800372722
H                0.5000000000        0.7491230594        0.2800372722



     Writing config-only to output data dir /tmp/qe/slab.save/ :
     XML data file
     NEW-OLD atomic charge density approx. for the potential

     negative rho (up, down):  1.327E-06 0.000E+00

     total cpu time spent up to now is      184.1 secs

     Self-consistent Calculation

     iteration #  1     ecut=    90.00 Ry     beta= 0.30
     Davidson diagonalization with overlap
     ethr =  1.00E-06,  avg # of iterations =  3.1

     Threshold (ethr) on eigenvalues was too large:
     Diagonalizing with lowered threshold

     Davidson diagonalization with overlap
     ethr =  4.64E-08,  avg # of iterations =  3.6

     negative rho (up, down):  1.337E-06 0.000E+00

     total cpu time spent up to now is      188.0 secs

     total energy              =    -225.85105439 Ry
     estimated scf accuracy    <       0.00002940 Ry

     iteration #  2     ecut=    90.00 Ry     beta= 0.30
     Davidson diagonalization with overlap
     ethr =  5.65E-08,  avg # of iterations =  1.2

     negative rho (up, down):  1.342E-06 0.000E+00

     total cpu time spent up to now is      189.6 secs

     total energy              =    -225.85105380 Ry
     estimated scf accuracy    <       0.00001134 Ry

     iteration #  3     ecut=    90.00 Ry     beta= 0.30
     Davidson diagonalization with overlap
     ethr =  2.18E-08,  avg # of iterations =  2.0

     negative rho (up, down):  1.347E-06 0.000E+00

     total cpu time spent up to now is      191.2 secs

     total energy              =    -225.85105484 Ry
     estimated scf accuracy    <       0.00000118 Ry

     iteration #  4     ecut=    90.00 Ry     beta= 0.30
     Davidson diagonalization with overlap
     ethr =  2.28E-09,  avg # of iterations =  2.0

     negative rho (up, down):  1.352E-06 0.000E+00

     total cpu time spent up to now is      192.9 secs

     total energy              =    -225.85105496 Ry
     estimated scf accuracy    <       0.00000021 Ry

     iteration #  5     ecut=    90.00 Ry     beta= 0.30
     Davidson diagonalization with overlap
     ethr =  3.99E-10,  avg # of iterations =  2.1

     negative rho (up, down):  1.352E-06 0.000E+00

     total cpu time spent up to now is      194.7 secs

     total energy              =    -225.85105499 Ry
     estimated scf accuracy    <       0.00000002 Ry

     iteration #  6     ecut=    90.00 Ry     beta= 0.30
     Davidson diagonalization with overlap
     ethr =  4.08E-11,  avg # of iterations =  3.2

     negative rho (up, down):  1.352E-06 0.000E+00

     total cpu time spent up to now is      196.7 secs

     total energy              =    -225.85105499 Ry
     estimated scf accuracy    <          6.3E-09 Ry

     iteration #  7     ecut=    90.00 Ry     beta= 0.30
     Davidson diagonalization with overlap
     ethr =  1.22E-11,  avg # of iterations =  2.8

     negative rho (up, down):  1.352E-06 0.000E+00

     total cpu time spent up to now is      198.6 secs

     total energy              =    -225.85105499 Ry
     estimated scf accuracy    <          1.9E-09 Ry

     iteration #  8     ecut=    90.00 Ry     beta= 0.30
     Davidson diagonalization with overlap
     ethr =  3.67E-12,  avg # of iterations =  3.7

     negative rho (up, down):  1.352E-06 0.000E+00

     total cpu time spent up to now is      200.7 secs

     total energy              =    -225.85105499 Ry
     estimated scf accuracy    <          5.8E-10 Ry

     iteration #  9     ecut=    90.00 Ry     beta= 0.30
     Davidson diagonalization with overlap
     ethr =  1.12E-12,  avg # of iterations =  2.7

     negative rho (up, down):  1.352E-06 0.000E+00

     total cpu time spent up to now is      202.5 secs

     End of self-consistent calculation

          k = 0.0000-0.0000 0.0000 ( 17977 PWs)   bands (ev):

   -17.8753 -15.9866 -13.2395 -12.7156 -12.1709 -11.6266  -9.2755  -8.5664
    -7.8188  -5.4752  -5.3813  -4.9503  -2.9506  -1.9420  -1.8785  -1.4353
    -1.1501  -1.1312  -0.0993   0.4339   0.4960   0.9352   1.0615   1.4882
     1.5088   1.5680   5.6071   6.0244   7.8063   7.9339   8.3742

          k = 0.0000-0.1027 0.0000 ( 18029 PWs)   bands (ev):

   -17.7315 -15.8907 -14.4323 -12.2779 -12.2271 -11.2468  -8.8820  -8.0289
    -7.9752  -5.5586  -5.4157  -4.5637  -2.8470  -2.4079  -1.7852  -1.7434
    -1.7253  -1.0675  -0.1146  -0.0428   0.6220   0.9441   1.0313   1.1801
     1.3187   1.8634   5.8295   6.2566   7.9447   7.9970   8.6666

          k = 0.0000-0.2053 0.0000 ( 17997 PWs)   bands (ev):

   -17.4066 -15.7041 -15.4429 -12.9352 -12.0966 -10.4632  -8.6134  -7.2942
    -7.1940  -5.6330  -5.1839  -4.9857  -3.1607  -2.9069  -2.6338  -1.6412
    -1.6128  -0.9485  -0.7324   0.0542   0.2842   0.6718   0.7414   1.2444
     1.2966   2.2575   6.4829   6.8526   7.5293   7.7964   8.1258

          k = 0.0995-0.0000 0.0000 ( 17999 PWs)   bands (ev):

   -17.6946 -15.8095 -13.0678 -12.5446 -12.0079 -11.4667  -9.1772  -8.4350
    -7.6722  -5.4228  -5.3131  -4.8229  -4.0066  -2.1913  -1.8713  -1.6744
    -1.5721  -1.0580  -0.3108  -0.2126   0.2706   0.3151   0.3395   0.8074
     1.4385   1.5201   5.7618   6.2636   8.2559   8.6473   8.7779

          k = 0.0995-0.1027 0.0000 ( 17998 PWs)   bands (ev):

   -17.5510 -15.7137 -14.2577 -12.1127 -12.0654 -11.0834  -8.8041  -7.8913
    -7.8211  -5.4820  -5.3638  -4.4430  -3.8975  -2.3374  -2.1100  -1.8116
    -1.6823  -1.5691  -0.9025  -0.1774   0.0563   0.4049   0.6398   0.9120
     1.3351   1.3495   5.9874   6.4859   8.2061   8.8266   9.0513

          k = 0.0995-0.2053 0.0000 ( 18005 PWs)   bands (ev):

   -17.2267 -15.5272 -15.2663 -12.7715 -11.9344 -10.3008  -8.5346  -7.1400
    -7.1101  -5.5302  -5.0661  -4.8810  -3.6731  -3.0692  -2.8682  -2.0736
    -1.6651  -1.5388  -1.4323  -0.3633   0.0978   0.3408   0.3770   0.9017
     1.4062   1.5430   6.6456   7.0622   7.6802   8.0040   8.1918

          k = 0.1990-0.0000 0.0000 ( 17977 PWs)   bands (ev):

   -17.1549 -15.2823 -12.5568 -12.0347 -11.5259 -10.9904  -9.0463  -8.0964
    -7.2566  -5.7525  -5.6741  -5.2162  -4.4856  -3.7022  -2.5699  -2.1440
    -1.7939  -1.5435  -1.2714  -1.1284  -0.7738  -0.4235  -0.2313  -0.1459
     0.8439   1.5235   6.2121   6.7750   8.6603   9.0686   9.4084

          k = 0.1990-0.1027 0.0000 ( 18002 PWs)   bands (ev):

   -17.0120 -15.1866 -13.7376 -11.6254 -11.5880 -10.5957  -8.7551  -7.5294
    -7.3833  -5.6462  -5.5871  -5.3546  -4.1770  -3.6902  -2.8552  -2.2213
    -2.0184  -1.8189  -1.4001  -1.2715  -0.8947  -0.6722  -0.1646   0.0840
     0.8924   1.1921   6.4321   6.9835   8.4814   9.1500   9.1705

          k = 0.1990-0.2053 0.0000 ( 17978 PWs)   bands (ev):

   -16.6893 -15.0000 -14.7397 -12.2891 -11.4565  -9.8167  -8.4869  -6.9893
    -6.7119  -5.5035  -5.4494  -4.6815  -4.6745  -3.6910  -3.4097  -3.0027
    -2.7457  -2.0419  -1.5733  -1.4510  -0.7466  -0.4600  -0.0836   0.1367
     0.8003   1.0322   7.0431   7.5467   7.9179   8.2963   8.3828

          k = 0.2984-0.0000 0.0000 ( 18006 PWs)   bands (ev):

   -16.2648 -14.4238 -11.7249 -11.1978 -10.7628 -10.2124  -9.7773  -7.7302
    -7.2722  -6.7021  -6.4966  -5.6127  -4.2561  -4.1065  -3.8371  -3.6849
    -3.1818  -2.6230  -1.5428  -1.2378  -1.2090  -1.1772  -0.4288  -0.3116
    -0.1991   1.4718   7.0449   7.4443   8.9282   9.4476   9.5073

          k = 0.2984-0.1027 0.0000 ( 18004 PWs)   bands (ev):

   -16.1230 -14.3274 -12.8846 -10.8625 -10.8389  -9.7925  -9.5836  -7.3144
    -7.2261  -6.7122  -6.4003  -5.6541  -4.1560  -4.0641  -3.9897  -3.8505
    -2.7714  -2.5569  -1.7903  -1.2908  -1.1963  -1.0713  -0.8038  -0.6890
     0.0150   0.9585   7.2385   7.6452   8.8194   9.0746   9.1123

          k = 0.2984-0.2053 0.0000 ( 18022 PWs)   bands (ev):

   -15.8027 -14.1381 -13.8762 -11.5337 -10.7136  -9.3421  -9.0239  -7.4855
    -7.0714  -6.1935  -5.9873  -4.7518  -4.5490  -4.0829  -3.9167  -3.8073
    -3.5745  -2.7347  -1.8167  -1.7838  -1.4859  -0.9476  -0.7396  -0.5782
     0.1970   0.2371   7.5230   7.9213   8.2199   8.6197   8.8815

          k = 0.3979-0.0000 0.0000 ( 18042 PWs)   bands (ev):

   -15.0479 -13.3456 -11.3937 -10.7130 -10.0643 -10.0568  -9.1896  -8.7341
    -7.8955  -6.8949  -6.6949  -6.6469  -5.0543  -4.9051  -4.0838  -3.9267
    -3.4589  -2.6828  -2.2053  -2.0744  -1.6865  -1.3692  -1.0956  -0.7196
     0.2792   1.2733   8.1794   8.2258   8.6109   9.5380   9.7213

          k = 0.3979-0.1027 0.0000 ( 18026 PWs)   bands (ev):

   -14.9073 -13.2397 -11.7357 -11.2949 -10.2665  -9.9162  -8.7132  -8.6290
    -8.1193  -6.7414  -6.5892  -6.0893  -4.9818  -4.7710  -4.6405  -3.8435
    -2.8159  -2.6083  -2.1585  -1.9345  -1.7692  -1.2509  -1.2214  -0.7755
    -0.3238   0.5228   8.2720   8.3552   8.7308   9.0080   9.5413

          k = 0.3979-0.2053 0.0000 ( 18001 PWs)   bands (ev):

   -14.5885 -13.0243 -12.7105 -11.0755 -10.7269 -10.1646  -8.6553  -8.4536
    -8.0072  -6.6704  -6.4239  -4.9002  -4.8495  -4.6576  -4.1432  -3.7128
    -3.0062  -2.9845  -1.7846  -1.7471  -1.7000  -1.5246  -1.4775  -1.1150
    -0.5915  -0.5765   7.8107   8.3698   8.8697   9.3778   9.3979

          k =-0.4974 0.0000 0.0000 ( 18082 PWs)   bands (ev):

   -13.6079 -13.6079 -11.4502 -11.4502  -9.1036  -9.1036  -8.7983  -8.7983
    -7.9471  -7.9471  -7.5856  -7.5856  -4.5029  -4.5029  -4.2292  -4.2292
    -3.4781  -3.4781  -2.0714  -2.0714  -1.8043  -1.8043  -1.1346  -1.1346
     0.8570   0.8570   8.6240   8.6240   9.3829   9.3829  10.0387

          k =-0.4974-0.1027 0.0000 ( 18012 PWs)   bands (ev):

   -13.4675 -13.4675 -11.3786 -11.3786 -10.3786 -10.3786  -7.9965  -7.9965
    -7.8106  -7.8106  -7.3371  -7.3371  -4.4789  -4.4789  -4.2799  -4.2799
    -3.0669  -3.0669  -2.1725  -2.1725  -1.6349  -1.6349  -1.1088  -1.1088
     0.0498   0.0498   8.4807   8.4807   9.5934   9.5934   9.9108

          k =-0.4974-0.2053 0.0000 ( 17986 PWs)   bands (ev):

   -13.1443 -13.1443 -11.3790 -11.3790 -11.2321 -11.2321  -8.3644  -8.3644
    -7.7248  -7.7248  -6.3814  -6.3814  -4.2427  -4.2427  -3.8566  -3.8566
    -2.8349  -2.8349  -1.8557  -1.8557  -1.7984  -1.7984  -1.3975  -1.3975
    -1.0746  -1.0746   8.3749   8.3749   9.3620   9.3621   9.7746

     the Fermi energy is     3.7405 ev

!    total energy              =    -225.85105499 Ry
     estimated scf accuracy    <          2.8E-11 Ry
     smearing contrib. (-TS)   =       0.00000000 Ry
     internal energy E=F+TS    =    -225.85105499 Ry

     The total energy is F=E-TS. E is the sum of the following terms:
     one-electron contribution =   -1166.62268379 Ry
     hartree contribution      =     603.97375459 Ry
     xc contribution           =     -58.91308346 Ry
     ewald contribution        =     469.67359737 Ry
     one-center paw contrib.   =     -73.96263969 Ry

     convergence has been achieved in   9 iterations

     negative rho (up, down):  1.352E-06 0.000E+00

     Forces acting on atoms (cartesian axes, Ry/au):

     atom    1 type  1   force =     0.00000000    0.00086189    0.00229602
     atom    2 type  1   force =     0.00000000    0.00012605    0.00132394
     atom    3 type  1   force =     0.00000000    0.00000000   -0.00013592
     atom    4 type  1   force =     0.00000000   -0.00000000    0.00013592
     atom    5 type  1   force =     0.00000000    0.00012605   -0.00132394
     atom    6 type  1   force =     0.00000000    0.00086189   -0.00229602
     atom    7 type  1   force =     0.00000000   -0.00086189    0.00229602
     atom    8 type  1   force =     0.00000000   -0.00012605    0.00132394
     atom    9 type  1   force =     0.00000000   -0.00000000    0.00068536
     atom   10 type  1   force =     0.00000000    0.00000000   -0.00068536
     atom   11 type  1   force =     0.00000000   -0.00012605   -0.00132394
     atom   12 type  1   force =     0.00000000   -0.00086189   -0.00229602
     atom   13 type  2   force =     0.00000000   -0.00175579    0.00091519
     atom   14 type  2   force =     0.00000000    0.00175579    0.00091519
     atom   15 type  2   force =     0.00000000   -0.00175579   -0.00091519
     atom   16 type  2   force =     0.00000000    0.00175579   -0.00091519

     Total force =     0.006913     Total SCF correction =     0.000017


     Computing stress (Cartesian axis) and pressure


     negative rho (up, down):  1.352E-06 0.000E+00
          total   stress  (Ry/bohr**3)                   (kbar)     P=        3.14
  -0.00000367   0.00000000   0.00000000           -0.54        0.00        0.00
   0.00000000   0.00000777   0.00000000            0.00        1.14        0.00
   0.00000000   0.00000000   0.00005988            0.00        0.00        8.81

     Energy error            =      1.7E-04 Ry
     Gradient error          =      2.3E-03 Ry/Bohr
     Cell gradient error     =      1.1E+00 kbar

     number of scf cycles    =   8
     number of bfgs steps    =   7

     enthalpy           old  =    -225.8508869876 Ry
     enthalpy           new  =    -225.8510549928 Ry

     CASE: enthalpy          _new < enthalpy          _old

     new trust radius        =       0.0050529379 bohr
     Message from routine volume:
     axis vectors are left-handed
     new conv_thr            =       0.0000000002 Ry

     new unit-cell volume =   1223.80657 a.u.^3 (   181.34942 Ang^3 )
     density =      1.35667 g/cm^3

CELL_PARAMETERS (angstrom)
   2.539406133   0.000000000   0.000000000
   0.000000000  -4.925115668   0.000000000
   0.000000000   0.000000000  14.499985940

ATOMIC_POSITIONS (crystal)
C                0.0000000000        0.1658941139        0.6500691207
C                0.5000000000        0.2364949532        0.5937944372
C                0.5000000000       -0.0000000000        0.5281465417
C                0.0000000000       -0.0000000000        0.4718534583
C                0.0000000000        0.2364949532        0.4062055628
C                0.5000000000        0.1658941139        0.3499308793
C                0.0000000000        0.8341058861        0.6500691207
C                0.5000000000        0.7635050468        0.5937944372
C                0.5000000000        0.5000000000        0.5333498827
C                0.0000000000        0.5000000000        0.4666501173
C               -0.0000000000        0.7635050468        0.4062055628
C                0.5000000000        0.8341058861        0.3499308793
H               -0.0000000000        0.2514124508        0.7199937524
H               -0.0000000000        0.7485875492        0.7199937524
H                0.5000000000        0.2514124508        0.2800062476
H                0.5000000000        0.7485875492        0.2800062476



     Writing config-only to output data dir /tmp/qe/slab.save/ :
     XML data file
     NEW-OLD atomic charge density approx. for the potential

     negative rho (up, down):  1.352E-06 0.000E+00

     total cpu time spent up to now is      207.0 secs

     Self-consistent Calculation

     iteration #  1     ecut=    90.00 Ry     beta= 0.30
     Davidson diagonalization with overlap
     ethr =  1.00E-06,  avg # of iterations =  2.8

     Threshold (ethr) on eigenvalues was too large:
     Diagonalizing with lowered threshold

     Davidson diagonalization with overlap
     ethr =  1.20E-08,  avg # of iterations =  4.6

     negative rho (up, down):  1.360E-06 0.000E+00

     total cpu time spent up to now is      211.3 secs

     total energy              =    -225.85111670 Ry
     estimated scf accuracy    <       0.00000914 Ry

     iteration #  2     ecut=    90.00 Ry     beta= 0.30
     Davidson diagonalization with overlap
     ethr =  1.76E-08,  avg # of iterations =  1.5

     negative rho (up, down):  1.382E-06 0.000E+00

     total cpu time spent up to now is      212.8 secs

     total energy              =    -225.85111684 Ry
     estimated scf accuracy    <       0.00000293 Ry

     iteration #  3     ecut=    90.00 Ry     beta= 0.30
     Davidson diagonalization with overlap
     ethr =  5.64E-09,  avg # of iterations =  1.9

     negative rho (up, down):  1.394E-06 0.000E+00

     total cpu time spent up to now is      214.4 secs

     total energy              =    -225.85111705 Ry
     estimated scf accuracy    <       0.00000055 Ry

     iteration #  4     ecut=    90.00 Ry     beta= 0.30
     Davidson diagonalization with overlap
     ethr =  1.05E-09,  avg # of iterations =  1.8

     negative rho (up, down):  1.396E-06 0.000E+00

     total cpu time spent up to now is      216.0 secs

     total energy              =    -225.85111710 Ry
     estimated scf accuracy    <       0.00000007 Ry

     iteration #  5     ecut=    90.00 Ry     beta= 0.30
     Davidson diagonalization with overlap
     ethr =  1.33E-10,  avg # of iterations =  2.2

     negative rho (up, down):  1.391E-06 0.000E+00

     total cpu time spent up to now is      217.9 secs

     total energy              =    -225.85111711 Ry
     estimated scf accuracy    <          4.6E-09 Ry

     iteration #  6     ecut=    90.00 Ry     beta= 0.30
     Davidson diagonalization with overlap
     ethr =  8.79E-12,  avg # of iterations =  3.9

     negative rho (up, down):  1.391E-06 0.000E+00

     total cpu time spent up to now is      220.0 secs

     total energy              =    -225.85111711 Ry
     estimated scf accuracy    <          1.6E-09 Ry

     iteration #  7     ecut=    90.00 Ry     beta= 0.30
     Davidson diagonalization with overlap
     ethr =  3.11E-12,  avg # of iterations =  3.7

     negative rho (up, down):  1.389E-06 0.000E+00

     total cpu time spent up to now is      222.2 secs

     total energy              =    -225.85111711 Ry
     estimated scf accuracy    <          1.7E-09 Ry

     iteration #  8     ecut=    90.00 Ry     beta= 0.30
     Davidson diagonalization with overlap
     ethr =  3.11E-12,  avg # of iterations =  2.5

     negative rho (up, down):  1.388E-06 0.000E+00

     total cpu time spent up to now is      224.0 secs

     End of self-consistent calculation

          k = 0.0000-0.0000 0.0000 ( 17977 PWs)   bands (ev):

   -17.8680 -15.9812 -13.2338 -12.7099 -12.1758 -11.6250  -9.2668  -8.5670
    -7.8212  -5.4797  -5.3847  -4.9505  -2.9425  -1.9448  -1.8928  -1.4395
    -1.1570  -1.1193  -0.1021   0.4233   0.4994   0.9469   1.0729   1.4861
     1.5057   1.5703   5.6040   6.0225   7.8073   7.9311   8.3647

          k = 0.0000-0.1026 0.0000 ( 18029 PWs)   bands (ev):

   -17.7248 -15.8858 -14.4233 -12.2810 -12.2216 -11.2471  -8.8819  -8.0254
    -7.9750  -5.5615  -5.4199  -4.5679  -2.8398  -2.4062  -1.7901  -1.7508
    -1.7372  -1.0560  -0.1033  -0.0471   0.6126   0.9562   1.0298   1.1803
     1.3127   1.8701   5.8262   6.2546   7.9364   7.9987   8.6637

          k = 0.0000-0.2052 0.0000 ( 17997 PWs)   bands (ev):

   -17.4022 -15.7005 -15.4306 -12.9264 -12.1016 -10.4648  -8.6164  -7.2927
    -7.1929  -5.6365  -5.1855  -4.9914  -3.1624  -2.9042  -2.6292  -1.6471
    -1.6226  -0.9379  -0.7163   0.0484   0.2809   0.6657   0.7547   1.2420
     1.2851   2.2645   6.4784   6.8488   7.5239   7.7949   8.1237

          k = 0.0995-0.0000 0.0000 ( 17999 PWs)   bands (ev):

   -17.6873 -15.8040 -13.0620 -12.5388 -12.0128 -11.4650  -9.1689  -8.4349
    -7.6745  -5.4261  -5.3162  -4.8238  -3.9994  -2.1814  -1.8742  -1.6860
    -1.5757  -1.0646  -0.3103  -0.2118   0.2787   0.3257   0.3321   0.8085
     1.4339   1.5180   5.7587   6.2608   8.2504   8.6445   8.7723

          k = 0.0995-0.1026 0.0000 ( 17998 PWs)   bands (ev):

   -17.5443 -15.7088 -14.2487 -12.1158 -12.0599 -11.0836  -8.8038  -7.8877
    -7.8209  -5.4847  -5.3674  -4.4472  -3.8911  -2.3349  -2.1020  -1.8128
    -1.6886  -1.5800  -0.8956  -0.1802   0.0643   0.4030   0.6364   0.9155
     1.3360   1.3422   5.9841   6.4829   8.1966   8.8230   9.0454

          k = 0.0995-0.2052 0.0000 ( 18005 PWs)   bands (ev):

   -17.2223 -15.5236 -15.2538 -12.7626 -11.9393 -10.3023  -8.5374  -7.1385
    -7.1088  -5.5337  -5.0676  -4.8863  -3.6689  -3.0706  -2.8648  -2.0673
    -1.6506  -1.5420  -1.4398  -0.3589   0.0908   0.3437   0.3753   0.8983
     1.3950   1.5480   6.6411   7.0572   7.6752   8.0009   8.1894

          k = 0.1990-0.0000 0.0000 ( 17977 PWs)   bands (ev):

   -17.1474 -15.2767 -12.5508 -12.0287 -11.5307 -10.9884  -9.0397  -8.0931
    -7.2587  -5.7462  -5.6718  -5.2183  -4.4896  -3.6951  -2.5647  -2.1466
    -1.7956  -1.5353  -1.2642  -1.1453  -0.7788  -0.4241  -0.2336  -0.1465
     0.8368   1.5212   6.2095   6.7721   8.6566   9.0574   9.4018

          k = 0.1990-0.1026 0.0000 ( 18002 PWs)   bands (ev):

   -17.0052 -15.1816 -13.7284 -11.6285 -11.5821 -10.5956  -8.7539  -7.5253
    -7.3830  -5.6414  -5.5862  -5.3547  -4.1813  -3.6849  -2.8479  -2.2210
    -2.0163  -1.8190  -1.4055  -1.2686  -0.9030  -0.6730  -0.1647   0.0815
     0.8831   1.1900   6.4291   6.9802   8.4730   9.1433   9.1622

          k = 0.1990-0.2052 0.0000 ( 17978 PWs)   bands (ev):

   -16.6848 -14.9962 -14.7272 -12.2798 -11.4614  -9.8180  -8.4884  -6.9867
    -6.7104  -5.5050  -5.4467  -4.6807  -4.6769  -3.6881  -3.4001  -2.9952
    -2.7449  -2.0426  -1.5682  -1.4542  -0.7601  -0.4558  -0.0853   0.1333
     0.7971   1.0203   7.0387   7.5412   7.9144   8.2907   8.3789

          k = 0.2984-0.0000 0.0000 ( 18006 PWs)   bands (ev):

   -16.2573 -14.4179 -11.7187 -11.1915 -10.7673 -10.2098  -9.7710  -7.7212
    -7.2656  -6.7039  -6.4952  -5.6112  -4.2507  -4.1109  -3.8385  -3.6804
    -3.1754  -2.6186  -1.5450  -1.2371  -1.2094  -1.1954  -0.4292  -0.3156
    -0.2075   1.4696   7.0426   7.4416   8.9217   9.4421   9.4952

          k = 0.2984-0.1026 0.0000 ( 18004 PWs)   bands (ev):

   -16.1162 -14.3220 -12.8752 -10.8654 -10.8321  -9.7919  -9.5795  -7.3085
    -7.2205  -6.7120  -6.3988  -5.6494  -4.1508  -4.0616  -3.9903  -3.8519
    -2.7715  -2.5523  -1.7900  -1.2920  -1.1970  -1.0883  -0.8056  -0.6895
     0.0059   0.9561   7.2357   7.6421   8.8092   9.0651   9.1038

          k = 0.2984-0.2052 0.0000 ( 18022 PWs)   bands (ev):

   -15.7981 -14.1341 -13.8633 -11.5237 -10.7180  -9.3397  -9.0249  -7.4783
    -7.0672  -6.1939  -5.9864  -4.7451  -4.5423  -4.0844  -3.9154  -3.8084
    -3.5745  -2.7322  -1.8150  -1.7812  -1.4904  -0.9567  -0.7395  -0.5848
     0.1859   0.2328   7.5165   7.9139   8.2152   8.6137   8.8756

          k = 0.3979-0.0000 0.0000 ( 18042 PWs)   bands (ev):

   -15.0402 -13.3389 -11.3872 -10.7071 -10.0576 -10.0564  -9.1858  -8.7310
    -7.8866  -6.8909  -6.6952  -6.6468  -5.0552  -4.8996  -4.0800  -3.9267
    -3.4522  -2.6802  -2.2072  -2.0803  -1.6886  -1.3855  -1.1027  -0.7198
     0.2763   1.2712   8.1748   8.2230   8.6035   9.5266   9.7080

          k = 0.3979-0.1026 0.0000 ( 18026 PWs)   bands (ev):

   -14.9003 -13.2336 -11.7259 -11.2888 -10.2663  -9.9082  -8.7099  -8.6280
    -8.1135  -6.7393  -6.5908  -6.0836  -4.9829  -4.7639  -4.6368  -3.8434
    -2.8133  -2.6059  -2.1597  -1.9369  -1.7750  -1.2660  -1.2277  -0.7766
    -0.3264   0.5207   8.2671   8.3502   8.7216   9.0004   9.5290

          k = 0.3979-0.2052 0.0000 ( 18001 PWs)   bands (ev):

   -14.5838 -13.0198 -12.6972 -11.0698 -10.7163 -10.1650  -8.6474  -8.4527
    -8.0078  -6.6634  -6.4269  -4.8992  -4.8514  -4.6521  -4.1376  -3.7127
    -3.0066  -2.9822  -1.7883  -1.7492  -1.6991  -1.5248  -1.4796  -1.1267
    -0.5989  -0.5836   7.8016   8.3599   8.8634   9.3741   9.3994

          k =-0.4974 0.0000 0.0000 ( 18082 PWs)   bands (ev):

   -13.5999 -13.5999 -11.4450 -11.4450  -9.0963  -9.0963  -8.7906  -8.7906
    -7.9493  -7.9493  -7.5849  -7.5849  -4.4985  -4.4985  -4.2252  -4.2252
    -3.4762  -3.4762  -2.0732  -2.0732  -1.8175  -1.8175  -1.1368  -1.1368
     0.8547   0.8547   8.6148   8.6148   9.3763   9.3763  10.0260

          k =-0.4974-0.1026 0.0000 ( 18012 PWs)   bands (ev):

   -13.4601 -13.4601 -11.3738 -11.3738 -10.3683 -10.3683  -7.9940  -7.9940
    -7.8113  -7.8113  -7.3344  -7.3344  -4.4738  -4.4738  -4.2783  -4.2783
    -3.0639  -3.0639  -2.1747  -2.1747  -1.6481  -1.6481  -1.1119  -1.1119
     0.0485   0.0485   8.4713   8.4713   9.5861   9.5861   9.9040

          k =-0.4974-0.2052 0.0000 ( 17986 PWs)   bands (ev):

   -13.1394 -13.1394 -11.3656 -11.3656 -11.2278 -11.2278  -8.3584  -8.3584
    -7.7282  -7.7282  -6.3799  -6.3799  -4.2422  -4.2422  -3.8517  -3.8517
    -2.8321  -2.8321  -1.8574  -1.8574  -1.8004  -1.8004  -1.4072  -1.4072
    -1.0801  -1.0801   8.3649   8.3649   9.3579   9.3579   9.7671

     the Fermi energy is     3.7328 ev

!    total energy              =    -225.85111711 Ry
     estimated scf accuracy    <          2.4E-11 Ry
     smearing contrib. (-TS)   =       0.00000000 Ry
     internal energy E=F+TS    =    -225.85111711 Ry

     The total energy is F=E-TS. E is the sum of the following terms:
     one-electron contribution =   -1165.12677547 Ry
     hartree contribution      =     603.22130959 Ry
     xc contribution           =     -58.90343253 Ry
     ewald contribution        =     468.92016282 Ry
     one-center paw contrib.   =     -73.96238151 Ry

     convergence has been achieved in   8 iterations

     negative rho (up, down):  1.388E-06 0.000E+00

     Forces acting on atoms (cartesian axes, Ry/au):

     atom    1 type  1   force =     0.00000000    0.00050329    0.00068969
     atom    2 type  1   force =     0.00000000   -0.00079083    0.00168198
     atom    3 type  1   force =     0.00000000   -0.00000000    0.00139591
     atom    4 type  1   force =     0.00000000    0.00000000   -0.00139591
     atom    5 type  1   force =     0.00000000   -0.00079083   -0.00168198
     atom    6 type  1   force =     0.00000000    0.00050329   -0.00068969
     atom    7 type  1   force =    -0.00000000   -0.00050329    0.00068969
     atom    8 type  1   force =     0.00000000    0.00079083    0.00168198
     atom    9 type  1   force =     0.00000000   -0.00000000    0.00041839
     atom   10 type  1   force =     0.00000000    0.00000000   -0.00041839
     atom   11 type  1   force =     0.00000000    0.00079083   -0.00168198
     atom   12 type  1   force =    -0.00000000   -0.00050329   -0.00068969
     atom   13 type  2   force =     0.00000000   -0.00132079    0.00104835
     atom   14 type  2   force =     0.00000000    0.00132079    0.00104835
     atom   15 type  2   force =     0.00000000   -0.00132079   -0.00104835
     atom   16 type  2   force =     0.00000000    0.00132079   -0.00104835

     Total force =     0.005688     Total SCF correction =     0.000010


     Computing stress (Cartesian axis) and pressure


     negative rho (up, down):  1.388E-06 0.000E+00
          total   stress  (Ry/bohr**3)                   (kbar)     P=        1.56
  -0.00000496   0.00000000   0.00000000           -0.73        0.00        0.00
   0.00000000  -0.00000874   0.00000000            0.00       -1.29        0.00
   0.00000000   0.00000000   0.00004547            0.00        0.00        6.69

     Energy error            =      6.2E-05 Ry
     Gradient error          =      1.7E-03 Ry/Bohr
     Cell gradient error     =      1.3E+00 kbar

     number of scf cycles    =   9
     number of bfgs steps    =   8

     enthalpy           old  =    -225.8510549928 Ry
     enthalpy           new  =    -225.8511171103 Ry

     CASE: enthalpy          _new < enthalpy          _old

     new trust radius        =       0.0057686485 bohr
     Message from routine volume:
     axis vectors are left-handed
     new conv_thr            =            6.2E-11 Ry

     new unit-cell volume =   1223.81486 a.u.^3 (   181.35065 Ang^3 )
     density =      1.35667 g/cm^3

CELL_PARAMETERS (angstrom)
   2.538928579   0.000000000   0.000000000
   0.000000000  -4.926075392   0.000000000
   0.000000000   0.000000000  14.499985940

ATOMIC_POSITIONS (crystal)
C                0.0000000000        0.1657770384        0.6502225482
C                0.5000000000        0.2363765171        0.5938829244
C                0.5000000000       -0.0000000000        0.5282195836
C                0.0000000000       -0.0000000000        0.4717804164
C                0.0000000000        0.2363765171        0.4061170756
C                0.5000000000        0.1657770384        0.3497774518
C                0.0000000000        0.8342229616        0.6502225482
C                0.5000000000        0.7636234829        0.5938829244
C                0.5000000000        0.5000000000        0.5334036549
C                0.0000000000        0.5000000000        0.4665963451
C               -0.0000000000        0.7636234829        0.4061170756
C                0.5000000000        0.8342229616        0.3497774518
H               -0.0000000000        0.2519799797        0.7200783796
H               -0.0000000000        0.7480200203        0.7200783796
H                0.5000000000        0.2519799797        0.2799216204
H                0.5000000000        0.7480200203        0.2799216204



     Writing config-only to output data dir /tmp/qe/slab.save/ :
     XML data file
     NEW-OLD atomic charge density approx. for the potential

     negative rho (up, down):  1.365E-06 0.000E+00

     total cpu time spent up to now is      228.5 secs

     Self-consistent Calculation

     iteration #  1     ecut=    90.00 Ry     beta= 0.30
     Davidson diagonalization with overlap
     ethr =  1.00E-06,  avg # of iterations =  3.0

     Threshold (ethr) on eigenvalues was too large:
     Diagonalizing with lowered threshold

     Davidson diagonalization with overlap
     ethr =  1.87E-08,  avg # of iterations =  4.2

     negative rho (up, down):  1.376E-06 0.000E+00

     total cpu time spent up to now is      232.8 secs

     total energy              =    -225.85116277 Ry
     estimated scf accuracy    <       0.00001324 Ry

     iteration #  2     ecut=    90.00 Ry     beta= 0.30
     Davidson diagonalization with overlap
     ethr =  2.55E-08,  avg # of iterations =  2.1

     negative rho (up, down):  1.404E-06 0.000E+00

     total cpu time spent up to now is      234.4 secs

     total energy              =    -225.85116311 Ry
     estimated scf accuracy    <       0.00000409 Ry

     iteration #  3     ecut=    90.00 Ry     beta= 0.30
     Davidson diagonalization with overlap
     ethr =  7.86E-09,  avg # of iterations =  1.2

     negative rho (up, down):  1.429E-06 0.000E+00

     total cpu time spent up to now is      235.9 secs

     total energy              =    -225.85116327 Ry
     estimated scf accuracy    <       0.00000090 Ry

     iteration #  4     ecut=    90.00 Ry     beta= 0.30
     Davidson diagonalization with overlap
     ethr =  1.72E-09,  avg # of iterations =  1.9

     negative rho (up, down):  1.426E-06 0.000E+00

     total cpu time spent up to now is      237.6 secs

     total energy              =    -225.85116334 Ry
     estimated scf accuracy    <       0.00000005 Ry

     iteration #  5     ecut=    90.00 Ry     beta= 0.30
     Davidson diagonalization with overlap
     ethr =  1.05E-10,  avg # of iterations =  3.4

     negative rho (up, down):  1.424E-06 0.000E+00

     total cpu time spent up to now is      239.6 secs

     total energy              =    -225.85116335 Ry
     estimated scf accuracy    <          6.8E-09 Ry

     iteration #  6     ecut=    90.00 Ry     beta= 0.30
     Davidson diagonalization with overlap
     ethr =  1.32E-11,  avg # of iterations =  2.1

     negative rho (up, down):  1.421E-06 0.000E+00

     total cpu time spent up to now is      241.3 secs

     total energy              =    -225.85116335 Ry
     estimated scf accuracy    <          2.0E-09 Ry

     iteration #  7     ecut=    90.00 Ry     beta= 0.30
     Davidson diagonalization with overlap
     ethr =  3.77E-12,  avg # of iterations =  3.4

     negative rho (up, down):  1.421E-06 0.000E+00

     total cpu time spent up to now is      243.4 secs

     total energy              =    -225.85116335 Ry
     estimated scf accuracy    <          1.3E-09 Ry

     iteration #  8     ecut=    90.00 Ry     beta= 0.30
     Davidson diagonalization with overlap
     ethr =  2.43E-12,  avg # of iterations =  2.5

     negative rho (up, down):  1.420E-06 0.000E+00

     total cpu time spent up to now is      245.3 secs

     total energy              =    -225.85116335 Ry
     estimated scf accuracy    <          2.1E-10 Ry

     iteration #  9     ecut=    90.00 Ry     beta= 0.30
     Davidson diagonalization with overlap
     ethr =  4.08E-13,  avg # of iterations =  2.6

     negative rho (up, down):  1.420E-06 0.000E+00

     total cpu time spent up to now is      247.2 secs

     End of self-consistent calculation

          k = 0.0000-0.0000 0.0000 ( 17977 PWs)   bands (ev):

   -17.8585 -15.9810 -13.2263 -12.7015 -12.1732 -11.6233  -9.2629  -8.5675
    -7.8183  -5.4834  -5.3858  -4.9548  -2.9231  -1.9410  -1.9040  -1.4459
    -1.1509  -1.1109  -0.1019   0.4092   0.5220   0.9593   1.0844   1.4866
     1.4998   1.5811   5.6037   6.0231   7.8206   7.9306   8.3668

          k = 0.0000-0.1026 0.0000 ( 18029 PWs)   bands (ev):

   -17.7157 -15.8860 -14.4123 -12.2814 -12.2181 -11.2410  -8.8829  -8.0227
    -7.9706  -5.5633  -5.4227  -4.5724  -2.8206  -2.3976  -1.7937  -1.7513
    -1.7463  -1.0478  -0.0834  -0.0505   0.6021   0.9680   1.0296   1.1948
     1.3045   1.8817   5.8259   6.2554   7.9325   8.0115   8.6671

          k = 0.0000-0.2051 0.0000 ( 17997 PWs)   bands (ev):

   -17.3943 -15.7016 -15.4174 -12.9211 -12.1023 -10.4638  -8.6188  -7.2845
    -7.1921  -5.6325  -5.1866  -4.9953  -3.1629  -2.9004  -2.6105  -1.6509
    -1.6284  -0.9303  -0.6960   0.0436   0.2767   0.6604   0.7672   1.2560
     1.2720   2.2764   6.4777   6.8488   7.5235   7.7986   8.1270

          k = 0.0995-0.0000 0.0000 ( 17999 PWs)   bands (ev):

   -17.6777 -15.8038 -13.0544 -12.5304 -12.0101 -11.4631  -9.1651  -8.4350
    -7.6716  -5.4287  -5.3171  -4.8286  -3.9824  -2.1748  -1.8707  -1.6951
    -1.5803  -1.0581  -0.3067  -0.1921   0.2875   0.3215   0.3365   0.8174
     1.4271   1.5187   5.7585   6.2607   8.2469   8.6540   8.7754

          k = 0.0995-0.1026 0.0000 ( 17998 PWs)   bands (ev):

   -17.5352 -15.7089 -14.2376 -12.1160 -12.0562 -11.0774  -8.8046  -7.8849
    -7.8165  -5.4862  -5.3696  -4.4518  -3.8742  -2.3271  -2.0955  -1.8133
    -1.6882  -1.5874  -0.8814  -0.1811   0.0716   0.4155   0.6326   0.9213
     1.3331   1.3410   5.9838   6.4830   8.1927   8.8252   9.0424

          k = 0.0995-0.2051 0.0000 ( 18005 PWs)   bands (ev):

   -17.2144 -15.5245 -15.2406 -12.7571 -11.9399 -10.3012  -8.5396  -7.1303
    -7.1077  -5.5301  -5.0684  -4.8894  -3.6527  -3.0706  -2.8604  -2.0636
    -1.6323  -1.5437  -1.4437  -0.3545   0.0903   0.3469   0.3761   0.9032
     1.3826   1.5577   6.6404   7.0562   7.6751   8.0027   8.1925

          k = 0.1990-0.0000 0.0000 ( 17977 PWs)   bands (ev):

   -17.1376 -15.2762 -12.5429 -12.0202 -11.5277 -10.9861  -9.0357  -8.0908
    -7.2557  -5.7313  -5.6701  -5.2180  -4.4960  -3.6907  -2.5580  -2.1416
    -1.7921  -1.5250  -1.2554  -1.1504  -0.7714  -0.4224  -0.2391  -0.1430
     0.8289   1.5227   6.2091   6.7719   8.6544   9.0470   9.3991

          k = 0.1990-0.1026 0.0000 ( 18002 PWs)   bands (ev):

   -16.9958 -15.1814 -13.7170 -11.6284 -11.5780 -10.5891  -8.7528  -7.5219
    -7.3784  -5.6276  -5.5851  -5.3533  -4.1860  -3.6808  -2.8349  -2.2178
    -2.0080  -1.8159  -1.4102  -1.2623  -0.8984  -0.6689  -0.1623   0.0783
     0.8736   1.1910   6.4286   6.9800   8.4703   9.1303   9.1586

          k = 0.1990-0.2051 0.0000 ( 17978 PWs)   bands (ev):

   -16.6767 -14.9969 -14.7137 -12.2740 -11.4616  -9.8166  -8.4886  -6.9838
    -6.7022  -5.5032  -5.4336  -4.6790  -4.6751  -3.6861  -3.3862  -2.9872
    -2.7427  -2.0412  -1.5621  -1.4563  -0.7605  -0.4499  -0.0867   0.1337
     0.7973   1.0088   7.0377   7.5398   7.9160   8.2894   8.3803

          k = 0.2985-0.0000 0.0000 ( 18006 PWs)   bands (ev):

   -16.2471 -14.4169 -11.7103 -11.1828 -10.7637 -10.2070  -9.7628  -7.7141
    -7.2614  -6.7009  -6.4874  -5.6067  -4.2434  -4.1139  -3.8303  -3.6790
    -3.1679  -2.6124  -1.5416  -1.2396  -1.2066  -1.2063  -0.4285  -0.3077
    -0.2156   1.4725   7.0417   7.4412   8.9138   9.4354   9.4855

          k = 0.2985-0.1026 0.0000 ( 18004 PWs)   bands (ev):

   -16.1064 -14.3214 -12.8635 -10.8649 -10.8271  -9.7850  -9.5723  -7.3019
    -7.2162  -6.7082  -6.3904  -5.6439  -4.1471  -4.0561  -3.9890  -3.8453
    -2.7704  -2.5466  -1.7850  -1.2891  -1.1941  -1.0981  -0.8059  -0.6876
    -0.0014   0.9581   7.2347   7.6415   8.8032   9.0603   9.0965

          k = 0.2985-0.2051 0.0000 ( 18022 PWs)   bands (ev):

   -15.7896 -14.1344 -13.8495 -11.5170 -10.7178  -9.3334  -9.0230  -7.4695
    -7.0632  -6.1855  -5.9803  -4.7377  -4.5346  -4.0809  -3.9111  -3.8066
    -3.5697  -2.7289  -1.8112  -1.7773  -1.4936  -0.9558  -0.7400  -0.5881
     0.1764   0.2323   7.5138   7.9107   8.2139   8.6119   8.8754

          k = 0.3980-0.0000 0.0000 ( 18042 PWs)   bands (ev):

   -15.0297 -13.3364 -11.3776 -10.7008 -10.0503 -10.0486  -9.1818  -8.7260
    -7.8758  -6.8837  -6.6875  -6.6436  -5.0571  -4.8897  -4.0738  -3.9247
    -3.4474  -2.6779  -2.2018  -2.0887  -1.6852  -1.3967  -1.1092  -0.7201
     0.2836   1.2757   8.1712   8.2210   8.5940   9.5141   9.6996

          k = 0.3980-0.1026 0.0000 ( 18026 PWs)   bands (ev):

   -14.8902 -13.2316 -11.7138 -11.2793 -10.2655  -9.9013  -8.7041  -8.6220
    -8.1045  -6.7349  -6.5830  -6.0763  -4.9844  -4.7566  -4.6290  -3.8409
    -2.8110  -2.6032  -2.1557  -1.9354  -1.7810  -1.2749  -1.2305  -0.7772
    -0.3227   0.5248   8.2644   8.3464   8.7154   8.9920   9.5186

          k = 0.3980-0.2051 0.0000 ( 18001 PWs)   bands (ev):

   -14.5750 -13.0190 -12.6830 -11.0608 -10.7071 -10.1647  -8.6374  -8.4486
    -8.0056  -6.6560  -6.4189  -4.8951  -4.8519  -4.6426  -4.1315  -3.7094
    -3.0000  -2.9793  -1.7896  -1.7486  -1.6935  -1.5230  -1.4826  -1.1322
    -0.6050  -0.5863   7.7970   8.3548   8.8594   9.3734   9.4089

          k =-0.4975 0.0000 0.0000 ( 18082 PWs)   bands (ev):

   -13.5896 -13.5896 -11.4428 -11.4428  -9.0848  -9.0848  -8.7814  -8.7814
    -7.9435  -7.9435  -7.5817  -7.5817  -4.4949  -4.4949  -4.2207  -4.2207
    -3.4715  -3.4715  -2.0697  -2.0697  -1.8291  -1.8291  -1.1389  -1.1389
     0.8608   0.8608   8.6042   8.6042   9.3699   9.3699  10.0191

          k =-0.4975-0.1026 0.0000 ( 18012 PWs)   bands (ev):

   -13.4502 -13.4502 -11.3718 -11.3718 -10.3562 -10.3562  -7.9890  -7.9890
    -7.8074  -7.8074  -7.3255  -7.3255  -4.4692  -4.4692  -4.2748  -4.2748
    -3.0598  -3.0598  -2.1722  -2.1722  -1.6579  -1.6579  -1.1145  -1.1145
     0.0545   0.0545   8.4634   8.4634   9.5810   9.5810   9.8982

          k =-0.4975-0.2051 0.0000 ( 17986 PWs)   bands (ev):

   -13.1308 -13.1308 -11.3520 -11.3520 -11.2260 -11.2260  -8.3526  -8.3526
    -7.7234  -7.7234  -6.3747  -6.3747  -4.2409  -4.2409  -3.8432  -3.8432
    -2.8271  -2.8271  -1.8553  -1.8553  -1.7968  -1.7968  -1.4135  -1.4135
    -1.0853  -1.0853   8.3595   8.3595   9.3585   9.3585   9.7661

     the Fermi energy is     3.7300 ev

!    total energy              =    -225.85116335 Ry
     estimated scf accuracy    <          1.3E-11 Ry
     smearing contrib. (-TS)   =       0.00000000 Ry
     internal energy E=F+TS    =    -225.85116335 Ry

     The total energy is F=E-TS. E is the sum of the following terms:
     one-electron contribution =   -1163.77206981 Ry
     hartree contribution      =     602.54569870 Ry
     xc contribution           =     -58.89610858 Ry
     ewald contribution        =     468.23349867 Ry
     one-center paw contrib.   =     -73.96218233 Ry

     convergence has been achieved in   9 iterations

     negative rho (up, down):  1.420E-06 0.000E+00

     Forces acting on atoms (cartesian axes, Ry/au):

     atom    1 type  1   force =     0.00000000   -0.00048583    0.00014127
     atom    2 type  1   force =     0.00000000   -0.00139325    0.00131814
     atom    3 type  1   force =     0.00000000    0.00000000   -0.00064919
     atom    4 type  1   force =     0.00000000   -0.00000000    0.00064919
     atom    5 type  1   force =     0.00000000   -0.00139325   -0.00131814
     atom    6 type  1   force =     0.00000000   -0.00048583   -0.00014127
     atom    7 type  1   force =     0.00000000    0.00048583    0.00014127
     atom    8 type  1   force =     0.00000000    0.00139325    0.00131814
     atom    9 type  1   force =     0.00000000    0.00000000   -0.00018728
     atom   10 type  1   force =     0.00000000   -0.00000000    0.00018728
     atom   11 type  1   force =     0.00000000    0.00139325   -0.00131814
     atom   12 type  1   force =     0.00000000    0.00048583   -0.00014127
     atom   13 type  2   force =    -0.00000000   -0.00069042    0.00072298
     atom   14 type  2   force =    -0.00000000    0.00069042    0.00072298
     atom   15 type  2   force =     0.00000000   -0.00069042   -0.00072298
     atom   16 type  2   force =     0.00000000    0.00069042   -0.00072298

     Total force =     0.004544     Total SCF correction =     0.000010


     Computing stress (Cartesian axis) and pressure


     negative rho (up, down):  1.420E-06 0.000E+00
          total   stress  (Ry/bohr**3)                   (kbar)     P=        0.36
  -0.00000340   0.00000000   0.00000000           -0.50        0.00        0.00
   0.00000000  -0.00001446   0.00000000            0.00       -2.13        0.00
   0.00000000   0.00000000   0.00002523            0.00        0.00        3.71

     Energy error            =      4.6E-05 Ry
     Gradient error          =      1.4E-03 Ry/Bohr
     Cell gradient error     =      2.1E+00 kbar

     number of scf cycles    =  10
     number of bfgs steps    =   9

     enthalpy           old  =    -225.8511171103 Ry
     enthalpy           new  =    -225.8511633486 Ry

     CASE: enthalpy          _new < enthalpy          _old

     new trust radius        =       0.0049084049 bohr
     Message from routine volume:
     axis vectors are left-handed
     new conv_thr            =            4.6E-11 Ry

     new unit-cell volume =   1223.23758 a.u.^3 (   181.26511 Ang^3 )
     density =      1.35731 g/cm^3

CELL_PARAMETERS (angstrom)
   2.538444796   0.000000000   0.000000000
   0.000000000  -4.924690143   0.000000000
   0.000000000   0.000000000  14.499985940

ATOMIC_POSITIONS (crystal)
C                0.0000000000        0.1658029996        0.6503483017
C                0.5000000000        0.2364417378        0.5939804235
C                0.5000000000       -0.0000000000        0.5282205307
C                0.0000000000       -0.0000000000        0.4717794693
C                0.0000000000        0.2364417378        0.4060195765
C                0.5000000000        0.1658029996        0.3496516983
C                0.0000000000        0.8341970004        0.6503483017
C                0.5000000000        0.7635582622        0.5939804235
C                0.5000000000        0.5000000000        0.5334317890
C                0.0000000000        0.5000000000        0.4665682110
C               -0.0000000000        0.7635582622        0.4060195765
C                0.5000000000        0.8341970004        0.3496516983
H               -0.0000000000        0.2524571439        0.7201546014
H               -0.0000000000        0.7475428561        0.7201546014
H                0.5000000000        0.2524571439        0.2798453986
H                0.5000000000        0.7475428561        0.2798453986



     Writing config-only to output data dir /tmp/qe/slab.save/ :
     XML data file
     NEW-OLD atomic charge density approx. for the potential

     negative rho (up, down):  1.387E-06 0.000E+00

     total cpu time spent up to now is      251.7 secs

     Self-consistent Calculation

     iteration #  1     ecut=    90.00 Ry     beta= 0.30
     Davidson diagonalization with overlap
     ethr =  1.00E-06,  avg # of iterations =  2.8

     Threshold (ethr) on eigenvalues was too large:
     Diagonalizing with lowered threshold

     Davidson diagonalization with overlap
     ethr =  1.56E-08,  avg # of iterations =  4.0

     negative rho (up, down):  1.391E-06 0.000E+00

     total cpu time spent up to now is      255.9 secs

     total energy              =    -225.85119102 Ry
     estimated scf accuracy    <       0.00001134 Ry

     iteration #  2     ecut=    90.00 Ry     beta= 0.30
     Davidson diagonalization with overlap
     ethr =  2.18E-08,  avg # of iterations =  2.0

     negative rho (up, down):  1.409E-06 0.000E+00

     total cpu time spent up to now is      257.5 secs

     total energy              =    -225.85119160 Ry
     estimated scf accuracy    <       0.00000289 Ry

     iteration #  3     ecut=    90.00 Ry     beta= 0.30
     Davidson diagonalization with overlap
     ethr =  5.56E-09,  avg # of iterations =  1.3

     negative rho (up, down):  1.426E-06 0.000E+00

     total cpu time spent up to now is      259.0 secs

     total energy              =    -225.85119170 Ry
     estimated scf accuracy    <       0.00000079 Ry

     iteration #  4     ecut=    90.00 Ry     beta= 0.30
     Davidson diagonalization with overlap
     ethr =  1.52E-09,  avg # of iterations =  1.8

     negative rho (up, down):  1.425E-06 0.000E+00

     total cpu time spent up to now is      260.6 secs

     total energy              =    -225.85119175 Ry
     estimated scf accuracy    <       0.00000005 Ry

     iteration #  5     ecut=    90.00 Ry     beta= 0.30
     Davidson diagonalization with overlap
     ethr =  8.82E-11,  avg # of iterations =  3.4

     negative rho (up, down):  1.421E-06 0.000E+00

     total cpu time spent up to now is      262.6 secs

     total energy              =    -225.85119176 Ry
     estimated scf accuracy    <          6.9E-09 Ry

     iteration #  6     ecut=    90.00 Ry     beta= 0.30
     Davidson diagonalization with overlap
     ethr =  1.33E-11,  avg # of iterations =  2.6

     negative rho (up, down):  1.420E-06 0.000E+00

     total cpu time spent up to now is      264.5 secs

     total energy              =    -225.85119176 Ry
     estimated scf accuracy    <          1.0E-09 Ry

     iteration #  7     ecut=    90.00 Ry     beta= 0.30
     Davidson diagonalization with overlap
     ethr =  1.95E-12,  avg # of iterations =  2.5

     negative rho (up, down):  1.419E-06 0.000E+00

     total cpu time spent up to now is      266.3 secs

     total energy              =    -225.85119176 Ry
     estimated scf accuracy    <          1.6E-10 Ry

     iteration #  8     ecut=    90.00 Ry     beta= 0.30
     Davidson diagonalization with overlap
     ethr =  3.04E-13,  avg # of iterations =  2.8

     negative rho (up, down):  1.418E-06 0.000E+00

     total cpu time spent up to now is      268.4 secs

     End of self-consistent calculation

          k = 0.0000-0.0000 0.0000 ( 17977 PWs)   bands (ev):

   -17.8487 -15.9752 -13.2185 -12.6916 -12.1718 -11.6184  -9.2627  -8.5623
    -7.8151  -5.4842  -5.3829  -4.9578  -2.9087  -1.9324  -1.9079  -1.4489
    -1.1380  -1.1006  -0.0997   0.4054   0.5331   0.9704   1.0946   1.4966
     1.5038   1.5870   5.6067   6.0273   7.8313   7.9362   8.3813

          k = 0.0000-0.1026 0.0000 ( 18029 PWs)   bands (ev):

   -17.7056 -15.8799 -14.4033 -12.2814 -12.2146 -11.2328  -8.8819  -8.0176
    -7.9664  -5.5613  -5.4227  -4.5719  -2.8062  -2.3845  -1.7942  -1.7498
    -1.7455  -1.0374  -0.0705  -0.0505   0.5998   0.9780   1.0420   1.1997
     1.3033   1.8917   5.8289   6.2598   7.9341   8.0223   8.6692

          k = 0.0000-0.2052 0.0000 ( 17997 PWs)   bands (ev):

   -17.3833 -15.6947 -15.4096 -12.9191 -12.1022 -10.4615  -8.6153  -7.2743
    -7.1933  -5.6238  -5.1811  -4.9907  -3.1553  -2.8999  -2.5958  -1.6511
    -1.6287  -0.9196  -0.6829   0.0408   0.2794   0.6630   0.7767   1.2592
     1.2737   2.2873   6.4808   6.8530   7.5274   7.8055   8.1262

          k = 0.0995-0.0000 0.0000 ( 17999 PWs)   bands (ev):

   -17.6678 -15.7980 -13.0465 -12.5204 -12.0087 -11.4582  -9.1647  -8.4294
    -7.6683  -5.4287  -5.3139  -4.8319  -3.9690  -2.1649  -1.8630  -1.6987
    -1.5815  -1.0441  -0.3019  -0.1826   0.2961   0.3176   0.3462   0.8221
     1.4241   1.5359   5.7614   6.2640   8.2489   8.6639   8.7902

          k = 0.0995-0.1026 0.0000 ( 17998 PWs)   bands (ev):

   -17.5250 -15.7027 -14.2286 -12.1160 -12.0526 -11.0691  -8.8032  -7.8797
    -7.8122  -5.4839  -5.3689  -4.4515  -3.8605  -2.3145  -2.0853  -1.8099
    -1.6859  -1.5892  -0.8707  -0.1793   0.0783   0.4204   0.6332   0.9318
     1.3317   1.3510   5.9868   6.4865   8.1936   8.8264   9.0450

          k = 0.0995-0.2052 0.0000 ( 18005 PWs)   bands (ev):

   -17.2032 -15.5175 -15.2328 -12.7551 -11.9398 -10.2989  -8.5356  -7.1201
    -7.1087  -5.5220  -5.0627  -4.8837  -3.6387  -3.0630  -2.8594  -2.0547
    -1.6197  -1.5423  -1.4437  -0.3512   0.0909   0.3499   0.3805   0.9066
     1.3834   1.5678   6.6436   7.0595   7.6791   8.0079   8.1915

          k = 0.1990-0.0000 0.0000 ( 17977 PWs)   bands (ev):

   -17.1275 -15.2701 -12.5348 -12.0101 -11.5260 -10.9809  -9.0335  -8.0841
    -7.2521  -5.7201  -5.6659  -5.2135  -4.4995  -3.6841  -2.5515  -2.1385
    -1.7865  -1.5151  -1.2463  -1.1546  -0.7550  -0.4200  -0.2415  -0.1416
     0.8260   1.5410   6.2120   6.7748   8.6570   9.0439   9.4007

          k = 0.1990-0.1026 0.0000 ( 18002 PWs)   bands (ev):

   -16.9854 -15.1750 -13.7079 -11.6281 -11.5742 -10.5806  -8.7490  -7.5163
    -7.3739  -5.6169  -5.5807  -5.3485  -4.1864  -3.6735  -2.8249  -2.2154
    -1.9959  -1.8120  -1.4084  -1.2546  -0.8979  -0.6624  -0.1593   0.0778
     0.8724   1.2037   6.4317   6.9831   8.4715   9.1303   9.1607

          k = 0.1990-0.2052 0.0000 ( 17978 PWs)   bands (ev):

   -16.6653 -14.9897 -14.7057 -12.2716 -11.4611  -9.8139  -8.4826  -6.9834
    -6.6921  -5.4965  -5.4222  -4.6711  -4.6641  -3.6801  -3.3770  -2.9836
    -2.7339  -2.0390  -1.5568  -1.4554  -0.7628  -0.4435  -0.0877   0.1384
     0.8040   1.0092   7.0409   7.5427   7.9182   8.2909   8.3849

          k = 0.2986-0.0000 0.0000 ( 18006 PWs)   bands (ev):

   -16.2367 -14.4103 -11.7021 -11.1724 -10.7612 -10.2012  -9.7543  -7.7069
    -7.2540  -6.6967  -6.4813  -5.5990  -4.2365  -4.1143  -3.8268  -3.6773
    -3.1610  -2.6060  -1.5368  -1.2409  -1.2130  -1.2027  -0.4285  -0.2886
    -0.2184   1.4917   7.0444   7.4439   8.9089   9.4337   9.4834

          k = 0.2986-0.1026 0.0000 ( 18004 PWs)   bands (ev):

   -16.0956 -14.3145 -12.8540 -10.8640 -10.8226  -9.7762  -9.5627  -7.2953
    -7.2089  -6.7026  -6.3840  -5.6356  -4.1438  -4.0502  -3.9859  -3.8422
    -2.7664  -2.5410  -1.7784  -1.2817  -1.1904  -1.1027  -0.8042  -0.6844
     0.0001   0.9733   7.2376   7.6444   8.8039   9.0577   9.0940

          k = 0.2986-0.2052 0.0000 ( 18022 PWs)   bands (ev):

   -15.7779 -14.1266 -13.8412 -11.5140 -10.7166  -9.3226  -9.0200  -7.4644
    -7.0552  -6.1781  -5.9697  -4.7303  -4.5272  -4.0746  -3.9057  -3.8052
    -3.5601  -2.7226  -1.8074  -1.7697  -1.4935  -0.9575  -0.7409  -0.5841
     0.1776   0.2404   7.5159   7.9106   8.2169   8.6139   8.8781

          k = 0.3981-0.0000 0.0000 ( 18042 PWs)   bands (ev):

   -15.0187 -13.3285 -11.3678 -10.6943 -10.0420 -10.0377  -9.1749  -8.7218
    -7.8659  -6.8747  -6.6830  -6.6383  -5.0561  -4.8842  -4.0687  -3.9217
    -3.4442  -2.6751  -2.1959  -2.0926  -1.6807  -1.4027  -1.1123  -0.7206
     0.3037   1.2955   8.1712   8.2230   8.5892   9.5080   9.6962

          k = 0.3981-0.1026 0.0000 ( 18026 PWs)   bands (ev):

   -14.8789 -13.2234 -11.7040 -11.2694 -10.2611  -9.8944  -8.6949  -8.6173
    -8.0968  -6.7289  -6.5783  -6.0660  -4.9834  -4.7517  -4.6236  -3.8368
    -2.8085  -2.6004  -2.1510  -1.9318  -1.7832  -1.2796  -1.2287  -0.7761
    -0.3087   0.5430   8.2662   8.3469   8.7128   8.9880   9.5160

          k = 0.3981-0.2052 0.0000 ( 18001 PWs)   bands (ev):

   -14.5627 -13.0100 -12.6743 -11.0508 -10.7008 -10.1600  -8.6312  -8.4436
    -8.0028  -6.6492  -6.4136  -4.8895  -4.8492  -4.6323  -4.1260  -3.7040
    -2.9880  -2.9742  -1.7883  -1.7457  -1.6871  -1.5157  -1.4839  -1.1335
    -0.6026  -0.5792   7.7985   8.3524   8.8611   9.3766   9.4124

          k =-0.4976 0.0000 0.0000 ( 18082 PWs)   bands (ev):

   -13.5781 -13.5781 -11.4364 -11.4364  -9.0737  -9.0737  -8.7695  -8.7695
    -7.9414  -7.9414  -7.5770  -7.5770  -4.4924  -4.4924  -4.2158  -4.2158
    -3.4675  -3.4675  -2.0648  -2.0648  -1.8348  -1.8348  -1.1407  -1.1407
     0.8810   0.8810   8.5985   8.5985   9.3698   9.3698  10.0152

          k =-0.4976-0.1026 0.0000 ( 18012 PWs)   bands (ev):

   -13.4384 -13.4384 -11.3652 -11.3652 -10.3457 -10.3457  -7.9852  -7.9852
    -7.8044  -7.8044  -7.3146  -7.3146  -4.4665  -4.4665  -4.2685  -4.2685
    -3.0570  -3.0570  -2.1682  -2.1682  -1.6626  -1.6626  -1.1146  -1.1146
     0.0732   0.0732   8.4599   8.4599   9.5807   9.5807   9.8971

          k =-0.4976-0.2052 0.0000 ( 17986 PWs)   bands (ev):

   -13.1178 -13.1178 -11.3436 -11.3436 -11.2185 -11.2185  -8.3492  -8.3492
    -7.7207  -7.7207  -6.3684  -6.3684  -4.2366  -4.2366  -3.8329  -3.8329
    -2.8240  -2.8240  -1.8511  -1.8511  -1.7873  -1.7873  -1.4118  -1.4118
    -1.0842  -1.0842   8.3599   8.3599   9.3605   9.3606   9.7636

     the Fermi energy is     3.7295 ev

!    total energy              =    -225.85119175 Ry
     estimated scf accuracy    <          4.3E-11 Ry
     smearing contrib. (-TS)   =       0.00000000 Ry
     internal energy E=F+TS    =    -225.85119175 Ry

     The total energy is F=E-TS. E is the sum of the following terms:
     one-electron contribution =   -1163.07598632 Ry
     hartree contribution      =     602.20599886 Ry
     xc contribution           =     -58.89271227 Ry
     ewald contribution        =     467.87356836 Ry
     one-center paw contrib.   =     -73.96206039 Ry

     convergence has been achieved in   8 iterations

     negative rho (up, down):  1.418E-06 0.000E+00

     Forces acting on atoms (cartesian axes, Ry/au):

     atom    1 type  1   force =    -0.00000000   -0.00090951   -0.00045643
     atom    2 type  1   force =     0.00000000   -0.00061051    0.00019300
     atom    3 type  1   force =     0.00000000   -0.00000000    0.00082104
     atom    4 type  1   force =     0.00000000    0.00000000   -0.00082104
     atom    5 type  1   force =     0.00000000   -0.00061051   -0.00019300
     atom    6 type  1   force =     0.00000000   -0.00090951    0.00045643
     atom    7 type  1   force =     0.00000000    0.00090951   -0.00045643
     atom    8 type  1   force =     0.00000000    0.00061051    0.00019300
     atom    9 type  1   force =     0.00000000    0.00000000   -0.00023709
     atom   10 type  1   force =     0.00000000   -0.00000000    0.00023709
     atom   11 type  1   force =     0.00000000    0.00061051   -0.00019300
     atom   12 type  1   force =     0.00000000    0.00090951    0.00045643
     atom   13 type  2   force =     0.00000000   -0.00031423    0.00065401
     atom   14 type  2   force =     0.00000000    0.00031423    0.00065401
     atom   15 type  2   force =     0.00000000   -0.00031423   -0.00065401
     atom   16 type  2   force =     0.00000000    0.00031423   -0.00065401

     Total force =     0.003058     Total SCF correction =     0.000019


     Computing stress (Cartesian axis) and pressure


     negative rho (up, down):  1.418E-06 0.000E+00
          total   stress  (Ry/bohr**3)                   (kbar)     P=       -0.23
  -0.00000052   0.00000000   0.00000000           -0.08        0.00        0.00
   0.00000000  -0.00001224   0.00000000            0.00       -1.80        0.00
   0.00000000   0.00000000   0.00000817            0.00        0.00        1.20

     Energy error            =      2.8E-05 Ry
     Gradient error          =      9.1E-04 Ry/Bohr
     Cell gradient error     =      1.8E+00 kbar

     number of scf cycles    =  11
     number of bfgs steps    =  10

     enthalpy           old  =    -225.8511633486 Ry
     enthalpy           new  =    -225.8511917544 Ry

     CASE: enthalpy          _new < enthalpy          _old

     new trust radius        =       0.0035544885 bohr
     Message from routine volume:
     axis vectors are left-handed
     new conv_thr            =            2.8E-11 Ry

     new unit-cell volume =   1222.49593 a.u.^3 (   181.15521 Ang^3 )
     density =      1.35813 g/cm^3

CELL_PARAMETERS (angstrom)
   2.538195524   0.000000000   0.000000000
   0.000000000  -4.922187662   0.000000000
   0.000000000   0.000000000  14.499985940

ATOMIC_POSITIONS (crystal)
C                0.0000000000        0.1659414678        0.6503966633
C                0.5000000000        0.2365411301        0.5940280488
C                0.5000000000       -0.0000000000        0.5282629800
C                0.0000000000       -0.0000000000        0.4717370200
C                0.0000000000        0.2365411301        0.4059719512
C                0.5000000000        0.1659414678        0.3496033367
C                0.0000000000        0.8340585322        0.6503966633
C                0.5000000000        0.7634588699        0.5940280488
C                0.5000000000        0.5000000000        0.5334370171
C                0.0000000000        0.5000000000        0.4665629829
C               -0.0000000000        0.7634588699        0.4059719512
C                0.5000000000        0.8340585322        0.3496033367
H               -0.0000000000        0.2527926046        0.7202091442
H               -0.0000000000        0.7472073954        0.7202091442
H                0.5000000000        0.2527926046        0.2797908558
H                0.5000000000        0.7472073954        0.2797908558



     Writing config-only to output data dir /tmp/qe/slab.save/ :
     XML data file
     NEW-OLD atomic charge density approx. for the potential

     negative rho (up, down):  1.386E-06 0.000E+00

     total cpu time spent up to now is      272.9 secs

     Self-consistent Calculation

     iteration #  1     ecut=    90.00 Ry     beta= 0.30
     Davidson diagonalization with overlap
     ethr =  1.00E-06,  avg # of iterations =  2.0

     Threshold (ethr) on eigenvalues was too large:
     Diagonalizing with lowered threshold

     Davidson diagonalization with overlap
     ethr =  9.35E-09,  avg # of iterations =  3.9

     negative rho (up, down):  1.388E-06 0.000E+00

     total cpu time spent up to now is      277.0 secs

     total energy              =    -225.85120564 Ry
     estimated scf accuracy    <       0.00000727 Ry

     iteration #  2     ecut=    90.00 Ry     beta= 0.30
     Davidson diagonalization with overlap
     ethr =  1.40E-08,  avg # of iterations =  3.0

     negative rho (up, down):  1.398E-06 0.000E+00

     total cpu time spent up to now is      278.8 secs

     total energy              =    -225.85120597 Ry
     estimated scf accuracy    <       0.00000156 Ry

     iteration #  3     ecut=    90.00 Ry     beta= 0.30
     Davidson diagonalization with overlap
     ethr =  3.00E-09,  avg # of iterations =  2.1

     negative rho (up, down):  1.406E-06 0.000E+00

     total cpu time spent up to now is      280.6 secs

     total energy              =    -225.85120615 Ry
     estimated scf accuracy    <       0.00000037 Ry

     iteration #  4     ecut=    90.00 Ry     beta= 0.30
     Davidson diagonalization with overlap
     ethr =  7.18E-10,  avg # of iterations =  1.1

     negative rho (up, down):  1.410E-06 0.000E+00

     total cpu time spent up to now is      282.1 secs

     total energy              =    -225.85120617 Ry
     estimated scf accuracy    <       0.00000006 Ry

     iteration #  5     ecut=    90.00 Ry     beta= 0.30
     Davidson diagonalization with overlap
     ethr =  1.11E-10,  avg # of iterations =  2.1

     negative rho (up, down):  1.409E-06 0.000E+00

     total cpu time spent up to now is      283.7 secs

     total energy              =    -225.85120616 Ry
     estimated scf accuracy    <          5.9E-09 Ry

     iteration #  6     ecut=    90.00 Ry     beta= 0.30
     Davidson diagonalization with overlap
     ethr =  1.13E-11,  avg # of iterations =  3.1

     negative rho (up, down):  1.408E-06 0.000E+00

     total cpu time spent up to now is      285.8 secs

     total energy              =    -225.85120617 Ry
     estimated scf accuracy    <          2.0E-09 Ry

     iteration #  7     ecut=    90.00 Ry     beta= 0.30
     Davidson diagonalization with overlap
     ethr =  3.90E-12,  avg # of iterations =  3.2

     negative rho (up, down):  1.407E-06 0.000E+00

     total cpu time spent up to now is      287.9 secs

     total energy              =    -225.85120617 Ry
     estimated scf accuracy    <          1.4E-09 Ry

     iteration #  8     ecut=    90.00 Ry     beta= 0.30
     Davidson diagonalization with overlap
     ethr =  2.70E-12,  avg # of iterations =  2.8

     negative rho (up, down):  1.407E-06 0.000E+00

     total cpu time spent up to now is      289.9 secs

     total energy              =    -225.85120617 Ry
     estimated scf accuracy    <          1.7E-10 Ry

     iteration #  9     ecut=    90.00 Ry     beta= 0.30
     Davidson diagonalization with overlap
     ethr =  3.35E-13,  avg # of iterations =  2.2

     negative rho (up, down):  1.407E-06 0.000E+00

     total cpu time spent up to now is      291.6 secs

     End of self-consistent calculation

          k = 0.0000-0.0000 0.0000 ( 17977 PWs)   bands (ev):

   -17.8446 -15.9734 -13.2142 -12.6873 -12.1662 -11.6158  -9.2635  -8.5604
    -7.8117  -5.4818  -5.3805  -4.9583  -2.8991  -1.9257  -1.9068  -1.4461
    -1.1263  -1.0975  -0.0975   0.4058   0.5445   0.9737   1.0974   1.4953
     1.5121   1.5941   5.6105   6.0314   7.8409   7.9410   8.3962

          k = 0.0000-0.1026 0.0000 ( 18029 PWs)   bands (ev):

   -17.7010 -15.8775 -14.4004 -12.2776 -12.2145 -11.2260  -8.8797  -8.0160
    -7.9638  -5.5600  -5.4195  -4.5686  -2.7960  -2.3757  -1.7924  -1.7460
    -1.7398  -1.0339  -0.0644  -0.0493   0.6025   0.9803   1.0474   1.2092
     1.3025   1.8971   5.8329   6.2642   7.9377   8.0315   8.6722

          k = 0.0000-0.2053 0.0000 ( 17997 PWs)   bands (ev):

   -17.3769 -15.6911 -15.4092 -12.9216 -12.0969 -10.4588  -8.6108  -7.2675
    -7.1942  -5.6151  -5.1768  -4.9851  -3.1499  -2.9001  -2.5840  -1.6469
    -1.6255  -0.9154  -0.6797   0.0420   0.2792   0.6675   0.7781   1.2698
     1.2750   2.2925   6.4851   6.8577   7.5326   7.8117   8.1255

          k = 0.0995-0.0000 0.0000 ( 17999 PWs)   bands (ev):

   -17.6637 -15.7961 -13.0422 -12.5161 -12.0029 -11.4555  -9.1652  -8.4275
    -7.6649  -5.4260  -5.3114  -4.8324  -3.9603  -2.1618  -1.8567  -1.6976
    -1.5782  -1.0319  -0.2992  -0.1714   0.2991   0.3179   0.3491   0.8284
     1.4231   1.5444   5.7651   6.2679   8.2523   8.6743   8.8021

          k = 0.0995-0.1026 0.0000 ( 17998 PWs)   bands (ev):

   -17.5203 -15.7003 -14.2257 -12.1121 -12.0525 -11.0624  -8.8008  -7.8781
    -7.8096  -5.4824  -5.3655  -4.4484  -3.8512  -2.3067  -2.0810  -1.8047
    -1.6819  -1.5870  -0.8648  -0.1771   0.0803   0.4296   0.6358   0.9362
     1.3312   1.3570   5.9907   6.4906   8.1975   8.8289   8.8384

          k = 0.0995-0.2053 0.0000 ( 18005 PWs)   bands (ev):

   -17.1968 -15.5139 -15.2323 -12.7576 -11.9343 -10.2962  -8.5310  -7.1133
    -7.1095  -5.5137  -5.0583  -4.8778  -3.6278  -3.0577  -2.8596  -2.0502
    -1.6167  -1.5384  -1.4405  -0.3501   0.0970   0.3513   0.3821   0.9141
     1.3849   1.5730   6.6479   7.0640   7.6841   8.0133   8.1913

          k = 0.1991-0.0000 0.0000 ( 17977 PWs)   bands (ev):

   -17.1233 -15.2682 -12.5304 -12.0058 -11.5200 -10.9782  -9.0325  -8.0828
    -7.2487  -5.7122  -5.6624  -5.2106  -4.4999  -3.6814  -2.5466  -2.1335
    -1.7819  -1.5113  -1.2427  -1.1485  -0.7421  -0.4184  -0.2410  -0.1374
     0.8256   1.5508   6.2152   6.7784   8.6596   9.0468   9.4074

          k = 0.1991-0.1026 0.0000 ( 18002 PWs)   bands (ev):

   -16.9806 -15.1725 -13.7049 -11.6238 -11.5740 -10.5739  -8.7457  -7.5147
    -7.3710  -5.6086  -5.5767  -5.3463  -4.1842  -3.6698  -2.8197  -2.2114
    -1.9881  -1.8085  -1.4042  -1.2511  -0.8909  -0.6581  -0.1565   0.0803
     0.8728   1.2107   6.4351   6.9869   8.4757   9.1335   9.1661

          k = 0.1991-0.2053 0.0000 ( 17978 PWs)   bands (ev):

   -16.6588 -14.9860 -14.7052 -12.2740 -11.4555  -9.8111  -8.4773  -6.9839
    -6.6851  -5.4902  -5.4123  -4.6661  -4.6565  -3.6757  -3.3743  -2.9835
    -2.7283  -2.0354  -1.5558  -1.4512  -0.7553  -0.4413  -0.0866   0.1428
     0.8094   1.0113   7.0449   7.5468   7.9214   8.2944   8.3900

          k = 0.2986-0.0000 0.0000 ( 18006 PWs)   bands (ev):

   -16.2323 -14.4083 -11.6975 -11.1681 -10.7548 -10.1984  -9.7496  -7.7064
    -7.2507  -6.6932  -6.4747  -5.5951  -4.2322  -4.1120  -3.8205  -3.6764
    -3.1583  -2.6033  -1.5326  -1.2400  -1.2097  -1.2005  -0.4251  -0.2748
    -0.2181   1.5026   7.0468   7.4469   8.9116   9.4345   9.4870

          k = 0.2986-0.1026 0.0000 ( 18004 PWs)   bands (ev):

   -16.0907 -14.3120 -12.8509 -10.8591 -10.8223  -9.7695  -9.5570  -7.2932
    -7.2051  -6.6996  -6.3767  -5.6328  -4.1434  -4.0463  -3.9818  -3.8366
    -2.7626  -2.5382  -1.7735  -1.2763  -1.1882  -1.0981  -0.8007  -0.6797
     0.0028   0.9821   7.2406   7.6476   8.8095   9.0611   9.0978

          k = 0.2986-0.2053 0.0000 ( 18022 PWs)   bands (ev):

   -15.7712 -14.1229 -13.8406 -11.5163 -10.7104  -9.3152  -9.0171  -7.4637
    -7.0499  -6.1691  -5.9639  -4.7277  -4.5243  -4.0702  -3.9005  -3.8013
    -3.5533  -2.7185  -1.8060  -1.7663  -1.4902  -0.9519  -0.7404  -0.5796
     0.1814   0.2467   7.5201   7.9142   8.2206   8.6176   8.8818

          k = 0.3981-0.0000 0.0000 ( 18042 PWs)   bands (ev):

   -15.0142 -13.3265 -11.3618 -10.6899 -10.0353 -10.0334  -9.1720  -8.7183
    -7.8626  -6.8703  -6.6754  -6.6347  -5.0549  -4.8804  -4.0665  -3.9178
    -3.4445  -2.6748  -2.1908  -2.0909  -1.6767  -1.4000  -1.1116  -0.7176
     0.3173   1.3074   8.1735   8.2250   8.5905   9.5109   9.6989

          k = 0.3981-0.1026 0.0000 ( 18026 PWs)   bands (ev):

   -14.8739 -13.2209 -11.7009 -11.2630 -10.2558  -9.8935  -8.6901  -8.6119
    -8.0933  -6.7259  -6.5698  -6.0617  -4.9817  -4.7513  -4.6199  -3.8318
    -2.8084  -2.5992  -2.1469  -1.9273  -1.7812  -1.2758  -1.2251  -0.7722
    -0.2994   0.5538   8.2703   8.3495   8.7151   8.9902   9.5191

          k = 0.3981-0.2053 0.0000 ( 18001 PWs)   bands (ev):

   -14.5559 -13.0062 -12.6738 -11.0444 -10.7009 -10.1537  -8.6298  -8.4384
    -8.0002  -6.6476  -6.4036  -4.8859  -4.8460  -4.6276  -4.1242  -3.6978
    -2.9797  -2.9721  -1.7865  -1.7434  -1.6824  -1.5098  -1.4828  -1.1292
    -0.5972  -0.5719   7.8052   8.3540   8.8653   9.3784   9.4129

          k =-0.4977 0.0000 0.0000 ( 18082 PWs)   bands (ev):

   -13.5740 -13.5740 -11.4321 -11.4321  -9.0685  -9.0685  -8.7655  -8.7655
    -7.9351  -7.9351  -7.5733  -7.5733  -4.4903  -4.4903  -4.2143  -4.2143
    -3.4659  -3.4659  -2.0606  -2.0606  -1.8328  -1.8328  -1.1386  -1.1386
     0.8938   0.8938   8.6010   8.6010   9.3705   9.3705  10.0180

          k =-0.4977-0.1026 0.0000 ( 18012 PWs)   bands (ev):

   -13.4338 -13.4338 -11.3605 -11.3605 -10.3430 -10.3430  -7.9817  -7.9817
    -7.8002  -7.8002  -7.3076  -7.3076  -4.4654  -4.4654  -4.2650  -4.2650
    -3.0557  -3.0557  -2.1648  -2.1648  -1.6597  -1.6597  -1.1109  -1.1109
     0.0845   0.0845   8.4637   8.4637   9.5823   9.5823   9.8976

          k =-0.4977-0.2053 0.0000 ( 17986 PWs)   bands (ev):

   -13.1114 -13.1114 -11.3431 -11.3431 -11.2133 -11.2133  -8.3492  -8.3492
    -7.7135  -7.7135  -6.3644  -6.3644  -4.2323  -4.2323  -3.8282  -3.8282
    -2.8224  -2.8224  -1.8473  -1.8473  -1.7811  -1.7811  -1.4073  -1.4073
    -1.0787  -1.0787   8.3664   8.3664   9.3608   9.3608   9.7659

     the Fermi energy is     3.7326 ev

!    total energy              =    -225.85120617 Ry
     estimated scf accuracy    <          1.4E-11 Ry
     smearing contrib. (-TS)   =       0.00000000 Ry
     internal energy E=F+TS    =    -225.85120617 Ry

     The total energy is F=E-TS. E is the sum of the following terms:
     one-electron contribution =   -1163.13912277 Ry
     hartree contribution      =     602.24549436 Ry
     xc contribution           =     -58.89326034 Ry
     ewald contribution        =     467.89775925 Ry
     one-center paw contrib.   =     -73.96207666 Ry

     convergence has been achieved in   9 iterations

     negative rho (up, down):  1.407E-06 0.000E+00

     Forces acting on atoms (cartesian axes, Ry/au):

     atom    1 type  1   force =     0.00000000   -0.00079551   -0.00009620
     atom    2 type  1   force =     0.00000000   -0.00017146   -0.00028672
     atom    3 type  1   force =     0.00000000    0.00000000   -0.00030497
     atom    4 type  1   force =     0.00000000   -0.00000000    0.00030497
     atom    5 type  1   force =     0.00000000   -0.00017146    0.00028672
     atom    6 type  1   force =     0.00000000   -0.00079551    0.00009620
     atom    7 type  1   force =     0.00000000    0.00079551   -0.00009620
     atom    8 type  1   force =     0.00000000    0.00017146   -0.00028672
     atom    9 type  1   force =     0.00000000    0.00000000   -0.00026940
     atom   10 type  1   force =     0.00000000   -0.00000000    0.00026940
     atom   11 type  1   force =     0.00000000    0.00017146    0.00028672
     atom   12 type  1   force =     0.00000000    0.00079551    0.00009620
     atom   13 type  2   force =    -0.00000000   -0.00001991    0.00026870
     atom   14 type  2   force =    -0.00000000    0.00001991    0.00026870
     atom   15 type  2   force =     0.00000000   -0.00001991   -0.00026870
     atom   16 type  2   force =     0.00000000    0.00001991   -0.00026870

     Total force =     0.001907     Total SCF correction =     0.000007


     Computing stress (Cartesian axis) and pressure


     negative rho (up, down):  1.407E-06 0.000E+00
          total   stress  (Ry/bohr**3)                   (kbar)     P=       -0.13
   0.00000096   0.00000000   0.00000000            0.14        0.00        0.00
   0.00000000  -0.00000361   0.00000000            0.00       -0.53        0.00
   0.00000000   0.00000000  -0.00000009            0.00        0.00       -0.01

     Energy error            =      1.4E-05 Ry
     Gradient error          =      8.0E-04 Ry/Bohr
     Cell gradient error     =      5.3E-01 kbar

     number of scf cycles    =  12
     number of bfgs steps    =  11

     enthalpy           old  =    -225.8511917544 Ry
     enthalpy           new  =    -225.8512061683 Ry

     CASE: enthalpy          _new < enthalpy          _old

     new trust radius        =       0.0018363694 bohr
     Message from routine volume:
     axis vectors are left-handed
     new conv_thr            =            1.4E-11 Ry

     new unit-cell volume =   1222.17763 a.u.^3 (   181.10804 Ang^3 )
     density =      1.35848 g/cm^3

CELL_PARAMETERS (angstrom)
   2.538201188   0.000000000   0.000000000
   0.000000000  -4.920895061   0.000000000
   0.000000000   0.000000000  14.499985940

ATOMIC_POSITIONS (crystal)
C                0.0000000000        0.1660729204        0.6503978698
C                0.5000000000        0.2366086960        0.5940277076
C                0.5000000000       -0.0000000000        0.5282586945
C                0.0000000000       -0.0000000000        0.4717413055
C                0.0000000000        0.2366086960        0.4059722924
C                0.5000000000        0.1660729204        0.3496021302
C                0.0000000000        0.8339270796        0.6503978698
C                0.5000000000        0.7633913040        0.5940277076
C                0.5000000000        0.5000000000        0.5334242214
C                0.0000000000        0.5000000000        0.4665757786
C               -0.0000000000        0.7633913040        0.4059722924
C                0.5000000000        0.8339270796        0.3496021302
H               -0.0000000000        0.2528893247        0.7202276944
H               -0.0000000000        0.7471106753        0.7202276944
H                0.5000000000        0.2528893247        0.2797723056
H                0.5000000000        0.7471106753        0.2797723056



     Writing config-only to output data dir /tmp/qe/slab.save/ :
     XML data file
     NEW-OLD atomic charge density approx. for the potential

     negative rho (up, down):  1.391E-06 0.000E+00

     total cpu time spent up to now is      296.2 secs

     Self-consistent Calculation

     iteration #  1     ecut=    90.00 Ry     beta= 0.30
     Davidson diagonalization with overlap
     ethr =  1.00E-06,  avg # of iterations =  2.0

     Threshold (ethr) on eigenvalues was too large:
     Diagonalizing with lowered threshold

     Davidson diagonalization with overlap
     ethr =  1.76E-09,  avg # of iterations =  4.6

     negative rho (up, down):  1.391E-06 0.000E+00

     total cpu time spent up to now is      300.2 secs

     total energy              =    -225.85120979 Ry
     estimated scf accuracy    <       0.00000211 Ry

     iteration #  2     ecut=    90.00 Ry     beta= 0.30
     Davidson diagonalization with overlap
     ethr =  4.05E-09,  avg # of iterations =  2.0

     negative rho (up, down):  1.392E-06 0.000E+00

     total cpu time spent up to now is      301.9 secs

     total energy              =    -225.85120991 Ry
     estimated scf accuracy    <       0.00000036 Ry

     iteration #  3     ecut=    90.00 Ry     beta= 0.30
     Davidson diagonalization with overlap
     ethr =  6.86E-10,  avg # of iterations =  2.5

     negative rho (up, down):  1.395E-06 0.000E+00

     total cpu time spent up to now is      303.8 secs

     total energy              =    -225.85120996 Ry
     estimated scf accuracy    <       0.00000008 Ry

     iteration #  4     ecut=    90.00 Ry     beta= 0.30
     Davidson diagonalization with overlap
     ethr =  1.61E-10,  avg # of iterations =  2.1

     negative rho (up, down):  1.396E-06 0.000E+00

     total cpu time spent up to now is      305.5 secs

     total energy              =    -225.85120997 Ry
     estimated scf accuracy    <       0.00000001 Ry

     iteration #  5     ecut=    90.00 Ry     beta= 0.30
     Davidson diagonalization with overlap
     ethr =  2.23E-11,  avg # of iterations =  2.1

     negative rho (up, down):  1.395E-06 0.000E+00

     total cpu time spent up to now is      307.2 secs

     total energy              =    -225.85120997 Ry
     estimated scf accuracy    <          8.7E-10 Ry

     iteration #  6     ecut=    90.00 Ry     beta= 0.30
     Davidson diagonalization with overlap
     ethr =  1.67E-12,  avg # of iterations =  4.4

     negative rho (up, down):  1.395E-06 0.000E+00

     total cpu time spent up to now is      309.5 secs

     total energy              =    -225.85120997 Ry
     estimated scf accuracy    <          1.5E-09 Ry

     iteration #  7     ecut=    90.00 Ry     beta= 0.30
     Davidson diagonalization with overlap
     ethr =  1.67E-12,  avg # of iterations =  2.3

     negative rho (up, down):  1.395E-06 0.000E+00

     total cpu time spent up to now is      311.4 secs

     total energy              =    -225.85120997 Ry
     estimated scf accuracy    <          6.6E-11 Ry

     iteration #  8     ecut=    90.00 Ry     beta= 0.30
     Davidson diagonalization with overlap
     ethr =  1.27E-13,  avg # of iterations =  4.8

     negative rho (up, down):  1.395E-06 0.000E+00

     total cpu time spent up to now is      313.9 secs

     total energy              =    -225.85120997 Ry
     estimated scf accuracy    <          1.9E-10 Ry

     iteration #  9     ecut=    90.00 Ry     beta= 0.30
     Davidson diagonalization with overlap
     ethr =  1.27E-13,  avg # of iterations =  2.7

     negative rho (up, down):  1.395E-06 0.000E+00

     total cpu time spent up to now is      315.8 secs

     End of self-consistent calculation

          k = 0.0000-0.0000 0.0000 ( 17977 PWs)   bands (ev):

   -17.8440 -15.9704 -13.2130 -12.6867 -12.1644 -11.6142  -9.2632  -8.5589
    -7.8112  -5.4796  -5.3792  -4.9561  -2.8988  -1.9238  -1.9049  -1.4418
    -1.1233  -1.0956  -0.0972   0.4101   0.5432   0.9734   1.0971   1.4958
     1.5160   1.5951   5.6123   6.0334   7.8421   7.9440   8.4029

          k = 0.0000-0.1027 0.0000 ( 18029 PWs)   bands (ev):

   -17.7000 -15.8742 -14.4011 -12.2751 -12.2145 -11.2242  -8.8774  -8.0150
    -7.9638  -5.5589  -5.4171  -4.5651  -2.7954  -2.3734  -1.7915  -1.7453
    -1.7340  -1.0319  -0.0663  -0.0480   0.6069   0.9796   1.0498   1.2099
     1.3034   1.8973   5.8347   6.2661   7.9397   8.0330   8.6715

          k = 0.0000-0.2054 0.0000 ( 17997 PWs)   bands (ev):

   -17.3747 -15.6869 -15.4117 -12.9234 -12.0937 -10.4578  -8.6072  -7.2662
    -7.1946  -5.6121  -5.1736  -4.9810  -3.1466  -2.9014  -2.5825  -1.6435
    -1.6236  -0.9129  -0.6827   0.0436   0.2794   0.6717   0.7768   1.2710
     1.2784   2.2923   6.4871   6.8597   7.5346   7.8134   8.1223

          k = 0.0995-0.0000 0.0000 ( 17999 PWs)   bands (ev):

   -17.6631 -15.7931 -13.0410 -12.5154 -12.0011 -11.4540  -9.1648  -8.4262
    -7.6644  -5.4238  -5.3101  -4.8302  -3.9598  -2.1598  -1.8551  -1.6959
    -1.5741  -1.0286  -0.2992  -0.1721   0.2992   0.3216   0.3488   0.8294
     1.4239   1.5484   5.7668   6.2698   8.2550   8.6769   8.8072

          k = 0.0995-0.1027 0.0000 ( 17998 PWs)   bands (ev):

   -17.5193 -15.6970 -14.2264 -12.1096 -12.0525 -11.0605  -8.7985  -7.8772
    -7.8095  -5.4813  -5.3631  -4.4449  -3.8504  -2.3042  -2.0789  -1.8009
    -1.6812  -1.5851  -0.8654  -0.1758   0.0805   0.4304   0.6388   0.9371
     1.3326   1.3587   5.9924   6.4925   8.1993   8.8283   8.8409

          k = 0.0995-0.2054 0.0000 ( 18005 PWs)   bands (ev):

   -17.1946 -15.5097 -15.2348 -12.7593 -11.9311 -10.2951  -8.5274  -7.1119
    -7.1100  -5.5107  -5.0550  -4.8736  -3.6261  -3.0545  -2.8609  -2.0468
    -1.6194  -1.5357  -1.4387  -0.3502   0.1003   0.3517   0.3819   0.9166
     1.3881   1.5733   6.6498   7.0659   7.6860   8.0149   8.1886

          k = 0.1991-0.0000 0.0000 ( 17977 PWs)   bands (ev):

   -17.1227 -15.2653 -12.5293 -12.0051 -11.5181 -10.9767  -9.0315  -8.0821
    -7.2482  -5.7115  -5.6600  -5.2094  -4.4976  -3.6797  -2.5447  -2.1329
    -1.7809  -1.5115  -1.2424  -1.1458  -0.7384  -0.4183  -0.2380  -0.1361
     0.8269   1.5553   6.2166   6.7801   8.6613   9.0508   9.4121

          k = 0.1991-0.1027 0.0000 ( 18002 PWs)   bands (ev):

   -16.9797 -15.1693 -13.7056 -11.6213 -11.5741 -10.5721  -8.7434  -7.5139
    -7.3710  -5.6075  -5.5741  -5.3454  -4.1811  -3.6677  -2.8201  -2.2099
    -1.9862  -1.8075  -1.4001  -1.2511  -0.8898  -0.6574  -0.1559   0.0832
     0.8747   1.2139   6.4367   6.9886   8.4774   9.1362   9.1692

          k = 0.1991-0.2054 0.0000 ( 17978 PWs)   bands (ev):

   -16.6567 -14.9819 -14.7077 -12.2758 -11.4522  -9.8101  -8.4738  -6.9847
    -6.6837  -5.4871  -5.4102  -4.6633  -4.6527  -3.6725  -3.3765  -2.9851
    -2.7252  -2.0335  -1.5570  -1.4478  -0.7531  -0.4414  -0.0855   0.1447
     0.8119   1.0148   7.0468   7.5486   7.9215   8.2956   8.3914

          k = 0.2986-0.0000 0.0000 ( 18006 PWs)   bands (ev):

   -16.2317 -14.4055 -11.6964 -11.1675 -10.7527 -10.1971  -9.7483  -7.7069
    -7.2484  -6.6925  -6.4731  -5.5941  -4.2310  -4.1099  -3.8200  -3.6752
    -3.1582  -2.6031  -1.5321  -1.2373  -1.2065  -1.2007  -0.4230  -0.2705
    -0.2165   1.5075   7.0480   7.4482   8.9160   9.4373   9.4902

          k = 0.2986-0.1027 0.0000 ( 18004 PWs)   bands (ev):

   -16.0898 -14.3088 -12.8517 -10.8563 -10.8226  -9.7678  -9.5550  -7.2931
    -7.2027  -6.6991  -6.3748  -5.6321  -4.1432  -4.0453  -3.9797  -3.8358
    -2.7602  -2.5377  -1.7726  -1.2743  -1.1882  -1.0944  -0.7984  -0.6775
     0.0055   0.9861   7.2420   7.6489   8.8133   9.0633   9.1018

          k = 0.2986-0.2054 0.0000 ( 18022 PWs)   bands (ev):

   -15.7691 -14.1188 -13.8432 -11.5182 -10.7069  -9.3122  -9.0161  -7.4652
    -7.0466  -6.1664  -5.9625  -4.7275  -4.5241  -4.0692  -3.8986  -3.7993
    -3.5508  -2.7163  -1.8065  -1.7654  -1.4873  -0.9507  -0.7397  -0.5766
     0.1855   0.2499   7.5222   7.9160   8.2221   8.6191   8.8823

          k = 0.3981-0.0000 0.0000 ( 18042 PWs)   bands (ev):

   -15.0137 -13.3244 -11.3599 -10.6878 -10.0331 -10.0328  -9.1708  -8.7170
    -7.8629  -6.8693  -6.6733  -6.6334  -5.0533  -4.8806  -4.0668  -3.9159
    -3.4451  -2.6751  -2.1905  -2.0864  -1.6763  -1.3966  -1.1099  -0.7153
     0.3220   1.3123   8.1752   8.2262   8.5942   9.5161   9.7005

          k = 0.3981-0.1027 0.0000 ( 18026 PWs)   bands (ev):

   -14.8730 -13.2184 -11.7018 -11.2610 -10.2518  -9.8939  -8.6885  -8.6103
    -8.0933  -6.7253  -6.5675  -6.0607  -4.9800  -4.7526  -4.6197  -3.8295
    -2.8088  -2.5990  -2.1463  -1.9252  -1.7781  -1.2727  -1.2229  -0.7692
    -0.2958   0.5583   8.2728   8.3512   8.7171   8.9940   9.5226

          k = 0.3981-0.2054 0.0000 ( 18001 PWs)   bands (ev):

   -14.5539 -13.0026 -12.6765 -11.0423 -10.7023 -10.1491  -8.6312  -8.4360
    -7.9994  -6.6481  -6.4007  -4.8846  -4.8442  -4.6273  -4.1243  -3.6949
    -2.9773  -2.9714  -1.7855  -1.7431  -1.6816  -1.5065  -1.4809  -1.1267
    -0.5922  -0.5673   7.8095   8.3546   8.8679   9.3783   9.4084

          k =-0.4977 0.0000 0.0000 ( 18082 PWs)   bands (ev):

   -13.5737 -13.5737 -11.4282 -11.4282  -9.0683  -9.0683  -8.7651  -8.7651
    -7.9335  -7.9335  -7.5717  -7.5717  -4.4892  -4.4892  -4.2141  -4.2141
    -3.4664  -3.4664  -2.0600  -2.0600  -1.8288  -1.8288  -1.1364  -1.1364
     0.8987   0.8987   8.6053   8.6053   9.3716   9.3716  10.0191

          k =-0.4977-0.1027 0.0000 ( 18012 PWs)   bands (ev):

   -13.4332 -13.4332 -11.3563 -11.3563 -10.3441 -10.3441  -7.9806  -7.9806
    -7.7988  -7.7988  -7.3063  -7.3063  -4.4653  -4.4653  -4.2639  -4.2639
    -3.0559  -3.0559  -2.1642  -2.1642  -1.6562  -1.6562  -1.1076  -1.1076
     0.0887   0.0887   8.4676   8.4676   9.5834   9.5834   9.8984

          k =-0.4977-0.2054 0.0000 ( 17986 PWs)   bands (ev):

   -13.1096 -13.1096 -11.3454 -11.3454 -11.2088 -11.2088  -8.3500  -8.3500
    -7.7110  -7.7110  -6.3636  -6.3636  -4.2297  -4.2297  -3.8277  -3.8277
    -2.8228  -2.8228  -1.8462  -1.8462  -1.7794  -1.7794  -1.4038  -1.4038
    -1.0732  -1.0732   8.3706   8.3706   9.3589   9.3589   9.7660

     the Fermi energy is     3.7336 ev

!    total energy              =    -225.85120997 Ry
     estimated scf accuracy    <          5.7E-12 Ry
     smearing contrib. (-TS)   =       0.00000000 Ry
     internal energy E=F+TS    =    -225.85120997 Ry

     The total energy is F=E-TS. E is the sum of the following terms:
     one-electron contribution =   -1163.36077961 Ry
     hartree contribution      =     602.35972247 Ry
     xc contribution           =     -58.89396879 Ry
     ewald contribution        =     468.00592126 Ry
     one-center paw contrib.   =     -73.96210530 Ry

     convergence has been achieved in   9 iterations

     negative rho (up, down):  1.395E-06 0.000E+00

     Forces acting on atoms (cartesian axes, Ry/au):

     atom    1 type  1   force =     0.00000000   -0.00028226   -0.00000028
     atom    2 type  1   force =     0.00000000    0.00010406   -0.00025639
     atom    3 type  1   force =     0.00000000   -0.00000000    0.00005033
     atom    4 type  1   force =     0.00000000    0.00000000   -0.00005033
     atom    5 type  1   force =     0.00000000    0.00010406    0.00025639
     atom    6 type  1   force =     0.00000000   -0.00028226    0.00000028
     atom    7 type  1   force =     0.00000000    0.00028226   -0.00000028
     atom    8 type  1   force =     0.00000000   -0.00010406   -0.00025639
     atom    9 type  1   force =     0.00000000    0.00000000   -0.00007601
     atom   10 type  1   force =     0.00000000   -0.00000000    0.00007601
     atom   11 type  1   force =     0.00000000   -0.00010406    0.00025639
     atom   12 type  1   force =     0.00000000    0.00028226    0.00000028
     atom   13 type  2   force =     0.00000000    0.00001078    0.00009772
     atom   14 type  2   force =    -0.00000000   -0.00001078    0.00009772
     atom   15 type  2   force =     0.00000000    0.00001078   -0.00009772
     atom   16 type  2   force =     0.00000000   -0.00001078   -0.00009772

     Total force =     0.000825     Total SCF correction =     0.000006


     Computing stress (Cartesian axis) and pressure


     negative rho (up, down):  1.395E-06 0.000E+00
          total   stress  (Ry/bohr**3)                   (kbar)     P=       -0.01
   0.00000069   0.00000000   0.00000000            0.10        0.00        0.00
   0.00000000   0.00000029   0.00000000            0.00        0.04        0.00
   0.00000000   0.00000000  -0.00000117            0.00        0.00       -0.17

     Energy error            =      3.8E-06 Ry
     Gradient error          =      2.8E-04 Ry/Bohr
     Cell gradient error     =      1.0E-01 kbar

     number of scf cycles    =  13
     number of bfgs steps    =  12

     enthalpy           old  =    -225.8512061683 Ry
     enthalpy           new  =    -225.8512099685 Ry

     CASE: enthalpy          _new < enthalpy          _old

     new trust radius        =       0.0004232392 bohr
     Message from routine volume:
     axis vectors are left-handed
     new conv_thr            =            1.0E-11 Ry

     new unit-cell volume =   1222.16732 a.u.^3 (   181.10651 Ang^3 )
     density =      1.35849 g/cm^3

CELL_PARAMETERS (angstrom)
   2.538246571   0.000000000   0.000000000
   0.000000000  -4.920765581   0.000000000
   0.000000000   0.000000000  14.499985940

ATOMIC_POSITIONS (crystal)
C                0.0000000000        0.1661157317        0.6503926265
C                0.5000000000        0.2366139223        0.5940181890
C                0.5000000000       -0.0000000000        0.5282590732
C                0.0000000000       -0.0000000000        0.4717409268
C                0.0000000000        0.2366139223        0.4059818110
C                0.5000000000        0.1661157317        0.3496073735
C                0.0000000000        0.8338842683        0.6503926265
C                0.5000000000        0.7633860777        0.5940181890
C                0.5000000000        0.5000000000        0.5334180146
C                0.0000000000        0.5000000000        0.4665819854
C               -0.0000000000        0.7633860777        0.4059818110
C                0.5000000000        0.8338842683        0.3496073735
H               -0.0000000000        0.2528921935        0.7202324162
H               -0.0000000000        0.7471078065        0.7202324162
H                0.5000000000        0.2528921935        0.2797675838
H                0.5000000000        0.7471078065        0.2797675838



     Writing config-only to output data dir /tmp/qe/slab.save/ :
     XML data file
     NEW-OLD atomic charge density approx. for the potential

     negative rho (up, down):  1.391E-06 0.000E+00

     total cpu time spent up to now is      320.4 secs

     Self-consistent Calculation

     iteration #  1     ecut=    90.00 Ry     beta= 0.30
     Davidson diagonalization with overlap
     ethr =  1.00E-06,  avg # of iterations =  2.0

     Threshold (ethr) on eigenvalues was too large:
     Diagonalizing with lowered threshold

     Davidson diagonalization with overlap
     ethr =  1.36E-10,  avg # of iterations =  5.0

     negative rho (up, down):  1.391E-06 0.000E+00

     total cpu time spent up to now is      324.6 secs

     total energy              =    -225.85121039 Ry
     estimated scf accuracy    <       0.00000018 Ry

     iteration #  2     ecut=    90.00 Ry     beta= 0.30
     Davidson diagonalization with overlap
     ethr =  3.44E-10,  avg # of iterations =  2.0

     negative rho (up, down):  1.392E-06 0.000E+00

     total cpu time spent up to now is      326.3 secs

     total energy              =    -225.85121041 Ry
     estimated scf accuracy    <       0.00000003 Ry

     iteration #  3     ecut=    90.00 Ry     beta= 0.30
     Davidson diagonalization with overlap
     ethr =  5.43E-11,  avg # of iterations =  2.3

     negative rho (up, down):  1.392E-06 0.000E+00

     total cpu time spent up to now is      328.1 secs

     total energy              =    -225.85121041 Ry
     estimated scf accuracy    <          8.1E-09 Ry

     iteration #  4     ecut=    90.00 Ry     beta= 0.30
     Davidson diagonalization with overlap
     ethr =  1.56E-11,  avg # of iterations =  1.2

     negative rho (up, down):  1.393E-06 0.000E+00

     total cpu time spent up to now is      329.6 secs

     total energy              =    -225.85121041 Ry
     estimated scf accuracy    <          1.5E-09 Ry

     iteration #  5     ecut=    90.00 Ry     beta= 0.30
     Davidson diagonalization with overlap
     ethr =  2.97E-12,  avg # of iterations =  2.0

     negative rho (up, down):  1.393E-06 0.000E+00

     total cpu time spent up to now is      331.4 secs

     total energy              =    -225.85121041 Ry
     estimated scf accuracy    <          9.7E-11 Ry

     iteration #  6     ecut=    90.00 Ry     beta= 0.30
     Davidson diagonalization with overlap
     ethr =  1.87E-13,  avg # of iterations =  3.7

     negative rho (up, down):  1.393E-06 0.000E+00

     total cpu time spent up to now is      333.5 secs

     total energy              =    -225.85121041 Ry
     estimated scf accuracy    <          4.5E-11 Ry

     iteration #  7     ecut=    90.00 Ry     beta= 0.30
     Davidson diagonalization with overlap
     ethr =  1.00E-13,  avg # of iterations =  2.2

     negative rho (up, down):  1.393E-06 0.000E+00

     total cpu time spent up to now is      335.3 secs

     End of self-consistent calculation

          k = 0.0000-0.0000 0.0000 ( 17977 PWs)   bands (ev):

   -17.8444 -15.9697 -13.2131 -12.6872 -12.1640 -11.6141  -9.2625  -8.5590
    -7.8114  -5.4790  -5.3793  -4.9548  -2.8996  -1.9244  -1.9046  -1.4399
    -1.1242  -1.0954  -0.0975   0.4115   0.5420   0.9726   1.0964   1.4959
     1.5148   1.5953   5.6123   6.0335   7.8417   7.9444   8.4031

          k = 0.0000-0.1027 0.0000 ( 18029 PWs)   bands (ev):

   -17.7004 -15.8734 -14.4019 -12.2741 -12.2146 -11.2244  -8.8766  -8.0151
    -7.9641  -5.5590  -5.4165  -4.5640  -2.7961  -2.3740  -1.7917  -1.7457
    -1.7323  -1.0316  -0.0678  -0.0478   0.6084   0.9790   1.0488   1.2102
     1.3033   1.8966   5.8347   6.2662   7.9399   8.0327   8.6706

          k = 0.0000-0.2054 0.0000 ( 17997 PWs)   bands (ev):

   -17.3749 -15.6859 -15.4128 -12.9237 -12.0925 -10.4577  -8.6065  -7.2667
    -7.1945  -5.6121  -5.1731  -4.9803  -3.1464  -2.9018  -2.5830  -1.6424
    -1.6235  -0.9125  -0.6844   0.0442   0.2787   0.6727   0.7761   1.2715
     1.2785   2.2914   6.4871   6.8596   7.5346   7.8131   8.1209

          k = 0.0995-0.0000 0.0000 ( 17999 PWs)   bands (ev):

   -17.6635 -15.7924 -13.0411 -12.5160 -12.0007 -11.4539  -9.1641  -8.4264
    -7.6646  -5.4233  -5.3102  -4.8289  -3.9605  -2.1596  -1.8557  -1.6956
    -1.5724  -1.0296  -0.2999  -0.1730   0.2987   0.3231   0.3482   0.8295
     1.4242   1.5473   5.7669   6.2699   8.2555   8.6768   8.8072

          k = 0.0995-0.1027 0.0000 ( 17998 PWs)   bands (ev):

   -17.5197 -15.6962 -14.2272 -12.1086 -12.0526 -11.0608  -8.7978  -7.8772
    -7.8099  -5.4814  -5.3625  -4.4438  -3.8511  -2.3046  -2.0788  -1.8000
    -1.6816  -1.5848  -0.8663  -0.1757   0.0803   0.4304   0.6397   0.9362
     1.3326   1.3581   5.9925   6.4926   8.1994   8.8276   8.8410

          k = 0.0995-0.2054 0.0000 ( 18005 PWs)   bands (ev):

   -17.1948 -15.5088 -15.2360 -12.7596 -11.9299 -10.2950  -8.5267  -7.1125
    -7.1099  -5.5107  -5.0545  -4.8731  -3.6266  -3.0544  -2.8613  -2.0461
    -1.6210  -1.5350  -1.4386  -0.3504   0.1014   0.3517   0.3810   0.9172
     1.3884   1.5724   6.6498   7.0659   7.6859   8.0145   8.1874

          k = 0.1991-0.0000 0.0000 ( 17977 PWs)   bands (ev):

   -17.1232 -15.2646 -12.5294 -12.0058 -11.5177 -10.9767  -9.0309  -8.0825
    -7.2484  -5.7119  -5.6595  -5.2096  -4.4964  -3.6794  -2.5443  -2.1330
    -1.7813  -1.5123  -1.2430  -1.1448  -0.7394  -0.4187  -0.2366  -0.1357
     0.8272   1.5543   6.2166   6.7801   8.6613   9.0521   9.4135

          k = 0.1991-0.1027 0.0000 ( 18002 PWs)   bands (ev):

   -16.9801 -15.1685 -13.7064 -11.6203 -11.5742 -10.5724  -8.7429  -7.5140
    -7.3713  -5.6079  -5.5736  -5.3456  -4.1800  -3.6675  -2.8210  -2.2094
    -1.9867  -1.8075  -1.3990  -1.2519  -0.8896  -0.6581  -0.1560   0.0843
     0.8749   1.2132   6.4367   6.9886   8.4773   9.1367   9.1696

          k = 0.1991-0.2054 0.0000 ( 17978 PWs)   bands (ev):

   -16.6568 -14.9809 -14.7089 -12.2762 -11.4510  -9.8101  -8.4733  -6.9848
    -6.6842  -5.4868  -5.4102  -4.6631  -4.6528  -3.6718  -3.3778  -2.9856
    -2.7251  -2.0330  -1.5579  -1.4466  -0.7525  -0.4421  -0.0850   0.1447
     0.8118   1.0152   7.0467   7.5486   7.9210   8.2954   8.3910

          k = 0.2986-0.0000 0.0000 ( 18006 PWs)   bands (ev):

   -16.2322 -14.4049 -11.6966 -11.1681 -10.7523 -10.1971  -9.7483  -7.7073
    -7.2480  -6.6927  -6.4729  -5.5946  -4.2309  -4.1093  -3.8200  -3.6747
    -3.1586  -2.6036  -1.5327  -1.2358  -1.2053  -1.2012  -0.4222  -0.2714
    -0.2161   1.5066   7.0478   7.4481   8.9179   9.4381   9.4911

          k = 0.2986-0.1027 0.0000 ( 18004 PWs)   bands (ev):

   -16.0902 -14.3082 -12.8526 -10.8553 -10.8227  -9.7681  -9.5551  -7.2934
    -7.2022  -6.6995  -6.3746  -5.6326  -4.1432  -4.0454  -3.9792  -3.8357
    -2.7597  -2.5378  -1.7731  -1.2744  -1.1887  -1.0932  -0.7978  -0.6771
     0.0057   0.9854   7.2418   7.6488   8.8140   9.0639   9.1032

          k = 0.2986-0.2054 0.0000 ( 18022 PWs)   bands (ev):

   -15.7693 -14.1180 -13.8444 -11.5186 -10.7057  -9.3122  -9.0161  -7.4658
    -7.0460  -6.1660  -5.9632  -4.7279  -4.5245  -4.0696  -3.8984  -3.7986
    -3.5509  -2.7161  -1.8072  -1.7658  -1.4864  -0.9505  -0.7392  -0.5762
     0.1862   0.2499   7.5223   7.9162   8.2220   8.6190   8.8817

          k = 0.3981-0.0000 0.0000 ( 18042 PWs)   bands (ev):

   -15.0143 -13.3242 -11.3598 -10.6874 -10.0335 -10.0332  -9.1710  -8.7167
    -7.8637  -6.8698  -6.6728  -6.6335  -5.0528  -4.8809  -4.0673  -3.9155
    -3.4454  -2.6755  -2.1911  -2.0843  -1.6768  -1.3953  -1.1092  -0.7143
     0.3210   1.3115   8.1754   8.2261   8.5958   9.5183   9.7006

          k = 0.3981-0.1027 0.0000 ( 18026 PWs)   bands (ev):

   -14.8735 -13.2181 -11.7026 -11.2608 -10.2507  -9.8944  -8.6887  -8.6101
    -8.0938  -6.7255  -6.5669  -6.0612  -4.9794  -4.7532  -4.6200  -3.8291
    -2.8092  -2.5991  -2.1466  -1.9250  -1.7767  -1.2716  -1.2226  -0.7682
    -0.2964   0.5574   8.2730   8.3514   8.7176   8.9955   9.5235

          k = 0.3981-0.2054 0.0000 ( 18001 PWs)   bands (ev):

   -14.5542 -13.0021 -12.6777 -11.0422 -10.7030 -10.1477  -8.6319  -8.4355
    -7.9993  -6.6487  -6.4000  -4.8847  -4.8439  -4.6280  -4.1246  -3.6945
    -2.9778  -2.9717  -1.7856  -1.7434  -1.6820  -1.5062  -1.4800  -1.1262
    -0.5909  -0.5668   7.8103   8.3545   8.8682   9.3775   9.4062

          k =-0.4976 0.0000 0.0000 ( 18082 PWs)   bands (ev):

   -13.5745 -13.5745 -11.4271 -11.4271  -9.0692  -9.0692  -8.7660  -8.7660
    -7.9330  -7.9330  -7.5715  -7.5715  -4.4889  -4.4889  -4.2144  -4.2144
    -3.4670  -3.4670  -2.0604  -2.0604  -1.8271  -1.8271  -1.1355  -1.1355
     0.8978   0.8978   8.6071   8.6071   9.3715   9.3715  10.0191

          k =-0.4976-0.1027 0.0000 ( 18012 PWs)   bands (ev):

   -13.4339 -13.4339 -11.3551 -11.3551 -10.3451 -10.3451  -7.9803  -7.9803
    -7.7985  -7.7985  -7.3069  -7.3069  -4.4652  -4.4652  -4.2641  -4.2641
    -3.0560  -3.0560  -2.1646  -2.1646  -1.6549  -1.6549  -1.1064  -1.1064
     0.0878   0.0878   8.4689   8.4689   9.5834   9.5834   9.8982

          k =-0.4976-0.2054 0.0000 ( 17986 PWs)   bands (ev):

   -13.1101 -13.1101 -11.3465 -11.3465 -11.2077 -11.2077  -8.3503  -8.3503
    -7.7103  -7.7103  -6.3640  -6.3640  -4.2292  -4.2292  -3.8285  -3.8285
    -2.8231  -2.8231  -1.8464  -1.8464  -1.7801  -1.7801  -1.4033  -1.4033
    -1.0713  -1.0713   8.3715   8.3715   9.3574   9.3574   9.7660

     the Fermi energy is     3.7335 ev

!    total energy              =    -225.85121041 Ry
     estimated scf accuracy    <          6.7E-12 Ry
     smearing contrib. (-TS)   =       0.00000000 Ry
     internal energy E=F+TS    =    -225.85121041 Ry

     The total energy is F=E-TS. E is the sum of the following terms:
     one-electron contribution =   -1163.41996192 Ry
     hartree contribution      =     602.38934990 Ry
     xc contribution           =     -58.89391813 Ry
     ewald contribution        =     468.03543350 Ry
     one-center paw contrib.   =     -73.96211377 Ry

     convergence has been achieved in   7 iterations

     negative rho (up, down):  1.393E-06 0.000E+00

     Forces acting on atoms (cartesian axes, Ry/au):

     atom    1 type  1   force =     0.00000000   -0.00004470    0.00003145
     atom    2 type  1   force =     0.00000000    0.00003886   -0.00006058
     atom    3 type  1   force =     0.00000000    0.00000000   -0.00003264
     atom    4 type  1   force =     0.00000000   -0.00000000    0.00003264
     atom    5 type  1   force =     0.00000000    0.00003886    0.00006058
     atom    6 type  1   force =    -0.00000000   -0.00004470   -0.00003145
     atom    7 type  1   force =    -0.00000000    0.00004470    0.00003145
     atom    8 type  1   force =     0.00000000   -0.00003886   -0.00006058
     atom    9 type  1   force =     0.00000000    0.00000000   -0.00001085
     atom   10 type  1   force =     0.00000000   -0.00000000    0.00001085
     atom   11 type  1   force =     0.00000000   -0.00003886    0.00006058
     atom   12 type  1   force =     0.00000000    0.00004470   -0.00003145
     atom   13 type  2   force =     0.00000000    0.00000503    0.00001234
     atom   14 type  2   force =    -0.00000000   -0.00000503    0.00001234
     atom   15 type  2   force =    -0.00000000    0.00000503   -0.00001234
     atom   16 type  2   force =    -0.00000000   -0.00000503   -0.00001234

     Total force =     0.000189     Total SCF correction =     0.000006


     Computing stress (Cartesian axis) and pressure


     negative rho (up, down):  1.393E-06 0.000E+00
          total   stress  (Ry/bohr**3)                   (kbar)     P=       -0.01
   0.00000015   0.00000000   0.00000000            0.02        0.00        0.00
   0.00000000   0.00000048   0.00000000            0.00        0.07        0.00
   0.00000000   0.00000000  -0.00000079            0.00        0.00       -0.12

     Energy error            =      4.4E-07 Ry
     Gradient error          =      6.1E-05 Ry/Bohr
     Cell gradient error     =      7.0E-02 kbar
     Message from routine volume:
     axis vectors are left-handed

     bfgs converged in  14 scf cycles and  13 bfgs steps
     (criteria: energy <  1.0E-05 Ry, force <  1.0E-04 Ry/Bohr, cell <  1.0E-01 kbar)

     End of BFGS Geometry Optimization

     Final enthalpy           =    -225.8512104133 Ry

     File /tmp/qe/slab.bfgs deleted, as requested
Begin final coordinates
     new unit-cell volume =   1222.16732 a.u.^3 (   181.10651 Ang^3 )
     density =      1.35849 g/cm^3

CELL_PARAMETERS (angstrom)
   2.538246571   0.000000000   0.000000000
   0.000000000  -4.920765581   0.000000000
   0.000000000   0.000000000  14.499985940

ATOMIC_POSITIONS (crystal)
C                0.0000000000        0.1661157317        0.6503926265
C                0.5000000000        0.2366139223        0.5940181890
C                0.5000000000       -0.0000000000        0.5282590732
C                0.0000000000       -0.0000000000        0.4717409268
C                0.0000000000        0.2366139223        0.4059818110
C                0.5000000000        0.1661157317        0.3496073735
C                0.0000000000        0.8338842683        0.6503926265
C                0.5000000000        0.7633860777        0.5940181890
C                0.5000000000        0.5000000000        0.5334180146
C                0.0000000000        0.5000000000        0.4665819854
C               -0.0000000000        0.7633860777        0.4059818110
C                0.5000000000        0.8338842683        0.3496073735
H               -0.0000000000        0.2528921935        0.7202324162
H               -0.0000000000        0.7471078065        0.7202324162
H                0.5000000000        0.2528921935        0.2797675838
H                0.5000000000        0.7471078065        0.2797675838
End final coordinates



     Writing config-only to output data dir /tmp/qe/slab.save/ :
     XML data file

     Final scf calculation at the relaxed structure.
     The G-vectors are recalculated for the final unit cell
     Results may differ from those at the preceding step.

     Parallelization info
     --------------------
     sticks:   dense  smooth     PW     G-vecs:    dense   smooth      PW
     Min         318     160     45                49840    17624    2729
     Max         319     162     46                49853    17627    2732
     Sum        2551    1285    361               398785   141005   21841

     Using Slab Decomposition



     bravais-lattice index     =            0
     lattice parameter (alat)  =       4.7740  a.u.
     unit-cell volume          =    1222.1673 (a.u.)^3
     number of atoms/cell      =           16
     number of atomic types    =            2
     number of electrons       =        52.00
     number of Kohn-Sham states=           31
     kinetic-energy cutoff     =      90.0000  Ry
     charge density cutoff     =     720.0000  Ry
     scf convergence threshold =      1.0E-11
     mixing beta               =       0.3000
     number of iterations used =            8  plain     mixing
     press convergence thresh. =      1.0E-01
     Exchange-correlation= PBE
                           (   1   4   3   4   0   0   0)

     celldm(1)=   4.773978  celldm(2)=   0.000000  celldm(3)=   0.000000
     celldm(4)=   0.000000  celldm(5)=   0.000000  celldm(6)=   0.000000

     crystal axes: (cart. coord. in units of alat)
               a(1) = (   1.004737   0.000000   0.000000 )  
               a(2) = (   0.000000  -1.947830   0.000000 )  
               a(3) = (   0.000000   0.000000   5.739658 )  

     reciprocal axes: (cart. coord. in units 2 pi/alat)
               b(1) = (  0.995286 -0.000000 -0.000000 )  
               b(2) = ( -0.000000 -0.513392 -0.000000 )  
               b(3) = ( -0.000000 -0.000000  0.174226 )  


     PseudoPot. # 1 for C  read from file:
     ./C.pbe-n-kjpaw_psl.1.0.0.UPF
     MD5 check sum: 5d2aebdfa2cae82b50a7e79e9516da0f
     Pseudo is Projector augmented-wave + core cor, Zval =  4.0
     Generated using "atomic" code by A. Dal Corso  v.5.1
     Shape of augmentation charge: PSQ
     Using radial grid of 1073 points,  4 beta functions with: 
                l(1) =   0
                l(2) =   0
                l(3) =   1
                l(4) =   1
     Q(r) pseudized with 0 coefficients 


     PseudoPot. # 2 for H  read from file:
     ./H_ONCV_PBE-1.0.oncvpsp.upf
     MD5 check sum: 1790becc920ee074925cf490c71280fe
     Pseudo is Norm-conserving, Zval =  1.0
     Generated using ONCVPSP code by D. R. Hamann
     Using radial grid of 1166 points,  2 beta functions with: 
                l(1) =   0
                l(2) =   0

     atomic species   valence    mass     pseudopotential
     C                 4.00    12.01100     C ( 1.00)
     H                 1.00     1.00800     H ( 1.00)

      8 Sym. Ops., with inversion, found ( 4 have fractional translation)



   Cartesian axes

     site n.     atom                  positions (alat units)
         1        C      tau(   1) = (   0.0000000  -0.3235653   3.7330314  )
         2        C      tau(   2) = (   0.5023683  -0.4608838   3.4094614  )
         3        C      tau(   3) = (   0.5023683   0.0000000   3.0320265  )
         4        C      tau(   4) = (   0.0000000   0.0000000   2.7076317  )
         5        C      tau(   5) = (   0.0000000  -0.4608838   2.3301968  )
         6        C      tau(   6) = (   0.5023683  -0.3235653   2.0066268  )
         7        C      tau(   7) = (   0.0000000  -1.6242651   3.7330314  )
         8        C      tau(   8) = (   0.5023683  -1.4869466   3.4094614  )
         9        C      tau(   9) = (   0.5023683  -0.9739152   3.0616371  )
        10        C      tau(  10) = (   0.0000000  -0.9739152   2.6780211  )
        11        C      tau(  11) = (  -0.0000000  -1.4869466   2.3301968  )
        12        C      tau(  12) = (   0.5023683  -1.6242651   2.0066268  )
        13        H      tau(  13) = (  -0.0000000  -0.4925911   4.1338879  )
        14        H      tau(  14) = (  -0.0000000  -1.4552392   4.1338879  )
        15        H      tau(  15) = (   0.5023683  -0.4925911   1.6057703  )
        16        H      tau(  16) = (   0.5023683  -1.4552392   1.6057703  )

     number of k points=    18  Marzari-Vanderbilt smearing, width (Ry)=  0.0100
                       cart. coord. in units 2pi/alat
        k(    1) = (   0.0000000  -0.0000000   0.0000000), wk =   0.0400000
        k(    2) = (   0.0000000  -0.1026783   0.0000000), wk =   0.0800000
        k(    3) = (   0.0000000  -0.2053567   0.0000000), wk =   0.0800000
        k(    4) = (   0.0995286  -0.0000000   0.0000000), wk =   0.0800000
        k(    5) = (   0.0995286  -0.1026783   0.0000000), wk =   0.1600000
        k(    6) = (   0.0995286  -0.2053567   0.0000000), wk =   0.1600000
        k(    7) = (   0.1990571  -0.0000000   0.0000000), wk =   0.0800000
        k(    8) = (   0.1990571  -0.1026783   0.0000000), wk =   0.1600000
        k(    9) = (   0.1990571  -0.2053567   0.0000000), wk =   0.1600000
        k(   10) = (   0.2985857  -0.0000000   0.0000000), wk =   0.0800000
        k(   11) = (   0.2985857  -0.1026783   0.0000000), wk =   0.1600000
        k(   12) = (   0.2985857  -0.2053567   0.0000000), wk =   0.1600000
        k(   13) = (   0.3981143  -0.0000000   0.0000000), wk =   0.0800000
        k(   14) = (   0.3981143  -0.1026783   0.0000000), wk =   0.1600000
        k(   15) = (   0.3981143  -0.2053567   0.0000000), wk =   0.1600000
        k(   16) = (  -0.4976428   0.0000000   0.0000000), wk =   0.0400000
        k(   17) = (  -0.4976428  -0.1026783   0.0000000), wk =   0.0800000
        k(   18) = (  -0.4976428  -0.2053567   0.0000000), wk =   0.0800000

     Dense  grid:   398785 G-vectors     FFT dimensions: (  48,  80, 240)

     Smooth grid:   141005 G-vectors     FFT dimensions: (  30,  60, 180)

     Estimated max dynamical RAM per process >     115.40 MB

     Estimated total dynamical RAM >     923.18 MB

     Initial potential from superposition of free atoms

     starting charge      51.9995, renormalised to      52.0000
     Starting wfcs are   52 randomized atomic wfcs
     Checking if some PAW data can be deallocated... 

     total cpu time spent up to now is      340.7 secs

     Self-consistent Calculation

     iteration #  1     ecut=    90.00 Ry     beta= 0.30
     Davidson diagonalization with overlap
     c_bands:  1 eigenvalues not converged
     c_bands:  1 eigenvalues not converged
     c_bands:  3 eigenvalues not converged
     c_bands:  2 eigenvalues not converged
     c_bands:  2 eigenvalues not converged
     c_bands:  2 eigenvalues not converged
     c_bands:  1 eigenvalues not converged
     c_bands:  2 eigenvalues not converged
     c_bands:  2 eigenvalues not converged
     c_bands:  1 eigenvalues not converged
     c_bands:  2 eigenvalues not converged
     c_bands:  3 eigenvalues not converged
     c_bands:  1 eigenvalues not converged
     ethr =  1.00E-06,  avg # of iterations = 19.0

     negative rho (up, down):  8.105E-08 0.000E+00

     total cpu time spent up to now is      346.8 secs

     total energy              =    -225.89610566 Ry
     estimated scf accuracy    <       1.31453525 Ry

     iteration #  2     ecut=    90.00 Ry     beta= 0.30
     Davidson diagonalization with overlap
     ethr =  2.53E-03,  avg # of iterations =  2.6

     negative rho (up, down):  1.228E-06 0.000E+00

     total cpu time spent up to now is      348.4 secs

     total energy              =    -225.83754678 Ry
     estimated scf accuracy    <       0.34927871 Ry

     iteration #  3     ecut=    90.00 Ry     beta= 0.30
     Davidson diagonalization with overlap
     ethr =  6.72E-04,  avg # of iterations =  5.8

     negative rho (up, down):  1.346E-06 0.000E+00

     total cpu time spent up to now is      350.4 secs

     total energy              =    -225.84622372 Ry
     estimated scf accuracy    <       0.05600568 Ry

     iteration #  4     ecut=    90.00 Ry     beta= 0.30
     Davidson diagonalization with overlap
     ethr =  1.08E-04,  avg # of iterations =  4.2

     negative rho (up, down):  2.329E-06 0.000E+00

     total cpu time spent up to now is      352.3 secs

     total energy              =    -225.85037109 Ry
     estimated scf accuracy    <       0.00455548 Ry

     iteration #  5     ecut=    90.00 Ry     beta= 0.30
     Davidson diagonalization with overlap
     ethr =  8.76E-06,  avg # of iterations =  8.9

     negative rho (up, down):  1.781E-06 0.000E+00

     total cpu time spent up to now is      354.6 secs

     total energy              =    -225.85099506 Ry
     estimated scf accuracy    <       0.00076408 Ry

     iteration #  6     ecut=    90.00 Ry     beta= 0.30
     Davidson diagonalization with overlap
     ethr =  1.47E-06,  avg # of iterations =  6.1

     negative rho (up, down):  1.881E-06 0.000E+00

     total cpu time spent up to now is      356.9 secs

     total energy              =    -225.85116290 Ry
     estimated scf accuracy    <       0.00027079 Ry

     iteration #  7     ecut=    90.00 Ry     beta= 0.30
     Davidson diagonalization with overlap
     ethr =  5.21E-07,  avg # of iterations =  2.0

     negative rho (up, down):  1.939E-06 0.000E+00

     total cpu time spent up to now is      358.6 secs

     total energy              =    -225.85118114 Ry
     estimated scf accuracy    <       0.00003111 Ry

     iteration #  8     ecut=    90.00 Ry     beta= 0.30
     Davidson diagonalization with overlap
     ethr =  5.98E-08,  avg # of iterations =  2.9

     negative rho (up, down):  1.942E-06 0.000E+00

     total cpu time spent up to now is      360.5 secs

     total energy              =    -225.85118949 Ry
     estimated scf accuracy    <       0.00000255 Ry

     iteration #  9     ecut=    90.00 Ry     beta= 0.30
     Davidson diagonalization with overlap
     ethr =  4.90E-09,  avg # of iterations =  3.1

     negative rho (up, down):  1.985E-06 0.000E+00

     total cpu time spent up to now is      362.4 secs

     total energy              =    -225.85119017 Ry
     estimated scf accuracy    <       0.00000093 Ry

     iteration # 10     ecut=    90.00 Ry     beta= 0.30
     Davidson diagonalization with overlap
     ethr =  1.79E-09,  avg # of iterations =  2.3

     negative rho (up, down):  2.002E-06 0.000E+00

     total cpu time spent up to now is      364.3 secs

     total energy              =    -225.85119039 Ry
     estimated scf accuracy    <       0.00000009 Ry

     iteration # 11     ecut=    90.00 Ry     beta= 0.30
     Davidson diagonalization with overlap
     ethr =  1.71E-10,  avg # of iterations =  2.7

     negative rho (up, down):  2.019E-06 0.000E+00

     total cpu time spent up to now is      366.1 secs

     total energy              =    -225.85119041 Ry
     estimated scf accuracy    <          8.6E-09 Ry

     iteration # 12     ecut=    90.00 Ry     beta= 0.30
     Davidson diagonalization with overlap
     ethr =  1.65E-11,  avg # of iterations =  3.2

     negative rho (up, down):  2.027E-06 0.000E+00

     total cpu time spent up to now is      368.2 secs

     total energy              =    -225.85119041 Ry
     estimated scf accuracy    <          2.0E-09 Ry

     iteration # 13     ecut=    90.00 Ry     beta= 0.30
     Davidson diagonalization with overlap
     ethr =  3.93E-12,  avg # of iterations =  2.0

     negative rho (up, down):  2.035E-06 0.000E+00

     total cpu time spent up to now is      370.0 secs

     total energy              =    -225.85119041 Ry
     estimated scf accuracy    <          2.5E-10 Ry

     iteration # 14     ecut=    90.00 Ry     beta= 0.30
     Davidson diagonalization with overlap
     ethr =  4.71E-13,  avg # of iterations =  3.7

     negative rho (up, down):  2.039E-06 0.000E+00

     total cpu time spent up to now is      372.2 secs

     total energy              =    -225.85119041 Ry
     estimated scf accuracy    <          2.3E-10 Ry

     iteration # 15     ecut=    90.00 Ry     beta= 0.30
     Davidson diagonalization with overlap
     ethr =  4.47E-13,  avg # of iterations =  1.8

     negative rho (up, down):  2.042E-06 0.000E+00

     total cpu time spent up to now is      373.8 secs

     total energy              =    -225.85119041 Ry
     estimated scf accuracy    <          4.8E-11 Ry

     iteration # 16     ecut=    90.00 Ry     beta= 0.30
     Davidson diagonalization with overlap
     ethr =  1.00E-13,  avg # of iterations =  3.4

     negative rho (up, down):  2.045E-06 0.000E+00

     total cpu time spent up to now is      375.8 secs

     total energy              =    -225.85119041 Ry
     estimated scf accuracy    <          1.7E-11 Ry

     iteration # 17     ecut=    90.00 Ry     beta= 0.30
     Davidson diagonalization with overlap
     ethr =  1.00E-13,  avg # of iterations =  2.2

     negative rho (up, down):  2.050E-06 0.000E+00

     total cpu time spent up to now is      377.6 secs

     End of self-consistent calculation

          k = 0.0000-0.0000 0.0000 ( 17581 PWs)   bands (ev):

   -17.8444 -15.9697 -13.2131 -12.6872 -12.1639 -11.6141  -9.2625  -8.5590
    -7.8114  -5.4790  -5.3793  -4.9548  -2.8996  -1.9244  -1.9046  -1.4399
    -1.1242  -1.0954  -0.0975   0.4116   0.5420   0.9726   1.0964   1.4960
     1.5149   1.5953   5.6146   6.0340   7.8420   7.9463   8.4040

          k = 0.0000-0.1027 0.0000 ( 17624 PWs)   bands (ev):

   -17.7003 -15.8734 -14.4019 -12.2741 -12.2145 -11.2244  -8.8766  -8.0150
    -7.9641  -5.5589  -5.4165  -4.5639  -2.7961  -2.3740  -1.7917  -1.7457
    -1.7323  -1.0316  -0.0678  -0.0478   0.6084   0.9790   1.0488   1.2102
     1.3033   1.8966   5.8370   6.2667   7.9412   8.0329   8.6719

          k = 0.0000-0.2054 0.0000 ( 17642 PWs)   bands (ev):

   -17.3749 -15.6859 -15.4128 -12.9237 -12.0925 -10.4577  -8.6065  -7.2667
    -7.1945  -5.6121  -5.1731  -4.9803  -3.1464  -2.9018  -2.5830  -1.6424
    -1.6235  -0.9125  -0.6844   0.0443   0.2787   0.6727   0.7761   1.2715
     1.2785   2.2914   6.4892   6.8601   7.5362   7.8134   8.1215

          k = 0.0995-0.0000 0.0000 ( 17591 PWs)   bands (ev):

   -17.6635 -15.7924 -13.0411 -12.5160 -12.0007 -11.4539  -9.1641  -8.4264
    -7.6646  -5.4232  -5.3102  -4.8289  -3.9605  -2.1596  -1.8556  -1.6956
    -1.5724  -1.0296  -0.2999  -0.1730   0.2987   0.3231   0.3483   0.8295
     1.4242   1.5474   5.7690   6.2704   8.2586   8.6770   8.8072

          k = 0.0995-0.1027 0.0000 ( 17624 PWs)   bands (ev):

   -17.5197 -15.6962 -14.2271 -12.1086 -12.0526 -11.0608  -8.7977  -7.8772
    -7.8099  -5.4814  -5.3625  -4.4438  -3.8510  -2.3046  -2.0788  -1.8000
    -1.6816  -1.5848  -0.8663  -0.1757   0.0803   0.4304   0.6397   0.9362
     1.3326   1.3581   5.9945   6.4931   8.2009   8.8292   8.8414

          k = 0.0995-0.2054 0.0000 ( 17630 PWs)   bands (ev):

   -17.1948 -15.5088 -15.2360 -12.7596 -11.9299 -10.2950  -8.5267  -7.1125
    -7.1099  -5.5107  -5.0545  -4.8731  -3.6266  -3.0544  -2.8613  -2.0461
    -1.6210  -1.5350  -1.4386  -0.3504   0.1014   0.3517   0.3811   0.9172
     1.3884   1.5724   6.6518   7.0664   7.6873   8.0150   8.1881

          k = 0.1991-0.0000 0.0000 ( 17615 PWs)   bands (ev):

   -17.1232 -15.2646 -12.5294 -12.0057 -11.5176 -10.9767  -9.0309  -8.0825
    -7.2484  -5.7119  -5.6595  -5.2096  -4.4964  -3.6794  -2.5443  -2.1330
    -1.7813  -1.5123  -1.2430  -1.1448  -0.7394  -0.4187  -0.2366  -0.1357
     0.8272   1.5543   6.2183   6.7806   8.6649   9.0522   9.5046

          k = 0.1991-0.1027 0.0000 ( 17619 PWs)   bands (ev):

   -16.9801 -15.1685 -13.7064 -11.6203 -11.5742 -10.5724  -8.7428  -7.5140
    -7.3713  -5.6078  -5.5736  -5.3456  -4.1800  -3.6675  -2.8210  -2.2094
    -1.9867  -1.8075  -1.3990  -1.2519  -0.8896  -0.6580  -0.1560   0.0843
     0.8749   1.2132   6.4383   6.9891   8.4787   9.1384   9.1698

          k = 0.1991-0.2054 0.0000 ( 17600 PWs)   bands (ev):

   -16.6568 -14.9809 -14.7089 -12.2762 -11.4510  -9.8101  -8.4733  -6.9848
    -6.6842  -5.4868  -5.4102  -4.6630  -4.6527  -3.6718  -3.3778  -2.9856
    -2.7251  -2.0330  -1.5579  -1.4466  -0.7524  -0.4421  -0.0850   0.1447
     0.8118   1.0152   7.0480   7.5490   7.9216   8.2965   8.3913

          k = 0.2986-0.0000 0.0000 ( 17606 PWs)   bands (ev):

   -16.2322 -14.4049 -11.6966 -11.1681 -10.7522 -10.1971  -9.7482  -7.7073
    -7.2480  -6.6927  -6.4729  -5.5945  -4.2309  -4.1093  -3.8200  -3.6747
    -3.1585  -2.6036  -1.5326  -1.2358  -1.2053  -1.2012  -0.4222  -0.2714
    -0.2161   1.5066   7.0490   7.4485   8.9180   9.4405   9.4924

          k = 0.2986-0.1027 0.0000 ( 17628 PWs)   bands (ev):

   -16.0902 -14.3081 -12.8525 -10.8553 -10.8227  -9.7681  -9.5551  -7.2934
    -7.2022  -6.6995  -6.3746  -5.6326  -4.1432  -4.0454  -3.9792  -3.8357
    -2.7597  -2.5378  -1.7730  -1.2744  -1.1887  -1.0932  -0.7978  -0.6771
     0.0057   0.9854   7.2429   7.6492   8.8146   9.0639   9.1032

          k = 0.2986-0.2054 0.0000 ( 17626 PWs)   bands (ev):

   -15.7693 -14.1180 -13.8444 -11.5186 -10.7057  -9.3121  -9.0161  -7.4658
    -7.0460  -6.1660  -5.9632  -4.7278  -4.5245  -4.0696  -3.8984  -3.7986
    -3.5509  -2.7161  -1.8072  -1.7658  -1.4864  -0.9504  -0.7392  -0.5762
     0.1863   0.2499   7.5227   7.9163   8.2223   8.6201   8.8823

          k = 0.3981-0.0000 0.0000 ( 17606 PWs)   bands (ev):

   -15.0143 -13.3242 -11.3597 -10.6874 -10.0335 -10.0332  -9.1710  -8.7166
    -7.8637  -6.8698  -6.6728  -6.6335  -5.0528  -4.8809  -4.0673  -3.9155
    -3.4454  -2.6755  -2.1911  -2.0843  -1.6768  -1.3953  -1.1092  -0.7142
     0.3210   1.3115   8.1756   8.2267   8.5959   9.5186   9.7007

          k = 0.3981-0.1027 0.0000 ( 17621 PWs)   bands (ev):

   -14.8735 -13.2181 -11.7026 -11.2608 -10.2507  -9.8944  -8.6887  -8.6100
    -8.0938  -6.7255  -6.5669  -6.0612  -4.9794  -4.7531  -4.6200  -3.8291
    -2.8091  -2.5991  -2.1466  -1.9250  -1.7767  -1.2716  -1.2226  -0.7682
    -0.2964   0.5574   8.2733   8.3515   8.7181   8.9956   9.5235

          k = 0.3981-0.2054 0.0000 ( 17633 PWs)   bands (ev):

   -14.5542 -13.0020 -12.6777 -11.0421 -10.7030 -10.1477  -8.6319  -8.4355
    -7.9993  -6.6487  -6.4000  -4.8847  -4.8439  -4.6280  -4.1246  -3.6945
    -2.9777  -2.9717  -1.7856  -1.7434  -1.6820  -1.5061  -1.4800  -1.1262
    -0.5909  -0.5667   7.8103   8.3546   8.8683   9.3780   9.4062

          k =-0.4976 0.0000 0.0000 ( 17626 PWs)   bands (ev):

   -13.5745 -13.5745 -11.4271 -11.4271  -9.0691  -9.0691  -8.7660  -8.7660
    -7.9330  -7.9330  -7.5715  -7.5715  -4.4888  -4.4888  -4.2144  -4.2144
    -3.4670  -3.4670  -2.0604  -2.0604  -1.8271  -1.8271  -1.1355  -1.1355
     0.8978   0.8978   8.6072   8.6072   9.3716   9.3716  10.0565

          k =-0.4976-0.1027 0.0000 ( 17632 PWs)   bands (ev):

   -13.4339 -13.4339 -11.3551 -11.3551 -10.3451 -10.3451  -7.9803  -7.9803
    -7.7985  -7.7985  -7.3068  -7.3068  -4.4652  -4.4652  -4.2641  -4.2641
    -3.0560  -3.0560  -2.1645  -2.1645  -1.6549  -1.6549  -1.1064  -1.1064
     0.0878   0.0878   8.4689   8.4689   9.5835   9.5836   9.8985

          k =-0.4976-0.2054 0.0000 ( 17628 PWs)   bands (ev):

   -13.1101 -13.1101 -11.3465 -11.3465 -11.2077 -11.2077  -8.3503  -8.3503
    -7.7103  -7.7103  -6.3640  -6.3640  -4.2292  -4.2292  -3.8285  -3.8285
    -2.8231  -2.8231  -1.8464  -1.8464  -1.7801  -1.7801  -1.4032  -1.4032
    -1.0713  -1.0713   8.3715   8.3715   9.3574   9.3575   9.7661

     the Fermi energy is     3.7616 ev

!    total energy              =    -225.85119041 Ry
     estimated scf accuracy    <          5.9E-12 Ry
     smearing contrib. (-TS)   =       0.00000000 Ry
     internal energy E=F+TS    =    -225.85119041 Ry

     The total energy is F=E-TS. E is the sum of the following terms:
     one-electron contribution =   -1163.42001880 Ry
     hartree contribution      =     602.38942064 Ry
     xc contribution           =     -58.89390644 Ry
     ewald contribution        =     468.03543350 Ry
     one-center paw contrib.   =     -73.96211931 Ry

     convergence has been achieved in  17 iterations

     negative rho (up, down):  2.050E-06 0.000E+00

     Forces acting on atoms (cartesian axes, Ry/au):

     atom    1 type  1   force =     0.00000000   -0.00003357    0.00003011
     atom    2 type  1   force =     0.00000000    0.00002583   -0.00006046
     atom    3 type  1   force =     0.00000000    0.00000000   -0.00003267
     atom    4 type  1   force =     0.00000000   -0.00000000    0.00003267
     atom    5 type  1   force =     0.00000000    0.00002583    0.00006046
     atom    6 type  1   force =     0.00000000   -0.00003357   -0.00003011
     atom    7 type  1   force =     0.00000000    0.00003357    0.00003011
     atom    8 type  1   force =     0.00000000   -0.00002583   -0.00006046
     atom    9 type  1   force =     0.00000000    0.00000000   -0.00001139
     atom   10 type  1   force =     0.00000000   -0.00000000    0.00001139
     atom   11 type  1   force =     0.00000000   -0.00002583    0.00006046
     atom   12 type  1   force =     0.00000000    0.00003357   -0.00003011
     atom   13 type  2   force =     0.00000000    0.00000460    0.00001300
     atom   14 type  2   force =     0.00000000   -0.00000460    0.00001300
     atom   15 type  2   force =    -0.00000000    0.00000460   -0.00001300
     atom   16 type  2   force =    -0.00000000   -0.00000460   -0.00001300

     Total force =     0.000169     Total SCF correction =     0.000006


     Computing stress (Cartesian axis) and pressure


     negative rho (up, down):  2.050E-06 0.000E+00
          total   stress  (Ry/bohr**3)                   (kbar)     P=       -0.01
   0.00000016   0.00000000   0.00000000            0.02        0.00        0.00
   0.00000000   0.00000037   0.00000000            0.00        0.05        0.00
   0.00000000   0.00000000  -0.00000080            0.00        0.00       -0.12


     Writing all to output data dir /tmp/qe/slab.save/ :
     XML data file, charge density, pseudopotentials, collected wavefunctions

     init_run     :      2.42s CPU      2.83s WALL (       2 calls)
     electrons    :    307.97s CPU    311.59s WALL (      15 calls)
     update_pot   :      1.82s CPU      1.85s WALL (      13 calls)
     forces       :      5.37s CPU      5.71s WALL (      15 calls)
     stress       :     57.41s CPU     57.62s WALL (      15 calls)

     Called by init_run:
     wfcinit      :      1.79s CPU      1.99s WALL (       2 calls)
     potinit      :      0.27s CPU      0.37s WALL (       2 calls)
     hinit0       :      0.13s CPU      0.20s WALL (       2 calls)

     Called by electrons:
     c_bands      :    235.33s CPU    237.63s WALL (     158 calls)
     sum_band     :     47.56s CPU     48.03s WALL (     158 calls)
     v_of_rho     :      9.72s CPU      9.98s WALL (     166 calls)
     newd         :      5.77s CPU      5.94s WALL (     166 calls)
     PAW_pot      :     11.08s CPU     11.13s WALL (     179 calls)
     mix_rho      :      0.84s CPU      0.86s WALL (     158 calls)

     Called by c_bands:
     init_us_2    :      7.70s CPU      7.83s WALL (    6498 calls)
     cegterg      :    223.58s CPU    225.73s WALL (    2844 calls)

     Called by *egterg:
     cdiaghg      :      9.76s CPU      9.93s WALL (   11209 calls)
     h_psi        :    173.30s CPU    175.22s WALL (   11605 calls)
     s_psi        :      9.80s CPU      9.87s WALL (   11605 calls)
     g_psi        :      1.20s CPU      1.21s WALL (    8725 calls)

     Called by h_psi:
     h_psi:calbec :      9.63s CPU      9.74s WALL (   11605 calls)
     vloc_psi     :    150.56s CPU    152.29s WALL (   11605 calls)
     add_vuspsi   :     11.96s CPU     12.04s WALL (   11605 calls)

     General routines
     calbec       :     14.39s CPU     14.57s WALL (   16033 calls)
     fft          :      5.25s CPU      5.69s WALL (    2523 calls)
     ffts         :      0.19s CPU      0.26s WALL (     324 calls)
     fftw         :    134.87s CPU    136.25s WALL (  570920 calls)
     interpolate  :      0.38s CPU      0.45s WALL (     166 calls)

     Parallel routines

     PWSCF        :   6m17.11s CPU   6m21.93s WALL


   This run was terminated on:  14:27:46   2Aug2026            

=------------------------------------------------------------------------------=
   JOB DONE.
=------------------------------------------------------------------------------=
Note: The following floating-point exceptions are signalling: IEEE_UNDERFLOW_FLAG IEEE_DENORMAL
Note: The following floating-point exceptions are signalling: IEEE_UNDERFLOW_FLAG IEEE_DENORMAL
Note: The following floating-point exceptions are signalling: IEEE_UNDERFLOW_FLAG IEEE_DENORMAL
Note: The following floating-point exceptions are signalling: IEEE_UNDERFLOW_FLAG IEEE_DENORMAL
Note: The following floating-point exceptions are signalling: IEEE_UNDERFLOW_FLAG IEEE_DENORMAL
Note: The following floating-point exceptions are signalling: IEEE_UNDERFLOW_FLAG IEEE_DENORMAL
Note: The following floating-point exceptions are signalling: IEEE_UNDERFLOW_FLAG IEEE_DENORMAL
Note: The following floating-point exceptions are signalling: IEEE_UNDERFLOW_FLAG IEEE_DENORMAL
