
     Program PWSCF v.7.5 starts on 23Jun2026 at 15:18: 9 

     This program is part of the open-source Quantum ESPRESSO suite
     for quantum simulation of materials; please cite
         "P. Giannozzi et al., J. Phys.:Condens. Matter 21 395502 (2009);
         "P. Giannozzi et al., J. Phys.:Condens. Matter 29 465901 (2017);
         "P. Giannozzi et al., J. Chem. Phys. 152 154105 (2020);
          URL http://www.quantum-espresso.org", 
     in publications or presentations arising from this work. More details at
     http://www.quantum-espresso.org/quote

     Serial version
     0 MiB available memory on the printing compute node when the environment starts

     Waiting for input...
     Reading input from standard input

     Current dimensions of program PWSCF are:
     Max number of different atomic species (ntypx) = 10
     Max number of k-points (npk) =  40000
     Max angular momentum in pseudopotentials (lmaxx) =  4
     file C.pbe-n-kjpaw_psl.1.0.0.UPF: wavefunction(s)  2S 2P renormalized
     Message from routine volume:
     axis vectors are left-handed
     Message from routine setup:
     using ibrav=0 with symmetry is DISCOURAGED, use correct ibrav instead


     G-vector sticks info
     --------------------
     sticks:   dense  smooth     PW     G-vecs:    dense   smooth      PW
     Sum        1637     821    235               368069   130303   20435

     Using Slab Decomposition



     bravais-lattice index     =            0
     lattice parameter (alat)  =       4.7514  a.u.
     unit-cell volume          =    1346.5522 (a.u.)^3
     number of atoms/cell      =           14
     number of atomic types    =            2
     number of electrons       =        50.00
     number of Kohn-Sham states=           30
     kinetic-energy cutoff     =      80.0000  Ry
     charge density cutoff     =     640.0000  Ry
     scf convergence threshold =      1.0E-08
     mixing beta               =       0.3000
     number of iterations used =            8  plain     mixing
     Exchange-correlation= PBE
                           (   1   4   3   4   0   0   0)

     celldm(1)=   4.751359  celldm(2)=   0.000000  celldm(3)=   0.000000
     celldm(4)=   0.000000  celldm(5)=   0.000000  celldm(6)=   0.000000

     crystal axes: (cart. coord. in units of alat)
               a(1) = (   1.000000   0.000000   0.000000 )  
               a(2) = (   0.000000  -1.421320   0.000000 )  
               a(3) = (   0.000000   0.000000   8.832378 )  

     reciprocal axes: (cart. coord. in units 2 pi/alat)
               b(1) = (  1.000000 -0.000000 -0.000000 )  
               b(2) = ( -0.000000 -0.703571 -0.000000 )  
               b(3) = ( -0.000000 -0.000000  0.113220 )  


     PseudoPot. # 1 for C  read from file:
     ./C.pbe-n-kjpaw_psl.1.0.0.UPF
     MD5 check sum: 5d2aebdfa2cae82b50a7e79e9516da0f
     Pseudo is Projector augmented-wave + core cor, Zval =  4.0
     Generated using "atomic" code by A. Dal Corso  v.5.1
     Shape of augmentation charge: PSQ
     Using radial grid of 1073 points,  4 beta functions with: 
                l(1) =   0
                l(2) =   0
                l(3) =   1
                l(4) =   1
     Q(r) pseudized with 0 coefficients 


     PseudoPot. # 2 for H  read from file:
     ./H_ONCV_PBE-1.0.oncvpsp.upf
     MD5 check sum: 1790becc920ee074925cf490c71280fe
     Pseudo is Norm-conserving, Zval =  1.0
     Generated using ONCVPSP code by D. R. Hamann
     Using radial grid of 1166 points,  2 beta functions with: 
                l(1) =   0
                l(2) =   0

     atomic species   valence    mass     pseudopotential
     C                 4.00    12.01100     C ( 1.00)
     H                 1.00     1.00800     H ( 1.00)

      4 Sym. Ops. (no inversion) found ( 2 have fractional translation)



   Cartesian axes

     site n.     atom                  positions (alat units)
         1        C      tau(   1) = (   0.0000000  -0.3629531   5.4828275  )
         2        C      tau(   2) = (   0.5000000  -0.7030371   5.4828275  )
         3        C      tau(   3) = (   0.0000000   0.0012716   4.9916216  )
         4        C      tau(   4) = (   0.5000000  -1.0672617   4.9916216  )
         5        C      tau(   5) = (   0.0000000  -0.3557191   4.4879108  )
         6        C      tau(   6) = (   0.5000000  -0.7102711   4.4879108  )
         7        C      tau(   7) = (   0.0000000   0.0025214   3.9865528  )
         8        C      tau(   8) = (   0.5000000  -1.0685115   3.9865528  )
         9        C      tau(   9) = (   0.0000000  -0.3553300   3.4854370  )
        10        C      tau(  10) = (   0.5000000  -0.7106601   3.4854370  )
        11        C      tau(  11) = (   0.0000000   0.0000000   2.9829245  )
        12        C      tau(  12) = (   0.5000000  -1.0659901   2.9829245  )
        13        H      tau(  13) = (   0.0000000  -0.1247818   5.8491451  )
        14        H      tau(  14) = (   0.5000000  -0.9412083   5.8491451  )

     number of k points=    20  Marzari-Vanderbilt smearing, width (Ry)=  0.0100
                       cart. coord. in units 2pi/alat
        k(    1) = (   0.0000000  -0.0000000   0.0000000), wk =   0.0317460
        k(    2) = (   0.0000000  -0.1005102   0.0000000), wk =   0.0634921
        k(    3) = (   0.0000000  -0.2010204   0.0000000), wk =   0.0634921
        k(    4) = (   0.0000000  -0.3015305   0.0000000), wk =   0.0634921
        k(    5) = (   0.1111111  -0.0000000   0.0000000), wk =   0.0634921
        k(    6) = (   0.1111111  -0.1005102   0.0000000), wk =   0.1269841
        k(    7) = (   0.1111111  -0.2010204   0.0000000), wk =   0.1269841
        k(    8) = (   0.1111111  -0.3015305   0.0000000), wk =   0.1269841
        k(    9) = (   0.2222222  -0.0000000   0.0000000), wk =   0.0634921
        k(   10) = (   0.2222222  -0.1005102   0.0000000), wk =   0.1269841
        k(   11) = (   0.2222222  -0.2010204   0.0000000), wk =   0.1269841
        k(   12) = (   0.2222222  -0.3015305   0.0000000), wk =   0.1269841
        k(   13) = (   0.3333333  -0.0000000   0.0000000), wk =   0.0634921
        k(   14) = (   0.3333333  -0.1005102   0.0000000), wk =   0.1269841
        k(   15) = (   0.3333333  -0.2010204   0.0000000), wk =   0.1269841
        k(   16) = (   0.3333333  -0.3015305   0.0000000), wk =   0.1269841
        k(   17) = (   0.4444444  -0.0000000   0.0000000), wk =   0.0634921
        k(   18) = (   0.4444444  -0.1005102   0.0000000), wk =   0.1269841
        k(   19) = (   0.4444444  -0.2010204   0.0000000), wk =   0.1269841
        k(   20) = (   0.4444444  -0.3015305   0.0000000), wk =   0.1269841

     Dense  grid:   368069 G-vectors     FFT dimensions: (  40,  60, 360)

     Smooth grid:   130303 G-vectors     FFT dimensions: (  30,  40, 240)

     Estimated max dynamical RAM per process >     839.46 MB

     Initial potential from superposition of free atoms

     starting charge      49.9995, renormalised to      50.0000

     negative rho (up, down):  5.799E-05 0.000E+00
     Starting wfcs are   50 randomized atomic wfcs

     total cpu time spent up to now is        4.2 secs

     Self-consistent Calculation

     iteration #  1     ecut=    80.00 Ry     beta= 0.30
     Davidson diagonalization with overlap
     ethr =  1.00E-02,  avg # of iterations =  2.6

     negative rho (up, down):  5.543E-05 0.000E+00

     total cpu time spent up to now is       12.5 secs

     total energy              =    -223.36510078 Ry
     estimated scf accuracy    <       0.91618060 Ry

     iteration #  2     ecut=    80.00 Ry     beta= 0.30
     Davidson diagonalization with overlap
     ethr =  1.83E-03,  avg # of iterations =  3.7

     negative rho (up, down):  6.460E-05 0.000E+00

     total cpu time spent up to now is       19.4 secs

     total energy              =    -223.28022560 Ry
     estimated scf accuracy    <       0.31524019 Ry

     iteration #  3     ecut=    80.00 Ry     beta= 0.30
     Davidson diagonalization with overlap
     ethr =  6.30E-04,  avg # of iterations =  7.3

     negative rho (up, down):  6.697E-05 0.000E+00

     total cpu time spent up to now is       27.9 secs

     total energy              =    -223.29494466 Ry
     estimated scf accuracy    <       0.04487615 Ry

     iteration #  4     ecut=    80.00 Ry     beta= 0.30
     Davidson diagonalization with overlap
     ethr =  8.98E-05,  avg # of iterations =  7.2

     negative rho (up, down):  6.872E-05 0.000E+00

     total cpu time spent up to now is       36.3 secs

     total energy              =    -223.29726159 Ry
     estimated scf accuracy    <       0.00839559 Ry

     iteration #  5     ecut=    80.00 Ry     beta= 0.30
     Davidson diagonalization with overlap
     c_bands:  1 eigenvalues not converged
     c_bands:  1 eigenvalues not converged
     ethr =  1.68E-05,  avg # of iterations =  8.0

     negative rho (up, down):  6.961E-05 0.000E+00

     total cpu time spent up to now is       45.5 secs

     total energy              =    -223.29844361 Ry
     estimated scf accuracy    <       0.00091356 Ry

     iteration #  6     ecut=    80.00 Ry     beta= 0.30
     Davidson diagonalization with overlap
     ethr =  1.83E-06,  avg # of iterations =  8.2

     negative rho (up, down):  6.920E-05 0.000E+00

     total cpu time spent up to now is       55.5 secs

     total energy              =    -223.29852446 Ry
     estimated scf accuracy    <       0.00021212 Ry

     iteration #  7     ecut=    80.00 Ry     beta= 0.30
     Davidson diagonalization with overlap
     ethr =  4.24E-07,  avg # of iterations =  2.4

     negative rho (up, down):  6.929E-05 0.000E+00

     total cpu time spent up to now is       62.6 secs

     total energy              =    -223.29855885 Ry
     estimated scf accuracy    <       0.00003290 Ry

     iteration #  8     ecut=    80.00 Ry     beta= 0.30
     Davidson diagonalization with overlap
     ethr =  6.58E-08,  avg # of iterations =  2.4

     negative rho (up, down):  6.889E-05 0.000E+00

     total cpu time spent up to now is       69.7 secs

     total energy              =    -223.29856267 Ry
     estimated scf accuracy    <       0.00000842 Ry

     iteration #  9     ecut=    80.00 Ry     beta= 0.30
     Davidson diagonalization with overlap
     ethr =  1.68E-08,  avg # of iterations =  2.2

     negative rho (up, down):  6.870E-05 0.000E+00

     total cpu time spent up to now is       76.9 secs

     total energy              =    -223.29856472 Ry
     estimated scf accuracy    <       0.00000077 Ry

     iteration # 10     ecut=    80.00 Ry     beta= 0.30
     Davidson diagonalization with overlap
     ethr =  1.53E-09,  avg # of iterations =  3.2

     negative rho (up, down):  6.863E-05 0.000E+00

     total cpu time spent up to now is       84.3 secs

     total energy              =    -223.29856487 Ry
     estimated scf accuracy    <       0.00000015 Ry

     iteration # 11     ecut=    80.00 Ry     beta= 0.30
     Davidson diagonalization with overlap
     ethr =  2.95E-10,  avg # of iterations =  2.9

     negative rho (up, down):  6.856E-05 0.000E+00

     total cpu time spent up to now is       92.4 secs

     total energy              =    -223.29856491 Ry
     estimated scf accuracy    <       0.00000007 Ry

     iteration # 12     ecut=    80.00 Ry     beta= 0.30
     Davidson diagonalization with overlap
     ethr =  1.35E-10,  avg # of iterations =  2.0

     negative rho (up, down):  6.854E-05 0.000E+00

     total cpu time spent up to now is       99.2 secs

     End of self-consistent calculation

          k = 0.0000-0.0000 0.0000 ( 16317 PWs)   bands (ev):

   -19.4998 -18.1813 -16.2334 -13.9057 -11.7641 -11.0156 -10.8366  -9.6448
    -7.8603  -7.7900  -6.7792  -5.9650  -5.4442  -4.6623  -4.3679  -3.3414
    -2.9397  -2.7347  -1.9373  -0.6219  -0.4765   0.0707   0.7693   1.4537
     1.5938   3.8948   4.0751   6.0013   6.7944   6.8441

          k = 0.0000-0.1005 0.0000 ( 16291 PWs)   bands (ev):

   -19.3137 -18.0007 -16.0705 -13.8441 -13.1122 -12.2476 -10.0260  -9.1828
    -8.6700  -7.0251  -6.6543  -5.8313  -4.8773  -4.4488  -4.1936  -3.1953
    -3.0763  -2.3482  -1.8556  -0.5595  -0.5399  -0.1281   0.4384   0.9739
     1.6852   3.6270   4.1082   6.2146   6.7800   7.0763

          k = 0.0000-0.2010 0.0000 ( 16273 PWs)   bands (ev):

   -18.7579 -17.4644 -15.6086 -14.9632 -14.0807 -13.3491 -10.5802  -9.7422
    -8.2207  -7.1986  -5.7798  -5.0678  -4.1581  -3.7305  -3.6784  -2.7718
    -2.5125  -2.0988  -1.6407  -0.7807  -0.7535  -0.5307  -0.2214   0.1677
     1.6323   2.8835   4.7131   6.6785   7.1542   7.5908

          k = 0.0000-0.3015 0.0000 ( 16250 PWs)   bands (ev):

   -17.8411 -16.6788 -16.4742 -15.4093 -14.8623 -13.7908 -10.8949 -10.2043
    -8.3118  -7.4445  -5.4075  -4.4507  -3.3290  -2.8493  -2.5805  -2.1361
    -2.0709  -1.7393  -1.5396  -1.4425  -1.2962  -1.2310  -0.8447  -0.3419
     1.6689   2.3073   5.6191   6.7931   7.1953   7.9682

          k = 0.1111-0.0000 0.0000 ( 16297 PWs)   bands (ev):

   -19.2716 -17.9558 -16.0122 -13.6911 -11.5597 -10.8137 -10.7622  -9.5811
    -7.7427  -7.6621  -6.5943  -5.7905  -5.4211  -5.4057  -4.5258  -4.3384
    -2.8968  -2.8851  -2.7446  -1.4177  -0.7933  -0.2361  -0.0147   0.4000
     1.2184   4.1004   4.1243   6.2619   7.0220   7.4482

          k = 0.1111-0.1005 0.0000 ( 16260 PWs)   bands (ev):

   -19.0860 -17.7759 -15.8502 -13.6321 -12.9254 -12.0548  -9.8759  -9.0558
    -8.5977  -6.9334  -6.5509  -5.7655  -5.1428  -4.8616  -4.3494  -4.0939
    -3.0561  -2.7493  -2.4136  -1.4916  -0.9774  -0.5805  -0.2490   0.0957
     1.5229   3.7221   4.3370   6.5065   7.3262   7.6524

          k = 0.1111-0.2010 0.0000 ( 16264 PWs)   bands (ev):

   -18.5318 -17.2417 -15.3916 -14.7570 -13.8782 -13.1430 -10.3934  -9.5531
    -8.0688  -7.1268  -5.9545  -5.0708  -4.6321  -4.3103  -3.7068  -3.2001
    -2.8994  -2.3464  -2.0924  -2.0314  -1.8104  -1.2001  -0.4983   0.0377
     1.6125   3.0331   4.9745   7.1632   7.8735   8.0130

          k = 0.1111-0.3015 0.0000 ( 16271 PWs)   bands (ev):

   -17.6183 -16.4605 -16.2571 -15.1972 -14.6526 -13.5832 -10.6937 -10.0067
    -8.1369  -7.2749  -5.4232  -4.5200  -4.2797  -3.6219  -3.3298  -2.7404
    -2.6876  -2.4580  -2.1760  -1.9018  -1.7508  -1.1446  -0.9124  -0.6733
     1.8129   2.3832   5.9259   7.2384   7.9636   8.4952

          k = 0.2222-0.0000 0.0000 ( 16239 PWs)   bands (ev):

   -18.5902 -17.2827 -15.3520 -13.0505 -10.9484 -10.8448 -10.2099  -9.6807
    -7.8726  -7.1445  -7.0886  -6.0704  -6.0407  -5.5950  -5.2969  -4.5744
    -4.1755  -3.1861  -2.9758  -2.8706  -2.1990  -1.7073  -1.6358  -0.3123
     0.6269   3.9247   4.7636   6.6506   7.0708   7.3311

          k = 0.2222-0.1005 0.0000 ( 16261 PWs)   bands (ev):

   -18.4063 -17.1050 -15.1932 -13.0004 -12.4255 -11.5105  -9.6301  -9.1045
    -8.5618  -7.1898  -6.6772  -6.2075  -5.7797  -5.3657  -4.8483  -4.1692
    -3.9432  -3.4398  -3.1574  -3.0668  -2.7160  -2.0113  -0.8966  -0.6534
     0.9795   3.6123   5.0198   7.2093   7.4311   7.5942

          k = 0.2222-0.2010 0.0000 ( 16253 PWs)   bands (ev):

   -17.8577 -16.5779 -14.7451 -14.1597 -13.2837 -12.5350  -9.8935  -9.0654
    -8.2162  -7.5781  -6.6958  -5.9959  -5.2645  -4.8066  -4.4806  -4.2877
    -3.8002  -3.4504  -3.3033  -3.1019  -2.6033  -2.0722  -1.1135  -0.5098
     1.4517   3.0122   5.6808   8.0168   8.4337   8.6155

          k = 0.2222-0.3015 0.0000 ( 16260 PWs)   bands (ev):

   -16.9556 -15.8131 -15.6140 -14.5702 -14.0293 -12.9665 -10.1260  -9.4455
    -7.7560  -7.1772  -6.7597  -5.9612  -5.8242  -4.9721  -4.7351  -4.3054
    -3.8567  -3.6029  -2.5214  -2.1970  -2.1380  -1.9810  -1.1658  -0.9972
     1.8773   2.4382   6.5944   7.9868   9.1278   9.3110

          k = 0.3333-0.0000 0.0000 ( 16278 PWs)   bands (ev):

   -17.4673 -16.1745 -14.2654 -12.0744 -11.9954 -10.8777  -9.9372  -9.2106
    -9.0670  -7.5082  -6.8671  -6.4742  -6.2147  -5.3253  -5.1634  -4.7480
    -4.6184  -4.1340  -3.9588  -3.8557  -3.2822  -3.1427  -2.8886  -0.9639
     0.6255   3.2953   5.7600   6.5670   6.7932   8.4235

          k = 0.3333-0.1005 0.0000 ( 16306 PWs)   bands (ev):

   -17.2872 -16.0013 -14.1128 -12.3090 -11.9704 -11.1214 -10.2238  -9.7194
    -9.0887  -7.4285  -6.9609  -6.5095  -6.0768  -5.5379  -5.1302  -4.9766
    -4.6750  -4.3548  -4.0310  -3.7070  -3.0494  -2.9716  -2.2217  -1.1640
     0.8560   3.1449   6.0662   7.0029   7.2203   8.0793

          k = 0.3333-0.2010 0.0000 ( 16292 PWs)   bands (ev):

   -16.7515 -15.4896 -13.6882 -13.3339 -12.3979 -11.5920 -10.2814  -9.6720
    -9.1107  -7.9267  -7.1139  -7.0426  -6.8154  -6.2033  -5.3038  -5.1956
    -4.1909  -3.8053  -3.6412  -3.3826  -2.8323  -2.6806  -1.6464  -1.3770
     1.3729   2.7898   6.6950   7.9676   8.2147   8.8669

          k = 0.3333-0.3015 0.0000 ( 16239 PWs)   bands (ev):

   -15.8778 -14.7755 -14.5842 -13.5760 -13.0166 -11.9718  -9.5949  -9.4643
    -8.8276  -8.4961  -8.3474  -7.4566  -6.6842  -6.4710  -5.9097  -5.5585
    -3.8752  -3.6425  -3.3779  -3.0463  -2.2633  -2.1237  -1.8066  -1.3443
     1.8575   2.4327   7.3590   8.8019   9.0865   9.4430

          k = 0.4444-0.0000 0.0000 ( 16316 PWs)   bands (ev):

   -15.9309 -14.6600 -14.0531 -12.8133 -12.7812 -10.9709 -10.5509  -8.7760
    -8.5400  -7.8294  -6.7885  -6.5369  -6.0946  -5.7009  -5.2320  -5.0179
    -4.8268  -4.7312  -4.4898  -4.4073  -4.0579  -3.4972  -2.8750  -1.9094
     1.2790   2.3037   6.3970   6.9770   7.3492   7.6047

          k = 0.4444-0.1005 0.0000 ( 16314 PWs)   bands (ev):

   -15.7603 -14.4977 -13.9217 -12.6965 -12.6391 -10.8902 -10.4765  -9.3357
    -8.7695  -8.7253  -7.6186  -7.0387  -6.3541  -5.7039  -5.1331  -5.0477
    -4.6454  -4.4435  -4.1940  -3.9466  -3.6617  -3.4209  -2.7184  -1.9337
     1.4164   2.3196   6.9026   7.0359   7.4783   7.8129

          k = 0.4444-0.2010 0.0000 ( 16269 PWs)   bands (ev):

   -15.2608 -14.0269 -13.6243 -12.4490 -12.2414 -10.7730 -10.7702 -10.3304
    -9.5743  -9.1997  -8.9092  -8.0661  -6.7737  -6.2118  -5.5930  -4.9270
    -4.7588  -4.1101  -3.8083  -3.2873  -3.1613  -2.5918  -2.2890  -1.9911
     1.7300   2.3258   7.5162   7.8424   8.3262   8.6362

          k = 0.4444-0.3015 0.0000 ( 16253 PWs)   bands (ev):

   -14.4924 -13.7209 -13.3016 -12.5764 -11.7180 -11.3106 -10.8807 -10.5742
   -10.3275  -9.6969  -9.4839  -8.6777  -6.9900  -6.6004  -5.7428  -5.2138
    -4.8758  -4.3231  -3.5539  -3.1261  -2.5600  -2.2964  -1.8892  -1.7563
     2.0068   2.2777   7.9881   8.6118   9.5385   9.8114

     the Fermi energy is     2.0764 ev

!    total energy              =    -223.29856492 Ry
     estimated scf accuracy    <          6.3E-09 Ry
     smearing contrib. (-TS)   =       0.00048457 Ry
     internal energy E=F+TS    =    -223.29904948 Ry

     The total energy is F=E-TS. E is the sum of the following terms:
     one-electron contribution =   -2795.12307135 Ry
     hartree contribution      =    1414.75089412 Ry
     xc contribution           =     -57.29176889 Ry
     ewald contribution        =    1288.32810360 Ry
     one-center paw contrib.   =     -73.96320697 Ry

     convergence has been achieved in  12 iterations

     negative rho (up, down):  6.854E-05 0.000E+00

     Forces acting on atoms (cartesian axes, Ry/au):

     atom    1 type  1   force =     0.00000000    0.00134111    0.00009790
     atom    2 type  1   force =     0.00000000   -0.00134111    0.00009790
     atom    3 type  1   force =     0.00000000   -0.00066025   -0.00004018
     atom    4 type  1   force =     0.00000000    0.00066025   -0.00004018
     atom    5 type  1   force =     0.00000000    0.00059202    0.00000532
     atom    6 type  1   force =    -0.00000000   -0.00059202    0.00000532
     atom    7 type  1   force =     0.00000000   -0.00081966    0.00004184
     atom    8 type  1   force =     0.00000000    0.00081966    0.00004184
     atom    9 type  1   force =     0.00000000   -0.04604072   -0.04794645
     atom   10 type  1   force =     0.00000000    0.04604072   -0.04794645
     atom   11 type  1   force =     0.00000000    0.17170523    0.04775392
     atom   12 type  1   force =     0.00000000   -0.17170523    0.04775392
     atom   13 type  2   force =     0.00000000    0.00005606    0.00008765
     atom   14 type  2   force =     0.00000000   -0.00005606    0.00008765

     Total force =     0.002562     Total SCF correction =     0.000130


     Computing stress (Cartesian axis) and pressure


     negative rho (up, down):  6.854E-05 0.000E+00
          total   stress  (Ry/bohr**3)                   (kbar)     P=       -6.55
  -0.00001350   0.00000000   0.00000000           -1.99        0.00        0.00
   0.00000000   0.00005049   0.00000000            0.00        7.43        0.00
   0.00000000   0.00000000  -0.00017061            0.00        0.00      -25.10


     Writing all to output data dir ./tmp/slab.save/ :
     XML data file, charge density, pseudopotentials, collected wavefunctions

     init_run     :      3.87s CPU      4.16s WALL (       1 calls)
     electrons    :     86.14s CPU     95.03s WALL (       1 calls)
     forces       :      0.94s CPU      1.11s WALL (       1 calls)
     stress       :      2.77s CPU      3.32s WALL (       1 calls)

     Called by init_run:
     wfcinit      :      3.30s CPU      3.55s WALL (       1 calls)
     potinit      :      0.30s CPU      0.31s WALL (       1 calls)
     hinit0       :      0.14s CPU      0.15s WALL (       1 calls)

     Called by electrons:
     c_bands      :     70.91s CPU     78.65s WALL (      12 calls)
     sum_band     :     10.89s CPU     11.51s WALL (      12 calls)
     v_of_rho     :      1.63s CPU      1.75s WALL (      13 calls)
     newd         :      0.87s CPU      1.13s WALL (      13 calls)
     PAW_pot      :      1.81s CPU      1.92s WALL (      13 calls)
     mix_rho      :      0.21s CPU      0.25s WALL (      12 calls)

     Called by c_bands:
     init_us_2    :      1.02s CPU      1.07s WALL (     540 calls)
     cegterg      :     68.91s CPU     76.61s WALL (     240 calls)

     Called by *egterg:
     cdiaghg      :      0.71s CPU      0.73s WALL (    1283 calls)
     h_psi        :     53.86s CPU     57.17s WALL (    1303 calls)
     s_psi        :      5.08s CPU      6.08s WALL (    1303 calls)
     g_psi        :      0.22s CPU      0.22s WALL (    1043 calls)

     Called by h_psi:
     h_psi:calbec :      4.75s CPU      6.03s WALL (    1303 calls)
     vloc_psi     :     43.03s CPU     43.59s WALL (    1303 calls)
                                        0.00s GPU  (    1303 calls)
     add_vuspsi   :      5.89s CPU      7.23s WALL (    1303 calls)

     General routines
     calbec       :      7.73s CPU      9.73s WALL (    1883 calls)
     fft          :      1.21s CPU      1.22s WALL (     192 calls)
     ffts         :      0.04s CPU      0.04s WALL (      25 calls)
     fftw         :     45.88s CPU     46.13s WALL (   47020 calls)
     interpolate  :      0.12s CPU      0.13s WALL (      13 calls)


     PWSCF        :   1m33.78s CPU   1m43.71s WALL


   This run was terminated on:  15:19:53  23Jun2026            

=------------------------------------------------------------------------------=
   JOB DONE.
=------------------------------------------------------------------------------=
Note: The following floating-point exceptions are signalling: IEEE_INVALID_FLAG IEEE_DIVIDE_BY_ZERO IEEE_OVERFLOW_FLAG IEEE_UNDERFLOW_FLAG
