
     Program PWSCF v.7.3.1 starts on  2Aug2026 at 16:10:34 

     This program is part of the open-source Quantum ESPRESSO suite
     for quantum simulation of materials; please cite
         "P. Giannozzi et al., J. Phys.:Condens. Matter 21 395502 (2009);
         "P. Giannozzi et al., J. Phys.:Condens. Matter 29 465901 (2017);
         "P. Giannozzi et al., J. Chem. Phys. 152 154105 (2020);
          URL http://www.quantum-espresso.org", 
     in publications or presentations arising from this work. More details at
     http://www.quantum-espresso.org/quote

     Parallel version (MPI), running on     8 processors

     MPI processes distributed on     1 nodes
     184706 MiB available memory on the printing compute node when the environment starts

     Reading input from pw.in

     Current dimensions of program PWSCF are:
     Max number of different atomic species (ntypx) = 10
     Max number of k-points (npk) =  40000
     Max angular momentum in pseudopotentials (lmaxx) =  4
     file C.pbe-n-kjpaw_psl.1.0.0.UPF: wavefunction(s)  2S 2P renormalized
     Message from routine volume:
     axis vectors are left-handed
     Message from routine setup:
     using ibrav=0 with symmetry is DISCOURAGED, use correct ibrav instead

     R & G space division:  proc/nbgrp/npool/nimage =       8
     Subspace diagonalization in iterative solution of the eigenvalue problem:
     a serial algorithm will be used


     Parallelization info
     --------------------
     sticks:   dense  smooth     PW     G-vecs:    dense   smooth      PW
     Min         230     115     32                39990    14143    2184
     Max         231     116     33                40009    14162    2203
     Sum        1845     921    263               320011   113195   17569

     Using Slab Decomposition



     bravais-lattice index     =            0
     lattice parameter (alat)  =       4.7744  a.u.
     unit-cell volume          =     980.5505 (a.u.)^3
     number of atoms/cell      =           16
     number of atomic types    =            2
     number of electrons       =        52.00
     number of Kohn-Sham states=           31
     kinetic-energy cutoff     =      90.0000  Ry
     charge density cutoff     =     720.0000  Ry
     scf convergence threshold =      1.0E-08
     mixing beta               =       0.3000
     number of iterations used =            8  plain     mixing
     Exchange-correlation= PBE
                           (   1   4   3   4   0   0   0)

     celldm(1)=   4.774375  celldm(2)=   0.000000  celldm(3)=   0.000000
     celldm(4)=   0.000000  celldm(5)=   0.000000  celldm(6)=   0.000000

     crystal axes: (cart. coord. in units of alat)
               a(1) = (   1.000000   0.000000   0.000000 )  
               a(2) = (   0.000000  -1.414214   0.000000 )  
               a(3) = (   0.000000   0.000000   6.370968 )  

     reciprocal axes: (cart. coord. in units 2 pi/alat)
               b(1) = (  1.000000 -0.000000 -0.000000 )  
               b(2) = ( -0.000000 -0.707107 -0.000000 )  
               b(3) = ( -0.000000 -0.000000  0.156962 )  


     PseudoPot. # 1 for C  read from file:
     ./C.pbe-n-kjpaw_psl.1.0.0.UPF
     MD5 check sum: 5d2aebdfa2cae82b50a7e79e9516da0f
     Pseudo is Projector augmented-wave + core cor, Zval =  4.0
     Generated using "atomic" code by A. Dal Corso  v.5.1
     Shape of augmentation charge: PSQ
     Using radial grid of 1073 points,  4 beta functions with: 
                l(1) =   0
                l(2) =   0
                l(3) =   1
                l(4) =   1
     Q(r) pseudized with 0 coefficients 


     PseudoPot. # 2 for H  read from file:
     ./H_ONCV_PBE-1.0.oncvpsp.upf
     MD5 check sum: 1790becc920ee074925cf490c71280fe
     Pseudo is Norm-conserving, Zval =  1.0
     Generated using ONCVPSP code by D. R. Hamann
     Using radial grid of 1166 points,  2 beta functions with: 
                l(1) =   0
                l(2) =   0

     atomic species   valence    mass     pseudopotential
     C                 4.00    12.01100     C ( 1.00)
     H                 1.00     1.00800     H ( 1.00)

      8 Sym. Ops., with inversion, found ( 6 have fractional translation)



   Cartesian axes

     site n.     atom                  positions (alat units)
         1        C      tau(   1) = (   0.0000000  -0.3611327   4.4253484  )
         2        C      tau(   2) = (   0.5000000  -0.6995275   4.4253484  )
         3        C      tau(   3) = (   0.5000000  -1.0618077   3.9365326  )
         4        C      tau(   4) = (   0.0000000   0.0011475   3.9365326  )
         5        C      tau(   5) = (   0.5000000  -0.7073633   3.4354096  )
         6        C      tau(   6) = (   0.0000000  -0.3532969   3.4354096  )
         7        C      tau(   7) = (   0.0000000  -0.0002565   2.9355580  )
         8        C      tau(   8) = (   0.5000000  -1.0604037   2.9355580  )
         9        C      tau(   9) = (   0.0000000  -0.3547009   2.4344350  )
        10        C      tau(  10) = (   0.5000000  -0.7059593   2.4344350  )
        11        C      tau(  11) = (   0.0000000   0.0075793   1.9456192  )
        12        C      tau(  12) = (   0.5000000  -1.0682395   1.9456192  )
        13        H      tau(  13) = (  -0.0000000  -0.1237988   4.7899589  )
        14        H      tau(  14) = (   0.5000000  -0.9368614   4.7899589  )
        15        H      tau(  15) = (  -0.0000000  -0.2297546   1.5810087  )
        16        H      tau(  16) = (   0.5000000  -0.8309056   1.5810087  )

     number of k points=    20  Marzari-Vanderbilt smearing, width (Ry)=  0.0100
                       cart. coord. in units 2pi/alat
        k(    1) = (   0.0000000  -0.0000000   0.0000000), wk =   0.0317460
        k(    2) = (   0.0000000  -0.1010153   0.0000000), wk =   0.0634921
        k(    3) = (   0.0000000  -0.2020305   0.0000000), wk =   0.0634921
        k(    4) = (   0.0000000  -0.3030458   0.0000000), wk =   0.0634921
        k(    5) = (   0.1111111  -0.0000000   0.0000000), wk =   0.0634921
        k(    6) = (   0.1111111  -0.1010153   0.0000000), wk =   0.1269841
        k(    7) = (   0.1111111  -0.2020305   0.0000000), wk =   0.1269841
        k(    8) = (   0.1111111  -0.3030458   0.0000000), wk =   0.1269841
        k(    9) = (   0.2222222  -0.0000000   0.0000000), wk =   0.0634921
        k(   10) = (   0.2222222  -0.1010153   0.0000000), wk =   0.1269841
        k(   11) = (   0.2222222  -0.2020305   0.0000000), wk =   0.1269841
        k(   12) = (   0.2222222  -0.3030458   0.0000000), wk =   0.1269841
        k(   13) = (   0.3333333  -0.0000000   0.0000000), wk =   0.0634921
        k(   14) = (   0.3333333  -0.1010153   0.0000000), wk =   0.1269841
        k(   15) = (   0.3333333  -0.2020305   0.0000000), wk =   0.1269841
        k(   16) = (   0.3333333  -0.3030458   0.0000000), wk =   0.1269841
        k(   17) = (   0.4444444  -0.0000000   0.0000000), wk =   0.0634921
        k(   18) = (   0.4444444  -0.1010153   0.0000000), wk =   0.1269841
        k(   19) = (   0.4444444  -0.2020305   0.0000000), wk =   0.1269841
        k(   20) = (   0.4444444  -0.3030458   0.0000000), wk =   0.1269841

     Dense  grid:   320011 G-vectors     FFT dimensions: (  48,  60, 270)

     Smooth grid:   113195 G-vectors     FFT dimensions: (  30,  48, 192)

     Estimated max dynamical RAM per process >      93.29 MB

     Estimated total dynamical RAM >     746.34 MB

     Initial potential from superposition of free atoms

     starting charge      51.9995, renormalised to      52.0000
     Starting wfcs are   52 randomized atomic wfcs
     Checking if some PAW data can be deallocated... 

     total cpu time spent up to now is        1.2 secs

     Self-consistent Calculation

     iteration #  1     ecut=    90.00 Ry     beta= 0.30
     Davidson diagonalization with overlap
     ethr =  1.00E-02,  avg # of iterations =  2.8

     total cpu time spent up to now is        3.1 secs

     total energy              =    -226.01400123 Ry
     estimated scf accuracy    <       1.19631142 Ry

     iteration #  2     ecut=    90.00 Ry     beta= 0.30
     Davidson diagonalization with overlap
     ethr =  2.30E-03,  avg # of iterations =  4.0

     negative rho (up, down):  1.893E-07 0.000E+00

     total cpu time spent up to now is        4.7 secs

     total energy              =    -225.92614831 Ry
     estimated scf accuracy    <       0.37519041 Ry

     iteration #  3     ecut=    90.00 Ry     beta= 0.30
     Davidson diagonalization with overlap
     ethr =  7.22E-04,  avg # of iterations =  5.2

     negative rho (up, down):  9.795E-07 0.000E+00

     total cpu time spent up to now is        6.4 secs

     total energy              =    -225.93938431 Ry
     estimated scf accuracy    <       0.05193642 Ry

     iteration #  4     ecut=    90.00 Ry     beta= 0.30
     Davidson diagonalization with overlap
     ethr =  9.99E-05,  avg # of iterations =  4.7

     negative rho (up, down):  1.887E-06 0.000E+00

     total cpu time spent up to now is        8.0 secs

     total energy              =    -225.94248146 Ry
     estimated scf accuracy    <       0.00515709 Ry

     iteration #  5     ecut=    90.00 Ry     beta= 0.30
     Davidson diagonalization with overlap
     ethr =  9.92E-06,  avg # of iterations =  7.8

     negative rho (up, down):  1.856E-06 0.000E+00

     total cpu time spent up to now is       10.1 secs

     total energy              =    -225.94306153 Ry
     estimated scf accuracy    <       0.00054528 Ry

     iteration #  6     ecut=    90.00 Ry     beta= 0.30
     Davidson diagonalization with overlap
     ethr =  1.05E-06,  avg # of iterations =  4.7

     negative rho (up, down):  2.040E-06 0.000E+00

     total cpu time spent up to now is       11.9 secs

     total energy              =    -225.94316910 Ry
     estimated scf accuracy    <       0.00008344 Ry

     iteration #  7     ecut=    90.00 Ry     beta= 0.30
     Davidson diagonalization with overlap
     ethr =  1.60E-07,  avg # of iterations =  2.6

     negative rho (up, down):  2.002E-06 0.000E+00

     total cpu time spent up to now is       13.5 secs

     total energy              =    -225.94317680 Ry
     estimated scf accuracy    <       0.00002756 Ry

     iteration #  8     ecut=    90.00 Ry     beta= 0.30
     Davidson diagonalization with overlap
     ethr =  5.30E-08,  avg # of iterations =  2.1

     negative rho (up, down):  2.026E-06 0.000E+00

     total cpu time spent up to now is       15.2 secs

     total energy              =    -225.94318129 Ry
     estimated scf accuracy    <       0.00000302 Ry

     iteration #  9     ecut=    90.00 Ry     beta= 0.30
     Davidson diagonalization with overlap
     ethr =  5.81E-09,  avg # of iterations =  2.5

     negative rho (up, down):  2.028E-06 0.000E+00

     total cpu time spent up to now is       16.8 secs

     total energy              =    -225.94318202 Ry
     estimated scf accuracy    <       0.00000220 Ry

     iteration # 10     ecut=    90.00 Ry     beta= 0.30
     Davidson diagonalization with overlap
     ethr =  4.22E-09,  avg # of iterations =  2.0

     negative rho (up, down):  2.039E-06 0.000E+00

     total cpu time spent up to now is       18.4 secs

     total energy              =    -225.94318215 Ry
     estimated scf accuracy    <       0.00000040 Ry

     iteration # 11     ecut=    90.00 Ry     beta= 0.30
     Davidson diagonalization with overlap
     ethr =  7.62E-10,  avg # of iterations =  3.1

     negative rho (up, down):  2.051E-06 0.000E+00

     total cpu time spent up to now is       20.2 secs

     total energy              =    -225.94318229 Ry
     estimated scf accuracy    <       0.00000008 Ry

     iteration # 12     ecut=    90.00 Ry     beta= 0.30
     Davidson diagonalization with overlap
     ethr =  1.62E-10,  avg # of iterations =  2.9

     negative rho (up, down):  2.059E-06 0.000E+00

     total cpu time spent up to now is       21.9 secs

     total energy              =    -225.94318226 Ry
     estimated scf accuracy    <       0.00000011 Ry

     iteration # 13     ecut=    90.00 Ry     beta= 0.30
     Davidson diagonalization with overlap
     ethr =  1.62E-10,  avg # of iterations =  2.5

     negative rho (up, down):  2.084E-06 0.000E+00

     total cpu time spent up to now is       23.5 secs

     End of self-consistent calculation

          k = 0.0000-0.0000 0.0000 ( 14181 PWs)   bands (ev):

   -15.9420 -14.8710 -13.1189 -10.9236  -8.7399  -7.6331  -7.3124  -6.3789
    -4.7952  -4.4569  -4.0230  -2.9530  -2.7195  -2.1144  -0.8893  -0.7084
    -0.3966  -0.0851   1.2055   1.7515   2.1456   2.7032   3.9704   3.9839
     4.3095   4.8265   6.9621   7.2331   9.7339  10.1582  10.8784

          k = 0.0000-0.1010 0.0000 ( 14153 PWs)   bands (ev):

   -15.7559 -14.6906 -12.9558 -10.8384  -9.5149  -9.2529  -6.8292  -5.9945
    -5.5503  -4.0501  -3.5728  -3.0031  -1.8734  -1.8512  -1.0239  -0.7135
     0.0649   0.2252   1.2938   1.5241   2.3527   2.6559   3.7001   3.7503
     4.1176   4.2645   7.1669   7.4708   9.9253  10.1301  11.0337

          k = 0.0000-0.2020 0.0000 ( 14130 PWs)   bands (ev):

   -15.2000 -14.1551 -12.4899 -11.4294 -10.6408 -10.5749  -7.3371  -6.7434
    -5.4360  -4.4045  -3.0387  -1.7293  -1.7267  -0.7570  -0.1935  -0.1606
     0.4416   0.5018   1.5352   2.0478   2.0515   2.4968   2.9839   3.0694
     3.3196   3.6076   7.8151   8.0577  10.2765  10.3916  10.8940

          k = 0.0000-0.3030 0.0000 ( 14112 PWs)   bands (ev):

   -14.2838 -13.3233 -12.9595 -12.1855 -11.5656 -10.9234  -7.7245  -7.0763
    -5.6656  -4.7103  -2.9625  -1.9354  -0.3870   0.1749   0.6450   0.7795
     1.1750   1.2042   1.7648   1.8152   2.0227   2.1499   2.1954   2.2685
     2.6498   2.7401   8.8621   8.9067   9.9305  10.3372  10.7437

          k = 0.1111-0.0000 0.0000 ( 14165 PWs)   bands (ev):

   -15.7159 -14.6475 -12.8994 -10.7095  -8.5339  -7.4322  -7.2459  -6.3203
    -4.7514  -4.2641  -3.8149  -2.7997  -2.6995  -1.9156  -1.9105  -1.0697
    -0.6360  -0.4125   0.2649   1.6460   1.7649   2.0938   3.0053   3.4921
     3.7454   4.2030   7.1762   7.4657   9.7792  10.9775  11.0013

          k = 0.1111-0.1010 0.0000 ( 14125 PWs)   bands (ev):

   -15.5303 -14.4677 -12.7372 -10.6263  -9.3323  -9.0587  -6.6764  -5.8608
    -5.4712  -3.9483  -3.4602  -2.9836  -1.8381  -1.7075  -1.6343  -1.0142
    -0.8082   0.1804   0.4238   1.4846   1.7439   2.0790   2.7505   2.7679
     3.7083   4.1386   7.4083   7.7036  10.0984  11.1999  11.4574

          k = 0.1111-0.2020 0.0000 ( 14130 PWs)   bands (ev):

   -14.9761 -13.9343 -12.2744 -11.2255 -10.4352 -10.3763  -7.1539  -6.5513
    -5.2821  -4.2676  -3.0182  -2.0881  -1.7483  -1.1242  -0.6389  -0.1679
    -0.0613   0.1635   1.0189   1.4634   1.5871   1.6560   1.8185   2.1350
     3.3023   3.9209   8.0720   8.3262  10.7216  11.2394  11.5076

          k = 0.1111-0.3030 0.0000 ( 14125 PWs)   bands (ev):

   -14.0631 -13.1063 -12.7452 -11.9745 -11.3574 -10.7201  -7.5241  -6.8814
    -5.4872  -4.5383  -2.8568  -1.8314  -1.0883  -0.3655  -0.2538   0.2005
     0.5459   0.6291   0.9518   1.1740   1.2338   1.6694   1.9662   2.3291
     2.7951   2.9117   9.1234   9.2398  10.4230  10.6147  11.5681

          k = 0.2222-0.0000 0.0000 ( 14140 PWs)   bands (ev):

   -15.0409 -13.9803 -12.2446 -10.0709  -7.9190  -7.3563  -6.8313  -6.4392
    -4.8898  -3.7056  -3.6041  -3.2076  -2.8717  -2.7313  -2.3733  -1.3789
    -1.3351  -0.6299  -0.4916   0.0759   1.1142   1.1993   1.5906   1.8066
     2.1475   3.7936   7.8906   8.1230  10.1126  10.2098  10.7573

          k = 0.2222-0.1010 0.0000 ( 14110 PWs)   bands (ev):

   -14.8570 -13.8027 -12.0855  -9.9946  -8.8526  -8.5023  -6.3920  -5.7342
    -5.5839  -3.9316  -3.5511  -3.4126  -2.4130  -2.3446  -1.8090  -1.2189
    -1.0759  -0.5581  -0.4136   0.3089   0.4677   0.6176   1.4132   1.6190
     2.9770   3.4219   8.1380   8.3738  10.6204  10.7650  10.9528

          k = 0.2222-0.2020 0.0000 ( 14113 PWs)   bands (ev):

   -14.3085 -13.2762 -11.6325 -10.6358  -9.8245  -9.7990  -6.6651  -6.0468
    -4.9206  -4.7572  -3.3460  -3.2934  -2.4746  -1.8227  -1.1651  -0.9288
    -0.5975  -0.4452  -0.3373   0.1661   0.2704   0.5964   1.0936   1.8549
     2.7172   3.3446   8.8124   9.0241  11.3445  11.8938  11.9887

          k = 0.2222-0.3030 0.0000 ( 14149 PWs)   bands (ev):

   -13.4071 -12.4619 -12.1120 -11.3501 -10.7404 -10.1165  -6.9591  -6.3311
    -5.0317  -4.0970  -3.7435  -2.7054  -2.4261  -2.1692  -1.5001  -1.3168
    -1.1323  -0.8326   0.2253   1.0532   1.1862   1.1894   1.3995   1.6883
     2.4077   2.7790   9.8107   9.9264  11.2046  11.2974  12.5645

          k = 0.3333-0.0000 0.0000 ( 14102 PWs)   bands (ev):

   -13.9287 -12.8819 -11.1674  -9.0211  -8.5932  -7.6389  -6.9050  -6.0500
    -5.8359  -4.0163  -3.9418  -3.1351  -2.8499  -2.2585  -1.9352  -1.8800
    -1.7863  -0.7898  -0.6642  -0.4966  -0.4162  -0.1076   0.2485   0.3653
     1.1779   3.0240   9.0569   9.0846   9.9374  10.2671  11.3505

          k = 0.3333-0.1010 0.0000 ( 14116 PWs)   bands (ev):

   -13.7486 -12.7089 -11.0145  -8.9809  -8.7774  -8.0038  -6.7284  -6.5848
    -6.1037  -4.2715  -3.9879  -3.1273  -3.0636  -2.2941  -1.9039  -1.6895
    -1.6407  -1.1636  -0.6637  -0.6103  -0.3387  -0.1989   0.5387   0.9697
     1.3717   2.8365   9.3021   9.4093  10.4082  10.6383  11.2966

          k = 0.3333-0.2020 0.0000 ( 14157 PWs)   bands (ev):

   -13.2132 -12.1979 -10.5817  -9.8304  -8.9850  -8.8387  -6.7492  -6.3075
    -6.2352  -4.8829  -4.1301  -3.7062  -3.4907  -3.1939  -2.4508  -2.0997
    -1.4826  -0.4472  -0.2494  -0.1552   0.0658   0.4222   0.5512   0.8729
     2.2358   2.3445   9.9335  10.0302  11.3890  11.6089  12.0401

          k = 0.3333-0.3030 0.0000 ( 14179 PWs)   bands (ev):

   -12.3412 -11.4185 -11.1131 -10.3558  -9.7495  -9.1431  -6.3061  -6.0180
    -5.6672  -5.4707  -4.8953  -4.4702  -3.6950  -3.3381  -2.8136  -2.7008
    -1.3873  -0.7230  -0.1947  -0.0403   0.6147   0.9705   1.2769   1.5011
     1.7779   2.3404  10.6715  10.7484  12.0712  12.1620  12.4483

          k = 0.4444-0.0000 0.0000 ( 14094 PWs)   bands (ev):

   -12.4076 -11.3815 -10.5498  -9.6982  -9.5534  -7.9120  -7.5889  -5.8448
    -5.5120  -4.4577  -3.7856  -2.9745  -2.7193  -2.3218  -1.8451  -1.4767
    -1.4403  -1.3228  -1.0768  -0.9612  -0.9479  -0.8535  -0.8200   0.1661
     0.7242   1.9413   9.7199  10.3292  10.4995  10.7533  10.9038

          k = 0.4444-0.1010 0.0000 ( 14140 PWs)   bands (ev):

   -12.2372 -11.2196 -10.4195  -9.5612  -9.4319  -7.8504  -7.4807  -5.8241
    -5.8186  -5.7005  -4.1533  -3.9932  -3.0937  -2.4162  -1.9518  -1.7202
    -1.4060  -1.1391  -0.8252  -0.7232  -0.6326  -0.3785  -0.1723   0.3104
     0.8425   1.9248  10.3336  10.3351  10.4696  10.9727  11.3522

          k = 0.4444-0.2020 0.0000 ( 14163 PWs)   bands (ev):

   -11.7392 -10.7499 -10.1254  -9.2404  -9.1031  -7.7968  -7.2955  -7.0170
    -6.6066  -5.8999  -5.5597  -5.1332  -3.3630  -3.3007  -2.2769  -2.0904
    -1.5630  -1.3186  -0.7831  -0.1660   0.0684   0.1489   0.5979   1.0413
     1.2784   1.8526  10.8690  11.0136  11.3134  11.4660  12.0078

          k = 0.4444-0.3030 0.0000 ( 14175 PWs)   bands (ev):

   -10.9756 -10.2326 -10.0107  -9.3309  -8.5495  -8.0151  -7.7638  -7.0656
    -6.8893  -6.6366  -6.1765  -6.0465  -3.6990  -3.3660  -2.7467  -2.3998
    -1.7395  -1.4593  -0.6532  -0.3130   0.2320   0.3378   1.3856   1.5115
     1.7338   1.8059  11.4224  11.4259  12.0324  12.1522  13.1178

     the Fermi energy is     5.5399 ev

!    total energy              =    -225.94318228 Ry
     estimated scf accuracy    <          1.8E-09 Ry
     smearing contrib. (-TS)   =       0.00000000 Ry
     internal energy E=F+TS    =    -225.94318228 Ry

     The total energy is F=E-TS. E is the sum of the following terms:
     one-electron contribution =   -1232.06131844 Ry
     hartree contribution      =     640.11923869 Ry
     xc contribution           =     -59.14318043 Ry
     ewald contribution        =     499.09920880 Ry
     one-center paw contrib.   =     -73.95713089 Ry

     convergence has been achieved in  13 iterations

     negative rho (up, down):  2.084E-06 0.000E+00

     Forces acting on atoms (cartesian axes, Ry/au):

     atom    1 type  1   force =     0.00000000    0.00007889    0.00004990
     atom    2 type  1   force =     0.00000000   -0.00007889    0.00004990
     atom    3 type  1   force =     0.00000000   -0.00004507   -0.00000515
     atom    4 type  1   force =     0.00000000    0.00004507   -0.00000515
     atom    5 type  1   force =     0.00000000    0.00006255   -0.00001515
     atom    6 type  1   force =     0.00000000   -0.00006255   -0.00001515
     atom    7 type  1   force =     0.00000000    0.00006255    0.00001515
     atom    8 type  1   force =     0.00000000   -0.00006255    0.00001515
     atom    9 type  1   force =     0.00000000   -0.00004507    0.00000515
     atom   10 type  1   force =     0.00000000    0.00004507    0.00000515
     atom   11 type  1   force =     0.00000000   -0.00007889   -0.00004990
     atom   12 type  1   force =     0.00000000    0.00007889   -0.00004990
     atom   13 type  2   force =     0.00000000   -0.00000003   -0.00002735
     atom   14 type  2   force =     0.00000000    0.00000003   -0.00002735
     atom   15 type  2   force =     0.00000000    0.00000003    0.00002735
     atom   16 type  2   force =     0.00000000   -0.00000003    0.00002735

     Total force =     0.000250     Total SCF correction =     0.000120
     SCF correction compared to forces is large: reduce conv_thr to get better values


     Computing stress (Cartesian axis) and pressure


     negative rho (up, down):  2.084E-06 0.000E+00
          total   stress  (Ry/bohr**3)                   (kbar)     P=       26.97
   0.00018063   0.00000000   0.00000000           26.57        0.00        0.00
   0.00000000   0.00037036   0.00000000            0.00       54.48        0.00
   0.00000000   0.00000000  -0.00000105            0.00        0.00       -0.16


     Writing all to output data dir /tmp/qe/slab.save/ :
     XML data file, charge density, pseudopotentials, collected wavefunctions

     init_run     :      1.05s CPU      1.12s WALL (       1 calls)
     electrons    :     22.04s CPU     22.35s WALL (       1 calls)
     forces       :      0.29s CPU      0.31s WALL (       1 calls)
     stress       :      3.33s CPU      3.34s WALL (       1 calls)

     Called by init_run:
     wfcinit      :      0.78s CPU      0.81s WALL (       1 calls)
     potinit      :      0.12s CPU      0.14s WALL (       1 calls)
     hinit0       :      0.06s CPU      0.06s WALL (       1 calls)

     Called by electrons:
     c_bands      :     16.74s CPU     16.94s WALL (      13 calls)
     sum_band     :      3.39s CPU      3.47s WALL (      13 calls)
     v_of_rho     :      0.67s CPU      0.70s WALL (      14 calls)
     newd         :      0.39s CPU      0.40s WALL (      14 calls)
     PAW_pot      :      0.86s CPU      0.87s WALL (      14 calls)
     mix_rho      :      0.06s CPU      0.07s WALL (      13 calls)

     Called by c_bands:
     init_us_2    :      0.49s CPU      0.50s WALL (     580 calls)
     cegterg      :     15.94s CPU     16.13s WALL (     260 calls)

     Called by *egterg:
     cdiaghg      :      1.03s CPU      1.05s WALL (    1196 calls)
     h_psi        :     12.58s CPU     12.75s WALL (    1216 calls)
     s_psi        :      0.67s CPU      0.68s WALL (    1216 calls)
     g_psi        :      0.08s CPU      0.08s WALL (     936 calls)

     Called by h_psi:
     h_psi:calbec :      0.73s CPU      0.75s WALL (    1216 calls)
     vloc_psi     :     10.96s CPU     11.10s WALL (    1216 calls)
     add_vuspsi   :      0.81s CPU      0.82s WALL (    1216 calls)

     General routines
     calbec       :      1.13s CPU      1.15s WALL (    1576 calls)
     fft          :      0.32s CPU      0.36s WALL (     205 calls)
     ffts         :      0.01s CPU      0.02s WALL (      27 calls)
     fftw         :      9.71s CPU      9.82s WALL (   52710 calls)
     interpolate  :      0.03s CPU      0.04s WALL (      14 calls)

     Parallel routines

     PWSCF        :     26.86s CPU     27.34s WALL


   This run was terminated on:  16:11: 2   2Aug2026            

=------------------------------------------------------------------------------=
   JOB DONE.
=------------------------------------------------------------------------------=
Note: The following floating-point exceptions are signalling: IEEE_UNDERFLOW_FLAG IEEE_DENORMAL
Note: The following floating-point exceptions are signalling: IEEE_UNDERFLOW_FLAG IEEE_DENORMAL
Note: The following floating-point exceptions are signalling: IEEE_UNDERFLOW_FLAG IEEE_DENORMAL
Note: The following floating-point exceptions are signalling: IEEE_UNDERFLOW_FLAG IEEE_DENORMAL
Note: The following floating-point exceptions are signalling: IEEE_UNDERFLOW_FLAG IEEE_DENORMAL
Note: The following floating-point exceptions are signalling: IEEE_UNDERFLOW_FLAG IEEE_DENORMAL
Note: The following floating-point exceptions are signalling: IEEE_UNDERFLOW_FLAG IEEE_DENORMAL
Note: The following floating-point exceptions are signalling: IEEE_UNDERFLOW_FLAG IEEE_DENORMAL
