
     Program PWSCF v.7.3.1 starts on  2Aug2026 at 16:11:34 

     This program is part of the open-source Quantum ESPRESSO suite
     for quantum simulation of materials; please cite
         "P. Giannozzi et al., J. Phys.:Condens. Matter 21 395502 (2009);
         "P. Giannozzi et al., J. Phys.:Condens. Matter 29 465901 (2017);
         "P. Giannozzi et al., J. Chem. Phys. 152 154105 (2020);
          URL http://www.quantum-espresso.org", 
     in publications or presentations arising from this work. More details at
     http://www.quantum-espresso.org/quote

     Parallel version (MPI), running on     8 processors

     MPI processes distributed on     1 nodes
     183944 MiB available memory on the printing compute node when the environment starts

     Reading input from pw.in

     Current dimensions of program PWSCF are:
     Max number of different atomic species (ntypx) = 10
     Max number of k-points (npk) =  40000
     Max angular momentum in pseudopotentials (lmaxx) =  4
     file C.pbe-n-kjpaw_psl.1.0.0.UPF: wavefunction(s)  2S 2P renormalized
     Message from routine volume:
     axis vectors are left-handed
     Message from routine setup:
     using ibrav=0 with symmetry is DISCOURAGED, use correct ibrav instead

     R & G space division:  proc/nbgrp/npool/nimage =       8
     Subspace diagonalization in iterative solution of the eigenvalue problem:
     a serial algorithm will be used


     Parallelization info
     --------------------
     sticks:   dense  smooth     PW     G-vecs:    dense   smooth      PW
     Min         230     115     32                71362    25231    3886
     Max         231     116     33                71395    25266    3921
     Sum        1845     921    263               571055   201931   31267

     Using Slab Decomposition



     bravais-lattice index     =            0
     lattice parameter (alat)  =       4.7744  a.u.
     unit-cell volume          =    1750.0964 (a.u.)^3
     number of atoms/cell      =           36
     number of atomic types    =            2
     number of electrons       =       132.00
     number of Kohn-Sham states=           79
     kinetic-energy cutoff     =      90.0000  Ry
     charge density cutoff     =     720.0000  Ry
     scf convergence threshold =      1.0E-08
     mixing beta               =       0.3000
     number of iterations used =            8  plain     mixing
     Exchange-correlation= PBE
                           (   1   4   3   4   0   0   0)

     celldm(1)=   4.774375  celldm(2)=   0.000000  celldm(3)=   0.000000
     celldm(4)=   0.000000  celldm(5)=   0.000000  celldm(6)=   0.000000

     crystal axes: (cart. coord. in units of alat)
               a(1) = (   1.000000   0.000000   0.000000 )  
               a(2) = (   0.000000  -1.414214   0.000000 )  
               a(3) = (   0.000000   0.000000  11.370968 )  

     reciprocal axes: (cart. coord. in units 2 pi/alat)
               b(1) = (  1.000000 -0.000000 -0.000000 )  
               b(2) = ( -0.000000 -0.707107 -0.000000 )  
               b(3) = ( -0.000000 -0.000000  0.087943 )  


     PseudoPot. # 1 for C  read from file:
     ./C.pbe-n-kjpaw_psl.1.0.0.UPF
     MD5 check sum: 5d2aebdfa2cae82b50a7e79e9516da0f
     Pseudo is Projector augmented-wave + core cor, Zval =  4.0
     Generated using "atomic" code by A. Dal Corso  v.5.1
     Shape of augmentation charge: PSQ
     Using radial grid of 1073 points,  4 beta functions with: 
                l(1) =   0
                l(2) =   0
                l(3) =   1
                l(4) =   1
     Q(r) pseudized with 0 coefficients 


     PseudoPot. # 2 for H  read from file:
     ./H_ONCV_PBE-1.0.oncvpsp.upf
     MD5 check sum: 1790becc920ee074925cf490c71280fe
     Pseudo is Norm-conserving, Zval =  1.0
     Generated using ONCVPSP code by D. R. Hamann
     Using radial grid of 1166 points,  2 beta functions with: 
                l(1) =   0
                l(2) =   0

     atomic species   valence    mass     pseudopotential
     C                 4.00    12.01100     C ( 1.00)
     H                 1.00     1.00800     H ( 1.00)

      8 Sym. Ops., with inversion, found ( 6 have fractional translation)



   Cartesian axes

     site n.     atom                  positions (alat units)
         1        C      tau(   1) = (  -0.0000000  -0.3611154   9.4253581  )
         2        C      tau(   2) = (   0.5000000  -0.6995448   9.4253581  )
         3        C      tau(   3) = (   0.5000000  -1.0618021   8.9364982  )
         4        C      tau(   4) = (   0.0000000   0.0011419   8.9364982  )
         5        C      tau(   5) = (  -0.0000000  -0.3533220   8.4353776  )
         6        C      tau(   6) = (   0.5000000  -0.7073382   8.4353776  )
         7        C      tau(   7) = (   0.5000000  -1.0606520   7.9354827  )
         8        C      tau(   8) = (  -0.0000000  -0.0000082   7.9354827  )
         9        C      tau(   9) = (   0.5000000  -0.7070995   7.4354899  )
        10        C      tau(  10) = (  -0.0000000  -0.3535607   7.4354899  )
        11        C      tau(  11) = (   0.0000000  -0.0000032   6.9354853  )
        12        C      tau(  12) = (   0.5000000  -1.0606569   6.9354853  )
        13        C      tau(  13) = (   0.5000000  -0.7071070   6.4354686  )
        14        C      tau(  14) = (   0.0000000  -0.3535532   6.4354686  )
        15        C      tau(  15) = (   0.5000000  -1.0606634   5.9354744  )
        16        C      tau(  16) = (   0.0000000   0.0000032   5.9354744  )
        17        C      tau(  17) = (   0.5000000  -0.7071036   5.4354932  )
        18        C      tau(  18) = (   0.0000000  -0.3535566   5.4354932  )
        19        C      tau(  19) = (   0.0000000  -0.0000002   4.9354990  )
        20        C      tau(  20) = (   0.5000000  -1.0606600   4.9354990  )
        21        C      tau(  21) = (   0.5000000  -0.7071100   4.4354823  )
        22        C      tau(  22) = (  -0.0000000  -0.3535502   4.4354823  )
        23        C      tau(  23) = (  -0.0000000   0.0000073   3.9354777  )
        24        C      tau(  24) = (   0.5000000  -1.0606674   3.9354777  )
        25        C      tau(  25) = (   0.5000000  -0.7071149   3.4354849  )
        26        C      tau(  26) = (  -0.0000000  -0.3535452   3.4354849  )
        27        C      tau(  27) = (   0.0000000  -0.0002314   2.9355900  )
        28        C      tau(  28) = (   0.5000000  -1.0604288   2.9355900  )
        29        C      tau(  29) = (   0.5000000  -0.7059649   2.4344694  )
        30        C      tau(  30) = (   0.0000000  -0.3546953   2.4344694  )
        31        C      tau(  31) = (   0.0000000   0.0075620   1.9456095  )
        32        C      tau(  32) = (   0.5000000  -1.0682222   1.9456095  )
        33        H      tau(  33) = (  -0.0000000  -0.1237531   9.7899421  )
        34        H      tau(  34) = (   0.5000000  -0.9369071   9.7899421  )
        35        H      tau(  35) = (  -0.0000000  -0.2298003   1.5810255  )
        36        H      tau(  36) = (   0.5000000  -0.8308599   1.5810255  )

     number of k points=    20  Marzari-Vanderbilt smearing, width (Ry)=  0.0100
                       cart. coord. in units 2pi/alat
        k(    1) = (   0.0000000  -0.0000000   0.0000000), wk =   0.0317460
        k(    2) = (   0.0000000  -0.1010153   0.0000000), wk =   0.0634921
        k(    3) = (   0.0000000  -0.2020305   0.0000000), wk =   0.0634921
        k(    4) = (   0.0000000  -0.3030458   0.0000000), wk =   0.0634921
        k(    5) = (   0.1111111  -0.0000000   0.0000000), wk =   0.0634921
        k(    6) = (   0.1111111  -0.1010153   0.0000000), wk =   0.1269841
        k(    7) = (   0.1111111  -0.2020305   0.0000000), wk =   0.1269841
        k(    8) = (   0.1111111  -0.3030458   0.0000000), wk =   0.1269841
        k(    9) = (   0.2222222  -0.0000000   0.0000000), wk =   0.0634921
        k(   10) = (   0.2222222  -0.1010153   0.0000000), wk =   0.1269841
        k(   11) = (   0.2222222  -0.2020305   0.0000000), wk =   0.1269841
        k(   12) = (   0.2222222  -0.3030458   0.0000000), wk =   0.1269841
        k(   13) = (   0.3333333  -0.0000000   0.0000000), wk =   0.0634921
        k(   14) = (   0.3333333  -0.1010153   0.0000000), wk =   0.1269841
        k(   15) = (   0.3333333  -0.2020305   0.0000000), wk =   0.1269841
        k(   16) = (   0.3333333  -0.3030458   0.0000000), wk =   0.1269841
        k(   17) = (   0.4444444  -0.0000000   0.0000000), wk =   0.0634921
        k(   18) = (   0.4444444  -0.1010153   0.0000000), wk =   0.1269841
        k(   19) = (   0.4444444  -0.2020305   0.0000000), wk =   0.1269841
        k(   20) = (   0.4444444  -0.3030458   0.0000000), wk =   0.1269841

     Dense  grid:   571055 G-vectors     FFT dimensions: (  48,  60, 480)

     Smooth grid:   201931 G-vectors     FFT dimensions: (  30,  48, 360)

     Estimated max dynamical RAM per process >     286.90 MB

     Estimated total dynamical RAM >       2.24 GB

     Check: negative core charge=   -0.000001

     Initial potential from superposition of free atoms

     starting charge     131.9986, renormalised to     132.0000
     Starting wfcs are  132 randomized atomic wfcs
     Checking if some PAW data can be deallocated... 

     total cpu time spent up to now is        4.8 secs

     Self-consistent Calculation

     iteration #  1     ecut=    90.00 Ry     beta= 0.30
     Davidson diagonalization with overlap
     ethr =  1.00E-02,  avg # of iterations =  2.7

     total cpu time spent up to now is       14.3 secs

     total energy              =    -594.84357527 Ry
     estimated scf accuracy    <       2.29025661 Ry

     iteration #  2     ecut=    90.00 Ry     beta= 0.30
     Davidson diagonalization with overlap
     ethr =  1.74E-03,  avg # of iterations =  4.7

     negative rho (up, down):  5.470E-07 0.000E+00

     total cpu time spent up to now is       22.1 secs

     total energy              =    -594.56942589 Ry
     estimated scf accuracy    <       0.84384347 Ry

     iteration #  3     ecut=    90.00 Ry     beta= 0.30
     Davidson diagonalization with overlap
     ethr =  6.39E-04,  avg # of iterations =  7.1

     negative rho (up, down):  1.113E-06 0.000E+00

     total cpu time spent up to now is       31.2 secs

     total energy              =    -594.61605449 Ry
     estimated scf accuracy    <       0.06693795 Ry

     iteration #  4     ecut=    90.00 Ry     beta= 0.30
     Davidson diagonalization with overlap
     c_bands:  1 eigenvalues not converged
     c_bands:  2 eigenvalues not converged
     ethr =  5.07E-05,  avg # of iterations = 11.3

     negative rho (up, down):  1.447E-06 0.000E+00

     total cpu time spent up to now is       43.0 secs

     total energy              =    -594.62358248 Ry
     estimated scf accuracy    <       0.00803398 Ry

     iteration #  5     ecut=    90.00 Ry     beta= 0.30
     Davidson diagonalization with overlap
     c_bands:  1 eigenvalues not converged
     ethr =  6.09E-06,  avg # of iterations =  9.9

     negative rho (up, down):  1.830E-06 0.000E+00

     total cpu time spent up to now is       54.3 secs

     total energy              =    -594.62453773 Ry
     estimated scf accuracy    <       0.00167483 Ry

     iteration #  6     ecut=    90.00 Ry     beta= 0.30
     Davidson diagonalization with overlap
     c_bands:  2 eigenvalues not converged
     c_bands:  1 eigenvalues not converged
     ethr =  1.27E-06,  avg # of iterations =  8.6

     negative rho (up, down):  2.079E-06 0.000E+00

     total cpu time spent up to now is       64.1 secs

     total energy              =    -594.62463823 Ry
     estimated scf accuracy    <       0.00043657 Ry

     iteration #  7     ecut=    90.00 Ry     beta= 0.30
     Davidson diagonalization with overlap
     ethr =  3.31E-07,  avg # of iterations =  3.0

     negative rho (up, down):  2.261E-06 0.000E+00

     total cpu time spent up to now is       71.4 secs

     total energy              =    -594.62468272 Ry
     estimated scf accuracy    <       0.00005687 Ry

     iteration #  8     ecut=    90.00 Ry     beta= 0.30
     Davidson diagonalization with overlap
     ethr =  4.31E-08,  avg # of iterations =  2.1

     negative rho (up, down):  2.249E-06 0.000E+00

     total cpu time spent up to now is       79.5 secs

     total energy              =    -594.62469146 Ry
     estimated scf accuracy    <       0.00000563 Ry

     iteration #  9     ecut=    90.00 Ry     beta= 0.30
     Davidson diagonalization with overlap
     ethr =  4.26E-09,  avg # of iterations =  2.8

     negative rho (up, down):  2.255E-06 0.000E+00

     total cpu time spent up to now is       88.2 secs

     total energy              =    -594.62469286 Ry
     estimated scf accuracy    <       0.00000100 Ry

     iteration # 10     ecut=    90.00 Ry     beta= 0.30
     Davidson diagonalization with overlap
     ethr =  7.56E-10,  avg # of iterations =  2.9

     negative rho (up, down):  2.255E-06 0.000E+00

     total cpu time spent up to now is       96.9 secs

     total energy              =    -594.62469309 Ry
     estimated scf accuracy    <       0.00000029 Ry

     iteration # 11     ecut=    90.00 Ry     beta= 0.30
     Davidson diagonalization with overlap
     ethr =  2.17E-10,  avg # of iterations =  2.1

     negative rho (up, down):  2.264E-06 0.000E+00

     total cpu time spent up to now is      104.5 secs

     total energy              =    -594.62469315 Ry
     estimated scf accuracy    <       0.00000003 Ry

     iteration # 12     ecut=    90.00 Ry     beta= 0.30
     Davidson diagonalization with overlap
     ethr =  2.58E-11,  avg # of iterations =  3.5

     negative rho (up, down):  2.273E-06 0.000E+00

     total cpu time spent up to now is      113.5 secs

     total energy              =    -594.62469316 Ry
     estimated scf accuracy    <       0.00000001 Ry

     iteration # 13     ecut=    90.00 Ry     beta= 0.30
     Davidson diagonalization with overlap
     ethr =  1.02E-11,  avg # of iterations =  2.8

     negative rho (up, down):  2.300E-06 0.000E+00

     total cpu time spent up to now is      121.6 secs

     End of self-consistent calculation

          k = 0.0000-0.0000 0.0000 ( 25313 PWs)   bands (ev):

   -12.6574 -12.4690 -12.1575 -11.7227 -11.1666 -10.4919  -9.7066  -8.8254
    -7.8704  -6.8719  -5.8751  -4.9670  -4.3088  -4.0328  -4.0034  -3.9865
    -3.9782  -3.8198  -3.5440  -3.1581  -2.6619  -2.0543  -1.3385  -0.8468
    -0.8032  -0.5241  -0.4442  -0.2099   0.1493   0.3740   0.6415   0.9146
     1.3412   1.5145   1.8035   2.1700   2.3699   2.4675   2.6191   2.7803
     2.8666   3.2070   3.4580   3.6346   3.8139   4.1410   4.5953   4.7103
     4.8732   5.3190   5.7494   5.9237   5.9384   6.5382   6.8552   6.9197
     7.0915   7.5783   7.7961   7.8060   7.9840   8.2987   8.4393   8.4577
     8.5188   8.6464  10.4739  10.9366  13.1204  13.5039  13.6550  13.8526
    13.9027  14.2369  14.3461  14.3588  14.5090  14.5513  14.6323

          k = 0.0000-0.1010 0.0000 ( 25273 PWs)   bands (ev):

   -12.4699 -12.2821 -11.9715 -11.5384 -10.9846 -10.3136  -9.5345  -8.6646
    -7.7331  -6.7928  -6.1658  -6.0483  -5.9279  -5.7963  -5.5202  -5.4670
    -3.1649  -3.1524  -2.6667  -2.5866  -1.9855  -1.9181  -1.7215  -1.6854
    -1.0406  -0.1736   0.1598   0.3016   0.6567   0.9334   1.1003   1.1426
     1.7037   1.7938   2.1304   2.3756   2.5508   2.6493   2.7974   3.0387
     3.1119   3.3696   3.5660   3.7832   4.0396   4.2697   4.7041   4.8107
     4.9693   5.3798   5.8372   5.8893   5.9446   6.4716   6.7677   6.8567
     6.9329   7.3104   7.5495   7.5967   7.6445   7.7938   7.9137   7.9742
     8.1024   8.2507  10.6947  11.1490  13.1883  13.2395  13.7499  13.9621
    14.3211  14.3862  14.6073  14.7290  14.9035  15.1583  15.2009

          k = 0.0000-0.2020 0.0000 ( 25208 PWs)   bands (ev):

   -11.9095 -11.7236 -11.4163 -10.9885 -10.4432  -9.7860  -9.0321  -8.2214
    -8.0780  -7.9189  -7.6353  -7.4377  -7.2096  -6.9155  -6.6333  -6.5341
    -3.9882  -3.8137  -3.4775  -3.0257  -2.6234  -2.0043  -1.5979  -0.9190
    -0.5066   0.0648   0.5621   0.6062   1.5119   1.8222   2.1125   2.4670
     2.5391   2.8095   2.9184   3.0664   3.1889   3.3040   3.3257   3.5470
     3.7319   3.8471   4.2159   4.2828   4.3524   4.6387   5.0078   5.0902
     5.2898   5.5360   5.6948   5.9370   6.0621   6.2594   6.3617   6.4852
     6.6102   6.6310   6.6504   6.6719   6.6893   6.6898   7.0782   7.1420
     7.3841   7.4015  11.3366  11.7368  13.1048  13.4372  13.9203  14.1808
    14.2303  14.3816  14.8203  15.0219  15.1727  15.5479  15.6994

          k = 0.0000-0.3030 0.0000 ( 25190 PWs)   bands (ev):

   -10.9826 -10.8008 -10.5015 -10.0881  -9.7001  -9.5934  -9.4935  -9.2466
    -8.9233  -8.8366  -8.3257  -8.2344  -7.7421  -7.5529  -7.1808  -7.0606
    -4.4422  -4.2245  -3.8898  -3.4039  -2.9639  -2.3631  -1.8554  -1.2017
    -0.6572   0.0289   0.5710   1.2683   1.7636   2.3975   2.8474   3.4342
     3.6161   3.9820   4.0662   4.1313   4.1812   4.3009   4.3636   4.5336
     4.6036   4.7731   4.8647   4.8850   5.0945   5.1769   5.2452   5.3130
     5.4015   5.4443   5.4670   5.4875   5.6162   5.6868   5.6902   5.8025
     5.8512   5.8969   5.9363   5.9405   5.9545   6.1050   6.1392   6.2077
     6.2954   6.3050  12.3399  12.5837  13.3355  13.4130  13.6273  13.8064
    14.1012  14.4715  14.6171  14.9427  15.2349  15.5534  15.7084

          k = 0.1111-0.0000 0.0000 ( 25269 PWs)   bands (ev):

   -12.4306 -12.2426 -11.9317 -11.4979 -10.9430 -10.2697  -9.4862  -8.6072
    -7.6547  -6.6594  -5.6666  -4.7632  -4.1091  -3.9179  -3.8312  -3.8027
    -3.7770  -3.7529  -3.4799  -3.0979  -2.6068  -2.0053  -1.2968  -0.6516
    -0.6007  -0.4908  -0.2618  -0.0060   0.3147   0.3977   0.8432   1.0580
     1.3535   1.4351   1.5930   1.7114   1.8510   1.9171   2.2055   2.3615
     2.3689   2.6502   2.8531   3.1749   3.4412   3.7626   3.8291   4.3871
     4.5574   4.8064   5.0171   5.6034   5.6963   5.7399   6.1538   6.5733
     6.6161   6.7352   6.9975   7.2406   7.2418   7.4412   7.4568   7.6729
     7.7617   8.3337  10.7050  11.1383  13.2968  13.9828  14.0018  14.0475
    14.2718  14.4018  14.6389  14.7091  15.0354  15.1696  15.2770

          k = 0.1111-0.1010 0.0000 ( 25219 PWs)   bands (ev):

   -12.2436 -12.0562 -11.7463 -11.3141 -10.7616 -10.0922  -9.3150  -8.4475
    -7.5191  -6.5828  -5.9825  -5.8604  -5.7303  -5.6136  -5.3362  -5.2762
    -3.0160  -2.9984  -2.5247  -2.4470  -1.8975  -1.7856  -1.6837  -1.6683
    -0.9185  -0.0735   0.2439   0.3589   0.6762   0.9960   1.1725   1.1727
     1.6553   1.7177   1.8780   1.9278   2.1740   2.1835   2.4665   2.5489
     2.5718   2.9023   3.0913   3.3948   3.5708   3.9371   3.9758   4.4993
     4.6818   4.8460   5.0463   5.5456   5.6255   5.7135   5.9844   6.1509
     6.2610   6.3408   6.4186   6.4348   6.9356   6.9579   7.6017   7.6258
     8.0791   8.1952  10.9404  11.3726  13.5479  13.9240  14.6439  14.6693
    14.7424  14.8258  14.9241  15.1778  15.2743  15.2976  15.4266

          k = 0.1111-0.2020 0.0000 ( 25224 PWs)   bands (ev):

   -11.6847 -11.4993 -11.1928 -10.7662 -10.2224  -9.5671  -8.8156  -8.0084
    -7.8726  -7.7147  -7.4328  -7.2308  -7.0075  -6.7159  -6.4326  -6.3368
    -3.7980  -3.6187  -3.2964  -2.8360  -2.4523  -1.8284  -1.4419  -0.7775
    -0.3836   0.0522   0.3347   0.6370   1.3702   1.5722   1.9154   1.9217
     2.2410   2.2972   2.6456   2.7727   2.7774   3.1828   3.2215   3.2358
     3.2995   3.5089   3.8270   3.9406   4.2019   4.2204   4.5105   4.7166
     4.8159   4.8598   5.0704   5.1129   5.1560   5.2692   5.2744   5.2911
     5.3495   5.3622   5.7094   6.0021   6.3962   6.6832   7.1985   7.4948
     7.6850   7.7243  11.6001  11.9974  13.9163  14.0586  14.7015  14.9291
    15.0193  15.3300  15.5554  15.7889  15.9616  16.0363  16.0421

          k = 0.1111-0.3030 0.0000 ( 25197 PWs)   bands (ev):

   -10.7609 -10.5797 -10.2814  -9.8694  -9.4842  -9.3769  -9.2782  -9.0327
    -8.7094  -8.6247  -8.1164  -8.0236  -7.5360  -7.3464  -6.9785  -6.8587
    -4.2383  -4.0207  -3.6932  -3.2061  -2.7766  -2.1734  -1.6802  -1.0237
    -0.5006   0.1855   0.6892   1.3453   1.7577   1.9134   2.5309   2.6050
     2.8544   2.9852   3.1548   3.3342   3.3407   3.7333   3.7450   3.7868
     3.9225   4.0784   4.2220   4.2843   4.3508   4.3756   4.6298   4.6432
     4.7575   4.8839   4.9119   4.9627   5.0417   5.1626   5.3118   5.4177
     5.4482   5.4808   5.6267   5.9032   6.1611   6.2120   6.4439   6.4660
     6.6152   6.6179  12.6289  12.9173  14.0087  14.0647  14.1768  14.6032
    14.6706  15.1561  15.5861  15.6154  15.9694  16.3613  16.4666

          k = 0.2222-0.0000 0.0000 ( 25240 PWs)   bands (ev):

   -11.7533 -11.5665 -11.2576 -10.8267 -10.2755  -9.6068  -8.8289  -7.9563
    -7.0117  -6.0258  -5.0444  -4.1545  -4.0265  -3.8639  -3.5949  -3.5117
    -3.2298  -3.2184  -3.2008  -3.1755  -2.7343  -2.1414  -1.4428  -0.6482
    -0.2693  -0.1052  -0.0855  -0.0127   0.1623   0.2278   0.2632   0.5290
     0.5865   0.7839   0.9863   1.1698   1.4208   1.4609   1.5220   2.1127
     2.1711   2.2053   2.2862   2.7308   2.9202   2.9990   3.2245   3.3345
     3.7754   3.8848   4.3157   4.3529   4.4822   4.7119   4.9735   5.0683
     5.1329   5.2366   5.2847   5.4307   5.5009   5.7781   5.9235   6.4599
     7.3236   7.8982  11.4258  11.7788  13.3583  13.3752  13.6015  13.7364
    14.1141  14.2971  14.3576  14.6064  15.0582  15.1087  15.4015

          k = 0.2222-0.1010 0.0000 ( 25190 PWs)   bands (ev):

   -11.5680 -11.3818 -11.0740 -10.6448 -10.0963  -9.4318  -8.6606  -7.8003
    -6.8809  -5.9576  -5.5049  -5.3682  -5.1475  -5.1296  -4.8345  -4.7325
    -2.7201  -2.7065  -2.2869  -2.2388  -2.1795  -2.0899  -2.0536  -1.5150
    -0.6856  -0.2354  -0.0792   0.1810   0.2507   0.4604   0.5013   0.5074
     0.9934   1.2371   1.4458   1.5082   1.7380   1.9309   2.0187   2.3676
     2.4721   2.5269   2.5466   2.8912   3.1004   3.2550   3.3947   3.4648
     3.6814   3.9453   3.9890   3.9986   4.0106   4.0969   4.2354   4.2924
     4.4349   4.7587   5.2182   5.5883   6.0233   6.2872   6.6792   6.7914
     7.1493   7.5149  11.6720  12.0327  14.0249  14.0702  14.1482  14.2716
    14.3647  14.6594  14.7117  14.7597  15.0661  15.3290  15.4623

          k = 0.2222-0.2020 0.0000 ( 25183 PWs)   bands (ev):

   -11.0145 -10.8305 -10.5265 -10.1034  -9.5643  -8.9149  -8.1708  -7.3757
    -7.2783  -7.1248  -6.8475  -6.6217  -6.4161  -6.1341  -5.8391  -5.7580
    -3.2798  -3.0847  -2.8097  -2.3338  -2.0081  -1.4688  -1.2853  -1.1669
    -1.0961  -1.0784  -0.1823   0.0867   0.3919   0.5787   0.7985   1.0457
     1.4572   1.4711   1.9961   2.1593   2.1855   2.3872   2.4608   2.5158
     2.7781   2.8768   2.9646   3.2387   3.2733   3.3437   3.4093   3.5091
     3.5603   3.6795   3.7377   3.7722   3.9524   4.0855   4.1692   4.2454
     4.5127   4.6260   5.1381   5.4955   5.9148   6.2362   6.5626   6.8828
     7.2171   7.2482  12.3435  12.6849  14.8524  14.9969  15.2127  15.2246
    15.4328  15.4913  15.6886  15.6922  15.7901  15.8153  15.9377

          k = 0.2222-0.3030 0.0000 ( 25231 PWs)   bands (ev):

   -10.1018  -9.9224  -9.6272  -9.2196  -8.8466  -8.7350  -8.6410  -8.4007
    -8.0740  -7.9990  -7.4984  -7.3978  -6.9273  -6.7330  -6.3786  -6.2580
    -3.6570  -3.4370  -3.1375  -2.6430  -2.2571  -1.6456  -1.2240  -0.5872
    -0.3036  -0.2355  -0.1685  -0.0688   0.6056   0.8472   0.9265   1.0324
     1.1370   1.1638   1.3432   1.5902   1.9637   2.0443   2.1076   2.2574
     2.4832   2.5255   2.7221   2.8429   2.9131   3.2586   3.6479   4.1721
     4.4693   4.4895   4.5348   4.6805   4.8282   4.8334   5.0518   5.0903
     5.1210   5.2255   5.2395   5.2589   5.4674   5.8424   6.2311   6.3338
     6.5363   6.5568  13.3381  13.5783  14.8039  14.8691  15.4790  15.8330
    15.9455  16.0755  16.0936  16.3326  16.3762  16.5182  16.6645

          k = 0.3333-0.0000 0.0000 ( 25202 PWs)   bands (ev):

   -10.6373 -10.4526 -10.1472  -9.7213  -9.1766  -8.5159  -7.7475  -6.8860
    -5.9543  -5.2750  -5.1059  -4.9833  -4.8263  -4.4359  -4.0194  -3.9353
    -3.3252  -3.1490  -2.6108  -2.5221  -2.2380  -2.1999  -2.1793  -1.8037
    -0.9214  -0.5919  -0.4390  -0.1907   0.0140   0.1470   0.5624   0.7830
     0.8889   0.9760   1.0406   1.0615   1.4226   1.5459   1.5544   1.8992
     1.9559   2.0672   2.3597   2.4995   2.5361   2.5945   2.8954   2.9354
     2.9874   3.0027   3.0064   3.1862   3.2484   3.4121   3.5432   3.6919
     3.7969   3.8499   3.9019   3.9307   3.9311   4.0205   4.8329   5.7592
     6.5737   7.1242  12.5543  12.7186  13.0150  13.0580  13.3924  13.5105
    14.0351  14.2150  14.5815  15.1408  15.3671  15.4166  15.6513

          k = 0.3333-0.1010 0.0000 ( 25204 PWs)   bands (ev):

   -10.4556 -10.2716  -9.9676  -9.5437  -9.0021  -8.3462  -7.5852  -6.7371
    -5.8333  -5.4813  -5.3179  -5.0663  -4.9152  -4.6975  -4.2772  -4.2040
    -3.1896  -3.1642  -3.0303  -3.0188  -2.8437  -2.7756  -2.6639  -1.9237
    -1.0837  -0.4221  -0.2985  -0.1485  -0.0831   0.2558   0.4638   0.7207
     0.8026   0.8698   0.9040   1.4408   1.5765   1.5988   1.6654   1.7574
     1.7647   1.9617   2.0460   2.3474   2.4021   2.5644   2.7226   2.7619
     2.8275   2.9858   3.0480   3.0917   3.2201   3.3830   3.4410   3.7105
     3.9348   3.9540   4.4217   4.5941   4.8016   5.0175   5.1533   5.5697
     6.3839   6.9328  12.8314  13.0607  13.6823  13.7010  13.8634  13.9156
    14.1820  14.3366  14.6737  14.7364  15.2138  15.3889  15.5861

          k = 0.3333-0.2020 0.0000 ( 25253 PWs)   bands (ev):

    -9.9146  -9.7332  -9.4337  -9.0169  -8.4860  -7.8469  -7.1155  -6.4889
    -6.3299  -6.3248  -6.0471  -5.7428  -5.4878  -5.3050  -4.8968  -4.8933
    -3.3894  -3.2356  -3.0053  -2.8280  -2.7691  -2.6148  -2.4850  -2.4115
    -1.6966  -0.9263  -0.6184  -0.6074  -0.2834  -0.0864   0.0096   0.0616
     0.1488   0.1896   0.3800   0.4174   0.5474   1.0499   1.2147   1.5858
     1.7551   1.9459   2.2460   2.7429   2.8977   3.0579   3.0806   3.3421
     3.3744   3.4641   3.6102   3.7078   3.7638   3.8361   3.8787   3.9496
     4.1135   4.4057   4.4114   4.7497   5.1597   5.4826   5.8620   5.9906
     6.2769   6.4490  13.4652  13.6783  14.6938  14.7155  14.9595  15.0444
    15.3740  15.3962  15.5359  15.5996  15.7155  15.7859  15.8387

          k = 0.3333-0.3030 0.0000 ( 25293 PWs)   bands (ev):

    -9.0303  -8.8542  -8.5646  -8.1649  -7.8424  -7.7085  -7.6232  -7.4047
    -7.0460  -7.0139  -6.5251  -6.3845  -5.9642  -5.7380  -5.4173  -5.2817
    -2.8890  -2.7057  -2.6478  -2.5477  -2.4756  -2.2825  -2.0506  -1.9280
    -1.7525  -1.7172  -1.5522  -1.4126  -1.1811  -1.0740  -0.8574  -0.7104
    -0.2712  -0.0671   0.1212   0.5876   0.6234   0.6568   0.8287   0.9249
     1.1719   1.6878   2.1636   2.7895   2.9157   3.0077   3.2196   3.3546
     3.5389   3.8080   3.9759   4.1092   4.2055   4.5774   4.6257   4.7305
     5.0082   5.0671   5.0777   5.2683   5.3293   5.3422   5.6609   5.8487
     6.1863   6.2464  14.2420  14.3443  15.6665  15.7226  15.8472  15.8545
    16.1065  16.1825  16.4468  16.5816  16.5863  16.8502  16.9215

          k = 0.4444-0.0000 0.0000 ( 25212 PWs)   bands (ev):

    -9.1103  -8.9289  -8.6289  -8.2107  -7.6758  -7.2440  -7.0674  -7.0271
    -6.7756  -6.3686  -6.2724  -5.8480  -5.4265  -5.2158  -4.5120  -4.4794
    -3.6526  -3.5596  -2.7568  -2.6152  -1.8210  -1.7641  -1.1521  -0.8872
    -0.8676  -0.8116  -0.8006  -0.0384   0.4097   0.5386   0.5734   0.7442
     0.8599   0.9375   0.9395   1.0161   1.3366   1.6814   1.8089   1.8691
     1.9991   2.0150   2.0714   2.0807   2.1162   2.2186   2.2969   2.3516
     2.3678   2.4982   2.5151   2.5281   2.6203   2.6655   2.6828   2.7083
     2.7242   2.7983   3.1682   3.5156   3.8657   4.3188   4.7223   4.8970
     5.5154   6.0691  13.0968  13.1502  13.4001  13.6018  13.8253  13.9758
    13.9930  14.2924  14.3264  14.3942  14.4072  14.6969  14.8781

          k = 0.4444-0.1010 0.0000 ( 25254 PWs)   bands (ev):

    -8.9379  -8.7575  -8.4593  -8.0437  -7.5127  -7.1107  -6.9358  -6.8696
    -6.6468  -6.2446  -6.1227  -5.7297  -5.2911  -5.1062  -4.4063  -4.3862
    -3.5537  -3.4800  -2.6914  -2.6571  -2.2782  -2.1614  -2.1026  -1.9696
    -1.8986  -1.8072  -0.9912  -0.5469  -0.4466  -0.4308  -0.2916  -0.2329
     0.5665   0.5782   0.9327   1.0153   1.4359   1.6050   1.8513   1.9134
     1.9567   1.9698   1.9900   2.0397   2.3495   2.4804   2.4883   2.6136
     2.7630   2.8075   2.8358   2.9247   3.0328   3.1013   3.1564   3.3541
     3.3918   3.4772   3.6048   3.7255   3.9877   4.4393   4.7259   4.9871
     5.5004   6.0495  13.7321  13.7588  13.8049  13.8267  13.9348  13.9706
    14.1125  14.3391  14.5875  14.7583  14.9097  15.0674  15.1724

          k = 0.4444-0.2020 0.0000 ( 25277 PWs)   bands (ev):

    -8.4333  -8.2562  -7.9638  -7.5569  -7.0389  -6.8076  -6.6382  -6.4188
    -6.3545  -5.9729  -5.6949  -5.4782  -4.9163  -4.8858  -4.2302  -4.1623
    -3.8399  -3.6845  -3.4751  -3.3165  -3.2339  -3.1444  -2.8401  -2.8111
    -2.5824  -2.2654  -2.1212  -1.9687  -1.8141  -1.6579  -1.3865  -1.3847
    -0.1020  -0.0336   0.4123   0.4603   1.0629   1.0954   1.1658   1.3295
     1.6745   1.7195   2.0330   2.2133   2.2839   2.5224   2.7615   2.8310
     3.1307   3.3122   3.5041   3.5874   3.6467   3.8535   3.9883   4.0590
     4.2035   4.3783   4.5407   4.5953   4.7845   4.9373   5.0517   5.2327
     5.4249   5.9668  14.4728  14.5170  14.7337  14.7766  14.8890  15.0603
    15.1880  15.2005  15.2451  15.4664  15.5716  15.7044  15.7662

          k = 0.4444-0.3030 0.0000 ( 25301 PWs)   bands (ev):

    -7.6565  -7.4859  -7.2052  -6.8821  -6.8149  -6.7171  -6.4447  -6.3260
    -6.0635  -5.7507  -5.5729  -5.1282  -4.9734  -4.5152  -4.4291  -4.3207
    -4.2635  -4.0404  -3.9861  -3.6768  -3.6356  -3.5150  -3.2687  -3.2472
    -2.9977  -2.9417  -2.7826  -2.7512  -2.5938  -2.5256  -2.1712  -2.1707
    -0.2844  -0.0973   0.0381   0.2466   0.3335   0.5563   0.9268   1.3044
     1.3284   1.5269   1.8029   1.9815   2.1653   2.3793   2.6702   2.9752
     2.9793   3.3813   3.5521   3.7626   3.9535   4.2918   4.4356   4.4716
     4.7552   4.9988   5.0767   5.2436   5.2693   5.4878   5.5442   5.5717
     5.7966   5.8432  14.9989  15.0172  15.6675  15.6677  16.1446  16.1936
    16.4634  16.5882  16.7553  16.7785  16.8682  16.9044  16.9941

     the Fermi energy is     9.2592 ev

!    total energy              =    -594.62469316 Ry
     estimated scf accuracy    <          1.9E-09 Ry
     smearing contrib. (-TS)   =       0.00000000 Ry
     internal energy E=F+TS    =    -594.62469316 Ry

     The total energy is F=E-TS. E is the sum of the following terms:
     one-electron contribution =   -4496.85237226 Ry
     hartree contribution      =    2327.44196803 Ry
     xc contribution           =    -152.82091129 Ry
     ewald contribution        =    1924.82021014 Ry
     one-center paw contrib.   =    -197.21358778 Ry

     convergence has been achieved in  13 iterations

     negative rho (up, down):  2.300E-06 0.000E+00

     Forces acting on atoms (cartesian axes, Ry/au):

     atom    1 type  1   force =     0.00000000   -0.00003138   -0.00001501
     atom    2 type  1   force =     0.00000000    0.00003138   -0.00001501
     atom    3 type  1   force =     0.00000000   -0.00000555    0.00002730
     atom    4 type  1   force =     0.00000000    0.00000555    0.00002730
     atom    5 type  1   force =     0.00000000    0.00000222    0.00002726
     atom    6 type  1   force =     0.00000000   -0.00000222    0.00002726
     atom    7 type  1   force =     0.00000000    0.00000697   -0.00002018
     atom    8 type  1   force =     0.00000000   -0.00000697   -0.00002018
     atom    9 type  1   force =     0.00000000    0.00000353   -0.00003801
     atom   10 type  1   force =     0.00000000   -0.00000353   -0.00003801
     atom   11 type  1   force =     0.00000000    0.00001043    0.00000462
     atom   12 type  1   force =     0.00000000   -0.00001043    0.00000462
     atom   13 type  1   force =     0.00000000    0.00000372    0.00004802
     atom   14 type  1   force =     0.00000000   -0.00000372    0.00004802
     atom   15 type  1   force =     0.00000000    0.00000600    0.00002898
     atom   16 type  1   force =     0.00000000   -0.00000600    0.00002898
     atom   17 type  1   force =     0.00000000   -0.00000600   -0.00002898
     atom   18 type  1   force =     0.00000000    0.00000600   -0.00002898
     atom   19 type  1   force =     0.00000000    0.00000372   -0.00004802
     atom   20 type  1   force =     0.00000000   -0.00000372   -0.00004802
     atom   21 type  1   force =     0.00000000    0.00001043   -0.00000462
     atom   22 type  1   force =     0.00000000   -0.00001043   -0.00000462
     atom   23 type  1   force =     0.00000000    0.00000353    0.00003801
     atom   24 type  1   force =     0.00000000   -0.00000353    0.00003801
     atom   25 type  1   force =     0.00000000   -0.00000697    0.00002018
     atom   26 type  1   force =     0.00000000    0.00000697    0.00002018
     atom   27 type  1   force =     0.00000000   -0.00000222   -0.00002726
     atom   28 type  1   force =     0.00000000    0.00000222   -0.00002726
     atom   29 type  1   force =     0.00000000    0.00000555   -0.00002730
     atom   30 type  1   force =     0.00000000   -0.00000555   -0.00002730
     atom   31 type  1   force =     0.00000000    0.00003138    0.00001501
     atom   32 type  1   force =     0.00000000   -0.00003138    0.00001501
     atom   33 type  2   force =     0.00000000   -0.00000498   -0.00000208
     atom   34 type  2   force =     0.00000000    0.00000498   -0.00000208
     atom   35 type  2   force =     0.00000000    0.00000498    0.00000208
     atom   36 type  2   force =     0.00000000   -0.00000498    0.00000208

     Total force =     0.000179     Total SCF correction =     0.000127
     SCF correction compared to forces is large: reduce conv_thr to get better values


     Computing stress (Cartesian axis) and pressure


     negative rho (up, down):  2.300E-06 0.000E+00
          total   stress  (Ry/bohr**3)                   (kbar)     P=       15.00
   0.00010058   0.00000000   0.00000000           14.80        0.00        0.00
   0.00000000   0.00020646   0.00000000            0.00       30.37        0.00
   0.00000000   0.00000000  -0.00000123            0.00        0.00       -0.18


     Writing all to output data dir /tmp/qe/slab.save/ :
     XML data file, charge density, pseudopotentials, collected wavefunctions

     init_run     :      4.53s CPU      4.72s WALL (       1 calls)
     electrons    :    114.44s CPU    116.80s WALL (       1 calls)
     forces       :      1.34s CPU      1.41s WALL (       1 calls)
     stress       :     33.26s CPU     33.58s WALL (       1 calls)

     Called by init_run:
     wfcinit      :      4.01s CPU      4.16s WALL (       1 calls)
     potinit      :      0.26s CPU      0.28s WALL (       1 calls)
     hinit0       :      0.07s CPU      0.08s WALL (       1 calls)

     Called by electrons:
     c_bands      :     94.69s CPU     96.42s WALL (      13 calls)
     sum_band     :     15.66s CPU     15.97s WALL (      13 calls)
     v_of_rho     :      1.22s CPU      1.33s WALL (      14 calls)
     newd         :      0.80s CPU      1.00s WALL (      14 calls)
     PAW_pot      :      2.15s CPU      2.17s WALL (      14 calls)
     mix_rho      :      0.12s CPU      0.12s WALL (      13 calls)

     Called by c_bands:
     init_us_2    :      2.28s CPU      2.30s WALL (     580 calls)
     cegterg      :     90.97s CPU     92.61s WALL (     260 calls)

     Called by *egterg:
     cdiaghg      :      7.68s CPU      7.73s WALL (    1532 calls)
     h_psi        :     62.90s CPU     63.91s WALL (    1552 calls)
     s_psi        :      6.41s CPU      6.47s WALL (    1552 calls)
     g_psi        :      0.35s CPU      0.36s WALL (    1272 calls)

     Called by h_psi:
     h_psi:calbec :      6.07s CPU      6.12s WALL (    1552 calls)
     vloc_psi     :     49.89s CPU     50.42s WALL (    1552 calls)
     add_vuspsi   :      6.55s CPU      6.57s WALL (    1552 calls)

     General routines
     calbec       :      9.37s CPU      9.44s WALL (    1912 calls)
     fft          :      0.53s CPU      0.60s WALL (     205 calls)
     ffts         :      0.02s CPU      0.02s WALL (      27 calls)
     fftw         :     43.54s CPU     43.94s WALL (  132408 calls)
     interpolate  :      0.05s CPU      0.05s WALL (      14 calls)

     Parallel routines

     PWSCF        :   2m33.92s CPU   2m37.12s WALL


   This run was terminated on:  16:14:11   2Aug2026            

=------------------------------------------------------------------------------=
   JOB DONE.
=------------------------------------------------------------------------------=
Note: The following floating-point exceptions are signalling: IEEE_UNDERFLOW_FLAG IEEE_DENORMAL
Note: The following floating-point exceptions are signalling: IEEE_UNDERFLOW_FLAG IEEE_DENORMAL
Note: The following floating-point exceptions are signalling: IEEE_UNDERFLOW_FLAG IEEE_DENORMAL
Note: The following floating-point exceptions are signalling: IEEE_UNDERFLOW_FLAG IEEE_DENORMAL
Note: The following floating-point exceptions are signalling: IEEE_UNDERFLOW_FLAG IEEE_DENORMAL
Note: The following floating-point exceptions are signalling: IEEE_UNDERFLOW_FLAG IEEE_DENORMAL
Note: The following floating-point exceptions are signalling: IEEE_UNDERFLOW_FLAG IEEE_DENORMAL
Note: The following floating-point exceptions are signalling: IEEE_UNDERFLOW_FLAG IEEE_DENORMAL
