
     Program PWSCF v.7.3.1 starts on  2Aug2026 at 15:44:34 

     This program is part of the open-source Quantum ESPRESSO suite
     for quantum simulation of materials; please cite
         "P. Giannozzi et al., J. Phys.:Condens. Matter 21 395502 (2009);
         "P. Giannozzi et al., J. Phys.:Condens. Matter 29 465901 (2017);
         "P. Giannozzi et al., J. Chem. Phys. 152 154105 (2020);
          URL http://www.quantum-espresso.org", 
     in publications or presentations arising from this work. More details at
     http://www.quantum-espresso.org/quote

     Parallel version (MPI), running on     8 processors

     MPI processes distributed on     1 nodes
     766720 MiB available memory on the printing compute node when the environment starts

     Reading input from pw.in

     Current dimensions of program PWSCF are:
     Max number of different atomic species (ntypx) = 10
     Max number of k-points (npk) =  40000
     Max angular momentum in pseudopotentials (lmaxx) =  4
     file C.pbe-n-kjpaw_psl.1.0.0.UPF: wavefunction(s)  2S 2P renormalized
     Message from routine volume:
     axis vectors are left-handed
     Message from routine setup:
     using ibrav=0 with symmetry is DISCOURAGED, use correct ibrav instead

     R & G space division:  proc/nbgrp/npool/nimage =       8
     Subspace diagonalization in iterative solution of the eigenvalue problem:
     a serial algorithm will be used


     Parallelization info
     --------------------
     sticks:   dense  smooth     PW     G-vecs:    dense   smooth      PW
     Min         230     115     33                40002    14149    2229
     Max         231     116     35                40021    14166    2236
     Sum        1845     921    269               320103   113231   17871

     Using Slab Decomposition



     bravais-lattice index     =            0
     lattice parameter (alat)  =       4.7752  a.u.
     unit-cell volume          =     980.9734 (a.u.)^3
     number of atoms/cell      =           16
     number of atomic types    =            2
     number of electrons       =        52.00
     number of Kohn-Sham states=           31
     kinetic-energy cutoff     =      90.0000  Ry
     charge density cutoff     =     720.0000  Ry
     scf convergence threshold =      1.0E-08
     mixing beta               =       0.3000
     number of iterations used =            8  plain     mixing
     Exchange-correlation= PBE
                           (   1   4   3   4   0   0   0)

     celldm(1)=   4.775235  celldm(2)=   0.000000  celldm(3)=   0.000000
     celldm(4)=   0.000000  celldm(5)=   0.000000  celldm(6)=   0.000000

     crystal axes: (cart. coord. in units of alat)
               a(1) = (   1.000000   0.000000   0.000000 )  
               a(2) = (   0.000000  -1.414214   0.000000 )  
               a(3) = (   0.000000   0.000000   6.370270 )  

     reciprocal axes: (cart. coord. in units 2 pi/alat)
               b(1) = (  1.000000 -0.000000 -0.000000 )  
               b(2) = ( -0.000000 -0.707107 -0.000000 )  
               b(3) = ( -0.000000 -0.000000  0.156979 )  


     PseudoPot. # 1 for C  read from file:
     ./C.pbe-n-kjpaw_psl.1.0.0.UPF
     MD5 check sum: 5d2aebdfa2cae82b50a7e79e9516da0f
     Pseudo is Projector augmented-wave + core cor, Zval =  4.0
     Generated using "atomic" code by A. Dal Corso  v.5.1
     Shape of augmentation charge: PSQ
     Using radial grid of 1073 points,  4 beta functions with: 
                l(1) =   0
                l(2) =   0
                l(3) =   1
                l(4) =   1
     Q(r) pseudized with 0 coefficients 


     PseudoPot. # 2 for H  read from file:
     ./H_ONCV_PBE-1.0.oncvpsp.upf
     MD5 check sum: 1790becc920ee074925cf490c71280fe
     Pseudo is Norm-conserving, Zval =  1.0
     Generated using ONCVPSP code by D. R. Hamann
     Using radial grid of 1166 points,  2 beta functions with: 
                l(1) =   0
                l(2) =   0

     atomic species   valence    mass     pseudopotential
     C                 4.00    12.01100     C ( 1.00)
     H                 1.00     1.00800     H ( 1.00)

      8 Sym. Ops., with inversion, found ( 6 have fractional translation)



   Cartesian axes

     site n.     atom                  positions (alat units)
         1        C      tau(   1) = (  -0.0000000  -0.3611404   4.4247609  )
         2        C      tau(   2) = (   0.5000000  -0.6995197   4.4247609  )
         3        C      tau(   3) = (   0.0000000   0.0011500   3.9360405  )
         4        C      tau(   4) = (   0.5000000  -1.0618102   3.9360405  )
         5        C      tau(   5) = (   0.0000000  -0.3533013   3.4350066  )
         6        C      tau(   6) = (   0.5000000  -0.7073588   3.4350066  )
         7        C      tau(   7) = (   0.0000000  -0.0002520   2.9352634  )
         8        C      tau(   8) = (   0.5000000  -1.0604081   2.9352634  )
         9        C      tau(   9) = (  -0.0000000  -0.3547034   2.4342296  )
        10        C      tau(  10) = (   0.5000000  -0.7059567   2.4342296  )
        11        C      tau(  11) = (  -0.0000000   0.0075871   1.9455091  )
        12        C      tau(  12) = (   0.5000000  -1.0682472   1.9455091  )
        13        H      tau(  13) = (   0.0000000  -0.1238861   4.7893624  )
        14        H      tau(  14) = (   0.5000000  -0.9367741   4.7893624  )
        15        H      tau(  15) = (   0.0000000  -0.2296673   1.5809076  )
        16        H      tau(  16) = (   0.5000000  -0.8309929   1.5809076  )

     number of k points=    35  Marzari-Vanderbilt smearing, width (Ry)=  0.0100
                       cart. coord. in units 2pi/alat
        k(    1) = (   0.0000000  -0.0000000   0.0000000), wk =   0.0185185
        k(    2) = (   0.0000000  -0.0785674   0.0000000), wk =   0.0370370
        k(    3) = (   0.0000000  -0.1571348   0.0000000), wk =   0.0370370
        k(    4) = (   0.0000000  -0.2357023   0.0000000), wk =   0.0370370
        k(    5) = (   0.0000000  -0.3142697   0.0000000), wk =   0.0370370
        k(    6) = (   0.0833333  -0.0000000   0.0000000), wk =   0.0370370
        k(    7) = (   0.0833333  -0.0785674   0.0000000), wk =   0.0740741
        k(    8) = (   0.0833333  -0.1571348   0.0000000), wk =   0.0740741
        k(    9) = (   0.0833333  -0.2357023   0.0000000), wk =   0.0740741
        k(   10) = (   0.0833333  -0.3142697   0.0000000), wk =   0.0740741
        k(   11) = (   0.1666667  -0.0000000   0.0000000), wk =   0.0370370
        k(   12) = (   0.1666667  -0.0785674   0.0000000), wk =   0.0740741
        k(   13) = (   0.1666667  -0.1571348   0.0000000), wk =   0.0740741
        k(   14) = (   0.1666667  -0.2357023   0.0000000), wk =   0.0740741
        k(   15) = (   0.1666667  -0.3142697   0.0000000), wk =   0.0740741
        k(   16) = (   0.2500000  -0.0000000   0.0000000), wk =   0.0370370
        k(   17) = (   0.2500000  -0.0785674   0.0000000), wk =   0.0740741
        k(   18) = (   0.2500000  -0.1571348   0.0000000), wk =   0.0740741
        k(   19) = (   0.2500000  -0.2357023   0.0000000), wk =   0.0740741
        k(   20) = (   0.2500000  -0.3142697   0.0000000), wk =   0.0740741
        k(   21) = (   0.3333333  -0.0000000   0.0000000), wk =   0.0370370
        k(   22) = (   0.3333333  -0.0785674   0.0000000), wk =   0.0740741
        k(   23) = (   0.3333333  -0.1571348   0.0000000), wk =   0.0740741
        k(   24) = (   0.3333333  -0.2357023   0.0000000), wk =   0.0740741
        k(   25) = (   0.3333333  -0.3142697   0.0000000), wk =   0.0740741
        k(   26) = (   0.4166667  -0.0000000   0.0000000), wk =   0.0370370
        k(   27) = (   0.4166667  -0.0785674   0.0000000), wk =   0.0740741
        k(   28) = (   0.4166667  -0.1571348   0.0000000), wk =   0.0740741
        k(   29) = (   0.4166667  -0.2357023   0.0000000), wk =   0.0740741
        k(   30) = (   0.4166667  -0.3142697   0.0000000), wk =   0.0740741
        k(   31) = (  -0.5000000   0.0000000   0.0000000), wk =   0.0185185
        k(   32) = (  -0.5000000  -0.0785674   0.0000000), wk =   0.0370370
        k(   33) = (  -0.5000000  -0.1571348   0.0000000), wk =   0.0370370
        k(   34) = (  -0.5000000  -0.2357023   0.0000000), wk =   0.0370370
        k(   35) = (  -0.5000000  -0.3142697   0.0000000), wk =   0.0370370

     Dense  grid:   320103 G-vectors     FFT dimensions: (  48,  60, 270)

     Smooth grid:   113231 G-vectors     FFT dimensions: (  30,  48, 192)

     Estimated max dynamical RAM per process >     105.87 MB

     Estimated total dynamical RAM >     846.94 MB

     Initial potential from superposition of free atoms

     starting charge      51.9995, renormalised to      52.0000
     Starting wfcs are   52 randomized atomic wfcs
     Checking if some PAW data can be deallocated... 

     total cpu time spent up to now is        1.8 secs

     Self-consistent Calculation

     iteration #  1     ecut=    90.00 Ry     beta= 0.30
     Davidson diagonalization with overlap
     ethr =  1.00E-02,  avg # of iterations =  2.7

     total cpu time spent up to now is        4.9 secs

     total energy              =    -226.01412271 Ry
     estimated scf accuracy    <       1.19531331 Ry

     iteration #  2     ecut=    90.00 Ry     beta= 0.30
     Davidson diagonalization with overlap
     ethr =  2.30E-03,  avg # of iterations =  3.9

     negative rho (up, down):  1.650E-07 0.000E+00

     total cpu time spent up to now is        7.5 secs

     total energy              =    -225.92625727 Ry
     estimated scf accuracy    <       0.37531718 Ry

     iteration #  3     ecut=    90.00 Ry     beta= 0.30
     Davidson diagonalization with overlap
     ethr =  7.22E-04,  avg # of iterations =  5.3

     negative rho (up, down):  8.873E-07 0.000E+00

     total cpu time spent up to now is       10.4 secs

     total energy              =    -225.93945983 Ry
     estimated scf accuracy    <       0.05175403 Ry

     iteration #  4     ecut=    90.00 Ry     beta= 0.30
     Davidson diagonalization with overlap
     ethr =  9.95E-05,  avg # of iterations =  4.8

     negative rho (up, down):  1.874E-06 0.000E+00

     total cpu time spent up to now is       13.2 secs

     total energy              =    -225.94259584 Ry
     estimated scf accuracy    <       0.00514492 Ry

     iteration #  5     ecut=    90.00 Ry     beta= 0.30
     Davidson diagonalization with overlap
     ethr =  9.89E-06,  avg # of iterations =  6.8

     negative rho (up, down):  1.846E-06 0.000E+00

     total cpu time spent up to now is       16.6 secs

     total energy              =    -225.94317793 Ry
     estimated scf accuracy    <       0.00055060 Ry

     iteration #  6     ecut=    90.00 Ry     beta= 0.30
     Davidson diagonalization with overlap
     ethr =  1.06E-06,  avg # of iterations =  4.0

     negative rho (up, down):  2.029E-06 0.000E+00

     total cpu time spent up to now is       19.7 secs

     total energy              =    -225.94328933 Ry
     estimated scf accuracy    <       0.00007656 Ry

     iteration #  7     ecut=    90.00 Ry     beta= 0.30
     Davidson diagonalization with overlap
     ethr =  1.47E-07,  avg # of iterations =  2.5

     negative rho (up, down):  2.007E-06 0.000E+00

     total cpu time spent up to now is       22.3 secs

     total energy              =    -225.94329513 Ry
     estimated scf accuracy    <       0.00002029 Ry

     iteration #  8     ecut=    90.00 Ry     beta= 0.30
     Davidson diagonalization with overlap
     ethr =  3.90E-08,  avg # of iterations =  2.2

     negative rho (up, down):  2.033E-06 0.000E+00

     total cpu time spent up to now is       25.0 secs

     total energy              =    -225.94329808 Ry
     estimated scf accuracy    <       0.00000312 Ry

     iteration #  9     ecut=    90.00 Ry     beta= 0.30
     Davidson diagonalization with overlap
     ethr =  6.00E-09,  avg # of iterations =  2.7

     negative rho (up, down):  2.037E-06 0.000E+00

     total cpu time spent up to now is       27.9 secs

     total energy              =    -225.94329893 Ry
     estimated scf accuracy    <       0.00000251 Ry

     iteration # 10     ecut=    90.00 Ry     beta= 0.30
     Davidson diagonalization with overlap
     ethr =  4.82E-09,  avg # of iterations =  2.0

     negative rho (up, down):  2.052E-06 0.000E+00

     total cpu time spent up to now is       30.4 secs

     total energy              =    -225.94329907 Ry
     estimated scf accuracy    <       0.00000036 Ry

     iteration # 11     ecut=    90.00 Ry     beta= 0.30
     Davidson diagonalization with overlap
     ethr =  6.92E-10,  avg # of iterations =  2.7

     negative rho (up, down):  2.067E-06 0.000E+00

     total cpu time spent up to now is       33.3 secs

     total energy              =    -225.94329919 Ry
     estimated scf accuracy    <       0.00000005 Ry

     iteration # 12     ecut=    90.00 Ry     beta= 0.30
     Davidson diagonalization with overlap
     ethr =  9.23E-11,  avg # of iterations =  3.2

     negative rho (up, down):  2.077E-06 0.000E+00

     total cpu time spent up to now is       36.2 secs

     total energy              =    -225.94329918 Ry
     estimated scf accuracy    <       0.00000005 Ry

     iteration # 13     ecut=    90.00 Ry     beta= 0.30
     Davidson diagonalization with overlap
     ethr =  9.23E-11,  avg # of iterations =  2.1

     negative rho (up, down):  2.103E-06 0.000E+00

     total cpu time spent up to now is       38.9 secs

     End of self-consistent calculation

          k = 0.0000-0.0000 0.0000 ( 14193 PWs)   bands (ev):

   -15.9421 -14.8709 -13.1189 -10.9238  -8.7407  -7.6350  -7.3166  -6.3828
    -4.7992  -4.4586  -4.0238  -2.9550  -2.7234  -2.1146  -0.8929  -0.7105
    -0.4008  -0.0886   1.2018   1.7487   2.1411   2.6995   3.9662   3.9798
     4.3051   4.8221   6.9590   7.2302   9.7300  10.1504  10.8753

          k = 0.0000-0.0786 0.0000 ( 14153 PWs)   bands (ev):

   -15.8294 -14.7617 -13.0199 -10.8692  -9.0786  -9.0470  -6.7452  -5.9384
    -5.6425  -3.9120  -3.7543  -3.1967  -2.1044  -1.9679  -0.9106  -0.7865
    -0.0301   0.0023   1.2556   1.6997   2.1858   2.6712   3.8049   3.9376
     4.0977   4.4672   7.0815   7.3794   9.8457  10.1236  10.9867

          k = 0.0000-0.1571 0.0000 ( 14140 PWs)   bands (ev):

   -15.4925 -14.4360 -12.7302 -10.8255 -10.4983  -9.9449  -6.8539  -6.8149
    -4.8284  -4.8036  -2.9965  -2.1671  -2.0635  -1.4373  -0.4698  -0.3497
     0.2583   0.2705   1.4088   1.5904   2.4349   2.5802   3.3346   3.3837
     3.6271   3.9543   7.4683   7.7569  10.1710  10.1790  11.0330

          k = 0.0000-0.2357 0.0000 ( 14138 PWs)   bands (ev):

   -14.9342 -13.9016 -12.2888 -11.9807 -11.0436 -10.6699  -7.6057  -6.6886
    -5.7684  -4.2763  -3.2375  -1.5757  -1.1206  -0.5512  -0.0265   0.0487
     0.7008   0.9583   1.6340   1.6899   2.3424   2.3960   2.6519   2.6930
     3.2190   3.2238   8.1227   8.3141  10.3755  10.3850  10.9216

          k = 0.0000-0.3143 0.0000 ( 14120 PWs)   bands (ev):

   -14.1614 -13.2878 -13.0377 -12.2888 -11.5193 -10.9923  -7.6923  -7.1748
    -5.5811  -4.8262  -2.8634  -2.0526  -0.2962   0.3018   0.7423   0.7514
     1.2518   1.3929   1.6346   1.8063   2.0010   2.0914   2.1168   2.2286
     2.6231   2.6385   8.9887   9.0034   9.8386  10.1742  10.8098

          k = 0.0833-0.0000 0.0000 ( 14167 PWs)   bands (ev):

   -15.8149 -14.7451 -12.9954 -10.8033  -8.6248  -7.5220  -7.2746  -6.3454
    -4.7704  -4.3498  -3.9066  -2.8681  -2.7085  -2.0025  -1.5074  -0.6798
    -0.6684  -0.4071   0.6387   1.6925   2.0651   2.1893   3.3944   3.6971
     4.1743   4.2507   7.0768   7.3617   9.7468  10.9893  11.0010

          k = 0.0833-0.0786 0.0000 ( 14143 PWs)   bands (ev):

   -15.7024 -14.6362 -12.8968 -10.7494  -8.9784  -8.9360  -6.6679  -5.8868
    -5.5741  -3.8544  -3.6626  -3.1575  -2.0773  -1.8633  -1.3736  -0.8934
    -0.5596  -0.0359   0.7117   1.6778   2.0749   2.1272   3.2209   3.4129
     3.9134   4.2561   7.2121   7.5101   9.9214  10.8598  11.3086

          k = 0.0833-0.1571 0.0000 ( 14135 PWs)   bands (ev):

   -15.3660 -14.3112 -12.6081 -10.7094 -10.3862  -9.8352  -6.7502  -6.7202
    -4.7505  -4.7398  -3.0091  -2.1834  -2.0502  -1.4295  -0.9384  -0.4532
    -0.1638   0.2621   0.9453   1.5103   2.0298   2.2598   2.5899   2.7238
     3.4269   4.1897   7.6118   7.8992  10.3276  10.8111  11.4473

          k = 0.0833-0.2357 0.0000 ( 14142 PWs)   bands (ev):

   -14.8087 -13.7780 -12.1684 -11.8635 -10.9295 -10.5551  -7.4969  -6.5783
    -5.6746  -4.1822  -3.1912  -1.5241  -1.4992  -0.5931  -0.4223  -0.1064
     0.5729   0.6439   1.3866   1.5495   1.6621   1.8763   1.9253   2.1843
     3.3080   3.5862   8.2689   8.4833  10.6844  10.9501  11.2026

          k = 0.0833-0.3143 0.0000 ( 14118 PWs)   bands (ev):

   -14.0375 -13.1660 -12.9166 -12.1698 -11.4023 -10.8777  -7.5791  -7.0642
    -5.4797  -4.7280  -2.7952  -1.9862  -0.4999  -0.2437   0.2641   0.5488
     0.5825   0.9502   1.1930   1.3586   1.5760   1.7913   2.1219   2.4179
     2.5779   2.8190   9.1406   9.2122  10.1333  10.3373  11.2875

          k = 0.1667-0.0000 0.0000 ( 14143 PWs)   bands (ev):

   -15.4343 -14.3689 -12.6261 -10.4431  -8.2781  -7.2308  -7.1835  -6.3120
    -4.7568  -4.0296  -3.5599  -2.8195  -2.7264  -2.6179  -1.9547  -1.6713
    -0.6031  -0.5648  -0.4636   0.9062   1.4773   1.9773   2.0714   2.7133
     2.9031   4.0365   7.4628   7.7443   9.9164  10.4564  11.0276

          k = 0.1667-0.0786 0.0000 ( 14147 PWs)   bands (ev):

   -15.3224 -14.2606 -12.5284 -10.3913  -8.6990  -8.6083  -6.4877  -5.8270
    -5.4150  -3.7574  -3.4794  -3.1325  -2.4877  -2.1032  -1.7571  -1.4548
    -0.9002  -0.3877  -0.1233   0.9098   1.5643   1.5873   1.9828   2.0476
     3.5125   3.7529   7.6140   7.8909  10.1697  10.8046  11.2222

          k = 0.1667-0.1571 0.0000 ( 14119 PWs)   bands (ev):

   -14.9877 -13.9378 -12.2428 -10.3651 -10.0564  -9.5126  -6.4630  -6.4584
    -4.7208  -4.5479  -3.2809  -2.7038  -2.1337  -1.4754  -1.3872  -1.0804
    -0.6033   0.1093   0.2934   0.7942   0.9544   1.0959   1.3364   2.2485
     3.1849   3.8103   8.0335   8.2962  10.6880  11.6709  11.7521

          k = 0.1667-0.2357 0.0000 ( 14117 PWs)   bands (ev):

   -14.4336 -13.4085 -11.8087 -11.5164 -10.5916 -10.2126  -7.1833  -6.2596
    -5.4155  -3.9790  -3.3211  -2.4009  -2.1034  -1.0933  -0.7056  -0.5542
    -0.0767   0.0774   0.3316   0.4904   0.7261   1.1364   1.6780   1.7466
     2.9722   3.5381   8.6922   8.9085  11.1813  11.7732  11.8523

          k = 0.1667-0.3143 0.0000 ( 14134 PWs)   bands (ev):

   -13.6677 -12.8026 -12.5558 -11.8153 -11.0531 -10.5355  -7.2488  -6.7417
    -5.1933  -4.4505  -2.8138  -1.9842  -1.8566  -1.2775  -1.0358  -0.5673
    -0.2004  -0.0383   0.3168   0.8367   1.4176   1.6893   1.7306   2.0261
     2.6653   2.6974   9.5475   9.6579  10.6967  10.7641  12.3245

          k = 0.2500-0.0000 0.0000 ( 14156 PWs)   bands (ev):

   -14.8036 -13.7457 -12.0146  -9.8469  -7.7036  -7.5388  -6.6212  -6.6165
    -5.0629  -3.8650  -3.5176  -3.0445  -3.0003  -2.9978  -2.2375  -1.6653
    -1.1363  -0.8094  -0.4692  -0.2615   0.6904   1.0055   1.0143   1.6825
     1.7178   3.6318   8.1478   8.3357  10.0399  10.3446  10.5659

          k = 0.2500-0.0786 0.0000 ( 14123 PWs)   bands (ev):

   -14.6927 -13.6387 -11.9187  -9.7991  -8.3772  -8.0994  -6.4773  -6.1414
    -5.4004  -3.9731  -3.6504  -3.3644  -2.6175  -2.5384  -2.1254  -1.1874
    -1.0009  -0.8832  -0.6859   0.0510   0.1994   0.3649   1.2491   1.4547
     2.3846   3.4274   8.2966   8.5011  10.4469  10.5887  10.6979

          k = 0.2500-0.1571 0.0000 ( 14116 PWs)   bands (ev):

   -14.3614 -13.3199 -11.6388  -9.8180  -9.5354  -9.0081  -6.1546  -6.1455
    -5.5747  -4.4304  -3.7919  -3.3276  -2.6622  -1.9687  -1.2511  -1.1799
    -1.0928  -0.7166  -0.4006  -0.3608   0.0531   0.3276   0.9838   1.5803
     2.9168   2.9649   8.7164   8.9256  11.1478  11.2926  11.4623

          k = 0.2500-0.2357 0.0000 ( 14138 PWs)   bands (ev):

   -13.8136 -12.7983 -11.2149 -10.9595 -10.0476  -9.6487  -6.7258  -5.8039
    -5.1334  -4.9613  -3.5657  -3.3859  -2.5467  -2.2139  -2.1280  -1.2493
    -1.0862  -0.6636   0.0931   0.1762   0.6122   0.7077   0.9548   1.6001
     2.4144   3.0678   9.3610   9.5268  11.6736  11.9460  12.1938

          k = 0.2500-0.3143 0.0000 ( 14144 PWs)   bands (ev):

   -13.0584 -12.2061 -11.9643 -11.2347 -10.4793  -9.9729  -6.7439  -6.2479
    -4.8471  -4.2037  -4.1069  -3.3188  -2.9650  -2.3718  -1.8344  -1.7043
    -1.4258  -1.1222   0.4024   0.8896   0.9195   1.0514   1.5717   1.6786
     2.1706   2.5952  10.1277  10.2159  11.3234  11.3919  12.6705

          k = 0.3333-0.0000 0.0000 ( 14106 PWs)   bands (ev):

   -13.9296 -12.8826 -11.1682  -9.0220  -8.5970  -7.6424  -6.9064  -6.0535
    -5.8382  -4.0198  -3.9441  -3.1372  -2.8523  -2.2604  -1.9375  -1.8835
    -1.7888  -0.7922  -0.6676  -0.4992  -0.4175  -0.1109   0.2450   0.3609
     1.1739   3.0205   9.0526   9.0802   9.9314  10.2619  11.3458

          k = 0.3333-0.0786 0.0000 ( 14109 PWs)   bands (ev):

   -13.8206 -12.7778 -11.0754  -8.9873  -8.7010  -7.8637  -6.7983  -6.3982
    -6.0818  -4.1572  -3.8738  -3.3373  -2.8399  -2.1715  -1.8980  -1.8483
    -1.5551  -1.1411  -0.8944  -0.4606  -0.3556  -0.2777   0.4569   1.0251
     1.1234   2.9055   9.2031   9.2907  10.2148  10.4958  11.3062

          k = 0.3333-0.1571 0.0000 ( 14126 PWs)   bands (ev):

   -13.4953 -12.4662 -10.8050  -9.3083  -8.8471  -8.4998  -6.8176  -6.4932
    -6.2120  -4.6026  -4.1344  -3.5103  -2.8562  -2.7995  -2.6038  -1.8357
    -1.1996  -0.7727  -0.6224  -0.3726  -0.2105   0.0975   0.7130   0.7283
     1.9251   2.5878   9.6158   9.7293  10.9930  11.0550  11.7125

          k = 0.3333-0.2357 0.0000 ( 14176 PWs)   bands (ev):

   -12.9596 -11.9585 -10.3991 -10.2726  -9.3682  -8.8822  -6.6046  -6.3417
    -6.0090  -5.1335  -4.0447  -3.9916  -3.8674  -3.3957  -2.4289  -2.3000
    -1.6196  -0.5032  -0.1365  -0.0077   0.3800   0.5116   0.8037   0.9648
     2.1412   2.3633  10.1800  10.2728  11.7758  11.8031  12.2201

          k = 0.3333-0.3143 0.0000 ( 14189 PWs)   bands (ev):

   -12.2269 -11.4010 -11.1678 -10.4563  -9.7006  -9.2090  -6.2575  -5.9203
    -5.7563  -5.3825  -5.0284  -4.5859  -3.6232  -3.3106  -2.8902  -2.7674
    -1.3184  -0.7907  -0.1946  -0.0640   0.6688   0.9569   1.3315   1.5876
     1.7581   2.2925  10.7351  10.8002  12.0427  12.1169  12.5625

          k = 0.4167-0.0000 0.0000 ( 14118 PWs)   bands (ev):

   -12.8248 -11.7927 -10.1007 -10.0552  -9.0679  -7.9815  -7.4388  -5.8958
    -5.3815  -4.8397  -3.3194  -3.2863  -2.5884  -2.2359  -2.0991  -1.6296
    -1.4466  -1.3224  -1.0212  -0.9175  -0.6970  -0.6926  -0.6580   0.4227
     0.4447   2.2300   9.5629  10.0231  10.4477  10.6519  11.0117

          k = 0.4167-0.0786 0.0000 ( 14122 PWs)   bands (ev):

   -12.7195 -11.6921 -10.0131  -9.9914  -9.0129  -7.9567  -7.3661  -6.0582
    -5.6921  -5.3799  -3.5454  -3.2453  -3.1364  -2.5422  -2.3878  -1.3443
    -1.2760  -1.1717  -1.1331  -0.8100  -0.7783  -0.2322  -0.1598   0.4270
     0.5512   2.1968   9.9444  10.1490  10.3187  10.7280  11.2983

          k = 0.4167-0.1571 0.0000 ( 14171 PWs)   bands (ev):

   -12.4068 -11.3948  -9.8564  -9.7603  -8.9054  -7.9296  -7.1675  -6.8288
    -6.5120  -5.4169  -4.4142  -4.1958  -3.6042  -3.2293  -1.8883  -1.8280
    -1.6050  -1.2405  -0.6118  -0.2856  -0.2765   0.1639   0.1717   0.7181
     1.0312   2.0933  10.4927  10.5566  10.7802  11.2226  11.3871

          k = 0.4167-0.2357 0.0000 ( 14176 PWs)   bands (ev):

   -11.8986 -10.9170  -9.9112  -9.4021  -8.9590  -8.0180  -7.5658  -6.8539
    -6.7776  -5.7350  -5.4470  -5.0598  -3.7573  -3.5384  -2.5378  -2.0941
    -1.4842  -1.3525  -0.6832  -0.0218   0.2082   0.2453   0.8899   1.0667
     1.6705   1.9150  10.8617  11.0108  11.6944  11.7742  12.2636

          k = 0.4167-0.3143 0.0000 ( 14176 PWs)   bands (ev):

   -11.2263 -10.5066 -10.2448  -9.6026  -8.7846  -8.3221  -7.4259  -6.7631
    -6.5538  -6.3694  -5.8731  -5.8352  -3.8171  -3.5352  -2.8446  -2.5013
    -1.4795  -1.2875  -0.6537  -0.3211   0.3566   0.4167   1.3709   1.5940
     1.7117   1.9109  11.2828  11.2965  12.1872  12.3254  13.0294

          k =-0.5000 0.0000 0.0000 ( 14094 PWs)   bands (ev):

   -11.5146 -11.5146 -10.5019 -10.5019  -8.8382  -8.8382  -6.7501  -6.7501
    -4.6879  -4.6879  -3.6342  -3.6342  -2.2629  -2.2629  -1.7358  -1.7358
    -1.3723  -1.3723  -1.0898  -1.0898  -1.0501  -1.0501  -0.4356  -0.4356
     1.3334   1.3334  10.1894  10.1894  10.4320  10.4320  11.3131

          k =-0.5000-0.0786 0.0000 ( 14160 PWs)   bands (ev):

   -11.4184 -11.4184 -10.4114 -10.4114  -8.7617  -8.7617  -6.7175  -6.7175
    -4.8957  -4.8957  -4.5409  -4.5409  -2.2873  -2.2873  -1.6990  -1.6990
    -1.4783  -1.4783  -0.9049  -0.9049  -0.6731  -0.6731  -0.2588  -0.2588
     1.3665   1.3665  10.2602  10.2602  10.8554  10.8557  11.1924

          k =-0.5000-0.1571 0.0000 ( 14170 PWs)   bands (ev):

   -11.1397 -11.1397 -10.1509 -10.1509  -8.5460  -8.5460  -6.6573  -6.6573
    -5.8168  -5.8168  -5.5149  -5.5149  -2.6245  -2.6245  -2.4135  -2.4135
    -1.1490  -1.1490  -0.7775  -0.7775  -0.0842  -0.0842   0.3712   0.3712
     1.4497   1.4497  10.7449  10.7449  11.1325  11.1326  11.7358

          k =-0.5000-0.2357 0.0000 ( 14166 PWs)   bands (ev):

   -10.7225 -10.7225  -9.7668  -9.7668  -8.2454  -8.2454  -7.0409  -7.0409
    -6.5412  -6.5412  -6.3137  -6.3137  -3.0273  -3.0273  -2.6442  -2.6442
    -1.5113  -1.5113  -0.5888  -0.5888   0.1877   0.1877   1.1430   1.1430
     1.5630   1.5630  11.3217  11.3218  11.5408  11.5408  12.5185

          k =-0.5000-0.3143 0.0000 ( 14168 PWs)   bands (ev):

   -10.3234 -10.3234  -9.4110  -9.4110  -8.0008  -8.0008  -7.7849  -7.7849
    -6.9061  -6.9061  -6.6146  -6.6146  -3.3268  -3.3268  -2.6205  -2.6205
    -1.7792  -1.7792  -0.5240  -0.5240   0.2479   0.2479   1.4580   1.4580
     1.7589   1.7589  11.7510  11.7510  11.8402  11.8402  13.3431

     the Fermi energy is     5.7019 ev

!    total energy              =    -225.94329919 Ry
     estimated scf accuracy    <          2.1E-09 Ry
     smearing contrib. (-TS)   =       0.00000000 Ry
     internal energy E=F+TS    =    -225.94329919 Ry

     The total energy is F=E-TS. E is the sum of the following terms:
     one-electron contribution =   -1231.91631709 Ry
     hartree contribution      =     640.03925669 Ry
     xc contribution           =     -59.13943376 Ry
     ewald contribution        =     499.03024464 Ry
     one-center paw contrib.   =     -73.95704967 Ry

     convergence has been achieved in  13 iterations

     negative rho (up, down):  2.103E-06 0.000E+00

     Forces acting on atoms (cartesian axes, Ry/au):

     atom    1 type  1   force =     0.00000000    0.00004072    0.00006456
     atom    2 type  1   force =     0.00000000   -0.00004072    0.00006456
     atom    3 type  1   force =     0.00000000    0.00005877    0.00002367
     atom    4 type  1   force =     0.00000000   -0.00005877    0.00002367
     atom    5 type  1   force =     0.00000000   -0.00005283    0.00001033
     atom    6 type  1   force =     0.00000000    0.00005283    0.00001033
     atom    7 type  1   force =     0.00000000    0.00005283   -0.00001033
     atom    8 type  1   force =     0.00000000   -0.00005283   -0.00001033
     atom    9 type  1   force =     0.00000000   -0.00005877   -0.00002367
     atom   10 type  1   force =     0.00000000    0.00005877   -0.00002367
     atom   11 type  1   force =     0.00000000   -0.00004072   -0.00006456
     atom   12 type  1   force =     0.00000000    0.00004072   -0.00006456
     atom   13 type  2   force =     0.00000000   -0.00002867   -0.00009412
     atom   14 type  2   force =     0.00000000    0.00002867   -0.00009412
     atom   15 type  2   force =     0.00000000    0.00002867    0.00009412
     atom   16 type  2   force =     0.00000000   -0.00002867    0.00009412

     Total force =     0.000299     Total SCF correction =     0.000152
     SCF correction compared to forces is large: reduce conv_thr to get better values


     Computing stress (Cartesian axis) and pressure


     negative rho (up, down):  2.103E-06 0.000E+00
          total   stress  (Ry/bohr**3)                   (kbar)     P=       26.20
   0.00017270   0.00000000   0.00000000           25.41        0.00        0.00
   0.00000000   0.00036395   0.00000000            0.00       53.54        0.00
   0.00000000   0.00000000  -0.00000235            0.00        0.00       -0.35


     Writing all to output data dir /tmp/qe/slab.save/ :
     XML data file, charge density, pseudopotentials, collected wavefunctions

     init_run     :      1.61s CPU      1.70s WALL (       1 calls)
     electrons    :     36.66s CPU     37.11s WALL (       1 calls)
     forces       :      0.38s CPU      0.40s WALL (       1 calls)
     stress       :      5.49s CPU      5.51s WALL (       1 calls)

     Called by init_run:
     wfcinit      :      1.34s CPU      1.39s WALL (       1 calls)
     potinit      :      0.12s CPU      0.14s WALL (       1 calls)
     hinit0       :      0.05s CPU      0.06s WALL (       1 calls)

     Called by electrons:
     c_bands      :     29.18s CPU     29.50s WALL (      13 calls)
     sum_band     :      5.58s CPU      5.67s WALL (      13 calls)
     v_of_rho     :      0.67s CPU      0.70s WALL (      14 calls)
     newd         :      0.38s CPU      0.40s WALL (      14 calls)
     PAW_pot      :      0.86s CPU      0.87s WALL (      14 calls)
     mix_rho      :      0.06s CPU      0.06s WALL (      13 calls)

     Called by c_bands:
     init_us_2    :      0.85s CPU      0.88s WALL (    1015 calls)
     cegterg      :     27.77s CPU     28.05s WALL (     455 calls)

     Called by *egterg:
     cdiaghg      :      1.73s CPU      1.75s WALL (    2027 calls)
     h_psi        :     22.04s CPU     22.30s WALL (    2062 calls)
     s_psi        :      1.20s CPU      1.21s WALL (    2062 calls)
     g_psi        :      0.14s CPU      0.14s WALL (    1572 calls)

     Called by h_psi:
     h_psi:calbec :      1.29s CPU      1.30s WALL (    2062 calls)
     vloc_psi     :     19.16s CPU     19.38s WALL (    2062 calls)
     add_vuspsi   :      1.44s CPU      1.46s WALL (    2062 calls)

     General routines
     calbec       :      1.86s CPU      1.89s WALL (    2692 calls)
     fft          :      0.31s CPU      0.35s WALL (     205 calls)
     ffts         :      0.01s CPU      0.01s WALL (      27 calls)
     fftw         :     16.91s CPU     17.08s WALL (   91823 calls)
     interpolate  :      0.03s CPU      0.03s WALL (      14 calls)

     Parallel routines

     PWSCF        :     44.34s CPU     45.03s WALL


   This run was terminated on:  15:45:19   2Aug2026            

=------------------------------------------------------------------------------=
   JOB DONE.
=------------------------------------------------------------------------------=
Note: The following floating-point exceptions are signalling: IEEE_UNDERFLOW_FLAG IEEE_DENORMAL
Note: The following floating-point exceptions are signalling: IEEE_UNDERFLOW_FLAG IEEE_DENORMAL
Note: The following floating-point exceptions are signalling: IEEE_UNDERFLOW_FLAG IEEE_DENORMAL
Note: The following floating-point exceptions are signalling: IEEE_UNDERFLOW_FLAG IEEE_DENORMAL
Note: The following floating-point exceptions are signalling: IEEE_UNDERFLOW_FLAG IEEE_DENORMAL
Note: The following floating-point exceptions are signalling: IEEE_UNDERFLOW_FLAG IEEE_DENORMAL
Note: The following floating-point exceptions are signalling: IEEE_UNDERFLOW_FLAG IEEE_DENORMAL
Note: The following floating-point exceptions are signalling: IEEE_UNDERFLOW_FLAG IEEE_DENORMAL
