
     Program PWSCF v.7.5 starts on  7Jul2026 at 13:37:19 

     This program is part of the open-source Quantum ESPRESSO suite
     for quantum simulation of materials; please cite
         "P. Giannozzi et al., J. Phys.:Condens. Matter 21 395502 (2009);
         "P. Giannozzi et al., J. Phys.:Condens. Matter 29 465901 (2017);
         "P. Giannozzi et al., J. Chem. Phys. 152 154105 (2020);
          URL http://www.quantum-espresso.org", 
     in publications or presentations arising from this work. More details at
     http://www.quantum-espresso.org/quote

     Serial version
     0 MiB available memory on the printing compute node when the environment starts

     Waiting for input...
     Reading input from standard input

     Current dimensions of program PWSCF are:
     Max number of different atomic species (ntypx) = 10
     Max number of k-points (npk) =  40000
     Max angular momentum in pseudopotentials (lmaxx) =  4
     file C.pbe-n-kjpaw_psl.1.0.0.UPF: wavefunction(s)  2S 2P renormalized
     Message from routine setup:
     using ibrav=0 with symmetry is DISCOURAGED, use correct ibrav instead


     G-vector sticks info
     --------------------
     sticks:   dense  smooth     PW     G-vecs:    dense   smooth      PW
     Sum         745     367    121                96459    34033    5993

     Using Slab Decomposition



     bravais-lattice index     =            0
     lattice parameter (alat)  =       4.7275  a.u.
     unit-cell volume          =     542.1319 (a.u.)^3
     number of atoms/cell      =            8
     number of atomic types    =            2
     number of electrons       =        26.00
     number of Kohn-Sham states=           17
     kinetic-energy cutoff     =      60.0000  Ry
     charge density cutoff     =     480.0000  Ry
     scf convergence threshold =      1.0E-08
     mixing beta               =       0.3000
     number of iterations used =            8  plain     mixing
     Exchange-correlation= PBE
                           (   1   4   3   4   0   0   0)

     celldm(1)=   4.727483  celldm(2)=   0.000000  celldm(3)=   0.000000
     celldm(4)=   0.000000  celldm(5)=   0.000000  celldm(6)=   0.000000

     crystal axes: (cart. coord. in units of alat)
               a(1) = (   1.000000   0.000000   0.000000 )  
               a(2) = (   0.500000   0.866025   0.000000 )  
               a(3) = (   0.000000   0.000000   5.924945 )  

     reciprocal axes: (cart. coord. in units 2 pi/alat)
               b(1) = (  1.000000 -0.577350  0.000000 )  
               b(2) = (  0.000000  1.154701  0.000000 )  
               b(3) = (  0.000000  0.000000  0.168778 )  


     PseudoPot. # 1 for C  read from file:
     ./C.pbe-n-kjpaw_psl.1.0.0.UPF
     MD5 check sum: 5d2aebdfa2cae82b50a7e79e9516da0f
     Pseudo is Projector augmented-wave + core cor, Zval =  4.0
     Generated using "atomic" code by A. Dal Corso  v.5.1
     Shape of augmentation charge: PSQ
     Using radial grid of 1073 points,  4 beta functions with: 
                l(1) =   0
                l(2) =   0
                l(3) =   1
                l(4) =   1
     Q(r) pseudized with 0 coefficients 


     PseudoPot. # 2 for H  read from file:
     ./H_ONCV_PBE-1.0.oncvpsp.upf
     MD5 check sum: 1790becc920ee074925cf490c71280fe
     Pseudo is Norm-conserving, Zval =  1.0
     Generated using ONCVPSP code by D. R. Hamann
     Using radial grid of 1166 points,  2 beta functions with: 
                l(1) =   0
                l(2) =   0

     atomic species   valence    mass     pseudopotential
     C                 4.00    12.01100     C ( 1.00)
     H                 1.00     1.00800     H ( 1.00)

     12 Sym. Ops., with inversion, found ( 6 have fractional translation)



   Cartesian axes

     site n.     atom                  positions (alat units)
         1        C      tau(   1) = (   0.5000000   0.2886751   3.8814104  )
         2        C      tau(   2) = (   1.0000000   0.5773503   3.6864035  )
         3        C      tau(   3) = (   1.0000000   0.5773503   3.0651510  )
         4        C      tau(   4) = (   0.0000000   0.0000000   2.8597945  )
         5        C      tau(   5) = (   0.0000000   0.0000000   2.2385419  )
         6        C      tau(   6) = (   0.5000000   0.2886751   2.0435351  )
         7        H      tau(   7) = (   0.5000000   0.2886751   4.3246900  )
         8        H      tau(   8) = (   0.5000000   0.2886751   1.6002555  )

     number of k points=    12  Marzari-Vanderbilt smearing, width (Ry)=  0.0100
                       cart. coord. in units 2pi/alat
        k(    1) = (   0.0000000   0.0000000   0.0000000), wk =   0.0246914
        k(    2) = (   0.0000000   0.1283001   0.0000000), wk =   0.1481481
        k(    3) = (   0.0000000   0.2566001   0.0000000), wk =   0.1481481
        k(    4) = (   0.0000000   0.3849002   0.0000000), wk =   0.1481481
        k(    5) = (   0.0000000   0.5132002   0.0000000), wk =   0.1481481
        k(    6) = (   0.1111111   0.1924501   0.0000000), wk =   0.1481481
        k(    7) = (   0.1111111   0.3207501   0.0000000), wk =   0.2962963
        k(    8) = (   0.1111111   0.4490502   0.0000000), wk =   0.2962963
        k(    9) = (   0.1111111  -0.5773503   0.0000000), wk =   0.1481481
        k(   10) = (   0.2222222   0.3849002   0.0000000), wk =   0.1481481
        k(   11) = (   0.2222222  -0.6415003   0.0000000), wk =   0.2962963
        k(   12) = (   0.3333333  -0.5773503   0.0000000), wk =   0.0493827

     Dense  grid:    96459 G-vectors     FFT dimensions: (  36,  36, 200)

     Smooth grid:    34033 G-vectors     FFT dimensions: (  24,  24, 144)

     Estimated max dynamical RAM per process >     166.68 MB

     Check: negative core charge=   -0.000002

     Initial potential from superposition of free atoms

     starting charge      25.9997, renormalised to      26.0000

     negative rho (up, down):  3.069E-07 0.000E+00
     Starting wfcs are   26 randomized atomic wfcs

     total cpu time spent up to now is        0.6 secs

     Self-consistent Calculation

     iteration #  1     ecut=    60.00 Ry     beta= 0.30
     Davidson diagonalization with overlap
     ethr =  1.00E-02,  avg # of iterations =  2.9

     negative rho (up, down):  1.512E-06 0.000E+00

     total cpu time spent up to now is        1.4 secs

     total energy              =    -113.01297070 Ry
     estimated scf accuracy    <       0.63691564 Ry

     iteration #  2     ecut=    60.00 Ry     beta= 0.30
     Davidson diagonalization with overlap
     ethr =  2.45E-03,  avg # of iterations =  3.6

     negative rho (up, down):  4.544E-06 0.000E+00

     total cpu time spent up to now is        2.1 secs

     total energy              =    -112.97533243 Ry
     estimated scf accuracy    <       0.19050701 Ry

     iteration #  3     ecut=    60.00 Ry     beta= 0.30
     Davidson diagonalization with overlap
     ethr =  7.33E-04,  avg # of iterations =  4.0

     negative rho (up, down):  4.255E-06 0.000E+00

     total cpu time spent up to now is        2.8 secs

     total energy              =    -112.98029365 Ry
     estimated scf accuracy    <       0.02852451 Ry

     iteration #  4     ecut=    60.00 Ry     beta= 0.30
     Davidson diagonalization with overlap
     ethr =  1.10E-04,  avg # of iterations =  5.5

     negative rho (up, down):  2.991E-06 0.000E+00

     total cpu time spent up to now is        3.5 secs

     total energy              =    -112.98137231 Ry
     estimated scf accuracy    <       0.00341773 Ry

     iteration #  5     ecut=    60.00 Ry     beta= 0.30
     Davidson diagonalization with overlap
     ethr =  1.31E-05,  avg # of iterations =  4.9

     negative rho (up, down):  2.182E-06 0.000E+00

     total cpu time spent up to now is        4.3 secs

     total energy              =    -112.98182430 Ry
     estimated scf accuracy    <       0.00028045 Ry

     iteration #  6     ecut=    60.00 Ry     beta= 0.30
     Davidson diagonalization with overlap
     ethr =  1.08E-06,  avg # of iterations =  4.2

     negative rho (up, down):  2.015E-06 0.000E+00

     total cpu time spent up to now is        5.0 secs

     total energy              =    -112.98186050 Ry
     estimated scf accuracy    <       0.00008264 Ry

     iteration #  7     ecut=    60.00 Ry     beta= 0.30
     Davidson diagonalization with overlap
     ethr =  3.18E-07,  avg # of iterations =  2.0

     negative rho (up, down):  1.832E-06 0.000E+00

     total cpu time spent up to now is        5.7 secs

     total energy              =    -112.98187688 Ry
     estimated scf accuracy    <       0.00004049 Ry

     iteration #  8     ecut=    60.00 Ry     beta= 0.30
     Davidson diagonalization with overlap
     ethr =  1.56E-07,  avg # of iterations =  1.5

     negative rho (up, down):  1.771E-06 0.000E+00

     total cpu time spent up to now is        6.2 secs

     total energy              =    -112.98187995 Ry
     estimated scf accuracy    <       0.00000424 Ry

     iteration #  9     ecut=    60.00 Ry     beta= 0.30
     Davidson diagonalization with overlap
     ethr =  1.63E-08,  avg # of iterations =  2.3

     negative rho (up, down):  1.740E-06 0.000E+00

     total cpu time spent up to now is        6.9 secs

     total energy              =    -112.98188069 Ry
     estimated scf accuracy    <       0.00000031 Ry

     iteration # 10     ecut=    60.00 Ry     beta= 0.30
     Davidson diagonalization with overlap
     ethr =  1.19E-09,  avg # of iterations =  3.0

     negative rho (up, down):  1.730E-06 0.000E+00

     total cpu time spent up to now is        7.6 secs

     total energy              =    -112.98188076 Ry
     estimated scf accuracy    <       0.00000010 Ry

     iteration # 11     ecut=    60.00 Ry     beta= 0.30
     Davidson diagonalization with overlap
     ethr =  3.69E-10,  avg # of iterations =  2.1

     negative rho (up, down):  1.730E-06 0.000E+00

     total cpu time spent up to now is        8.3 secs

     total energy              =    -112.98188078 Ry
     estimated scf accuracy    <       0.00000001 Ry

     iteration # 12     ecut=    60.00 Ry     beta= 0.30
     Davidson diagonalization with overlap
     ethr =  4.53E-11,  avg # of iterations =  2.5

     negative rho (up, down):  1.747E-06 0.000E+00

     total cpu time spent up to now is        8.9 secs

     End of self-consistent calculation

          k = 0.0000 0.0000 0.0000 (  4251 PWs)   bands (ev):

   -16.9785 -15.4888 -13.2656  -8.3665  -5.2828  -1.3563   1.7493   1.7493
     2.1955   2.5982   2.5982   3.6668   3.6668   6.5392   6.7238   9.3468
    10.7072

          k = 0.0000 0.1283 0.0000 (  4216 PWs)   bands (ev):

   -16.6715 -15.1880 -12.9777  -8.0863  -5.0462  -1.2175   0.3141   1.1088
     1.2298   2.0517   2.1080   2.4952   3.2076   6.7993   7.0652   9.3791
    10.6590

          k = 0.0000 0.2566 0.0000 (  4244 PWs)   bands (ev):

   -15.7564 -14.2929 -12.1233  -7.2991  -4.4213  -2.7150  -1.6087  -0.8402
    -0.2117  -0.0943   0.9395   1.9334   2.1965   7.5759   7.9854   9.5695
    10.5281

          k = 0.0000 0.3849 0.0000 (  4266 PWs)   bands (ev):

   -14.2571 -12.8352 -10.7504  -6.7005  -5.6894  -4.4742  -3.7761  -2.6262
    -1.1144  -0.7375  -0.0406   1.2405   1.2644   8.7389   9.1087   9.8623
    10.7686

          k = 0.0000 0.5132 0.0000 (  4272 PWs)   bands (ev):

   -12.2678 -11.0357  -9.6443  -8.2333  -7.9585  -6.1404  -3.8142  -2.5357
    -1.6697  -1.3133  -0.5811   0.6858   0.7424   9.2024   9.8848  10.6335
    10.9996

          k = 0.1111 0.1925 0.0000 (  4230 PWs)   bands (ev):

   -16.0603 -14.5899 -12.4063  -7.5490  -4.6078  -1.4884  -0.9042  -0.8959
     0.0863   0.3978   1.4853   1.4884   2.4594   7.3524   7.6998   9.8161
    10.7958

          k = 0.1111 0.3208 0.0000 (  4250 PWs)   bands (ev):

   -14.8521 -13.4112 -11.2865  -6.6650  -4.3708  -3.8588  -3.0122  -2.2163
    -1.1015  -0.7042  -0.4434   0.5248   1.8427   8.4745   8.7789  10.4344
    11.1544

          k = 0.1111 0.4491 0.0000 (  4277 PWs)   bands (ev):

   -13.0920 -11.7214  -9.7598  -7.5380  -6.6213  -4.8432  -4.2973  -2.5622
    -2.3921  -1.5565  -0.8520  -0.0710   0.9614   9.5338  10.1430  10.9557
    11.7986

          k = 0.1111-0.5774 0.0000 (  4266 PWs)   bands (ev):

   -11.2429 -10.7240  -9.5249  -8.6214  -7.4587  -6.9488  -3.2225  -2.9600
    -2.5487  -1.5869  -1.4990  -0.1220   0.4540   9.7678  10.8562  11.5782
    11.9608

          k = 0.2222 0.3849 0.0000 (  4248 PWs)   bands (ev):

   -13.3773 -11.9848  -9.9545  -6.6527  -5.4942  -4.7623  -3.9380  -3.3348
    -2.6681  -1.8625  -1.6606  -0.5397   1.0581   9.7230  10.0150  11.3912
    11.9424

          k = 0.2222-0.6415 0.0000 (  4260 PWs)   bands (ev):

   -11.4399 -10.2534  -8.8828  -7.8918  -7.3939  -6.0792  -4.4215  -4.0341
    -2.9661  -2.5909  -1.6655  -0.8270   0.0535  10.3215  11.0138  12.2094
    12.3682

          k = 0.3333-0.5774 0.0000 (  4236 PWs)   bands (ev):

    -9.7691  -9.7691  -8.7030  -8.3821  -7.0144  -7.0144  -4.9038  -4.6354
    -4.6354  -1.7609  -1.2275  -1.2275  -0.9114  10.9340  10.9340  11.5917
    13.3197

     the Fermi energy is     4.3617 ev

!    total energy              =    -112.98188077 Ry
     estimated scf accuracy    <          7.4E-09 Ry
     smearing contrib. (-TS)   =       0.00000000 Ry
     internal energy E=F+TS    =    -112.98188077 Ry

     The total energy is F=E-TS. E is the sum of the following terms:
     one-electron contribution =    -600.29989045 Ry
     hartree contribution      =     311.28226838 Ry
     xc contribution           =     -29.61240321 Ry
     ewald contribution        =     242.62891108 Ry
     one-center paw contrib.   =     -36.98076657 Ry

     convergence has been achieved in  12 iterations

     negative rho (up, down):  1.747E-06 0.000E+00

     Forces acting on atoms (cartesian axes, Ry/au):

     atom    1 type  1   force =     0.00000000    0.00000000    0.00248933
     atom    2 type  1   force =     0.00000000   -0.00000000   -0.00195977
     atom    3 type  1   force =     0.00000000    0.00000000    0.00118198
     atom    4 type  1   force =    -0.00000000   -0.00000000   -0.00118198
     atom    5 type  1   force =    -0.00000000   -0.00000000    0.00195977
     atom    6 type  1   force =     0.00000000    0.00000000   -0.00248933
     atom    7 type  2   force =     0.00000000    0.00000000    0.00077756
     atom    8 type  2   force =     0.00000000    0.00000000   -0.00077756

     Total force =     0.004907     Total SCF correction =     0.000092


     Computing stress (Cartesian axis) and pressure


     negative rho (up, down):  1.747E-06 0.000E+00
          total   stress  (Ry/bohr**3)                   (kbar)     P=       40.34
   0.00040228   0.00000000   0.00000000           59.18        0.00        0.00
   0.00000000   0.00040228  -0.00000000            0.00       59.18       -0.00
   0.00000000   0.00000000   0.00001821            0.00        0.00        2.68


     Writing all to output data dir ./tmp/slab.save/ :
     XML data file, charge density, pseudopotentials, collected wavefunctions

     init_run     :      0.52s CPU      0.55s WALL (       1 calls)
     electrons    :      8.03s CPU      8.34s WALL (       1 calls)
     forces       :      0.13s CPU      0.14s WALL (       1 calls)
     stress       :      0.36s CPU      0.40s WALL (       1 calls)

     Called by init_run:
     wfcinit      :      0.24s CPU      0.25s WALL (       1 calls)
     potinit      :      0.13s CPU      0.14s WALL (       1 calls)
     hinit0       :      0.11s CPU      0.12s WALL (       1 calls)

     Called by electrons:
     c_bands      :      5.30s CPU      5.46s WALL (      12 calls)
     sum_band     :      1.11s CPU      1.16s WALL (      12 calls)
     v_of_rho     :      0.47s CPU      0.50s WALL (      13 calls)
     newd         :      0.22s CPU      0.26s WALL (      13 calls)
     PAW_pot      :      0.97s CPU      1.01s WALL (      13 calls)
     mix_rho      :      0.05s CPU      0.06s WALL (      12 calls)

     Called by c_bands:
     init_us_2    :      0.11s CPU      0.12s WALL (     324 calls)
     cegterg      :      5.12s CPU      5.27s WALL (     144 calls)

     Called by *egterg:
     cdiaghg      :      0.09s CPU      0.10s WALL (     607 calls)
     h_psi        :      4.14s CPU      4.21s WALL (     619 calls)
     s_psi        :      0.25s CPU      0.26s WALL (     619 calls)
     g_psi        :      0.02s CPU      0.02s WALL (     463 calls)

     Called by h_psi:
     h_psi:calbec :      0.30s CPU      0.32s WALL (     619 calls)
     vloc_psi     :      3.54s CPU      3.56s WALL (     619 calls)
                                        0.00s GPU  (     619 calls)
     add_vuspsi   :      0.28s CPU      0.31s WALL (     619 calls)

     General routines
     calbec       :      0.51s CPU      0.56s WALL (     967 calls)
     fft          :      0.26s CPU      0.26s WALL (     192 calls)
     ffts         :      0.01s CPU      0.01s WALL (      25 calls)
     fftw         :      3.76s CPU      3.77s WALL (   15618 calls)
     interpolate  :      0.03s CPU      0.03s WALL (      13 calls)


     PWSCF        :      9.08s CPU      9.47s WALL


   This run was terminated on:  13:37:28   7Jul2026            

=------------------------------------------------------------------------------=
   JOB DONE.
=------------------------------------------------------------------------------=
Note: The following floating-point exceptions are signalling: IEEE_INVALID_FLAG IEEE_DIVIDE_BY_ZERO IEEE_OVERFLOW_FLAG IEEE_UNDERFLOW_FLAG
