
     Program PWSCF v.7.5 starts on 22Jun2026 at 14:32:55 

     This program is part of the open-source Quantum ESPRESSO suite
     for quantum simulation of materials; please cite
         "P. Giannozzi et al., J. Phys.:Condens. Matter 21 395502 (2009);
         "P. Giannozzi et al., J. Phys.:Condens. Matter 29 465901 (2017);
         "P. Giannozzi et al., J. Chem. Phys. 152 154105 (2020);
          URL http://www.quantum-espresso.org", 
     in publications or presentations arising from this work. More details at
     http://www.quantum-espresso.org/quote

     Serial version
     0 MiB available memory on the printing compute node when the environment starts

     Waiting for input...
     Reading input from standard input

     Current dimensions of program PWSCF are:
     Max number of different atomic species (ntypx) = 10
     Max number of k-points (npk) =  40000
     Max angular momentum in pseudopotentials (lmaxx) =  4
     file C.pbe-n-kjpaw_psl.1.0.0.UPF: wavefunction(s)  2S 2P renormalized
     Message from routine setup:
     using ibrav=0 with symmetry is DISCOURAGED, use correct ibrav instead


     G-vector sticks info
     --------------------
     sticks:   dense  smooth     PW     G-vecs:    dense   smooth      PW
     Sum         979     499    151               206913    73525   12309

     Using Slab Decomposition



     bravais-lattice index     =            0
     lattice parameter (alat)  =       4.7275  a.u.
     unit-cell volume          =     758.2927 (a.u.)^3
     number of atoms/cell      =            7
     number of atomic types    =            2
     number of electrons       =        25.00
     number of Kohn-Sham states=           17
     kinetic-energy cutoff     =      80.0000  Ry
     charge density cutoff     =     640.0000  Ry
     scf convergence threshold =      1.0E-08
     mixing beta               =       0.3000
     number of iterations used =            8  plain     mixing
     Exchange-correlation= PBE
                           (   1   4   3   4   0   0   0)

     celldm(1)=   4.727483  celldm(2)=   0.000000  celldm(3)=   0.000000
     celldm(4)=   0.000000  celldm(5)=   0.000000  celldm(6)=   0.000000

     crystal axes: (cart. coord. in units of alat)
               a(1) = (   1.000000   0.000000   0.000000 )  
               a(2) = (   0.500000   0.866025   0.000000 )  
               a(3) = (   0.000000   0.000000   8.287361 )  

     reciprocal axes: (cart. coord. in units 2 pi/alat)
               b(1) = (  1.000000 -0.577350  0.000000 )  
               b(2) = (  0.000000  1.154701  0.000000 )  
               b(3) = (  0.000000  0.000000  0.120666 )  


     PseudoPot. # 1 for C  read from file:
     ./C.pbe-n-kjpaw_psl.1.0.0.UPF
     MD5 check sum: 5d2aebdfa2cae82b50a7e79e9516da0f
     Pseudo is Projector augmented-wave + core cor, Zval =  4.0
     Generated using "atomic" code by A. Dal Corso  v.5.1
     Shape of augmentation charge: PSQ
     Using radial grid of 1073 points,  4 beta functions with: 
                l(1) =   0
                l(2) =   0
                l(3) =   1
                l(4) =   1
     Q(r) pseudized with 0 coefficients 


     PseudoPot. # 2 for H  read from file:
     ./H_ONCV_PBE-1.0.oncvpsp.upf
     MD5 check sum: 1790becc920ee074925cf490c71280fe
     Pseudo is Norm-conserving, Zval =  1.0
     Generated using ONCVPSP code by D. R. Hamann
     Using radial grid of 1166 points,  2 beta functions with: 
                l(1) =   0
                l(2) =   0

     atomic species   valence    mass     pseudopotential
     C                 4.00    12.01100     C ( 1.00)
     H                 1.00     1.00800     H ( 1.00)

      6 Sym. Ops. (no inversion) found



   Cartesian axes

     site n.     atom                  positions (alat units)
         1        C      tau(   1) = (   0.5000000   0.2886751   4.8554045  )
         2        C      tau(   2) = (   1.0000000   0.5773503   4.6612808  )
         3        C      tau(   3) = (   1.0000000   0.5773503   4.0360538  )
         4        C      tau(   4) = (   0.0000000   0.0000000   3.8370971  )
         5        C      tau(   5) = (   0.0000000   0.0000000   3.2041758  )
         6        C      tau(   6) = (   0.5000000   0.2886751   2.9979898  )
         7        H      tau(   7) = (   0.5000000   0.2886751   5.2982481  )

     number of k points=    12  Marzari-Vanderbilt smearing, width (Ry)=  0.0100
                       cart. coord. in units 2pi/alat
        k(    1) = (   0.0000000   0.0000000   0.0000000), wk =   0.0246914
        k(    2) = (   0.0000000   0.1283001   0.0000000), wk =   0.1481481
        k(    3) = (   0.0000000   0.2566001   0.0000000), wk =   0.1481481
        k(    4) = (   0.0000000   0.3849002   0.0000000), wk =   0.1481481
        k(    5) = (   0.0000000   0.5132002   0.0000000), wk =   0.1481481
        k(    6) = (   0.1111111   0.1924501   0.0000000), wk =   0.1481481
        k(    7) = (   0.1111111   0.3207501   0.0000000), wk =   0.2962963
        k(    8) = (   0.1111111   0.4490502   0.0000000), wk =   0.2962963
        k(    9) = (   0.1111111  -0.5773503   0.0000000), wk =   0.1481481
        k(   10) = (   0.2222222   0.3849002   0.0000000), wk =   0.1481481
        k(   11) = (   0.2222222  -0.6415003   0.0000000), wk =   0.2962963
        k(   12) = (   0.3333333  -0.5773503   0.0000000), wk =   0.0493827

     Dense  grid:   206913 G-vectors     FFT dimensions: (  40,  40, 320)

     Smooth grid:    73525 G-vectors     FFT dimensions: (  27,  27, 225)

     Estimated max dynamical RAM per process >     353.40 MB

     Initial potential from superposition of free atoms

     starting charge      24.9997, renormalised to      25.0000

     negative rho (up, down):  3.429E-05 0.000E+00
     Starting wfcs are   25 randomized atomic wfcs

     total cpu time spent up to now is        0.9 secs

     Self-consistent Calculation

     iteration #  1     ecut=    80.00 Ry     beta= 0.30
     Davidson diagonalization with overlap
     ethr =  1.00E-02,  avg # of iterations =  2.8

     negative rho (up, down):  3.320E-05 0.000E+00

     total cpu time spent up to now is        2.5 secs

     total energy              =    -111.64763244 Ry
     estimated scf accuracy    <       0.47210882 Ry

     iteration #  2     ecut=    80.00 Ry     beta= 0.30
     Davidson diagonalization with overlap
     ethr =  1.89E-03,  avg # of iterations =  3.8

     negative rho (up, down):  3.946E-05 0.000E+00

     total cpu time spent up to now is        3.9 secs

     total energy              =    -111.60029675 Ry
     estimated scf accuracy    <       0.16268522 Ry

     iteration #  3     ecut=    80.00 Ry     beta= 0.30
     Davidson diagonalization with overlap
     ethr =  6.51E-04,  avg # of iterations =  6.0

     negative rho (up, down):  3.869E-05 0.000E+00

     total cpu time spent up to now is        5.4 secs

     total energy              =    -111.60637229 Ry
     estimated scf accuracy    <       0.03843064 Ry

     iteration #  4     ecut=    80.00 Ry     beta= 0.30
     Davidson diagonalization with overlap
     ethr =  1.54E-04,  avg # of iterations =  6.2

     negative rho (up, down):  3.293E-05 0.000E+00

     total cpu time spent up to now is        7.0 secs

     total energy              =    -111.60898760 Ry
     estimated scf accuracy    <       0.03026515 Ry

     iteration #  5     ecut=    80.00 Ry     beta= 0.30
     Davidson diagonalization with overlap
     ethr =  1.21E-04,  avg # of iterations =  2.8

     negative rho (up, down):  3.350E-05 0.000E+00

     total cpu time spent up to now is        8.2 secs

     total energy              =    -111.61189441 Ry
     estimated scf accuracy    <       0.00198934 Ry

     iteration #  6     ecut=    80.00 Ry     beta= 0.30
     Davidson diagonalization with overlap
     ethr =  7.96E-06,  avg # of iterations =  5.4

     negative rho (up, down):  3.263E-05 0.000E+00

     total cpu time spent up to now is        9.7 secs

     total energy              =    -111.61211846 Ry
     estimated scf accuracy    <       0.00022791 Ry

     iteration #  7     ecut=    80.00 Ry     beta= 0.30
     Davidson diagonalization with overlap
     ethr =  9.12E-07,  avg # of iterations =  4.6

     negative rho (up, down):  3.346E-05 0.000E+00

     total cpu time spent up to now is       11.2 secs

     total energy              =    -111.61213809 Ry
     estimated scf accuracy    <       0.00009155 Ry

     iteration #  8     ecut=    80.00 Ry     beta= 0.30
     Davidson diagonalization with overlap
     ethr =  3.66E-07,  avg # of iterations =  2.6

     negative rho (up, down):  3.296E-05 0.000E+00

     total cpu time spent up to now is       12.5 secs

     total energy              =    -111.61214990 Ry
     estimated scf accuracy    <       0.00007110 Ry

     iteration #  9     ecut=    80.00 Ry     beta= 0.30
     Davidson diagonalization with overlap
     ethr =  2.84E-07,  avg # of iterations =  1.2

     negative rho (up, down):  3.285E-05 0.000E+00

     total cpu time spent up to now is       13.6 secs

     total energy              =    -111.61215918 Ry
     estimated scf accuracy    <       0.00000089 Ry

     iteration # 10     ecut=    80.00 Ry     beta= 0.30
     Davidson diagonalization with overlap
     ethr =  3.57E-09,  avg # of iterations =  4.2

     negative rho (up, down):  3.283E-05 0.000E+00

     total cpu time spent up to now is       15.2 secs

     total energy              =    -111.61215973 Ry
     estimated scf accuracy    <       0.00000039 Ry

     iteration # 11     ecut=    80.00 Ry     beta= 0.30
     Davidson diagonalization with overlap
     ethr =  1.56E-09,  avg # of iterations =  2.0

     negative rho (up, down):  3.280E-05 0.000E+00

     total cpu time spent up to now is       16.4 secs

     total energy              =    -111.61215978 Ry
     estimated scf accuracy    <       0.00000003 Ry

     iteration # 12     ecut=    80.00 Ry     beta= 0.30
     Davidson diagonalization with overlap
     ethr =  1.03E-10,  avg # of iterations =  3.4

     negative rho (up, down):  3.275E-05 0.000E+00

     total cpu time spent up to now is       17.9 secs

     End of self-consistent calculation

          k = 0.0000 0.0000 0.0000 (  9195 PWs)   bands (ev):

   -20.2632 -18.3332 -16.0110 -11.0628  -7.1572  -2.8643  -1.6379  -1.6379
    -0.4554  -0.4554   0.8923   0.8923   1.4917   3.5732   5.3732   6.2880
     6.7627

          k = 0.0000 0.1283 0.0000 (  9197 PWs)   bands (ev):

   -19.9568 -18.0332 -15.7239 -10.7889  -6.9341  -3.1012  -2.7305  -2.2657
    -1.7700  -0.9747  -0.4207   0.3979   1.6651   3.7894   5.7286   6.5613
     7.1292

          k = 0.0000 0.2566 0.0000 (  9168 PWs)   bands (ev):

   -19.0439 -17.1408 -14.8713 -10.0246  -6.4273  -5.9810  -4.5547  -3.4571
    -3.1634  -2.4370  -2.0580  -0.6452   1.6538   4.4990   6.5445   6.9889
     7.7077

          k = 0.0000 0.3849 0.0000 (  9156 PWs)   bands (ev):

   -17.5487 -15.6900 -13.4998  -9.7646  -8.6320  -7.4279  -6.2131  -5.2113
    -4.4723  -3.0251  -2.7500  -1.5892   1.5405   5.5876   6.4547   7.8021
     8.5980

          k = 0.0000 0.5132 0.0000 (  9182 PWs)   bands (ev):

   -15.5717 -13.9683 -12.5833 -11.3416 -10.7207  -8.8774  -6.7603  -5.2150
    -5.0258  -3.5606  -3.2398  -2.1149   1.5171   6.0199   6.7389   7.7283
     8.5732

          k = 0.1111 0.1925 0.0000 (  9145 PWs)   bands (ev):

   -19.3471 -17.4369 -15.1538 -10.2656  -6.5346  -4.8082  -4.0660  -2.8925
    -2.8531  -2.4800  -1.5545  -0.7866   1.7468   4.2892   6.4530   7.2410
     7.6160

          k = 0.1111 0.3208 0.0000 (  9147 PWs)   bands (ev):

   -18.1419 -16.2625 -14.0355  -9.4470  -7.5095  -6.4928  -5.5730  -5.1615
    -4.3042  -3.5583  -2.6028  -1.9036   1.6771   5.3286   7.2585   7.9714
     8.7247

          k = 0.1111 0.4491 0.0000 (  9166 PWs)   bands (ev):

   -16.3879 -14.5883 -12.5222 -10.7819  -9.4633  -7.5768  -7.1928  -5.8167
    -5.0543  -4.3438  -3.2779  -2.5985   1.5847   6.4073   7.4893   8.5610
     9.0737

          k = 0.1111-0.5774 0.0000 (  9156 PWs)   bands (ev):

   -14.5959 -13.8252 -12.3094 -11.6386 -10.2888  -9.6627  -6.3503  -6.1112
    -5.4277  -4.4866  -3.5943  -2.8931   1.5459   6.7390   7.6500   8.7311
     8.9926

          k = 0.2222 0.3849 0.0000 (  9143 PWs)   bands (ev):

   -16.6716 -14.8450 -12.7056  -9.7725  -8.5382  -7.6591  -6.8154  -6.3925
    -5.3323  -4.6296  -4.4658  -2.6293   1.6411   6.5104   8.2491   8.6047
     9.7974

          k = 0.2222-0.6415 0.0000 (  9162 PWs)   bands (ev):

   -14.7476 -13.1927 -11.9374 -10.6776 -10.4070  -8.8788  -7.6349  -7.0088
    -5.8559  -5.3434  -4.4897  -3.3704   1.5800   7.2420   8.2784   9.3821
    10.0840

          k = 0.3333-0.5774 0.0000 (  9189 PWs)   bands (ev):

   -13.2651 -12.7454 -12.1230 -10.3773 -10.3138  -9.8676  -7.9996  -7.9567
    -6.9787  -4.8455  -4.5388  -4.0472   1.5739   7.5342   8.4596   8.8638
    10.6705

     the Fermi energy is     1.6249 ev

!    total energy              =    -111.61215978 Ry
     estimated scf accuracy    <          5.2E-09 Ry
     smearing contrib. (-TS)   =      -0.00206765 Ry
     internal energy E=F+TS    =    -111.61009213 Ry

     The total energy is F=E-TS. E is the sum of the following terms:
     one-electron contribution =   -1243.99916219 Ry
     hartree contribution      =     629.99199478 Ry
     xc contribution           =     -28.67827347 Ry
     ewald contribution        =     568.06279072 Ry
     one-center paw contrib.   =     -36.98744195 Ry

     convergence has been achieved in  12 iterations

     negative rho (up, down):  3.275E-05 0.000E+00

     Forces acting on atoms (cartesian axes, Ry/au):

     atom    1 type  1   force =     0.00000000    0.00000000    0.00203422
     atom    2 type  1   force =     0.00000000    0.00000000   -0.00127045
     atom    3 type  1   force =     0.00000000    0.00000000    0.00055830
     atom    4 type  1   force =     0.00000000    0.00000000    0.00002886
     atom    5 type  1   force =     0.00000000    0.00000000   -0.16308607
     atom    6 type  1   force =     0.00000000    0.00000000    0.16077504
     atom    7 type  2   force =     0.00000000    0.00000000    0.00096011

     Total force =     0.002643     Total SCF correction =     0.000081


     Computing stress (Cartesian axis) and pressure


     negative rho (up, down):  3.275E-05 0.000E+00
          total   stress  (Ry/bohr**3)                   (kbar)     P=       15.29
   0.00024855  -0.00000000   0.00000000           36.56       -0.00        0.00
   0.00000000   0.00024855   0.00000000            0.00       36.56        0.00
   0.00000000   0.00000000  -0.00018526            0.00        0.00      -27.25


     Writing all to output data dir ./tmp/slab.save/ :
     XML data file, charge density, pseudopotentials, collected wavefunctions

     init_run     :      0.86s CPU      0.91s WALL (       1 calls)
     electrons    :     16.14s CPU     16.94s WALL (       1 calls)
     forces       :      0.26s CPU      0.29s WALL (       1 calls)
     stress       :      0.73s CPU      0.80s WALL (       1 calls)

     Called by init_run:
     wfcinit      :      0.49s CPU      0.52s WALL (       1 calls)
     potinit      :      0.17s CPU      0.17s WALL (       1 calls)
     hinit0       :      0.13s CPU      0.13s WALL (       1 calls)

     Called by electrons:
     c_bands      :     11.55s CPU     12.10s WALL (      12 calls)
     sum_band     :      2.28s CPU      2.42s WALL (      12 calls)
     v_of_rho     :      0.91s CPU      0.94s WALL (      13 calls)
     newd         :      0.47s CPU      0.56s WALL (      13 calls)
     PAW_pot      :      0.90s CPU      0.90s WALL (      13 calls)
     mix_rho      :      0.12s CPU      0.12s WALL (      12 calls)

     Called by c_bands:
     init_us_2    :      0.21s CPU      0.22s WALL (     324 calls)
     cegterg      :     11.19s CPU     11.74s WALL (     144 calls)

     Called by *egterg:
     cdiaghg      :      0.10s CPU      0.10s WALL (     683 calls)
     h_psi        :      8.88s CPU      9.21s WALL (     695 calls)
     s_psi        :      0.50s CPU      0.61s WALL (     695 calls)
     g_psi        :      0.04s CPU      0.04s WALL (     539 calls)

     Called by h_psi:
     h_psi:calbec :      0.74s CPU      0.91s WALL (     695 calls)
     vloc_psi     :      7.52s CPU      7.55s WALL (     695 calls)
                                        0.00s GPU  (     695 calls)
     add_vuspsi   :      0.59s CPU      0.70s WALL (     695 calls)

     General routines
     calbec       :      1.17s CPU      1.44s WALL (    1043 calls)
     fft          :      0.69s CPU      0.69s WALL (     192 calls)
     ffts         :      0.02s CPU      0.02s WALL (      25 calls)
     fftw         :      7.98s CPU      8.01s WALL (   15938 calls)
     interpolate  :      0.06s CPU      0.07s WALL (      13 calls)


     PWSCF        :     18.02s CPU     19.00s WALL


   This run was terminated on:  14:33:14  22Jun2026            

=------------------------------------------------------------------------------=
   JOB DONE.
=------------------------------------------------------------------------------=
Note: The following floating-point exceptions are signalling: IEEE_INVALID_FLAG IEEE_DIVIDE_BY_ZERO IEEE_OVERFLOW_FLAG IEEE_UNDERFLOW_FLAG
