
     Program PWSCF v.7.5 starts on 23Jun2026 at 13:48:34 

     This program is part of the open-source Quantum ESPRESSO suite
     for quantum simulation of materials; please cite
         "P. Giannozzi et al., J. Phys.:Condens. Matter 21 395502 (2009);
         "P. Giannozzi et al., J. Phys.:Condens. Matter 29 465901 (2017);
         "P. Giannozzi et al., J. Chem. Phys. 152 154105 (2020);
          URL http://www.quantum-espresso.org", 
     in publications or presentations arising from this work. More details at
     http://www.quantum-espresso.org/quote

     Serial version
     0 MiB available memory on the printing compute node when the environment starts

     Waiting for input...
     Reading input from standard input

     Current dimensions of program PWSCF are:
     Max number of different atomic species (ntypx) = 10
     Max number of k-points (npk) =  40000
     Max angular momentum in pseudopotentials (lmaxx) =  4
     file C.pbe-n-kjpaw_psl.1.0.0.UPF: wavefunction(s)  2S 2P renormalized
     Message from routine volume:
     axis vectors are left-handed
     Message from routine setup:
     using ibrav=0 with symmetry is DISCOURAGED, use correct ibrav instead


     G-vector sticks info
     --------------------
     sticks:   dense  smooth     PW     G-vecs:    dense   smooth      PW
     Sum        2347    1177    343               487569   172573   26617

     Using Slab Decomposition



     bravais-lattice index     =            0
     lattice parameter (alat)  =       4.7752  a.u.
     unit-cell volume          =    1783.0286 (a.u.)^3
     number of atoms/cell      =           14
     number of atomic types    =            2
     number of electrons       =        50.00
     number of Kohn-Sham states=           30
     kinetic-energy cutoff     =      80.0000  Ry
     charge density cutoff     =     640.0000  Ry
     scf convergence threshold =      1.0E-08
     mixing beta               =       0.3000
     number of iterations used =            8  plain     mixing
     Exchange-correlation= PBE
                           (   1   4   3   4   0   0   0)

     celldm(1)=   4.775235  celldm(2)=   0.000000  celldm(3)=   0.000000
     celldm(4)=   0.000000  celldm(5)=   0.000000  celldm(6)=   0.000000

     crystal axes: (cart. coord. in units of alat)
               a(1) = (   1.000000   0.000000   0.000000 )  
               a(2) = (   0.000000  -2.020000   0.000000 )  
               a(3) = (   0.000000   0.000000   8.106298 )  

     reciprocal axes: (cart. coord. in units 2 pi/alat)
               b(1) = (  1.000000 -0.000000 -0.000000 )  
               b(2) = ( -0.000000 -0.495050 -0.000000 )  
               b(3) = ( -0.000000 -0.000000  0.123361 )  


     PseudoPot. # 1 for C  read from file:
     ./C.pbe-n-kjpaw_psl.1.0.0.UPF
     MD5 check sum: 5d2aebdfa2cae82b50a7e79e9516da0f
     Pseudo is Projector augmented-wave + core cor, Zval =  4.0
     Generated using "atomic" code by A. Dal Corso  v.5.1
     Shape of augmentation charge: PSQ
     Using radial grid of 1073 points,  4 beta functions with: 
                l(1) =   0
                l(2) =   0
                l(3) =   1
                l(4) =   1
     Q(r) pseudized with 0 coefficients 


     PseudoPot. # 2 for H  read from file:
     ./H_ONCV_PBE-1.0.oncvpsp.upf
     MD5 check sum: 1790becc920ee074925cf490c71280fe
     Pseudo is Norm-conserving, Zval =  1.0
     Generated using ONCVPSP code by D. R. Hamann
     Using radial grid of 1166 points,  2 beta functions with: 
                l(1) =   0
                l(2) =   0

     atomic species   valence    mass     pseudopotential
     C                 4.00    12.01100     C ( 1.00)
     H                 1.00     1.00800     H ( 1.00)

      4 Sym. Ops. (no inversion) found



   Cartesian axes

     site n.     atom                  positions (alat units)
         1        C      tau(   1) = (   0.0000000  -0.3244490   4.7085576  )
         2        C      tau(   2) = (   0.5000000  -0.4689091   4.3876684  )
         3        C      tau(   3) = (   0.5000000   0.0000000   3.9931738  )
         4        C      tau(   4) = (   0.0000000   0.0000000   3.6576303  )
         5        C      tau(   5) = (   0.0000000  -0.5050000   3.3215633  )
         6        C      tau(   6) = (   0.5000000  -0.5050000   2.9680099  )
         7        C      tau(   7) = (   0.0000000  -1.6955510   4.7085576  )
         8        C      tau(   8) = (   0.5000000  -1.5510909   4.3876684  )
         9        C      tau(   9) = (   0.5000000  -1.0100000   4.0662130  )
        10        C      tau(  10) = (   0.0000000  -1.0100000   3.6998598  )
        11        C      tau(  11) = (   0.0000000  -1.5150000   3.3215633  )
        12        C      tau(  12) = (   0.5000000  -1.5150000   2.9680099  )
        13        H      tau(  13) = (   0.0000000  -0.4951824   5.1093667  )
        14        H      tau(  14) = (   0.0000000  -1.5248176   5.1093667  )

     number of k points=    15  Marzari-Vanderbilt smearing, width (Ry)=  0.0100
                       cart. coord. in units 2pi/alat
        k(    1) = (   0.0000000  -0.0000000   0.0000000), wk =   0.0444444
        k(    2) = (   0.0000000  -0.0990099   0.0000000), wk =   0.0888889
        k(    3) = (   0.0000000  -0.1980198   0.0000000), wk =   0.0888889
        k(    4) = (   0.1111111  -0.0000000   0.0000000), wk =   0.0888889
        k(    5) = (   0.1111111  -0.0990099   0.0000000), wk =   0.1777778
        k(    6) = (   0.1111111  -0.1980198   0.0000000), wk =   0.1777778
        k(    7) = (   0.2222222  -0.0000000   0.0000000), wk =   0.0888889
        k(    8) = (   0.2222222  -0.0990099   0.0000000), wk =   0.1777778
        k(    9) = (   0.2222222  -0.1980198   0.0000000), wk =   0.1777778
        k(   10) = (   0.3333333  -0.0000000   0.0000000), wk =   0.0888889
        k(   11) = (   0.3333333  -0.0990099   0.0000000), wk =   0.1777778
        k(   12) = (   0.3333333  -0.1980198   0.0000000), wk =   0.1777778
        k(   13) = (   0.4444444  -0.0000000   0.0000000), wk =   0.0888889
        k(   14) = (   0.4444444  -0.0990099   0.0000000), wk =   0.1777778
        k(   15) = (   0.4444444  -0.1980198   0.0000000), wk =   0.1777778

     Dense  grid:   487569 G-vectors     FFT dimensions: (  40,  80, 320)

     Smooth grid:   172573 G-vectors     FFT dimensions: (  27,  60, 225)

     Estimated max dynamical RAM per process >       1.03 GB

     Initial potential from superposition of free atoms

     starting charge      49.9995, renormalised to      50.0000

     negative rho (up, down):  7.426E-05 0.000E+00
     Starting wfcs are   50 randomized atomic wfcs

     total cpu time spent up to now is        5.2 secs

     Self-consistent Calculation

     iteration #  1     ecut=    80.00 Ry     beta= 0.30
     Davidson diagonalization with overlap
     ethr =  1.00E-02,  avg # of iterations =  2.5

     negative rho (up, down):  7.143E-05 0.000E+00

     total cpu time spent up to now is       14.8 secs

     total energy              =    -223.05996952 Ry
     estimated scf accuracy    <       0.87310245 Ry

     iteration #  2     ecut=    80.00 Ry     beta= 0.30
     Davidson diagonalization with overlap
     ethr =  1.75E-03,  avg # of iterations =  3.0

     negative rho (up, down):  7.789E-05 0.000E+00

     total cpu time spent up to now is       22.3 secs

     total energy              =    -223.00625063 Ry
     estimated scf accuracy    <       0.28733805 Ry

     iteration #  3     ecut=    80.00 Ry     beta= 0.30
     Davidson diagonalization with overlap
     ethr =  5.75E-04,  avg # of iterations =  5.8

     negative rho (up, down):  8.383E-05 0.000E+00

     total cpu time spent up to now is       31.6 secs

     total energy              =    -223.01224085 Ry
     estimated scf accuracy    <       0.06341015 Ry

     iteration #  4     ecut=    80.00 Ry     beta= 0.30
     Davidson diagonalization with overlap
     ethr =  1.27E-04,  avg # of iterations =  5.1

     negative rho (up, down):  8.879E-05 0.000E+00

     total cpu time spent up to now is       40.1 secs

     total energy              =    -223.01631870 Ry
     estimated scf accuracy    <       0.01050300 Ry

     iteration #  5     ecut=    80.00 Ry     beta= 0.30
     Davidson diagonalization with overlap
     ethr =  2.10E-05,  avg # of iterations =  6.1

     negative rho (up, down):  9.109E-05 0.000E+00

     total cpu time spent up to now is       49.2 secs

     total energy              =    -223.01763946 Ry
     estimated scf accuracy    <       0.00125996 Ry

     iteration #  6     ecut=    80.00 Ry     beta= 0.30
     Davidson diagonalization with overlap
     c_bands:  1 eigenvalues not converged
     ethr =  2.52E-06,  avg # of iterations =  7.7

     negative rho (up, down):  8.856E-05 0.000E+00

     total cpu time spent up to now is       59.9 secs

     total energy              =    -223.01779010 Ry
     estimated scf accuracy    <       0.00024342 Ry

     iteration #  7     ecut=    80.00 Ry     beta= 0.30
     Davidson diagonalization with overlap
     ethr =  4.87E-07,  avg # of iterations =  3.1

     negative rho (up, down):  8.867E-05 0.000E+00

     total cpu time spent up to now is       68.0 secs

     total energy              =    -223.01783119 Ry
     estimated scf accuracy    <       0.00006336 Ry

     iteration #  8     ecut=    80.00 Ry     beta= 0.30
     Davidson diagonalization with overlap
     ethr =  1.27E-07,  avg # of iterations =  2.0

     negative rho (up, down):  8.819E-05 0.000E+00

     total cpu time spent up to now is       75.3 secs

     total energy              =    -223.01783961 Ry
     estimated scf accuracy    <       0.00000783 Ry

     iteration #  9     ecut=    80.00 Ry     beta= 0.30
     Davidson diagonalization with overlap
     ethr =  1.57E-08,  avg # of iterations =  2.9

     negative rho (up, down):  8.788E-05 0.000E+00

     total cpu time spent up to now is       83.8 secs

     total energy              =    -223.01784101 Ry
     estimated scf accuracy    <       0.00000104 Ry

     iteration # 10     ecut=    80.00 Ry     beta= 0.30
     Davidson diagonalization with overlap
     ethr =  2.08E-09,  avg # of iterations =  3.7

     negative rho (up, down):  8.765E-05 0.000E+00

     total cpu time spent up to now is       92.8 secs

     total energy              =    -223.01784127 Ry
     estimated scf accuracy    <       0.00000040 Ry

     iteration # 11     ecut=    80.00 Ry     beta= 0.30
     Davidson diagonalization with overlap
     ethr =  7.90E-10,  avg # of iterations =  2.1

     negative rho (up, down):  8.758E-05 0.000E+00

     total cpu time spent up to now is      100.3 secs

     total energy              =    -223.01784133 Ry
     estimated scf accuracy    <       0.00000004 Ry

     iteration # 12     ecut=    80.00 Ry     beta= 0.30
     Davidson diagonalization with overlap
     ethr =  7.39E-11,  avg # of iterations =  3.7

     negative rho (up, down):  8.746E-05 0.000E+00

     total cpu time spent up to now is      109.8 secs

     End of self-consistent calculation

          k = 0.0000-0.0000 0.0000 ( 21573 PWs)   bands (ev):

   -21.0818 -18.8170 -16.7732 -16.3759 -15.2789 -15.2705 -12.0577 -11.3165
   -11.0360  -8.1050  -8.0149  -7.1985  -6.1120  -5.8744  -4.2754  -4.1926
    -4.1038  -3.3739  -3.2860  -2.9666  -2.7096  -2.5571  -1.6698  -0.8848
    -0.5013  -0.0756   2.5870   2.9305   4.0049   4.1726

          k = 0.0000-0.0990 0.0000 ( 21549 PWs)   bands (ev):

   -20.9355 -18.7631 -17.9012 -15.9335 -15.0995 -14.9697 -11.6051 -11.2696
   -10.9299  -8.2877  -7.7139  -7.3823  -6.3421  -6.0047  -4.6983  -4.1931
    -4.0705  -3.8417  -3.6170  -2.9414  -2.7003  -2.2846  -1.6287  -1.0057
    -0.6796   0.2583   2.6339   2.7979   4.5280   4.8507

          k = 0.0000-0.1980 0.0000 ( 21520 PWs)   bands (ev):

   -20.5818 -19.1472 -18.2543 -16.6198 -14.7528 -14.1862 -11.4147 -10.5414
   -10.2471  -9.1221  -8.1061  -7.1063  -6.9024  -5.7644  -5.3684  -4.4846
    -4.4055  -3.8756  -3.4982  -3.2356  -2.9110  -1.9334  -1.5682  -1.0461
    -0.9607   0.9701   1.8962   3.3506   4.2428   4.8457

          k = 0.1111-0.0000 0.0000 ( 21539 PWs)   bands (ev):

   -20.8567 -18.5990 -16.5632 -16.1616 -15.0748 -15.0701 -11.8718 -11.2296
   -10.8553  -7.9881  -7.9500  -7.5046  -6.9322  -5.7181  -5.2603  -4.5279
    -4.2891  -3.9868  -3.5992  -3.4822  -3.4519  -2.8834  -2.5192  -1.0135
    -0.5317  -0.0652   2.8003   3.0523   4.4862   4.8715

          k = 0.1111-0.0990 0.0000 ( 21531 PWs)   bands (ev):

   -20.7107 -18.5445 -17.6857 -15.7292 -14.8929 -14.7685 -11.4586 -11.1064
   -10.7888  -8.2179  -7.6438  -7.5118  -6.8991  -6.2527  -5.2170  -4.9777
    -4.5237  -4.2613  -3.6350  -3.4704  -3.2145  -3.1240  -2.3933  -1.0660
    -0.6660   0.2513   2.7089   3.0070   4.9607   5.3550

          k = 0.1111-0.1980 0.0000 ( 21521 PWs)   bands (ev):

   -20.3578 -18.9260 -18.0392 -16.4124 -14.5547 -13.9843 -11.2887 -10.3761
   -10.1242  -8.9588  -7.9817  -7.3594  -6.8117  -6.5704  -5.6422  -5.3600
    -5.0080  -4.3905  -3.9231  -3.4254  -3.1183  -2.7820  -2.5079  -1.0569
    -0.9002   0.9694   1.9115   3.5413   4.4011   4.9925

          k = 0.2222-0.0000 0.0000 ( 21530 PWs)   bands (ev):

   -20.1849 -17.9526 -15.9382 -15.5238 -14.4833 -14.4741 -11.4417 -11.3327
   -10.3571  -9.1410  -8.3426  -7.9955  -7.4721  -6.4406  -6.0865  -5.5688
    -5.4476  -5.2358  -5.2302  -4.2532  -4.1470  -3.1561  -2.7467  -1.3540
    -0.9435  -0.1952   3.3416   3.3471   5.1927   5.7072

          k = 0.2222-0.0990 0.0000 ( 21507 PWs)   bands (ev):

   -20.0399 -17.8959 -17.0450 -15.1267 -14.2798 -14.1815 -11.3924 -10.7726
   -10.3948  -9.0315  -8.4651  -8.0498  -7.2979  -6.6123  -6.2972  -5.8066
    -5.7315  -5.1955  -4.9510  -4.5031  -4.1720  -3.3945  -2.9648  -1.3030
    -0.9333   0.0684   2.8027   3.5590   5.3987   5.6770

          k = 0.2222-0.1980 0.0000 ( 21528 PWs)   bands (ev):

   -19.6895 -18.2671 -17.4017 -15.8018 -13.9834 -13.3818 -11.2353 -10.1945
    -9.8311  -8.8905  -8.5988  -7.9266  -7.6883  -7.2272  -6.6113  -6.2333
    -5.9010  -5.2504  -4.7053  -4.5664  -4.3096  -3.4879  -3.2092  -1.1993
    -1.0176   0.7735   1.7722   4.0157   4.6364   5.1448

          k = 0.3333-0.0000 0.0000 ( 21524 PWs)   bands (ev):

   -19.0810 -16.9231 -14.9244 -14.4802 -13.8481 -13.5070 -12.7159 -11.0620
   -10.6605  -9.9091  -9.0379  -9.0286  -8.2380  -7.6397  -7.3556  -6.8677
    -6.1303  -5.6669  -5.2132  -4.7119  -4.2619  -4.0653  -2.7040  -1.6294
    -1.3436  -0.4398   3.6062   4.2286   5.7103   6.4282

          k = 0.3333-0.0990 0.0000 ( 21554 PWs)   bands (ev):

   -18.9376 -16.8568 -16.0057 -14.2125 -13.5811 -13.2499 -12.5658 -11.0392
   -10.5228  -9.8407  -9.1924  -8.8186  -8.1107  -7.7815  -7.4093  -6.2977
    -6.2096  -5.6848  -5.4574  -4.9376  -4.5410  -3.9760  -3.3546  -1.5477
    -1.3256  -0.2090   2.9922   4.3880   5.3348   5.9211

          k = 0.3333-0.1980 0.0000 ( 21555 PWs)   bands (ev):

   -18.5908 -17.1890 -16.3834 -14.8609 -13.4404 -12.3996 -12.2730 -11.3545
   -10.4099  -9.5122  -8.8867  -8.4788  -7.9632  -7.4851  -7.2845  -7.2468
    -6.3252  -5.6806  -5.5684  -5.0320  -4.7701  -4.2125  -3.8890  -1.4353
    -1.3422   0.5257   1.7210   4.5055   4.7631   5.5582

          k = 0.4444-0.0000 0.0000 ( 21578 PWs)   bands (ev):

   -17.5927 -16.1093 -14.9350 -13.5112 -13.0910 -12.9856 -12.3436 -12.0548
   -11.5338 -11.0749 -10.2831  -9.9492  -8.2581  -7.8767  -7.4750  -7.1081
    -6.4595  -5.7896  -5.7095  -5.3383  -4.5585  -3.5796  -2.9685  -1.7934
    -1.5681  -0.6453   3.7415   5.3186   5.6581   6.2650

          k = 0.4444-0.0990 0.0000 ( 21546 PWs)   bands (ev):

   -17.4511 -15.9732 -14.9711 -14.5121 -13.4044 -12.8471 -12.0010 -11.7705
   -11.5062 -10.7358 -10.1819  -9.7860  -8.2330  -7.8502  -7.6506  -6.4719
    -6.4031  -5.8776  -5.6150  -5.1835  -4.7923  -4.1563  -3.7106  -1.6930
    -1.5788  -0.4174   3.1181   5.1257   5.7103   6.0130

          k = 0.4444-0.1980 0.0000 ( 21569 PWs)   bands (ev):

   -17.1073 -15.7826 -15.5152 -14.6137 -14.3250 -12.6213 -12.3272 -11.2944
   -11.2725 -10.8255  -9.6004  -9.2588  -8.0787  -7.5115  -7.2364  -6.4974
    -6.0841  -5.9172  -5.5579  -5.3945  -5.1876  -4.9908  -4.6955  -1.6435
    -1.5832   0.4332   1.7683   4.7334   5.4409   6.1424

     the Fermi energy is    -0.5460 ev

!    total energy              =    -223.01784134 Ry
     estimated scf accuracy    <          8.7E-09 Ry
     smearing contrib. (-TS)   =      -0.00004938 Ry
     internal energy E=F+TS    =    -223.01779196 Ry

     The total energy is F=E-TS. E is the sum of the following terms:
     one-electron contribution =   -2250.91457038 Ry
     hartree contribution      =    1139.11551358 Ry
     xc contribution           =     -56.62459096 Ry
     ewald contribution        =    1019.38435536 Ry
     one-center paw contrib.   =     -73.97849956 Ry

     convergence has been achieved in  12 iterations

     negative rho (up, down):  8.746E-05 0.000E+00

     Forces acting on atoms (cartesian axes, Ry/au):

     atom    1 type  1   force =     0.00000000    0.00347085   -0.00009390
     atom    2 type  1   force =     0.00000000    0.00658082   -0.00016068
     atom    3 type  1   force =     0.00000000    0.00000000   -0.00096124
     atom    4 type  1   force =     0.00000000    0.00000000   -0.00322915
     atom    5 type  1   force =     0.00000000   -0.02994961   -0.08794892
     atom    6 type  1   force =    -0.00000000   -0.00586731    0.09086051
     atom    7 type  1   force =     0.00000000   -0.00347085   -0.00009390
     atom    8 type  1   force =     0.00000000   -0.00658082   -0.00016068
     atom    9 type  1   force =     0.00000000   -0.00000000    0.00010842
     atom   10 type  1   force =     0.00000000   -0.00000000    0.00108527
     atom   11 type  1   force =     0.00000000    0.02994961   -0.08794892
     atom   12 type  1   force =     0.00000000    0.00586731    0.09086051
     atom   13 type  2   force =     0.00000000    0.00219586   -0.00115866
     atom   14 type  2   force =     0.00000000   -0.00219586   -0.00115866

     Total force =     0.011647     Total SCF correction =     0.000220


     Computing stress (Cartesian axis) and pressure


     negative rho (up, down):  8.746E-05 0.000E+00
          total   stress  (Ry/bohr**3)                   (kbar)     P=      -42.36
  -0.00004391   0.00000000   0.00000000           -6.46        0.00        0.00
   0.00000000  -0.00062802   0.00000000            0.00      -92.38        0.00
   0.00000000   0.00000000  -0.00019197            0.00        0.00      -28.24


     Writing all to output data dir ./tmp/slab.save/ :
     XML data file, charge density, pseudopotentials, collected wavefunctions

     init_run     :      4.88s CPU      5.18s WALL (       1 calls)
     electrons    :     94.91s CPU    104.60s WALL (       1 calls)
     forces       :      1.19s CPU      1.41s WALL (       1 calls)
     stress       :      3.34s CPU      4.04s WALL (       1 calls)

     Called by init_run:
     wfcinit      :      4.01s CPU      4.24s WALL (       1 calls)
     potinit      :      0.46s CPU      0.49s WALL (       1 calls)
     hinit0       :      0.19s CPU      0.19s WALL (       1 calls)

     Called by electrons:
     c_bands      :     76.93s CPU     85.14s WALL (      12 calls)
     sum_band     :     12.20s CPU     12.94s WALL (      12 calls)
     v_of_rho     :      2.37s CPU      2.53s WALL (      13 calls)
     newd         :      1.31s CPU      1.65s WALL (      13 calls)
     PAW_pot      :      2.08s CPU      2.28s WALL (      13 calls)
     mix_rho      :      0.34s CPU      0.39s WALL (      12 calls)

     Called by c_bands:
     init_us_2    :      1.15s CPU      1.31s WALL (     405 calls)
     cegterg      :     74.69s CPU     82.83s WALL (     180 calls)

     Called by *egterg:
     cdiaghg      :      0.54s CPU      0.61s WALL (     894 calls)
     h_psi        :     58.22s CPU     61.71s WALL (     909 calls)
     s_psi        :      5.70s CPU      6.82s WALL (     909 calls)
     g_psi        :      0.25s CPU      0.25s WALL (     714 calls)

     Called by h_psi:
     h_psi:calbec :      5.02s CPU      6.35s WALL (     909 calls)
     vloc_psi     :     46.59s CPU     47.17s WALL (     909 calls)
                                        0.00s GPU  (     909 calls)
     add_vuspsi   :      6.40s CPU      7.83s WALL (     909 calls)

     General routines
     calbec       :      8.29s CPU     10.49s WALL (    1344 calls)
     fft          :      1.96s CPU      1.96s WALL (     192 calls)
     ffts         :      0.06s CPU      0.06s WALL (      25 calls)
     fftw         :     49.58s CPU     49.60s WALL (   35388 calls)
     interpolate  :      0.18s CPU      0.20s WALL (      13 calls)


     PWSCF        :   1m44.40s CPU   1m55.36s WALL


   This run was terminated on:  13:50:30  23Jun2026            

=------------------------------------------------------------------------------=
   JOB DONE.
=------------------------------------------------------------------------------=
Note: The following floating-point exceptions are signalling: IEEE_INVALID_FLAG IEEE_DIVIDE_BY_ZERO IEEE_OVERFLOW_FLAG IEEE_UNDERFLOW_FLAG
