
     Program PWSCF v.7.5 starts on 17Jun2026 at 11:33:17 

     This program is part of the open-source Quantum ESPRESSO suite
     for quantum simulation of materials; please cite
         "P. Giannozzi et al., J. Phys.:Condens. Matter 21 395502 (2009);
         "P. Giannozzi et al., J. Phys.:Condens. Matter 29 465901 (2017);
         "P. Giannozzi et al., J. Chem. Phys. 152 154105 (2020);
          URL http://www.quantum-espresso.org", 
     in publications or presentations arising from this work. More details at
     http://www.quantum-espresso.org/quote

     Serial version
     0 MiB available memory on the printing compute node when the environment starts

     Waiting for input...
     Reading input from standard input

     Current dimensions of program PWSCF are:
     Max number of different atomic species (ntypx) = 10
     Max number of k-points (npk) =  40000
     Max angular momentum in pseudopotentials (lmaxx) =  4
     Message from routine volume:
     axis vectors are left-handed
     Message from routine setup:
     no reason to have ecutrho>4*ecutwfc
     Message from routine setup:
     using ibrav=0 with symmetry is DISCOURAGED, use correct ibrav instead


     G-vector sticks info
     --------------------
     sticks:   dense  smooth     PW     G-vecs:    dense   smooth      PW
     Sum        1227     615    191               207111    73253   12213

     Using Slab Decomposition



     bravais-lattice index     =            0
     lattice parameter (alat)  =       4.7664  a.u.
     unit-cell volume          =    1165.4393 (a.u.)^3
     number of atoms/cell      =           14
     number of atomic types    =            2
     number of electrons       =        50.00
     number of Kohn-Sham states=           30
     kinetic-energy cutoff     =      60.0000  Ry
     charge density cutoff     =     480.0000  Ry
     scf convergence threshold =      1.0E-08
     mixing beta               =       0.3000
     number of iterations used =            8  plain     mixing
     energy convergence thresh.=      1.0E-05
     force convergence thresh. =      1.0E-04
     Exchange-correlation=  SLA  PW   PBE  PBE
                           (   1   4   3   4   0   0   0)
     nstep                     =           50


     celldm(1)=   4.766362  celldm(2)=   0.000000  celldm(3)=   0.000000
     celldm(4)=   0.000000  celldm(5)=   0.000000  celldm(6)=   0.000000

     crystal axes: (cart. coord. in units of alat)
               a(1) = (   1.000000   0.000000   0.000000 )  
               a(2) = (   0.000000  -1.414214   0.000000 )  
               a(3) = (   0.000000   0.000000   7.610509 )  

     reciprocal axes: (cart. coord. in units 2 pi/alat)
               b(1) = (  1.000000 -0.000000 -0.000000 )  
               b(2) = ( -0.000000 -0.707107 -0.000000 )  
               b(3) = ( -0.000000 -0.000000  0.131397 )  


     PseudoPot. # 1 for C  read from file:
     ./C_PBE_TM_2pj.UPF
     MD5 check sum: e8858615eb0a4b79f05373b4879fdf67
     Pseudo is Norm-conserving, Zval =  4.0
     Generated by new atomic code, or converted to UPF format
     Using radial grid of 1073 points,  1 beta functions with: 
                l(1) =   0

     PseudoPot. # 2 for H  read from file:
     ./H_HSCV_PBE-1.0.UPF
     MD5 check sum: 31544ba92ee05a06ae1d082ec2460d19
     Pseudo is Norm-conserving, Zval =  1.0
     Generated by new atomic code, or converted to UPF format
     Using radial grid of 2537 points,  0 beta functions with: 

     atomic species   valence    mass     pseudopotential
     C                 4.00    12.01100     C ( 1.00)
     H                 1.00     1.00800     H ( 1.00)

      4 Sym. Ops. (no inversion) found ( 2 have fractional translation)



   Cartesian axes

     site n.     atom                  positions (alat units)
         1        C      tau(   1) = (   0.0000000  -0.3535534   4.8788285  )
         2        C      tau(   2) = (   0.5000000  -0.7071068   4.8788285  )
         3        C      tau(   3) = (   0.0000000   0.0000000   4.3788285  )
         4        C      tau(   4) = (   0.5000000  -1.0606602   4.3788285  )
         5        C      tau(   5) = (   0.0000000  -0.3535534   3.8788285  )
         6        C      tau(   6) = (   0.5000000  -0.7071068   3.8788285  )
         7        C      tau(   7) = (   0.0000000   0.0000000   3.3788285  )
         8        C      tau(   8) = (   0.5000000  -1.0606602   3.3788285  )
         9        C      tau(   9) = (   0.0000000  -0.3535534   2.8788285  )
        10        C      tau(  10) = (   0.5000000  -0.7071068   2.8788285  )
        11        C      tau(  11) = (   0.0000000   0.0000000   2.3788285  )
        12        C      tau(  12) = (   0.5000000  -1.0606602   2.3788285  )
        13        H      tau(  13) = (   0.0000000  -0.1040493   5.2316807  )
        14        H      tau(  14) = (   0.5000000  -0.9566109   5.2316807  )

     number of k points=    24  Marzari-Vanderbilt smearing, width (Ry)=  0.0100
                       cart. coord. in units 2pi/alat
        k(    1) = (   0.0000000  -0.0000000   0.0000000), wk =   0.0285714
        k(    2) = (   0.0000000  -0.1010153   0.0000000), wk =   0.0571429
        k(    3) = (   0.0000000  -0.2020305   0.0000000), wk =   0.0571429
        k(    4) = (   0.0000000  -0.3030458   0.0000000), wk =   0.0571429
        k(    5) = (   0.1000000  -0.0000000   0.0000000), wk =   0.0571429
        k(    6) = (   0.1000000  -0.1010153   0.0000000), wk =   0.1142857
        k(    7) = (   0.1000000  -0.2020305   0.0000000), wk =   0.1142857
        k(    8) = (   0.1000000  -0.3030458   0.0000000), wk =   0.1142857
        k(    9) = (   0.2000000  -0.0000000   0.0000000), wk =   0.0571429
        k(   10) = (   0.2000000  -0.1010153   0.0000000), wk =   0.1142857
        k(   11) = (   0.2000000  -0.2020305   0.0000000), wk =   0.1142857
        k(   12) = (   0.2000000  -0.3030458   0.0000000), wk =   0.1142857
        k(   13) = (   0.3000000  -0.0000000   0.0000000), wk =   0.0571429
        k(   14) = (   0.3000000  -0.1010153   0.0000000), wk =   0.1142857
        k(   15) = (   0.3000000  -0.2020305   0.0000000), wk =   0.1142857
        k(   16) = (   0.3000000  -0.3030458   0.0000000), wk =   0.1142857
        k(   17) = (   0.4000000  -0.0000000   0.0000000), wk =   0.0571429
        k(   18) = (   0.4000000  -0.1010153   0.0000000), wk =   0.1142857
        k(   19) = (   0.4000000  -0.2020305   0.0000000), wk =   0.1142857
        k(   20) = (   0.4000000  -0.3030458   0.0000000), wk =   0.1142857
        k(   21) = (  -0.5000000   0.0000000   0.0000000), wk =   0.0285714
        k(   22) = (  -0.5000000  -0.1010153   0.0000000), wk =   0.0571429
        k(   23) = (  -0.5000000  -0.2020305   0.0000000), wk =   0.0571429
        k(   24) = (  -0.5000000  -0.3030458   0.0000000), wk =   0.0571429

     Dense  grid:   207111 G-vectors     FFT dimensions: (  36,  48, 256)

     Smooth grid:    73253 G-vectors     FFT dimensions: (  24,  36, 180)

     Estimated max dynamical RAM per process >     245.10 MB

     Initial potential from superposition of free atoms

     starting charge      44.0000, renormalised to      50.0000

     negative rho (up, down):  7.173E-07 0.000E+00
     Starting wfcs are   98 randomized atomic wfcs

     total cpu time spent up to now is        3.6 secs

     Self-consistent Calculation

     iteration #  1     ecut=    60.00 Ry     beta= 0.30
     Davidson diagonalization with overlap
     ethr =  1.00E-02,  avg # of iterations =  3.2

     total cpu time spent up to now is        7.1 secs

     total energy              =    -132.17787556 Ry
     estimated scf accuracy    <      15.15890523 Ry

     iteration #  2     ecut=    60.00 Ry     beta= 0.30
     Davidson diagonalization with overlap
     ethr =  1.00E-02,  avg # of iterations =  9.1

     total cpu time spent up to now is       13.8 secs

     total energy              =    -108.32600600 Ry
     estimated scf accuracy    <     810.80215759 Ry

     iteration #  3     ecut=    60.00 Ry     beta= 0.30
     Davidson diagonalization with overlap
     ethr =  1.00E-02,  avg # of iterations =  9.3

     total cpu time spent up to now is       20.7 secs

     total energy              =    -138.86932162 Ry
     estimated scf accuracy    <       1.61939800 Ry

     iteration #  4     ecut=    60.00 Ry     beta= 0.30
     Davidson diagonalization with overlap
     ethr =  3.24E-03,  avg # of iterations =  2.8

     total cpu time spent up to now is       23.4 secs

     total energy              =    -138.87528320 Ry
     estimated scf accuracy    <       0.72945152 Ry

     iteration #  5     ecut=    60.00 Ry     beta= 0.30
     Davidson diagonalization with overlap
     ethr =  1.46E-03,  avg # of iterations =  2.1

     total cpu time spent up to now is       26.0 secs

     total energy              =    -138.79420550 Ry
     estimated scf accuracy    <       0.41617542 Ry

     iteration #  6     ecut=    60.00 Ry     beta= 0.30
     Davidson diagonalization with overlap
     ethr =  8.32E-04,  avg # of iterations =  5.9

     total cpu time spent up to now is       29.6 secs

     total energy              =    -138.82320830 Ry
     estimated scf accuracy    <       0.10875069 Ry

     iteration #  7     ecut=    60.00 Ry     beta= 0.30
     Davidson diagonalization with overlap
     ethr =  2.18E-04,  avg # of iterations =  3.9

     total cpu time spent up to now is       32.5 secs

     total energy              =    -138.82784519 Ry
     estimated scf accuracy    <       0.02398832 Ry

     iteration #  8     ecut=    60.00 Ry     beta= 0.30
     Davidson diagonalization with overlap
     ethr =  4.80E-05,  avg # of iterations =  6.4

     total cpu time spent up to now is       36.0 secs

     total energy              =    -138.82765612 Ry
     estimated scf accuracy    <       0.01157329 Ry

     iteration #  9     ecut=    60.00 Ry     beta= 0.30
     Davidson diagonalization with overlap
     ethr =  2.31E-05,  avg # of iterations =  4.9

     total cpu time spent up to now is       38.8 secs

     total energy              =    -138.82699973 Ry
     estimated scf accuracy    <       0.00596071 Ry

     iteration # 10     ecut=    60.00 Ry     beta= 0.30
     Davidson diagonalization with overlap
     ethr =  1.19E-05,  avg # of iterations =  7.2

     negative rho (up, down):  2.654E-07 0.000E+00

     total cpu time spent up to now is       42.1 secs

     total energy              =    -138.82673910 Ry
     estimated scf accuracy    <       0.00217320 Ry

     iteration # 11     ecut=    60.00 Ry     beta= 0.30
     Davidson diagonalization with overlap
     ethr =  4.35E-06,  avg # of iterations =  7.2

     negative rho (up, down):  3.030E-06 0.000E+00

     total cpu time spent up to now is       45.6 secs

     total energy              =    -138.82686382 Ry
     estimated scf accuracy    <       0.00042617 Ry

     iteration # 12     ecut=    60.00 Ry     beta= 0.30
     Davidson diagonalization with overlap
     ethr =  8.52E-07,  avg # of iterations =  6.2

     negative rho (up, down):  7.146E-07 0.000E+00

     total cpu time spent up to now is       49.0 secs

     total energy              =    -138.82690677 Ry
     estimated scf accuracy    <       0.00005664 Ry

     iteration # 13     ecut=    60.00 Ry     beta= 0.30
     Davidson diagonalization with overlap
     ethr =  1.13E-07,  avg # of iterations =  3.3

     total cpu time spent up to now is       52.0 secs

     total energy              =    -138.82691885 Ry
     estimated scf accuracy    <       0.00000234 Ry

     iteration # 14     ecut=    60.00 Ry     beta= 0.30
     Davidson diagonalization with overlap
     ethr =  4.68E-09,  avg # of iterations =  4.2

     total cpu time spent up to now is       55.5 secs

     total energy              =    -138.82691976 Ry
     estimated scf accuracy    <       0.00000156 Ry

     iteration # 15     ecut=    60.00 Ry     beta= 0.30
     Davidson diagonalization with overlap
     ethr =  3.12E-09,  avg # of iterations =  2.2

     total cpu time spent up to now is       58.1 secs

     total energy              =    -138.82692000 Ry
     estimated scf accuracy    <       0.00000013 Ry

     iteration # 16     ecut=    60.00 Ry     beta= 0.30
     Davidson diagonalization with overlap
     ethr =  2.50E-10,  avg # of iterations =  2.9

     total cpu time spent up to now is       61.0 secs

     total energy              =    -138.82692001 Ry
     estimated scf accuracy    <       0.00000002 Ry

     iteration # 17     ecut=    60.00 Ry     beta= 0.30
     Davidson diagonalization with overlap
     ethr =  4.97E-11,  avg # of iterations =  2.2

     total cpu time spent up to now is       63.6 secs

     End of self-consistent calculation

          k = 0.0000-0.0000 0.0000 (  9127 PWs)   bands (ev):

   -18.4303 -17.0835 -15.1523 -12.8169 -10.6404  -9.9185  -9.7682  -8.5629
    -6.7788  -6.7593  -5.7670  -4.9572  -4.4767  -3.6993  -3.3791  -2.3016
    -1.9985  -1.7779  -0.8972   0.3490   0.5852   0.9872   1.7981   2.4315
     2.5583   4.9865   5.0366   7.3201   7.8060   8.1179

          k = 0.0000-0.1010 0.0000 (  9121 PWs)   bands (ev):

   -18.2425 -16.9006 -14.9850 -12.7366 -12.0010 -11.1807  -8.9479  -8.1488
    -7.6156  -5.9229  -5.6786  -4.8201  -3.8821  -3.4825  -3.2034  -2.1531
    -2.1446  -1.3811  -0.8129   0.3605   0.5298   0.8445   1.4853   1.9087
     2.6260   4.5524   5.2474   7.4738   7.8930   8.3530

          k = 0.0000-0.2020 0.0000 (  9137 PWs)   bands (ev):

   -17.6812 -16.3562 -14.5026 -13.8692 -12.9237 -12.3189  -9.5898  -8.6561
    -7.2737  -6.1107  -4.7126  -4.1200  -3.1390  -2.7431  -2.6839  -1.7210
    -1.5562  -1.1461  -0.5890   0.1461   0.3006   0.5311   0.7791   1.0436
     2.5553   3.8126   5.8483   7.7600   8.4624   8.6431

          k = 0.0000-0.3030 0.0000 (  9120 PWs)   bands (ev):

   -16.7544 -15.5239 -15.4154 -14.2673 -13.7689 -12.7335  -9.9275  -9.1468
    -7.3470  -6.3634  -4.4578  -3.4157  -2.3311  -1.8452  -1.6053  -1.0798
    -1.0532  -0.7431  -0.5796  -0.3676  -0.2625  -0.2114   0.0881   0.5287
     2.5936   3.2342   6.7225   7.8975   8.2156   9.0418

          k = 0.1000-0.0000 0.0000 (  9133 PWs)   bands (ev):

   -18.2457 -16.9011 -14.9733 -12.6434 -10.4753  -9.7560  -9.7108  -8.5145
    -6.7434  -6.6015  -5.6189  -4.8181  -4.4600  -4.2220  -3.5894  -3.1134
    -1.9510  -1.7931  -1.6729  -0.1842   0.2189   0.8929   1.0081   1.5493
     2.2357   5.0323   5.2100   7.5347   8.0605   8.5818

          k = 0.1000-0.1010 0.0000 (  9113 PWs)   bands (ev):

   -18.0582 -16.7187 -14.8069 -12.5649 -11.8517 -11.0258  -8.8269  -8.0452
    -7.5617  -5.8477  -5.5980  -4.7656  -3.9808  -3.8591  -3.4076  -2.8905
    -2.1217  -1.5614  -1.4208  -0.2473   0.2014   0.3592   0.8474   1.1779
     2.5066   4.6365   5.4389   7.7592   8.4807   8.7682

          k = 0.1000-0.2020 0.0000 (  9112 PWs)   bands (ev):

   -17.4984 -16.1761 -14.3270 -13.7034 -12.7606 -12.1527  -9.4402  -8.5052
    -7.1484  -6.0563  -4.8258  -4.1400  -3.5040  -3.2248  -2.6806  -2.1145
    -1.8303  -1.2497  -1.0752  -0.8246  -0.5428  -0.1866   0.4877   1.0710
     2.5426   3.9469   6.0645   8.3098   8.9448   9.0716

          k = 0.1000-0.3030 0.0000 (  9124 PWs)   bands (ev):

   -16.5745 -15.3477 -15.2400 -14.0962 -13.5993 -12.5665  -9.7663  -8.9888
    -7.2057  -6.2271  -4.4358  -3.4080  -3.2216  -2.3894  -2.1402  -1.7628
    -1.3985  -1.3076  -1.1712  -0.8471  -0.6689  -0.1459   0.0681   0.3104
     2.7176   3.2994   6.9814   8.2940   8.8634   9.5123

          k = 0.2000-0.0000 0.0000 (  9130 PWs)   bands (ev):

   -17.6941 -16.3560 -14.4390 -12.1251  -9.9818  -9.7273  -9.2698  -8.5474
    -6.8002  -6.1417  -5.7981  -5.1942  -4.6551  -4.5506  -4.4200  -3.2961
    -3.1936  -1.9508  -1.9031  -1.7299  -0.7391  -0.4022  -0.2943   0.6847
     1.6466   4.8985   5.7533   7.7646   8.1722   8.3243

          k = 0.2000-0.1010 0.0000 (  9140 PWs)   bands (ev):

   -17.5081 -16.1755 -14.2752 -12.0528 -11.4422 -10.5817  -8.5714  -7.9637
    -7.5622  -5.9426  -5.6255  -5.1475  -4.6658  -4.1868  -3.7734  -3.2305
    -2.7669  -2.2416  -1.8302  -1.7598  -1.4842  -0.7481   0.2358   0.4088
     2.0154   4.5705   5.9997   8.3089   8.5259   8.6854

          k = 0.2000-0.2020 0.0000 (  9135 PWs)   bands (ev):

   -16.9530 -15.6387 -13.8036 -13.2200 -12.2803 -11.6605  -9.0264  -8.0958
    -6.9599  -6.5470  -5.3941  -4.8400  -4.0856  -3.5675  -3.2549  -3.0492
    -2.3336  -2.2934  -2.1173  -2.0605  -1.5247  -1.0254  -0.0824   0.6609
     2.4159   3.9558   6.6447   9.0887   9.5122   9.5736

          k = 0.2000-0.3030 0.0000 (  9150 PWs)   bands (ev):

   -16.0386 -14.8249 -14.7190 -13.5894 -13.0943 -12.0698  -9.3040  -8.5338
    -6.8404  -5.9386  -5.5369  -4.4698  -4.3747  -3.6822  -3.4113  -3.0282
    -2.7069  -2.3759  -1.5352  -1.1094  -1.0128  -0.9522  -0.1154   0.1009
     2.7987   3.3527   7.5459   8.9760   9.9958  10.3338

          k = 0.3000-0.0000 0.0000 (  9160 PWs)   bands (ev):

   -16.7833 -15.4567 -13.5578 -11.2700 -10.5379  -9.3331  -9.1648  -8.4646
    -7.5721  -6.5090  -5.4268  -5.4251  -5.3520  -4.5634  -4.0511  -3.8400
    -3.1273  -2.9452  -2.7951  -2.3629  -2.1183  -1.7572  -1.6933   0.1765
     1.4750   4.4267   6.5845   7.6640   7.7651   9.2368

          k = 0.3000-0.1010 0.0000 (  9159 PWs)   bands (ev):

   -16.6003 -15.2798 -13.3988 -11.2134 -11.1076 -10.0526  -8.9584  -8.5762
    -7.7773  -6.4108  -5.7281  -5.4717  -5.0572  -4.2091  -3.8050  -3.6531
    -3.4391  -3.3395  -2.9602  -2.6820  -2.0151  -1.7647  -0.7747  -0.0633
     1.7374   4.2285   6.8639   8.1210   8.2385   9.2398

          k = 0.3000-0.2020 0.0000 (  9138 PWs)   bands (ev):

   -16.0550 -14.7550 -12.9433 -12.5024 -11.5368 -10.8731  -8.6369  -8.5790
    -7.8603  -6.8323  -6.0919  -5.4005  -5.2812  -4.8232  -4.1788  -3.8507
    -3.2965  -2.7891  -2.4371  -2.3024  -1.9261  -1.4753  -0.5822  -0.0926
     2.2806   3.7878   7.4925   9.0987   9.3252   9.8097

          k = 0.3000-0.3030 0.0000 (  9153 PWs)   bands (ev):

   -15.1620 -13.9812 -13.8725 -12.7760 -12.2681 -11.2614  -8.6589  -7.9004
    -7.8310  -6.9149  -6.6831  -5.9331  -5.5400  -5.0105  -4.7941  -4.2397
    -3.1097  -2.3782  -2.2035  -1.9105  -1.2081  -1.0454  -0.7198  -0.2072
     2.7751   3.3583   8.2311   9.6847  10.1561  10.4076

          k = 0.4000-0.0000 0.0000 (  9182 PWs)   bands (ev):

   -15.5304 -14.2210 -12.3480 -12.2056 -10.9543 -10.0944  -9.1537  -8.0336
    -7.3487  -6.9643  -5.9438  -5.0354  -4.8816  -4.5598  -4.2627  -3.9456
    -3.9081  -3.4018  -3.2131  -3.2121  -3.0388  -2.2840  -2.2092  -0.5901
     1.8702   3.6261   7.1908   7.8523   8.2778   8.8930

          k = 0.4000-0.1010 0.0000 (  9188 PWs)   bands (ev):

   -15.3536 -14.0514 -12.1986 -12.1297 -10.9047 -10.0278  -9.0738  -8.7218
    -8.2061  -6.9836  -5.7702  -5.7168  -5.2627  -5.0562  -4.5174  -3.6815
    -3.5642  -3.3603  -3.2921  -2.8593  -2.3151  -2.1919  -1.9169  -0.6850
     2.0450   3.5817   7.6836   8.0769   8.3467   9.0897

          k = 0.4000-0.2020 0.0000 (  9154 PWs)   bands (ev):

   -14.8309 -13.5524 -12.1728 -11.7694 -11.0273  -9.9367  -9.8367  -9.0285
    -8.6298  -7.2992  -7.1890  -6.3681  -6.0930  -5.5401  -4.4775  -3.8730
    -3.4781  -3.1563  -2.7114  -2.2896  -2.0931  -1.7278  -0.9729  -0.9098
     2.4542   3.4471   8.3157   8.9426   9.3051   9.6473

          k = 0.4000-0.3030 0.0000 (  9140 PWs)   bands (ev):

   -13.9949 -12.9633 -12.7543 -11.7942 -11.1636 -10.2262  -9.7046  -8.7735
    -8.6751  -8.2770  -7.8568  -7.2150  -6.1354  -5.6650  -4.8859  -4.2067
    -3.6218  -3.0542  -2.5811  -1.8696  -1.6842  -1.2812  -0.9249  -0.5643
     2.8393   3.2701   8.8176   9.7624  10.5348  10.5591

          k =-0.5000 0.0000 0.0000 (  9200 PWs)   bands (ev):

   -13.9728 -13.9728 -12.6877 -12.6877 -10.8478 -10.8478  -8.6316  -8.6316
    -6.6067  -6.6067  -5.9381  -5.9381  -4.7697  -4.7697  -4.1059  -4.1059
    -3.7441  -3.7441  -3.6021  -3.6021  -2.8512  -2.8512  -1.4874  -1.4874
     2.6769   2.6769   7.8265   7.8265   8.2606   8.2606

          k =-0.5000-0.1010 0.0000 (  9196 PWs)   bands (ev):

   -13.8134 -13.8134 -12.5375 -12.5375 -10.7190 -10.7190  -8.5835  -8.5835
    -7.4195  -7.4195  -6.9018  -6.9018  -4.6630  -4.6630  -4.1563  -4.1563
    -3.4983  -3.4983  -3.1372  -3.1372  -2.6672  -2.6672  -1.4211  -1.4211
     2.7597   2.7597   8.0641   8.0641   8.7025   8.7025

          k =-0.5000-0.2020 0.0000 (  9170 PWs)   bands (ev):

   -13.3660 -13.3660 -12.1202 -12.1202 -10.3725 -10.3725  -8.9987  -8.9987
    -8.5872  -8.5872  -7.9099  -7.9099  -5.1963  -5.1963  -4.5394  -4.5394
    -3.4164  -3.4164  -2.5368  -2.5368  -1.8488  -1.8488  -1.2584  -1.2584
     2.9335   2.9335   8.7423   8.7423   9.6513   9.6513

          k =-0.5000-0.3030 0.0000 (  9170 PWs)   bands (ev):

   -12.8139 -12.8139 -11.6194 -11.6194 -10.1695 -10.1695  -9.9823  -9.9823
    -9.1466  -9.1466  -8.3337  -8.3337  -5.6085  -5.6085  -4.6603  -4.6603
    -3.6115  -3.6115  -2.4387  -2.4387  -1.4123  -1.4123  -0.8817  -0.8817
     3.0555   3.0555   9.3183   9.3183  10.7941  10.7942

     the Fermi energy is     2.9079 ev

!    total energy              =    -138.82692001 Ry
     estimated scf accuracy    <          3.4E-09 Ry
     smearing contrib. (-TS)   =       0.00040433 Ry
     internal energy E=F+TS    =    -138.82732434 Ry

     The total energy is F=E-TS. E is the sum of the following terms:
     one-electron contribution =   -1998.85539841 Ry
     hartree contribution      =    1017.00003689 Ry
     xc contribution           =     -43.71901977 Ry
     ewald contribution        =     886.74705695 Ry

     convergence has been achieved in  17 iterations

     Forces acting on atoms (cartesian axes, Ry/au):

     atom    1 type  1   force =     0.00000000   -0.04398317   -0.01667304
     atom    2 type  1   force =     0.00000000    0.04398317   -0.01667304
     atom    3 type  1   force =     0.00000000    0.00377875    0.00965033
     atom    4 type  1   force =     0.00000000   -0.00377875    0.00965033
     atom    5 type  1   force =     0.00000000   -0.00491170    0.00026397
     atom    6 type  1   force =     0.00000000    0.00491170    0.00026397
     atom    7 type  1   force =     0.00000000    0.01488397    0.00004069
     atom    8 type  1   force =     0.00000000   -0.01488397    0.00004069
     atom    9 type  1   force =     0.00000000   -0.04276058   -0.04771815
     atom   10 type  1   force =     0.00000000    0.04276058   -0.04771815
     atom   11 type  1   force =     0.00000000    0.16902745    0.04420151
     atom   12 type  1   force =     0.00000000   -0.16902745    0.04420151
     atom   13 type  2   force =    -0.00000000   -0.00347797    0.01023470
     atom   14 type  2   force =     0.00000000    0.00347797    0.01023470

     Total force =     0.073246     Total SCF correction =     0.000158

     BFGS Geometry Optimization
     Energy error            =      4.7E-03 Ry
     Gradient error          =      4.4E-02 Ry/Bohr

     number of scf cycles    =   1
     number of bfgs steps    =   0

     energy             new  =    -138.8269200146 Ry

     new trust radius        =       0.0470373163 bohr
     new conv_thr            =       0.0000000100 Ry


ATOMIC_POSITIONS (angstrom)
C                0.0000000000       -0.9150248896       12.2968017289
C                1.2611249400       -1.7602251104       12.2968017289
C                0.0000000000        0.0019996292       11.0496065134
C                1.2611249400       -2.6772496292       11.0496065134
C                0.0000000000       -0.8943491576        9.7835145159
C                1.2611249400       -1.7809008424        9.7835145159
C                0.0000000000        0.0078762578        8.5222714231
C                1.2611249400       -2.6831262578        8.5222714231
C                0.0000000000       -0.8917500000        7.2611249400    0   0   0
C                1.2611249400       -1.7835000000        7.2611249400    0   0   0
C                0.0000000000        0.0000000000        6.0000000000    0   0   0
C                1.2611249400       -2.6752500000        6.0000000000    0   0   0
H               -0.0000000000       -0.2642786699       13.2010219591
H                1.2611249400       -2.4109713301       13.2010219591



     Writing config-only to output data dir ./tmp/slab.save/ :
     XML data file
     NEW-OLD atomic charge density approx. for the potential

     total cpu time spent up to now is       63.9 secs

     Self-consistent Calculation

     iteration #  1     ecut=    60.00 Ry     beta= 0.30
     Davidson diagonalization with overlap
     ethr =  1.00E-06,  avg # of iterations = 10.5

     total cpu time spent up to now is       70.5 secs

     total energy              =    -138.82827218 Ry
     estimated scf accuracy    <       0.00112115 Ry

     iteration #  2     ecut=    60.00 Ry     beta= 0.30
     Davidson diagonalization with overlap
     ethr =  2.24E-06,  avg # of iterations =  1.8

     total cpu time spent up to now is       72.9 secs

     total energy              =    -138.82825206 Ry
     estimated scf accuracy    <       0.00029872 Ry

     iteration #  3     ecut=    60.00 Ry     beta= 0.30
     Davidson diagonalization with overlap
     ethr =  5.97E-07,  avg # of iterations =  2.0

     total cpu time spent up to now is       75.7 secs

     total energy              =    -138.82829225 Ry
     estimated scf accuracy    <       0.00003258 Ry

     iteration #  4     ecut=    60.00 Ry     beta= 0.30
     Davidson diagonalization with overlap
     ethr =  6.52E-08,  avg # of iterations =  2.0

     total cpu time spent up to now is       78.2 secs

     total energy              =    -138.82829793 Ry
     estimated scf accuracy    <       0.00000404 Ry

     iteration #  5     ecut=    60.00 Ry     beta= 0.30
     Davidson diagonalization with overlap
     ethr =  8.08E-09,  avg # of iterations =  2.0

     total cpu time spent up to now is       80.9 secs

     total energy              =    -138.82829899 Ry
     estimated scf accuracy    <       0.00000089 Ry

     iteration #  6     ecut=    60.00 Ry     beta= 0.30
     Davidson diagonalization with overlap
     ethr =  1.78E-09,  avg # of iterations =  1.9

     total cpu time spent up to now is       83.4 secs

     total energy              =    -138.82829925 Ry
     estimated scf accuracy    <       0.00000024 Ry

     iteration #  7     ecut=    60.00 Ry     beta= 0.30
     Davidson diagonalization with overlap
     ethr =  4.71E-10,  avg # of iterations =  2.0

     total cpu time spent up to now is       86.1 secs

     total energy              =    -138.82829928 Ry
     estimated scf accuracy    <       0.00000002 Ry

     iteration #  8     ecut=    60.00 Ry     beta= 0.30
     Davidson diagonalization with overlap
     ethr =  3.37E-11,  avg # of iterations =  3.0

     total cpu time spent up to now is       89.1 secs

     End of self-consistent calculation

          k = 0.0000-0.0000 0.0000 (  9127 PWs)   bands (ev):

   -18.4682 -17.1443 -15.2075 -12.8681 -10.6822  -9.9600  -9.7640  -8.5704
    -6.8022  -6.7484  -5.7396  -4.9802  -4.4075  -3.6823  -3.4693  -2.4458
    -2.0028  -1.6560  -1.0775   0.3110   0.3720   1.1339   1.6509   2.3268
     2.5357   4.9982   5.0179   7.3188   7.7174   8.0594

          k = 0.0000-0.1010 0.0000 (  9121 PWs)   bands (ev):

   -18.2805 -16.9621 -15.0423 -12.7976 -12.0386 -11.1973  -8.9517  -8.1367
    -7.6291  -5.9407  -5.6485  -4.8072  -3.8868  -3.4250  -3.2951  -2.3004
    -2.0977  -1.3407  -0.9963   0.3116   0.4510   0.8455   1.3268   1.8472
     2.6346   4.5516   5.2315   7.4614   7.8311   8.3206

          k = 0.0000-0.2020 0.0000 (  9137 PWs)   bands (ev):

   -17.7198 -16.4208 -14.5719 -13.8989 -13.0077 -12.3260  -9.5546  -8.6702
    -7.2272  -6.1328  -4.7152  -4.0655  -3.1448  -2.7803  -2.7212  -1.8797
    -1.5262  -1.0767  -0.7833   0.0835   0.1850   0.3681   0.7948   1.0370
     2.5628   3.8109   5.8236   7.7188   8.4294   8.5739

          k = 0.0000-0.3030 0.0000 (  9120 PWs)   bands (ev):

   -16.7951 -15.6250 -15.4206 -14.3442 -13.8213 -12.7641  -9.8811  -9.1491
    -7.3087  -6.3743  -4.4054  -3.4121  -2.2977  -1.9530  -1.5972  -1.2585
    -1.0667  -0.8323  -0.5815  -0.5447  -0.4102  -0.2425   0.1357   0.5184
     2.5977   3.2325   6.6632   7.8435   8.1875   9.0034

          k = 0.1000-0.0000 0.0000 (  9133 PWs)   bands (ev):

   -18.2837 -16.9621 -15.0288 -12.6951 -10.5178  -9.7981  -9.7049  -8.5199
    -6.7107  -6.6426  -5.5924  -4.8395  -4.3892  -4.3117  -3.5735  -3.2546
    -1.9581  -1.8514  -1.6681  -0.3879   0.1815   0.8408   1.0511   1.4743
     2.2213   5.0420   5.1760   7.5233   8.0153   8.5648

          k = 0.1000-0.1010 0.0000 (  9113 PWs)   bands (ev):

   -18.0963 -16.7803 -14.8645 -12.6266 -11.8885 -11.0423  -8.8291  -8.0334
    -7.5733  -5.8666  -5.5654  -4.7532  -4.0679  -3.8702  -3.3487  -3.0304
    -2.0827  -1.7232  -1.3924  -0.4561   0.1252   0.4559   0.7902   1.1136
     2.5047   4.6355   5.4124   7.7591   8.4311   8.7329

          k = 0.1000-0.2020 0.0000 (  9112 PWs)   bands (ev):

   -17.5370 -16.2408 -14.3967 -13.7329 -12.8446 -12.1600  -9.4035  -8.5183
    -7.1015  -6.0777  -4.8496  -4.0780  -3.5404  -3.2953  -2.6977  -2.2093
    -1.8664  -1.3227  -1.0828  -0.8808  -0.7455  -0.1767   0.4845   1.0349
     2.5475   3.9418   6.0362   8.3001   8.8931   9.0229

          k = 0.1000-0.3030 0.0000 (  9124 PWs)   bands (ev):

   -16.6152 -15.4488 -15.2453 -14.1732 -13.6523 -12.5970  -9.7186  -8.9902
    -7.1664  -6.2369  -4.4005  -3.4325  -3.2225  -2.5065  -2.1798  -1.7612
    -1.5976  -1.3899  -1.2123  -0.8708  -0.7532  -0.1340   0.0492   0.3006
     2.7206   3.2971   6.9275   8.2447   8.8464   9.4909

          k = 0.2000-0.0000 0.0000 (  9130 PWs)   bands (ev):

   -17.7321 -16.4174 -14.4954 -12.1785 -10.0264  -9.7200  -9.3137  -8.5515
    -6.7675  -6.1770  -5.8854  -5.1709  -4.7888  -4.4823  -4.4354  -3.3550
    -3.2845  -1.9481  -1.9185  -1.8017  -0.8742  -0.4374  -0.3535   0.8200
     1.6422   4.9069   5.6863   7.7470   8.1117   8.3450

          k = 0.2000-0.1010 0.0000 (  9140 PWs)   bands (ev):

   -17.5463 -16.2376 -14.3338 -12.1166 -11.4747 -10.5974  -8.5752  -7.9738
    -7.5537  -6.0094  -5.6125  -5.1591  -4.7234  -4.2211  -3.8581  -3.1821
    -2.8700  -2.2525  -1.9682  -1.7893  -1.5386  -0.7675   0.2342   0.4568
     2.0109   4.5749   5.9455   8.2803   8.5238   8.6688

          k = 0.2000-0.2020 0.0000 (  9135 PWs)   bands (ev):

   -16.9917 -15.7039 -13.8745 -13.2480 -12.3636 -11.6687  -8.9851  -8.1066
    -6.9572  -6.5451  -5.4620  -4.8869  -4.0782  -3.6390  -3.3073  -3.1002
    -2.5078  -2.3253  -2.1726  -2.0825  -1.5065  -0.9800  -0.0677   0.6207
     2.4154   3.9531   6.5994   9.0809   9.5078   9.5492

          k = 0.2000-0.3030 0.0000 (  9150 PWs)   bands (ev):

   -16.0792 -14.9253 -14.7248 -13.6661 -13.1489 -12.0998  -9.2523  -8.5329
    -6.8041  -5.9557  -5.5831  -4.5531  -4.4381  -3.7004  -3.4750  -3.1729
    -2.7105  -2.4339  -1.5165  -1.1285  -1.0142  -0.9769  -0.1131   0.0536
     2.8009   3.3508   7.4775   8.9300  10.0091  10.3538

          k = 0.3000-0.0000 0.0000 (  9160 PWs)   bands (ev):

   -16.8214 -15.5187 -13.6154 -11.3258 -10.5489  -9.3619  -9.2126  -8.5112
    -7.5787  -6.5732  -5.5311  -5.4521  -5.3390  -4.5487  -4.1750  -3.8427
    -3.1210  -2.9459  -2.9404  -2.4391  -2.1404  -1.7257  -1.7039   0.2894
     1.4748   4.4340   6.4852   7.6678   7.7535   9.1824

          k = 0.3000-0.1010 0.0000 (  9159 PWs)   bands (ev):

   -16.6385 -15.3424 -13.4586 -11.2808 -11.1249 -10.0662  -9.0359  -8.6005
    -7.7643  -6.4848  -5.7171  -5.5070  -5.1438  -4.2396  -3.8903  -3.7323
    -3.4464  -3.3933  -2.9942  -2.6699  -1.9742  -1.7964  -0.8354   0.0424
     1.7354   4.2350   6.7772   8.1170   8.2174   9.2880

          k = 0.3000-0.2020 0.0000 (  9138 PWs)   bands (ev):

   -16.0935 -14.8204 -13.0162 -12.5245 -11.6131 -10.8865  -8.7043  -8.5531
    -7.8759  -6.8828  -6.0724  -5.5303  -5.3267  -4.8732  -4.2140  -3.9688
    -3.2568  -2.8033  -2.4266  -2.3514  -1.9170  -1.4734  -0.5528  -0.1238
     2.2783   3.7913   7.4153   9.0893   9.2943   9.8072

          k = 0.3000-0.3030 0.0000 (  9153 PWs)   bands (ev):

   -15.2018 -14.0759 -13.8821 -12.8497 -12.3257 -11.2900  -8.6095  -7.9016
    -7.8955  -6.9838  -6.7332  -5.9574  -5.5823  -5.1424  -4.8366  -4.2937
    -3.0471  -2.3515  -2.2025  -1.9416  -1.2328  -1.0435  -0.7306  -0.2560
     2.7747   3.3602   8.1073   9.6559  10.1437  10.4124

          k = 0.4000-0.0000 0.0000 (  9182 PWs)   bands (ev):

   -15.5680 -14.2831 -12.4062 -12.2349 -11.0070 -10.1523  -9.1984  -8.0856
    -7.3994  -7.0071  -5.9894  -5.0781  -4.9676  -4.5722  -4.3232  -4.0193
    -3.9115  -3.4115  -3.2439  -3.2100  -3.1035  -2.2327  -2.1884  -0.5085
     1.8720   3.6318   7.1866   7.7358   8.2723   8.8767

          k = 0.4000-0.1010 0.0000 (  9188 PWs)   bands (ev):

   -15.3912 -14.1139 -12.2595 -12.1551 -10.9546 -10.0895  -9.1220  -8.8008
    -8.2289  -7.0341  -5.8190  -5.7722  -5.2936  -5.0933  -4.5624  -3.7036
    -3.6034  -3.3524  -3.3310  -2.8739  -2.2870  -2.2273  -1.9237  -0.6040
     2.0468   3.5871   7.6471   8.0035   8.3277   9.0976

          k = 0.4000-0.2020 0.0000 (  9154 PWs)   bands (ev):

   -14.8682 -13.6169 -12.1941 -11.8351 -11.0710  -9.9902  -9.9152  -9.1233
    -8.6283  -7.3683  -7.2595  -6.3818  -6.1271  -5.5667  -4.4956  -3.8561
    -3.4805  -3.1856  -2.7073  -2.3248  -2.1322  -1.7053  -1.0408  -0.8325
     2.4550   3.4516   8.2150   8.8748   9.2335   9.6288

          k = 0.4000-0.3030 0.0000 (  9140 PWs)   bands (ev):

   -14.0317 -13.0190 -12.7928 -11.8538 -11.2285 -10.2512  -9.7774  -8.9165
    -8.7115  -8.2750  -7.9381  -7.2107  -6.1916  -5.7228  -4.8373  -4.1807
    -3.6274  -3.1110  -2.5217  -1.8679  -1.6808  -1.3438  -0.8964  -0.6183
     2.8375   3.2740   8.6307   9.6770  10.5146  10.5188

          k =-0.5000 0.0000 0.0000 (  9200 PWs)   bands (ev):

   -14.0085 -14.0085 -12.7480 -12.7480 -10.9040 -10.9040  -8.6884  -8.6884
    -6.6621  -6.6621  -5.9949  -5.9949  -4.8012  -4.8012  -4.1585  -4.1585
    -3.7410  -3.7410  -3.6677  -3.6677  -2.8162  -2.8162  -1.4390  -1.4390
     2.6806   2.6806   7.8424   7.8424   8.2139   8.2139

          k =-0.5000-0.1010 0.0000 (  9196 PWs)   bands (ev):

   -13.8484 -13.8484 -12.5974 -12.5974 -10.7759 -10.7759  -8.6499  -8.6499
    -7.4974  -7.4974  -6.9243  -6.9243  -4.6661  -4.6661  -4.1820  -4.1820
    -3.5391  -3.5391  -3.2022  -3.2022  -2.6427  -2.6427  -1.3711  -1.3711
     2.7633   2.7633   8.0566   8.0566   8.6202   8.6202

          k =-0.5000-0.2020 0.0000 (  9170 PWs)   bands (ev):

   -13.3982 -13.3982 -12.1784 -12.1784 -10.4328 -10.4328  -9.0641  -9.0641
    -8.6979  -8.6979  -7.9176  -7.9176  -5.1833  -5.1833  -4.5458  -4.5458
    -3.4289  -3.4289  -2.5620  -2.5620  -1.8931  -1.8931  -1.2164  -1.2164
     2.9361   2.9361   8.6372   8.6372   9.6372   9.6372

          k =-0.5000-0.3030 0.0000 (  9170 PWs)   bands (ev):

   -12.8390 -12.8390 -11.6740 -11.6740 -10.2567 -10.2567 -10.0301 -10.0301
    -9.2556  -9.2556  -8.3601  -8.3601  -5.5708  -5.5708  -4.6917  -4.6917
    -3.5739  -3.5739  -2.4913  -2.4913  -1.3600  -1.3600  -0.9370  -0.9370
     3.0568   3.0568   9.1367   9.1367  10.6886  10.6886

     the Fermi energy is     2.9086 ev

!    total energy              =    -138.82829929 Ry
     estimated scf accuracy    <          2.0E-09 Ry
     smearing contrib. (-TS)   =       0.00041521 Ry
     internal energy E=F+TS    =    -138.82871449 Ry

     The total energy is F=E-TS. E is the sum of the following terms:
     one-electron contribution =   -1999.92734792 Ry
     hartree contribution      =    1017.47600633 Ry
     xc contribution           =     -43.71473810 Ry
     ewald contribution        =     887.33736520 Ry

     convergence has been achieved in   8 iterations

     Forces acting on atoms (cartesian axes, Ry/au):

     atom    1 type  1   force =     0.00000000    0.02415004    0.00766446
     atom    2 type  1   force =     0.00000000   -0.02415004    0.00766446
     atom    3 type  1   force =     0.00000000   -0.00210628    0.00367626
     atom    4 type  1   force =     0.00000000    0.00210628    0.00367626
     atom    5 type  1   force =     0.00000000    0.00462904   -0.00040791
     atom    6 type  1   force =     0.00000000   -0.00462904   -0.00040791
     atom    7 type  1   force =     0.00000000   -0.00538485    0.00068016
     atom    8 type  1   force =     0.00000000    0.00538485    0.00068016
     atom    9 type  1   force =     0.00000000   -0.04207542   -0.04686939
     atom   10 type  1   force =     0.00000000    0.04207542   -0.04686939
     atom   11 type  1   force =    -0.00000000    0.16917266    0.04426363
     atom   12 type  1   force =     0.00000000   -0.16917266    0.04426363
     atom   13 type  2   force =     0.00000000   -0.01790323   -0.00900720
     atom   14 type  2   force =    -0.00000000    0.01790323   -0.00900720

     Total force =     0.047173     Total SCF correction =     0.000056
     Energy error            =      1.4E-03 Ry
     Gradient error          =      2.4E-02 Ry/Bohr

     number of scf cycles    =   2
     number of bfgs steps    =   1

     energy             old  =    -138.8269200146 Ry
     energy             new  =    -138.8282992871 Ry

     CASE: energy            _new < energy            _old

     new trust radius        =       0.0134209141 bohr
     new conv_thr            =       0.0000000100 Ry


ATOMIC_POSITIONS (angstrom)
C                0.0000000000       -0.9083288657       12.2988082260
C                1.2611249400       -1.7669211343       12.2988082260
C                0.0000000000        0.0014131205       11.0513401203
C                1.2611249400       -2.6766631205       11.0513401203
C                0.0000000000       -0.8929119011        9.7833804881
C                1.2611249400       -1.7823380989        9.7833804881
C                0.0000000000        0.0066050669        8.5225159196
C                1.2611249400       -2.6818550669        8.5225159196
C                0.0000000000       -0.8917500000        7.2611249400    0   0   0
C                1.2611249400       -1.7835000000        7.2611249400    0   0   0
C                0.0000000000        0.0000000000        6.0000000000    0   0   0
C                1.2611249400       -2.6752500000        6.0000000000    0   0   0
H               -0.0000000000       -0.2708195126       13.1982549433
H                1.2611249400       -2.4044304874       13.1982549433



     Writing config-only to output data dir ./tmp/slab.save/ :
     XML data file
     NEW-OLD atomic charge density approx. for the potential

     total cpu time spent up to now is       89.4 secs

     Self-consistent Calculation

     iteration #  1     ecut=    60.00 Ry     beta= 0.30
     Davidson diagonalization with overlap
     ethr =  1.00E-06,  avg # of iterations =  5.6

     total cpu time spent up to now is       93.9 secs

     total energy              =    -138.82908289 Ry
     estimated scf accuracy    <       0.00016922 Ry

     iteration #  2     ecut=    60.00 Ry     beta= 0.30
     Davidson diagonalization with overlap
     ethr =  3.38E-07,  avg # of iterations =  2.4

     total cpu time spent up to now is       96.6 secs

     total energy              =    -138.82908739 Ry
     estimated scf accuracy    <       0.00004214 Ry

     iteration #  3     ecut=    60.00 Ry     beta= 0.30
     Davidson diagonalization with overlap
     ethr =  8.43E-08,  avg # of iterations =  1.8

     total cpu time spent up to now is       99.0 secs

     total energy              =    -138.82908828 Ry
     estimated scf accuracy    <       0.00000922 Ry

     iteration #  4     ecut=    60.00 Ry     beta= 0.30
     Davidson diagonalization with overlap
     ethr =  1.84E-08,  avg # of iterations =  2.1

     total cpu time spent up to now is      101.7 secs

     total energy              =    -138.82908954 Ry
     estimated scf accuracy    <       0.00000100 Ry

     iteration #  5     ecut=    60.00 Ry     beta= 0.30
     Davidson diagonalization with overlap
     ethr =  2.01E-09,  avg # of iterations =  2.2

     total cpu time spent up to now is      104.3 secs

     total energy              =    -138.82908973 Ry
     estimated scf accuracy    <       0.00000025 Ry

     iteration #  6     ecut=    60.00 Ry     beta= 0.30
     Davidson diagonalization with overlap
     ethr =  4.97E-10,  avg # of iterations =  1.9

     total cpu time spent up to now is      106.8 secs

     total energy              =    -138.82908978 Ry
     estimated scf accuracy    <       0.00000004 Ry

     iteration #  7     ecut=    60.00 Ry     beta= 0.30
     Davidson diagonalization with overlap
     ethr =  7.57E-11,  avg # of iterations =  2.0

     total cpu time spent up to now is      109.5 secs

     End of self-consistent calculation

          k = 0.0000-0.0000 0.0000 (  9127 PWs)   bands (ev):

   -18.4489 -17.1279 -15.1925 -12.8509 -10.6685  -9.9448  -9.7560  -8.5739
    -6.7921  -6.7620  -5.7435  -4.9725  -4.4286  -3.6817  -3.4350  -2.4025
    -1.9887  -1.7011  -1.0218   0.3303   0.4369   1.0817   1.7008   2.3545
     2.5485   4.9990   5.0224   7.3178   7.7510   8.0896

          k = 0.0000-0.1010 0.0000 (  9121 PWs)   bands (ev):

   -18.2611 -16.9455 -15.0268 -12.7788 -12.0204 -11.1905  -8.9566  -8.1379
    -7.6229  -5.9443  -5.6484  -4.8099  -3.8831  -3.4423  -3.2604  -2.2558
    -2.1062  -1.3522  -0.9390   0.3763   0.4251   0.8471   1.3795   1.8640
     2.6362   4.5567   5.2349   7.4656   7.8540   8.3355

          k = 0.0000-0.2020 0.0000 (  9137 PWs)   bands (ev):

   -17.7003 -16.4035 -14.5530 -13.8821 -12.9887 -12.3173  -9.5668  -8.6663
    -7.2372  -6.1319  -4.7169  -4.0709  -3.1413  -2.7441  -2.7285  -1.8306
    -1.5325  -1.0995  -0.7199   0.1436   0.1819   0.4172   0.7911   1.0428
     2.5656   3.8159   5.8318   7.7330   8.4455   8.5982

          k = 0.0000-0.3030 0.0000 (  9120 PWs)   bands (ev):

   -16.7750 -15.5957 -15.4128 -14.3249 -13.8055 -12.7554  -9.8917  -9.1457
    -7.3196  -6.3804  -4.4141  -3.4159  -2.3041  -1.9128  -1.5966  -1.1890
    -1.0677  -0.8022  -0.5532  -0.4903  -0.3873  -0.2372   0.1178   0.5246
     2.6012   3.2372   6.6916   7.8610   8.1945   9.0143

          k = 0.1000-0.0000 0.0000 (  9133 PWs)   bands (ev):

   -18.2643 -16.9456 -15.0138 -12.6777 -10.5039  -9.7828  -9.6974  -8.5239
    -6.7250  -6.6332  -5.5959  -4.8324  -4.4109  -4.2777  -3.5727  -3.2123
    -1.9440  -1.7995  -1.7110  -0.3259   0.2003   0.8828   1.0115   1.4923
     2.2309   5.0434   5.1859   7.5274   8.0510   8.5814

          k = 0.1000-0.1010 0.0000 (  9113 PWs)   bands (ev):

   -18.0769 -16.7637 -14.8489 -12.6077 -11.8704 -11.0354  -8.8346  -8.0339
    -7.5679  -5.8699  -5.5663  -4.7561  -4.0346  -3.8655  -3.3656  -2.9883
    -2.0883  -1.6713  -1.4024  -0.3944   0.1558   0.4232   0.8119   1.1318
     2.5085   4.6403   5.4196   7.7581   8.4590   8.7509

          k = 0.1000-0.2020 0.0000 (  9112 PWs)   bands (ev):

   -17.5175 -16.2234 -14.3777 -13.7161 -12.8256 -12.1513  -9.4163  -8.5145
    -7.1122  -6.0749  -4.8461  -4.0858  -3.5279  -3.2698  -2.6901  -2.1788
    -1.8509  -1.2947  -1.0819  -0.8629  -0.6939  -0.1744   0.4907   1.0458
     2.5508   3.9474   6.0457   8.3036   8.9182   9.0415

          k = 0.1000-0.3030 0.0000 (  9124 PWs)   bands (ev):

   -16.5951 -15.4195 -15.2376 -14.1538 -13.6363 -12.5883  -9.7298  -8.9871
    -7.1778  -6.2433  -4.4040  -3.4236  -3.2201  -2.4650  -2.1606  -1.7650
    -1.5250  -1.3689  -1.1982  -0.8601  -0.7352  -0.1382   0.0612   0.3044
     2.7243   3.3019   6.9537   8.2610   8.8492   9.4962

          k = 0.2000-0.0000 0.0000 (  9130 PWs)   bands (ev):

   -17.7127 -16.4008 -14.4801 -12.1606 -10.0117  -9.7127  -9.2981  -8.5555
    -6.7819  -6.1699  -5.8522  -5.1731  -4.7488  -4.5039  -4.4303  -3.3050
    -3.2830  -1.9201  -1.9044  -1.8171  -0.8281  -0.4199  -0.3371   0.7722
     1.6478   4.9089   5.7094   7.7581   8.1387   8.3475

          k = 0.2000-0.1010 0.0000 (  9140 PWs)   bands (ev):

   -17.5268 -16.2209 -14.3178 -12.0972 -11.4576 -10.5907  -8.5804  -7.9649
    -7.5566  -5.9929  -5.6120  -5.1527  -4.7053  -4.2088  -3.8336  -3.1934
    -2.8376  -2.2391  -1.9280  -1.7795  -1.5262  -0.7596   0.2487   0.4283
     2.0159   4.5780   5.9639   8.2973   8.5206   8.6894

          k = 0.2000-0.2020 0.0000 (  9135 PWs)   bands (ev):

   -16.9721 -15.6864 -13.8551 -13.2316 -12.3448 -11.6599  -9.0002  -8.1026
    -6.9540  -6.5419  -5.4455  -4.8766  -4.0770  -3.6112  -3.2903  -3.0764
    -2.4538  -2.3127  -2.1539  -2.0835  -1.5092  -0.9981  -0.0643   0.6319
     2.4197   3.9580   6.6164   9.0860   9.5269   9.5587

          k = 0.2000-0.3030 0.0000 (  9150 PWs)   bands (ev):

   -16.0591 -14.8959 -14.7173 -13.6468 -13.1324 -12.0912  -9.2654  -8.5305
    -6.8154  -5.9548  -5.5663  -4.5177  -4.4227  -3.6852  -3.4571  -3.1304
    -2.7113  -2.4179  -1.5258  -1.1157  -1.0064  -0.9726  -0.1104   0.0697
     2.8047   3.3554   7.5098   8.9434  10.0029  10.3474

          k = 0.3000-0.0000 0.0000 (  9160 PWs)   bands (ev):

   -16.8020 -15.5020 -13.5997 -11.3072 -10.5366  -9.3569  -9.1967  -8.4951
    -7.5797  -6.5465  -5.4979  -5.4490  -5.3460  -4.5475  -4.1369  -3.8417
    -3.1230  -2.9430  -2.8975  -2.4168  -2.1275  -1.7239  -1.7106   0.2502
     1.4790   4.4363   6.5257   7.6711   7.7548   9.2169

          k = 0.3000-0.1010 0.0000 (  9159 PWs)   bands (ev):

   -16.6190 -15.3255 -13.4423 -11.2606 -11.1113 -10.0609  -9.0089  -8.5957
    -7.7690  -6.4640  -5.7160  -5.4993  -5.1138  -4.2352  -3.8583  -3.7027
    -3.4403  -3.3784  -2.9814  -2.6802  -1.9877  -1.7831  -0.8138   0.0059
     1.7400   4.2376   6.8125   8.1249   8.2252   9.2886

          k = 0.3000-0.2020 0.0000 (  9138 PWs)   bands (ev):

   -16.0740 -14.8029 -12.9962 -12.5095 -11.5961 -10.8767  -8.6791  -8.5648
    -7.8675  -6.8689  -6.0786  -5.4901  -5.3059  -4.8619  -4.2052  -3.9336
    -3.2674  -2.7969  -2.4233  -2.3362  -1.9201  -1.4769  -0.5545  -0.1181
     2.2831   3.7946   7.4487   9.1003   9.3145   9.8267

          k = 0.3000-0.3030 0.0000 (  9153 PWs)   bands (ev):

   -15.1819 -14.0468 -13.8748 -12.8313 -12.3083 -11.2818  -8.6245  -7.8980
    -7.8696  -6.9616  -6.7125  -5.9509  -5.5720  -5.0982  -4.8335  -4.2792
    -3.0629  -2.3610  -2.1974  -1.9324  -1.2262  -1.0420  -0.7205  -0.2415
     2.7791   3.3640   8.1625   9.6668  10.1585  10.4155

          k = 0.4000-0.0000 0.0000 (  9182 PWs)   bands (ev):

   -15.5487 -14.2665 -12.3904 -12.2176 -10.9938 -10.1331  -9.1869  -8.0679
    -7.3825  -6.9920  -5.9680  -5.0656  -4.9419  -4.5740  -4.3042  -3.9975
    -3.9021  -3.4033  -3.2392  -3.2051  -3.0933  -2.2514  -2.1918  -0.5361
     1.8757   3.6346   7.2033   7.7764   8.2794   8.8918

          k = 0.4000-0.1010 0.0000 (  9188 PWs)   bands (ev):

   -15.3718 -14.0972 -12.2428 -12.1390 -10.9426 -10.0696  -9.1092  -8.7722
    -8.2204  -7.0176  -5.7973  -5.7621  -5.2816  -5.0790  -4.5465  -3.7011
    -3.5945  -3.3508  -3.3193  -2.8748  -2.2986  -2.2056  -1.9224  -0.6318
     2.0505   3.5899   7.6787   8.0339   8.3395   9.0936

          k = 0.4000-0.2020 0.0000 (  9154 PWs)   bands (ev):

   -14.8490 -13.5998 -12.1795 -11.8165 -11.0617  -9.9724  -9.8854  -9.1001
    -8.6246  -7.3403  -7.2405  -6.3735  -6.1203  -5.5583  -4.4907  -3.8658
    -3.4770  -3.1811  -2.7059  -2.3151  -2.1170  -1.7078  -1.0186  -0.8582
     2.4590   3.4547   8.2671   8.9092   9.2637   9.6487

          k = 0.4000-0.3030 0.0000 (  9140 PWs)   bands (ev):

   -14.0126 -12.9956 -12.7825 -11.8394 -11.2091 -10.2444  -9.7486  -8.8800
    -8.6940  -8.2709  -7.9165  -7.2064  -6.1740  -5.7078  -4.8534  -4.1964
    -3.6221  -3.0869  -2.5467  -1.8620  -1.6869  -1.3170  -0.9049  -0.6017
     2.8422   3.2772   8.7134   9.7336  10.5290  10.5393

          k =-0.5000 0.0000 0.0000 (  9200 PWs)   bands (ev):

   -13.9896 -13.9896 -12.7321 -12.7321 -10.8888 -10.8888  -8.6695  -8.6695
    -6.6429  -6.6429  -5.9768  -5.9768  -4.7831  -4.7831  -4.1432  -4.1432
    -3.7420  -3.7420  -3.6550  -3.6550  -2.8275  -2.8275  -1.4543  -1.4543
     2.6838   2.6838   7.8492   7.8492   8.2416   8.2416

          k =-0.5000-0.1010 0.0000 (  9196 PWs)   bands (ev):

   -13.8297 -13.8297 -12.5817 -12.5817 -10.7605 -10.7605  -8.6291  -8.6291
    -7.4686  -7.4686  -6.9155  -6.9155  -4.6719  -4.6719  -4.1689  -4.1689
    -3.5250  -3.5250  -3.1844  -3.1844  -2.6515  -2.6515  -1.3859  -1.3859
     2.7666   2.7666   8.0726   8.0726   8.6517   8.6517

          k =-0.5000-0.2020 0.0000 (  9170 PWs)   bands (ev):

   -13.3803 -13.3803 -12.1635 -12.1635 -10.4161 -10.4161  -9.0378  -9.0378
    -8.6693  -8.6693  -7.9097  -7.9097  -5.1902  -5.1902  -4.5439  -4.5439
    -3.4219  -3.4219  -2.5619  -2.5619  -1.8721  -1.8721  -1.2299  -1.2299
     2.9396   2.9396   8.6912   8.6912   9.6474   9.6474

          k =-0.5000-0.3030 0.0000 (  9170 PWs)   bands (ev):

   -12.8231 -12.8231 -11.6606 -11.6606 -10.2258 -10.2258 -10.0146 -10.0146
    -9.2275  -9.2275  -8.3488  -8.3488  -5.5821  -5.5821  -4.6817  -4.6817
    -3.5849  -3.5849  -2.4808  -2.4808  -1.3664  -1.3664  -0.9234  -0.9234
     3.0605   3.0605   9.2263   9.2263  10.7183  10.7183

     the Fermi energy is     2.9126 ev

!    total energy              =    -138.82908979 Ry
     estimated scf accuracy    <          5.1E-09 Ry
     smearing contrib. (-TS)   =       0.00041174 Ry
     internal energy E=F+TS    =    -138.82950153 Ry

     The total energy is F=E-TS. E is the sum of the following terms:
     one-electron contribution =   -1999.43638946 Ry
     hartree contribution      =    1017.25503889 Ry
     xc contribution           =     -43.72201390 Ry
     ewald contribution        =     887.07386295 Ry

     convergence has been achieved in   7 iterations

     Forces acting on atoms (cartesian axes, Ry/au):

     atom    1 type  1   force =     0.00000000    0.00116959   -0.00122476
     atom    2 type  1   force =     0.00000000   -0.00116959   -0.00122476
     atom    3 type  1   force =     0.00000000   -0.00001670    0.00179529
     atom    4 type  1   force =     0.00000000    0.00001670    0.00179529
     atom    5 type  1   force =     0.00000000    0.00072486    0.00134381
     atom    6 type  1   force =     0.00000000   -0.00072486    0.00134381
     atom    7 type  1   force =     0.00000000   -0.00187111    0.00041345
     atom    8 type  1   force =     0.00000000    0.00187111    0.00041345
     atom    9 type  1   force =     0.00000000   -0.04220541   -0.04683606
     atom   10 type  1   force =     0.00000000    0.04220541   -0.04683606
     atom   11 type  1   force =     0.00000000    0.16913207    0.04428121
     atom   12 type  1   force =     0.00000000   -0.16913207    0.04428121
     atom   13 type  2   force =     0.00000000   -0.00997871    0.00022706
     atom   14 type  2   force =    -0.00000000    0.00997871    0.00022706

     Total force =     0.014948     Total SCF correction =     0.000093
     Energy error            =      7.9E-04 Ry
     Gradient error          =      1.0E-02 Ry/Bohr

     number of scf cycles    =   3
     number of bfgs steps    =   2

     energy             old  =    -138.8282992871 Ry
     energy             new  =    -138.8290897885 Ry

     CASE: energy            _new < energy            _old

     new trust radius        =       0.0155685792 bohr
     new conv_thr            =       0.0000000079 Ry


ATOMIC_POSITIONS (angstrom)
C                0.0000000000       -0.9077940476       12.2977666249
C                1.2611249400       -1.7674559524       12.2977666249
C                0.0000000000        0.0014221213       11.0532606578
C                1.2611249400       -2.6766721213       11.0532606578
C                0.0000000000       -0.8923093719        9.7842805410
C                1.2611249400       -1.7829406281        9.7842805410
C                0.0000000000        0.0056151713        8.5228482380
C                1.2611249400       -2.6808651713        8.5228482380
C                0.0000000000       -0.8917500000        7.2611249400    0   0   0
C                1.2611249400       -1.7835000000        7.2611249400    0   0   0
C                0.0000000000        0.0000000000        6.0000000000    0   0   0
C                1.2611249400       -2.6752500000        6.0000000000    0   0   0
H                0.0000000000       -0.2790580139       13.1982306007
H                1.2611249400       -2.3961919861       13.1982306007



     Writing config-only to output data dir ./tmp/slab.save/ :
     XML data file
     NEW-OLD atomic charge density approx. for the potential

     total cpu time spent up to now is      109.8 secs

     Self-consistent Calculation

     iteration #  1     ecut=    60.00 Ry     beta= 0.30
     Davidson diagonalization with overlap
     ethr =  1.00E-06,  avg # of iterations =  3.0

     total cpu time spent up to now is      113.4 secs

     total energy              =    -138.82935125 Ry
     estimated scf accuracy    <       0.00006182 Ry

     iteration #  2     ecut=    60.00 Ry     beta= 0.30
     Davidson diagonalization with overlap
     ethr =  1.24E-07,  avg # of iterations =  2.6

     total cpu time spent up to now is      116.1 secs

     total energy              =    -138.82935627 Ry
     estimated scf accuracy    <       0.00001197 Ry

     iteration #  3     ecut=    60.00 Ry     beta= 0.30
     Davidson diagonalization with overlap
     ethr =  2.39E-08,  avg # of iterations =  2.1

     total cpu time spent up to now is      118.7 secs

     total energy              =    -138.82935733 Ry
     estimated scf accuracy    <       0.00000298 Ry

     iteration #  4     ecut=    60.00 Ry     beta= 0.30
     Davidson diagonalization with overlap
     ethr =  5.96E-09,  avg # of iterations =  1.3

     total cpu time spent up to now is      121.0 secs

     total energy              =    -138.82935756 Ry
     estimated scf accuracy    <       0.00000080 Ry

     iteration #  5     ecut=    60.00 Ry     beta= 0.30
     Davidson diagonalization with overlap
     ethr =  1.60E-09,  avg # of iterations =  1.7

     total cpu time spent up to now is      123.4 secs

     total energy              =    -138.82935765 Ry
     estimated scf accuracy    <       0.00000011 Ry

     iteration #  6     ecut=    60.00 Ry     beta= 0.30
     Davidson diagonalization with overlap
     ethr =  2.19E-10,  avg # of iterations =  2.2

     total cpu time spent up to now is      126.2 secs

     total energy              =    -138.82935767 Ry
     estimated scf accuracy    <       0.00000002 Ry

     iteration #  7     ecut=    60.00 Ry     beta= 0.30
     Davidson diagonalization with overlap
     ethr =  3.12E-11,  avg # of iterations =  2.3

     total cpu time spent up to now is      129.2 secs

     End of self-consistent calculation

          k = 0.0000-0.0000 0.0000 (  9127 PWs)   bands (ev):

   -18.4411 -17.1275 -15.1902 -12.8465 -10.6672  -9.9364  -9.7522  -8.5804
    -6.7937  -6.7666  -5.7432  -4.9659  -4.4339  -3.6786  -3.4222  -2.3975
    -1.9752  -1.7192  -1.0119   0.3441   0.4552   1.0635   1.7126   2.3684
     2.5543   4.9986   5.0185   7.3152   7.7629   8.0984

          k = 0.0000-0.1010 0.0000 (  9121 PWs)   bands (ev):

   -18.2534 -16.9452 -15.0246 -12.7751 -12.0129 -11.1897  -8.9626  -8.1357
    -7.6190  -5.9534  -5.6436  -4.8104  -3.8780  -3.4470  -3.2474  -2.2505
    -2.1052  -1.3521  -0.9288   0.3945   0.4182   0.8521   1.3926   1.8736
     2.6373   4.5583   5.2308   7.4653   7.8615   8.3385

          k = 0.0000-0.2020 0.0000 (  9137 PWs)   bands (ev):

   -17.6925 -16.4033 -14.5512 -13.8747 -12.9874 -12.3142  -9.5667  -8.6695
    -7.2334  -6.1360  -4.7208  -4.0660  -3.1407  -2.7308  -2.7305  -1.8242
    -1.5289  -1.1068  -0.7089   0.1614   0.1875   0.4315   0.7908   1.0455
     2.5665   3.8181   5.8295   7.7364   8.4512   8.6037

          k = 0.0000-0.3030 0.0000 (  9120 PWs)   bands (ev):

   -16.7674 -15.5920 -15.4093 -14.3252 -13.8026 -12.7523  -9.8885  -9.1474
    -7.3172  -6.3901  -4.4091  -3.4212  -2.3012  -1.8986  -1.5954  -1.1787
    -1.0693  -0.7901  -0.5530  -0.4753  -0.3783  -0.2335   0.1165   0.5275
     2.6022   3.2392   6.6984   7.8618   8.1963   9.0163

          k = 0.1000-0.0000 0.0000 (  9133 PWs)   bands (ev):

   -18.2565 -16.9452 -15.0115 -12.6733 -10.5025  -9.7743  -9.6938  -8.5306
    -6.7298  -6.6351  -5.5954  -4.8260  -4.4164  -4.2650  -3.5696  -3.2072
    -1.9309  -1.7919  -1.7270  -0.3084   0.2130   0.8900   0.9997   1.5028
     2.2356   5.0433   5.1827   7.5263   8.0703   8.5927

          k = 0.1000-0.1010 0.0000 (  9113 PWs)   bands (ev):

   -18.0692 -16.7634 -14.8466 -12.6039 -11.8630 -11.0346  -8.8409  -8.0314
    -7.5644  -5.8790  -5.5618  -4.7568  -4.0222  -3.8604  -3.3705  -2.9831
    -2.0867  -1.6613  -1.4029  -0.3770   0.1669   0.4133   0.8191   1.1408
     2.5107   4.6419   5.4160   7.7556   8.4701   8.7579

          k = 0.1000-0.2020 0.0000 (  9112 PWs)   bands (ev):

   -17.5098 -16.2232 -14.3759 -13.7087 -12.8243 -12.1481  -9.4165  -8.5177
    -7.1088  -6.0771  -4.8505  -4.0806  -3.5265  -3.2604  -2.6901  -2.1740
    -1.8447  -1.2907  -1.0807  -0.8554  -0.6813  -0.1689   0.4947   1.0501
     2.5519   3.9499   6.0435   8.3030   8.9294   9.0458

          k = 0.1000-0.3030 0.0000 (  9124 PWs)   bands (ev):

   -16.5875 -15.4157 -15.2341 -14.1541 -13.6333 -12.5852  -9.7268  -8.9889
    -7.1757  -6.2532  -4.3985  -3.4256  -3.2140  -2.4604  -2.1527  -1.7610
    -1.5163  -1.3630  -1.1917  -0.8549  -0.7320  -0.1340   0.0672   0.3054
     2.7254   3.3040   6.9597   8.2607   8.8483   9.4973

          k = 0.2000-0.0000 0.0000 (  9130 PWs)   bands (ev):

   -17.7049 -16.4005 -14.4778 -12.1562 -10.0101  -9.7092  -9.2894  -8.5620
    -6.7867  -6.1726  -5.8397  -5.1720  -4.7439  -4.5097  -4.4250  -3.2957
    -3.2801  -1.9213  -1.8931  -1.8175  -0.8161  -0.4102  -0.3278   0.7556
     1.6506   4.9090   5.7092   7.7674   8.1469   8.3550

          k = 0.2000-0.1010 0.0000 (  9140 PWs)   bands (ev):

   -17.5191 -16.2206 -14.3156 -12.0934 -11.4504 -10.5901  -8.5871  -7.9582
    -7.5564  -5.9965  -5.6076  -5.1455  -4.7076  -4.2029  -3.8298  -3.1984
    -2.8296  -2.2292  -1.9194  -1.7723  -1.5234  -0.7557   0.2551   0.4202
     2.0185   4.5788   5.9627   8.3067   8.5180   8.7017

          k = 0.2000-0.2020 0.0000 (  9135 PWs)   bands (ev):

   -16.9644 -15.6863 -13.8533 -13.2243 -12.3435 -11.6567  -9.0014  -8.1056
    -6.9503  -6.5357  -5.4509  -4.8752  -4.0755  -3.6042  -3.2863  -3.0657
    -2.4442  -2.3100  -2.1474  -2.0823  -1.5050  -1.0041  -0.0598   0.6368
     2.4215   3.9598   6.6163   9.0863   9.5351   9.5710

          k = 0.2000-0.3030 0.0000 (  9150 PWs)   bands (ev):

   -16.0515 -14.8919 -14.7140 -13.6471 -13.1294 -12.0881  -9.2631  -8.5325
    -6.8146  -5.9592  -5.5628  -4.5058  -4.4195  -3.6849  -3.4520  -3.1226
    -2.7105  -2.4129  -1.5278  -1.1089  -1.0038  -0.9678  -0.1068   0.0753
     2.8061   3.3573   7.5182   8.9408   9.9984  10.3459

          k = 0.3000-0.0000 0.0000 (  9160 PWs)   bands (ev):

   -16.7942 -15.5018 -13.5975 -11.3026 -10.5313  -9.3607  -9.1948  -8.4861
    -7.5819  -6.5362  -5.4951  -5.4528  -5.3473  -4.5448  -4.1296  -3.8381
    -3.1252  -2.9405  -2.8851  -2.4069  -2.1204  -1.7321  -1.7036   0.2361
     1.4807   4.4367   6.5341   7.6769   7.7575   9.2334

          k = 0.3000-0.1010 0.0000 (  9159 PWs)   bands (ev):

   -16.6112 -15.3254 -13.4401 -11.2573 -11.1047 -10.0615  -9.0021  -8.5944
    -7.7703  -6.4652  -5.7146  -5.4921  -5.1069  -4.2414  -3.8504  -3.6926
    -3.4361  -3.3718  -2.9746  -2.6852  -1.9932  -1.7761  -0.8041  -0.0069
     1.7419   4.2380   6.8186   8.1285   8.2349   9.2966

          k = 0.3000-0.2020 0.0000 (  9138 PWs)   bands (ev):

   -16.0663 -14.8028 -12.9945 -12.5026 -11.5954 -10.8733  -8.6725  -8.5652
    -7.8656  -6.8722  -6.0764  -5.4819  -5.2976  -4.8614  -4.2067  -3.9221
    -3.2691  -2.7969  -2.4181  -2.3289  -1.9226  -1.4775  -0.5531  -0.1141
     2.2851   3.7955   7.4554   9.1093   9.3203   9.8441

          k = 0.3000-0.3030 0.0000 (  9153 PWs)   bands (ev):

   -15.1744 -14.0423 -13.8724 -12.8318 -12.3054 -11.2787  -8.6245  -7.8996
    -7.8603  -6.9599  -6.7032  -5.9469  -5.5757  -5.0900  -4.8357  -4.2740
    -3.0625  -2.3628  -2.1941  -1.9322  -1.2227  -1.0390  -0.7154  -0.2343
     2.7810   3.3651   8.1795   9.6669  10.1674  10.4204

          k = 0.4000-0.0000 0.0000 (  9182 PWs)   bands (ev):

   -15.5409 -14.2664 -12.3882 -12.2107 -10.9951 -10.1284  -9.1862  -8.0657
    -7.3731  -6.9889  -5.9593  -5.0657  -4.9382  -4.5791  -4.2935  -3.9921
    -3.8960  -3.3967  -3.2381  -3.2011  -3.0940  -2.2595  -2.1935  -0.5465
     1.8769   3.6352   7.2150   7.7926   8.2797   8.9041

          k = 0.4000-0.1010 0.0000 (  9188 PWs)   bands (ev):

   -15.3641 -14.0972 -12.2408 -12.1323 -10.9442 -10.0652  -9.1087  -8.7622
    -8.2176  -7.0148  -5.7980  -5.7551  -5.2783  -5.0720  -4.5394  -3.7021
    -3.5977  -3.3474  -3.3137  -2.8767  -2.3032  -2.1956  -1.9213  -0.6422
     2.0517   3.5905   7.6943   8.0490   8.3424   9.0939

          k = 0.4000-0.2020 0.0000 (  9154 PWs)   bands (ev):

   -14.8414 -13.6000 -12.1737 -11.8146 -11.0634  -9.9688  -9.8738  -9.0988
    -8.6228  -7.3319  -7.2366  -6.3713  -6.1178  -5.5586  -4.4857  -3.8710
    -3.4745  -3.1832  -2.7024  -2.3135  -2.1081  -1.7097  -1.0079  -0.8668
     2.4605   3.4554   8.2865   8.9254   9.2767   9.6588

          k = 0.4000-0.3030 0.0000 (  9140 PWs)   bands (ev):

   -14.0053 -12.9894 -12.7829 -11.8406 -11.2067 -10.2418  -9.7381  -8.8768
    -8.6865  -8.2684  -7.9142  -7.2050  -6.1678  -5.7051  -4.8548  -4.2090
    -3.6139  -3.0789  -2.5554  -1.8552  -1.6928  -1.3073  -0.9055  -0.5921
     2.8441   3.2779   8.7429   9.7665  10.5326  10.5487

          k =-0.5000 0.0000 0.0000 (  9200 PWs)   bands (ev):

   -13.9820 -13.9820 -12.7324 -12.7324 -10.8871 -10.8871  -8.6651  -8.6651
    -6.6403  -6.6403  -5.9666  -5.9666  -4.7752  -4.7752  -4.1420  -4.1420
    -3.7445  -3.7445  -3.6499  -3.6499  -2.8320  -2.8320  -1.4605  -1.4605
     2.6846   2.6846   7.8618   7.8618   8.2510   8.2510

          k =-0.5000-0.1010 0.0000 (  9196 PWs)   bands (ev):

   -13.8222 -13.8222 -12.5822 -12.5822 -10.7588 -10.7588  -8.6249  -8.6249
    -7.4587  -7.4587  -6.9126  -6.9126  -4.6776  -4.6776  -4.1630  -4.1630
    -3.5168  -3.5168  -3.1804  -3.1804  -2.6555  -2.6555  -1.3917  -1.3917
     2.7676   2.7676   8.0848   8.0848   8.6672   8.6672

          k =-0.5000-0.2020 0.0000 (  9170 PWs)   bands (ev):

   -13.3731 -13.3731 -12.1643 -12.1643 -10.4149 -10.4149  -9.0279  -9.0279
    -8.6642  -8.6642  -7.9071  -7.9071  -5.1908  -5.1908  -4.5467  -4.5467
    -3.4149  -3.4149  -2.5668  -2.5668  -1.8610  -1.8610  -1.2343  -1.2343
     2.9407   2.9407   8.7159   8.7159   9.6533   9.6533

          k =-0.5000-0.3030 0.0000 (  9170 PWs)   bands (ev):

   -12.8168 -12.8168 -11.6623 -11.6623 -10.2168 -10.2168 -10.0122 -10.0122
    -9.2229  -9.2229  -8.3451  -8.3451  -5.5818  -5.5818  -4.6823  -4.6823
    -3.5842  -3.5842  -2.4816  -2.4816  -1.3646  -1.3646  -0.9169  -0.9169
     3.0618   3.0618   9.2653   9.2653  10.7288  10.7288

     the Fermi energy is     2.9141 ev

!    total energy              =    -138.82935767 Ry
     estimated scf accuracy    <          4.0E-09 Ry
     smearing contrib. (-TS)   =       0.00041005 Ry
     internal energy E=F+TS    =    -138.82976772 Ry

     The total energy is F=E-TS. E is the sum of the following terms:
     one-electron contribution =   -1999.45853069 Ry
     hartree contribution      =    1017.27443162 Ry
     xc contribution           =     -43.72775212 Ry
     ewald contribution        =     887.08208347 Ry

     convergence has been achieved in   7 iterations

     Forces acting on atoms (cartesian axes, Ry/au):

     atom    1 type  1   force =     0.00000000   -0.00311931   -0.00330790
     atom    2 type  1   force =     0.00000000    0.00311931   -0.00330790
     atom    3 type  1   force =     0.00000000    0.00079316   -0.00010453
     atom    4 type  1   force =     0.00000000   -0.00079316   -0.00010453
     atom    5 type  1   force =     0.00000000   -0.00063282    0.00154656
     atom    6 type  1   force =     0.00000000    0.00063282    0.00154656
     atom    7 type  1   force =     0.00000000    0.00060357    0.00057637
     atom    8 type  1   force =     0.00000000   -0.00060357    0.00057637
     atom    9 type  1   force =     0.00000000   -0.04228403   -0.04668803
     atom   10 type  1   force =    -0.00000000    0.04228403   -0.04668803
     atom   11 type  1   force =     0.00000000    0.16909590    0.04431194
     atom   12 type  1   force =     0.00000000   -0.16909590    0.04431194
     atom   13 type  2   force =     0.00000000   -0.00587811    0.00366558
     atom   14 type  2   force =    -0.00000000    0.00587811    0.00366558

     Total force =     0.012066     Total SCF correction =     0.000123
     Energy error            =      2.7E-04 Ry
     Gradient error          =      5.9E-03 Ry/Bohr

     number of scf cycles    =   4
     number of bfgs steps    =   3

     energy             old  =    -138.8290897885 Ry
     energy             new  =    -138.8293576705 Ry

     CASE: energy            _new < energy            _old

     new trust radius        =       0.0171254371 bohr
     new conv_thr            =       0.0000000027 Ry


ATOMIC_POSITIONS (angstrom)
C                0.0000000000       -0.9082070238       12.2956197420
C                1.2611249400       -1.7670429762       12.2956197420
C                0.0000000000        0.0018100409       11.0545894848
C                1.2611249400       -2.6770600409       11.0545894848
C                0.0000000000       -0.8921222434        9.7855739977
C                1.2611249400       -1.7831277566        9.7855739977
C                0.0000000000        0.0054566669        8.5234167475
C                1.2611249400       -2.6807066669        8.5234167475
C                0.0000000000       -0.8917500000        7.2611249400    0   0   0
C                1.2611249400       -1.7835000000        7.2611249400    0   0   0
C                0.0000000000        0.0000000000        6.0000000000    0   0   0
C                1.2611249400       -2.6752500000        6.0000000000    0   0   0
H                0.0000000000       -0.2879698093       13.1998758470
H                1.2611249400       -2.3872801907       13.1998758470



     Writing config-only to output data dir ./tmp/slab.save/ :
     XML data file
     NEW-OLD atomic charge density approx. for the potential

     total cpu time spent up to now is      129.4 secs

     Self-consistent Calculation

     iteration #  1     ecut=    60.00 Ry     beta= 0.30
     Davidson diagonalization with overlap
     ethr =  1.00E-06,  avg # of iterations =  3.4

     total cpu time spent up to now is      133.2 secs

     total energy              =    -138.82956032 Ry
     estimated scf accuracy    <       0.00006599 Ry

     iteration #  2     ecut=    60.00 Ry     beta= 0.30
     Davidson diagonalization with overlap
     ethr =  1.32E-07,  avg # of iterations =  2.0

     total cpu time spent up to now is      135.8 secs

     total energy              =    -138.82956813 Ry
     estimated scf accuracy    <       0.00001139 Ry

     iteration #  3     ecut=    60.00 Ry     beta= 0.30
     Davidson diagonalization with overlap
     ethr =  2.28E-08,  avg # of iterations =  2.1

     total cpu time spent up to now is      138.5 secs

     total energy              =    -138.82956945 Ry
     estimated scf accuracy    <       0.00000351 Ry

     iteration #  4     ecut=    60.00 Ry     beta= 0.30
     Davidson diagonalization with overlap
     ethr =  7.02E-09,  avg # of iterations =  1.3

     total cpu time spent up to now is      140.8 secs

     total energy              =    -138.82956985 Ry
     estimated scf accuracy    <       0.00000107 Ry

     iteration #  5     ecut=    60.00 Ry     beta= 0.30
     Davidson diagonalization with overlap
     ethr =  2.15E-09,  avg # of iterations =  1.8

     total cpu time spent up to now is      143.2 secs

     total energy              =    -138.82956995 Ry
     estimated scf accuracy    <       0.00000010 Ry

     iteration #  6     ecut=    60.00 Ry     beta= 0.30
     Davidson diagonalization with overlap
     ethr =  2.09E-10,  avg # of iterations =  2.1

     total cpu time spent up to now is      145.9 secs

     total energy              =    -138.82956997 Ry
     estimated scf accuracy    <       0.00000001 Ry

     iteration #  7     ecut=    60.00 Ry     beta= 0.30
     Davidson diagonalization with overlap
     ethr =  2.82E-11,  avg # of iterations =  2.4

     total cpu time spent up to now is      149.0 secs

     End of self-consistent calculation

          k = 0.0000-0.0000 0.0000 (  9127 PWs)   bands (ev):

   -18.4389 -17.1303 -15.1895 -12.8456 -10.6691  -9.9330  -9.7506  -8.5849
    -6.7979  -6.7655  -5.7419  -4.9595  -4.4331  -3.6741  -3.4201  -2.4017
    -1.9624  -1.7270  -1.0113   0.3560   0.4583   1.0551   1.7142   2.3713
     2.5583   4.9991   5.0104   7.3121   7.7649   8.1023

          k = 0.0000-0.1010 0.0000 (  9121 PWs)   bands (ev):

   -18.2512 -16.9480 -15.0240 -12.7753 -12.0110 -11.1894  -8.9668  -8.1328
    -7.6157  -5.9619  -5.6366  -4.8099  -3.8718  -3.4474  -3.2454  -2.2546
    -2.0996  -1.3492  -0.9281   0.3973   0.4172   0.8578   1.3935   1.8766
     2.6389   4.5597   5.2225   7.4631   7.8620   8.3383

          k = 0.0000-0.2020 0.0000 (  9137 PWs)   bands (ev):

   -17.6904 -16.4063 -14.5517 -13.8723 -12.9906 -12.3122  -9.5613  -8.6748
    -7.2233  -6.1417  -4.7236  -4.0590  -3.1405  -2.7299  -2.7288  -1.8280
    -1.5232  -1.1080  -0.7080   0.1633   0.1973   0.4320   0.7904   1.0477
     2.5681   3.8202   5.8222   7.7355   8.4524   8.6031

          k = 0.0000-0.3030 0.0000 (  9120 PWs)   bands (ev):

   -16.7656 -15.5952 -15.4075 -14.3289 -13.8020 -12.7513  -9.8808  -9.1494
    -7.3093  -6.3980  -4.4020  -3.4252  -2.2979  -1.8967  -1.5948  -1.1817
    -1.0696  -0.7888  -0.5473  -0.4751  -0.3782  -0.2310   0.1219   0.5294
     2.6036   3.2411   6.6975   7.8560   8.1951   9.0135

          k = 0.1000-0.0000 0.0000 (  9133 PWs)   bands (ev):

   -18.2543 -16.9480 -15.0108 -12.6724 -10.5044  -9.7709  -9.6922  -8.5350
    -6.7287  -6.6394  -5.5940  -4.8197  -4.4158  -4.2629  -3.5652  -3.2112
    -1.9185  -1.7929  -1.7334  -0.3054   0.2235   0.8891   0.9947   1.5049
     2.2389   5.0439   5.1742   7.5240   8.0864   8.6000

          k = 0.1000-0.1010 0.0000 (  9113 PWs)   bands (ev):

   -18.0670 -16.7662 -14.8461 -12.6041 -11.8612 -11.0344  -8.8453  -8.0283
    -7.5612  -5.8875  -5.5549  -4.7566  -4.0200  -3.8548  -3.3710  -2.9868
    -2.0809  -1.6597  -1.4010  -0.3743   0.1710   0.4094   0.8231   1.1438
     2.5124   4.6432   5.4074   7.7525   8.4769   8.7602

          k = 0.1000-0.2020 0.0000 (  9112 PWs)   bands (ev):

   -17.5076 -16.2263 -14.3764 -13.7063 -12.8275 -12.1461  -9.4112  -8.5229
    -7.0991  -6.0813  -4.8556  -4.0729  -3.5270  -3.2588  -2.6910  -2.1751
    -1.8401  -1.2912  -1.0773  -0.8559  -0.6815  -0.1621   0.4993   1.0503
     2.5536   3.9518   6.0360   8.3010   8.9352   9.0465

          k = 0.1000-0.3030 0.0000 (  9124 PWs)   bands (ev):

   -16.5856 -15.4190 -15.2324 -14.1578 -13.6327 -12.5841  -9.7192  -8.9909
    -7.1680  -6.2612  -4.3923  -3.4296  -3.2106  -2.4632  -2.1504  -1.7592
    -1.5181  -1.3631  -1.1890  -0.8527  -0.7301  -0.1280   0.0699   0.3073
     2.7268   3.3060   6.9584   8.2540   8.8459   9.4957

          k = 0.2000-0.0000 0.0000 (  9130 PWs)   bands (ev):

   -17.7027 -16.4033 -14.4771 -12.1552 -10.0119  -9.7076  -9.2860  -8.5663
    -6.7859  -6.1771  -5.8376  -5.1702  -4.7475  -4.5096  -4.4190  -3.2948
    -3.2760  -1.9239  -1.8825  -1.8200  -0.8144  -0.4035  -0.3249   0.7482
     1.6531   4.9098   5.7012   7.7731   8.1520   8.3650

          k = 0.2000-0.1010 0.0000 (  9140 PWs)   bands (ev):

   -17.5169 -16.2235 -14.3151 -12.0936 -11.4485 -10.5899  -8.5925  -7.9534
    -7.5543  -6.0043  -5.6022  -5.1406  -4.7142  -4.1980  -3.8308  -3.1999
    -2.8269  -2.2196  -1.9196  -1.7680  -1.5252  -0.7532   0.2611   0.4150
     2.0206   4.5798   5.9545   8.3123   8.5159   8.7145

          k = 0.2000-0.2020 0.0000 (  9135 PWs)   bands (ev):

   -16.9623 -15.6894 -13.8539 -13.2219 -12.3468 -11.6546  -8.9967  -8.1105
    -6.9455  -6.5300  -5.4598  -4.8766  -4.0746  -3.5998  -3.2870  -3.0617
    -2.4443  -2.3105  -2.1433  -2.0839  -1.4970  -1.0077  -0.0525   0.6373
     2.4231   3.9612   6.6095   9.0853   9.5428   9.5818

          k = 0.2000-0.3030 0.0000 (  9150 PWs)   bands (ev):

   -16.0496 -14.8951 -14.7124 -13.6509 -13.1289 -12.0870  -9.2558  -8.5347
    -6.8084  -5.9644  -5.5638  -4.5038  -4.4199  -3.6860  -3.4517  -3.1205
    -2.7112  -2.4107  -1.5303  -1.1048  -0.9996  -0.9636  -0.1016   0.0759
     2.8077   3.3589   7.5184   8.9320   9.9949  10.3470

          k = 0.3000-0.0000 0.0000 (  9160 PWs)   bands (ev):

   -16.7920 -15.5047 -13.5969 -11.3017 -10.5294  -9.3647  -9.1965  -8.4826
    -7.5816  -6.5341  -5.4984  -5.4577  -5.3473  -4.5421  -4.1275  -3.8326
    -3.1280  -2.9371  -2.8814  -2.4044  -2.1143  -1.7361  -1.7001   0.2300
     1.4824   4.4377   6.5324   7.6811   7.7609   9.2456

          k = 0.3000-0.1010 0.0000 (  9159 PWs)   bands (ev):

   -16.6091 -15.3283 -13.4397 -11.2583 -11.1021 -10.0622  -9.0036  -8.5936
    -7.7686  -6.4710  -5.7117  -5.4891  -5.1053  -4.2494  -3.8503  -3.6875
    -3.4317  -3.3706  -2.9675  -2.6866  -1.9958  -1.7705  -0.8004  -0.0122
     1.7436   4.2390   6.8151   8.1320   8.2422   9.3062

          k = 0.3000-0.2020 0.0000 (  9138 PWs)   bands (ev):

   -16.0642 -14.8060 -12.9952 -12.5001 -11.5987 -10.8714  -8.6735  -8.5610
    -7.8652  -6.8778  -6.0708  -5.4817  -5.2958  -4.8641  -4.2100  -3.9169
    -3.2679  -2.8008  -2.4104  -2.3229  -1.9240  -1.4776  -0.5489  -0.1138
     2.2868   3.7965   7.4533   9.1160   9.3238   9.8577

          k = 0.3000-0.3030 0.0000 (  9153 PWs)   bands (ev):

   -15.1725 -14.0450 -13.8713 -12.8355 -12.3049 -11.2775  -8.6190  -7.9013
    -7.8591  -6.9614  -6.7008  -5.9455  -5.5793  -5.0896  -4.8369  -4.2729
    -3.0587  -2.3606  -2.1910  -1.9343  -1.2223  -1.0344  -0.7097  -0.2328
     2.7828   3.3662   8.1858   9.6621  10.1741  10.4249

          k = 0.4000-0.0000 0.0000 (  9182 PWs)   bands (ev):

   -15.5388 -14.2695 -12.3877 -12.2086 -10.9986 -10.1276  -9.1859  -8.0674
    -7.3696  -6.9885  -5.9573  -5.0680  -4.9404  -4.5843  -4.2900  -3.9885
    -3.8915  -3.3916  -3.2362  -3.1962  -3.0949  -2.2643  -2.1939  -0.5508
     1.8782   3.6363   7.2250   7.7985   8.2790   8.9129

          k = 0.4000-0.1010 0.0000 (  9188 PWs)   bands (ev):

   -15.3620 -14.1003 -12.2405 -12.1302 -10.9478 -10.0648  -9.1087  -8.7612
    -8.2161  -7.0153  -5.8019  -5.7544  -5.2764  -5.0688  -4.5356  -3.7001
    -3.6060  -3.3423  -3.3081  -2.8772  -2.3054  -2.1903  -1.9205  -0.6467
     2.0531   3.5917   7.7046   8.0572   8.3450   9.0924

          k = 0.4000-0.2020 0.0000 (  9154 PWs)   bands (ev):

   -14.8393 -13.6033 -12.1721 -11.8145 -11.0667  -9.9689  -9.8715  -9.1012
    -8.6207  -7.3324  -7.2366  -6.3701  -6.1147  -5.5619  -4.4783  -3.8734
    -3.4715  -3.1887  -2.6957  -2.3160  -2.1002  -1.7100  -1.0038  -0.8699
     2.4621   3.4564   8.2974   8.9366   9.2819   9.6689

          k = 0.4000-0.3030 0.0000 (  9140 PWs)   bands (ev):

   -14.0034 -12.9894 -12.7846 -11.8442 -11.2066 -10.2406  -9.7363  -8.8812
    -8.6846  -8.2657  -7.9169  -7.2037  -6.1636  -5.7061  -4.8500  -4.2182
    -3.6047  -3.0740  -2.5606  -1.8481  -1.6953  -1.3041  -0.9041  -0.5883
     2.8458   3.2790   8.7591   9.7934  10.5298  10.5573

          k =-0.5000 0.0000 0.0000 (  9200 PWs)   bands (ev):

   -13.9799 -13.9799 -12.7357 -12.7357 -10.8867 -10.8867  -8.6644  -8.6644
    -6.6420  -6.6420  -5.9631  -5.9631  -4.7729  -4.7729  -4.1446  -4.1446
    -3.7463  -3.7463  -3.6421  -3.6421  -2.8341  -2.8341  -1.4631  -1.4631
     2.6858   2.6858   7.8729   7.8729   8.2572   8.2572

          k =-0.5000-0.1010 0.0000 (  9196 PWs)   bands (ev):

   -13.8201 -13.8201 -12.5855 -12.5855 -10.7586 -10.7586  -8.6250  -8.6250
    -7.4578  -7.4578  -6.9110  -6.9110  -4.6817  -4.6817  -4.1594  -4.1594
    -3.5113  -3.5113  -3.1783  -3.1783  -2.6583  -2.6583  -1.3936  -1.3936
     2.7689   2.7689   8.0958   8.0958   8.6751   8.6751

          k =-0.5000-0.2020 0.0000 (  9170 PWs)   bands (ev):

   -13.3711 -13.3711 -12.1678 -12.1678 -10.4152 -10.4152  -9.0262  -9.0262
    -8.6662  -8.6662  -7.9054  -7.9054  -5.1876  -5.1876  -4.5507  -4.5507
    -3.4059  -3.4059  -2.5728  -2.5728  -1.8553  -1.8553  -1.2354  -1.2354
     2.9421   2.9421   8.7331   8.7331   9.6589   9.6589

          k =-0.5000-0.3030 0.0000 (  9170 PWs)   bands (ev):

   -12.8149 -12.8149 -11.6660 -11.6660 -10.2167 -10.2167 -10.0108 -10.0108
    -9.2256  -9.2256  -8.3436  -8.3436  -5.5767  -5.5767  -4.6859  -4.6859
    -3.5781  -3.5781  -2.4845  -2.4845  -1.3605  -1.3605  -0.9151  -0.9151
     3.0631   3.0631   9.2921   9.2921  10.7303  10.7303

     the Fermi energy is     2.9157 ev

!    total energy              =    -138.82956997 Ry
     estimated scf accuracy    <          2.5E-09 Ry
     smearing contrib. (-TS)   =       0.00040918 Ry
     internal energy E=F+TS    =    -138.82997915 Ry

     The total energy is F=E-TS. E is the sum of the following terms:
     one-electron contribution =   -1999.72406873 Ry
     hartree contribution      =    1017.41185379 Ry
     xc contribution           =     -43.73223658 Ry
     ewald contribution        =     887.21447237 Ry

     convergence has been achieved in   7 iterations

     Forces acting on atoms (cartesian axes, Ry/au):

     atom    1 type  1   force =     0.00000000   -0.00378904   -0.00297098
     atom    2 type  1   force =     0.00000000    0.00378904   -0.00297098
     atom    3 type  1   force =     0.00000000    0.00082780   -0.00136771
     atom    4 type  1   force =     0.00000000   -0.00082780   -0.00136771
     atom    5 type  1   force =     0.00000000   -0.00090849    0.00088264
     atom    6 type  1   force =     0.00000000    0.00090849    0.00088264
     atom    7 type  1   force =     0.00000000    0.00080155    0.00064930
     atom    8 type  1   force =     0.00000000   -0.00080155    0.00064930
     atom    9 type  1   force =     0.00000000   -0.04223764   -0.04630982
     atom   10 type  1   force =     0.00000000    0.04223764   -0.04630982
     atom   11 type  1   force =     0.00000000    0.16907305    0.04438220
     atom   12 type  1   force =     0.00000000   -0.16907305    0.04438220
     atom   13 type  2   force =     0.00000000   -0.00312422    0.00473437
     atom   14 type  2   force =    -0.00000000    0.00312422    0.00473437

     Total force =     0.011008     Total SCF correction =     0.000078
     Energy error            =      2.1E-04 Ry
     Gradient error          =      4.7E-03 Ry/Bohr

     number of scf cycles    =   5
     number of bfgs steps    =   4

     energy             old  =    -138.8293576705 Ry
     energy             new  =    -138.8295699698 Ry

     CASE: energy            _new < energy            _old

     new trust radius        =       0.0256881557 bohr
     new conv_thr            =       0.0000000021 Ry


ATOMIC_POSITIONS (angstrom)
C                0.0000000000       -0.9093477188       12.2921646617
C                1.2611249400       -1.7659022812       12.2921646617
C                0.0000000000        0.0025498791       11.0553113833
C                1.2611249400       -2.6777998791       11.0553113833
C                0.0000000000       -0.8921058785        9.7872540354
C                1.2611249400       -1.7831441215        9.7872540354
C                0.0000000000        0.0052291313        8.5245383006
C                1.2611249400       -2.6804791313        8.5245383006
C                0.0000000000       -0.8917500000        7.2611249400    0   0   0
C                1.2611249400       -1.7835000000        7.2611249400    0   0   0
C                0.0000000000        0.0000000000        6.0000000000    0   0   0
C                1.2611249400       -2.6752500000        6.0000000000    0   0   0
H                0.0000000000       -0.3008723917       13.2041547444
H                1.2611249400       -2.3743776083       13.2041547444



     Writing config-only to output data dir ./tmp/slab.save/ :
     XML data file
     NEW-OLD atomic charge density approx. for the potential

     total cpu time spent up to now is      149.3 secs

     Self-consistent Calculation

     iteration #  1     ecut=    60.00 Ry     beta= 0.30
     Davidson diagonalization with overlap
     ethr =  1.00E-06,  avg # of iterations =  4.5

     total cpu time spent up to now is      153.4 secs

     total energy              =    -138.82974200 Ry
     estimated scf accuracy    <       0.00013758 Ry

     iteration #  2     ecut=    60.00 Ry     beta= 0.30
     Davidson diagonalization with overlap
     ethr =  2.75E-07,  avg # of iterations =  2.6

     total cpu time spent up to now is      156.2 secs

     total energy              =    -138.82976075 Ry
     estimated scf accuracy    <       0.00002496 Ry

     iteration #  3     ecut=    60.00 Ry     beta= 0.30
     Davidson diagonalization with overlap
     ethr =  4.99E-08,  avg # of iterations =  2.0

     total cpu time spent up to now is      158.8 secs

     total energy              =    -138.82976374 Ry
     estimated scf accuracy    <       0.00000843 Ry

     iteration #  4     ecut=    60.00 Ry     beta= 0.30
     Davidson diagonalization with overlap
     ethr =  1.69E-08,  avg # of iterations =  1.5

     total cpu time spent up to now is      161.3 secs

     total energy              =    -138.82976478 Ry
     estimated scf accuracy    <       0.00000235 Ry

     iteration #  5     ecut=    60.00 Ry     beta= 0.30
     Davidson diagonalization with overlap
     ethr =  4.70E-09,  avg # of iterations =  2.0

     total cpu time spent up to now is      163.9 secs

     total energy              =    -138.82976499 Ry
     estimated scf accuracy    <       0.00000018 Ry

     iteration #  6     ecut=    60.00 Ry     beta= 0.30
     Davidson diagonalization with overlap
     ethr =  3.54E-10,  avg # of iterations =  2.2

     total cpu time spent up to now is      166.7 secs

     total energy              =    -138.82976501 Ry
     estimated scf accuracy    <       0.00000003 Ry

     iteration #  7     ecut=    60.00 Ry     beta= 0.30
     Davidson diagonalization with overlap
     ethr =  6.62E-11,  avg # of iterations =  2.2

     total cpu time spent up to now is      169.7 secs

     total energy              =    -138.82976502 Ry
     estimated scf accuracy    <          3.6E-09 Ry

     iteration #  8     ecut=    60.00 Ry     beta= 0.30
     Davidson diagonalization with overlap
     ethr =  7.28E-12,  avg # of iterations =  2.7

     total cpu time spent up to now is      172.7 secs

     End of self-consistent calculation

          k = 0.0000-0.0000 0.0000 (  9127 PWs)   bands (ev):

   -18.4403 -17.1334 -15.1892 -12.8458 -10.6736  -9.9308  -9.7520  -8.5862
    -6.8034  -6.7601  -5.7410  -4.9503  -4.4279  -3.6665  -3.4232  -2.4098
    -1.9454  -1.7320  -1.0158   0.3722   0.4563   1.0479   1.7101   2.3721
     2.5619   4.9954   4.9989   7.3069   7.7621   8.1036

          k = 0.0000-0.1010 0.0000 (  9121 PWs)   bands (ev):

   -18.2526 -16.9512 -15.0241 -12.7773 -12.0125 -11.1893  -8.9687  -8.1300
    -7.6109  -5.9712  -5.6263  -4.8083  -3.8631  -3.4450  -3.2485  -2.2627
    -2.0893  -1.3426  -0.9327   0.3948   0.4180   0.8666   1.3880   1.8786
     2.6403   4.5604   5.2074   7.4587   7.8587   8.3354

          k = 0.0000-0.2020 0.0000 (  9137 PWs)   bands (ev):

   -17.6919 -16.4099 -14.5537 -13.8731 -12.9953 -12.3107  -9.5488  -8.6839
    -7.2043  -6.1493  -4.7273  -4.0490  -3.1393  -2.7319  -2.7287  -1.8361
    -1.5131  -1.1061  -0.7128   0.1599   0.2126   0.4262   0.7901   1.0496
     2.5696   3.8219   5.8076   7.7316   8.4513   8.5969

          k = 0.0000-0.3030 0.0000 (  9120 PWs)   bands (ev):

   -16.7674 -15.6015 -15.4071 -14.3337 -13.8026 -12.7509  -9.8661  -9.1534
    -7.2940  -6.4060  -4.3911  -3.4314  -2.2938  -1.9000  -1.5943  -1.1898
    -1.0686  -0.7928  -0.5370  -0.4833  -0.3804  -0.2314   0.1372   0.5307
     2.6043   3.2429   6.6893   7.8415   8.1923   9.0075

          k = 0.1000-0.0000 0.0000 (  9133 PWs)   bands (ev):

   -18.2557 -16.9511 -15.0106 -12.6727 -10.5089  -9.7687  -9.6935  -8.5362
    -6.7233  -6.6449  -5.5930  -4.8106  -4.4107  -4.2659  -3.5577  -3.2190
    -1.9020  -1.7985  -1.7372  -0.3073   0.2375   0.8834   0.9902   1.5055
     2.2419   5.0439   5.1578   7.5196   8.1034   8.6088

          k = 0.1000-0.1010 0.0000 (  9113 PWs)   bands (ev):

   -18.0684 -16.7694 -14.8462 -12.6062 -11.8626 -11.0342  -8.8473  -8.0254
    -7.5563  -5.8969  -5.5445  -4.7554  -4.0228  -3.8468  -3.3690  -2.9944
    -2.0708  -1.6623  -1.3961  -0.3767   0.1731   0.4069   0.8262   1.1459
     2.5137   4.6438   5.3912   7.7475   8.4818   8.7598

          k = 0.1000-0.2020 0.0000 (  9112 PWs)   bands (ev):

   -17.5091 -16.2299 -14.3785 -13.7072 -12.8322 -12.1447  -9.3988  -8.5319
    -7.0807  -6.0872  -4.8636  -4.0612  -3.5273  -3.2607  -2.6943  -2.1777
    -1.8340  -1.2940  -1.0711  -0.8603  -0.6863  -0.1523   0.5054   1.0491
     2.5551   3.9532   6.0208   8.2971   8.9393   9.0440

          k = 0.1000-0.3030 0.0000 (  9124 PWs)   bands (ev):

   -16.5875 -15.4252 -15.2320 -14.1627 -13.6334 -12.5838  -9.7044  -8.9949
    -7.1529  -6.2695  -4.3836  -3.4372  -3.2073  -2.4694  -2.1515  -1.7563
    -1.5254  -1.3666  -1.1871  -0.8513  -0.7273  -0.1168   0.0706   0.3111
     2.7276   3.3076   6.9497   8.2380   8.8420   9.4927

          k = 0.2000-0.0000 0.0000 (  9130 PWs)   bands (ev):

   -17.7041 -16.4065 -14.4770 -12.1556 -10.0165  -9.7088  -9.2838  -8.5675
    -6.7808  -6.1826  -5.8404  -5.1689  -4.7546  -4.5051  -4.4101  -3.2982
    -3.2688  -1.9250  -1.8680  -1.8256  -0.8178  -0.3958  -0.3231   0.7422
     1.6555   4.9100   5.6842   7.7820   8.1555   8.3781

          k = 0.2000-0.1010 0.0000 (  9140 PWs)   bands (ev):

   -17.5183 -16.2268 -14.3153 -12.0958 -11.4498 -10.5897  -8.5960  -7.9496
    -7.5498  -6.0153  -5.5936  -5.1338  -4.7267  -4.1913  -3.8333  -3.2006
    -2.8259  -2.2052  -1.9236  -1.7629  -1.5292  -0.7505   0.2687   0.4093
     2.0223   4.5802   5.9375   8.3188   8.5144   8.7281

          k = 0.2000-0.2020 0.0000 (  9135 PWs)   bands (ev):

   -16.9638 -15.6930 -13.8560 -13.2227 -12.3514 -11.6532  -8.9846  -8.1192
    -6.9379  -6.5217  -5.4724  -4.8783  -4.0734  -3.5962  -3.2906  -3.0609
    -2.4479  -2.3120  -2.1404  -2.0860  -1.4821  -1.0109  -0.0418   0.6364
     2.4244   3.9620   6.5943   9.0825   9.5534   9.5939

          k = 0.2000-0.3030 0.0000 (  9150 PWs)   bands (ev):

   -16.0515 -14.9013 -14.7122 -13.6557 -13.1296 -12.0866  -9.2411  -8.5387
    -6.7955  -5.9704  -5.5682  -4.5053  -4.4209  -3.6896  -3.4511  -3.1217
    -2.7126  -2.4093  -1.5332  -1.1020  -0.9935  -0.9555  -0.0930   0.0750
     2.8088   3.3600   7.5114   8.9133   9.9903  10.3505

          k = 0.3000-0.0000 0.0000 (  9160 PWs)   bands (ev):

   -16.7934 -15.5080 -13.5968 -11.3022 -10.5307  -9.3671  -9.2012  -8.4804
    -7.5792  -6.5363  -5.5045  -5.4631  -5.3444  -4.5400  -4.1277  -3.8240
    -3.1311  -2.9304  -2.8800  -2.4039  -2.1055  -1.7392  -1.6975   0.2249
     1.4836   4.4381   6.5228   7.6888   7.7641   9.2558

          k = 0.3000-0.1010 0.0000 (  9159 PWs)   bands (ev):

   -16.6105 -15.3317 -13.4400 -11.2615 -11.1021 -10.0622  -9.0096  -8.5913
    -7.7644  -6.4798  -5.7069  -5.4850  -5.1062  -4.2603  -3.8546  -3.6836
    -3.4260  -3.3704  -2.9574  -2.6843  -1.9981  -1.7624  -0.7980  -0.0162
     1.7449   4.2393   6.8031   8.1362   8.2526   9.3177

          k = 0.3000-0.2020 0.0000 (  9138 PWs)   bands (ev):

   -16.0658 -14.8097 -12.9974 -12.5007 -11.6029 -10.8702  -8.6781  -8.5514
    -7.8659  -6.8864  -6.0587  -5.4860  -5.2976  -4.8676  -4.2146  -3.9125
    -3.2642  -2.8084  -2.3993  -2.3139  -1.9253  -1.4763  -0.5422  -0.1146
     2.2880   3.7968   7.4431   9.1248   9.3257   9.8785

          k = 0.3000-0.3030 0.0000 (  9153 PWs)   bands (ev):

   -15.1744 -14.0509 -13.8713 -12.8401 -12.3058 -11.2769  -8.6061  -7.9051
    -7.8621  -6.9637  -6.7018  -5.9424  -5.5832  -5.0939  -4.8356  -4.2732
    -3.0514  -2.3558  -2.1864  -1.9383  -1.2227  -1.0272  -0.7018  -0.2325
     2.7842   3.3666   8.1863   9.6480  10.1844  10.4295

          k = 0.4000-0.0000 0.0000 (  9182 PWs)   bands (ev):

   -15.5402 -14.2729 -12.3878 -12.2101 -11.0019 -10.1282  -9.1855  -8.0722
    -7.3674  -6.9890  -5.9592  -5.0694  -4.9465  -4.5896  -4.2880  -3.9844
    -3.8875  -3.3884  -3.2309  -3.1884  -3.0905  -2.2691  -2.1951  -0.5546
     1.8789   3.6369   7.2370   7.8017   8.2755   8.9240

          k = 0.4000-0.1010 0.0000 (  9188 PWs)   bands (ev):

   -15.3635 -14.1038 -12.2410 -12.1315 -10.9510 -10.0663  -9.1088  -8.7645
    -8.2151  -7.0171  -5.8055  -5.7573  -5.2749  -5.0671  -4.5316  -3.6922
    -3.6190  -3.3385  -3.2972  -2.8744  -2.3065  -2.1856  -1.9207  -0.6507
     2.0540   3.5922   7.7147   8.0654   8.3463   9.0905

          k = 0.4000-0.2020 0.0000 (  9154 PWs)   bands (ev):

   -14.8409 -13.6070 -12.1738 -11.8156 -11.0693  -9.9715  -9.8731  -9.1048
    -8.6177  -7.3390  -7.2371  -6.3692  -6.1079  -5.5686  -4.4646  -3.8741
    -3.4667  -3.1972  -2.6841  -2.3214  -2.0887  -1.7108  -1.0008  -0.8723
     2.4633   3.4568   8.3060   8.9488   9.2847   9.6799

          k = 0.4000-0.3030 0.0000 (  9140 PWs)   bands (ev):

   -14.0053 -12.9931 -12.7865 -11.8478 -11.2082 -10.2396  -9.7391  -8.8884
    -8.6859  -8.2610  -7.9223  -7.2030  -6.1576  -5.7086  -4.8388  -4.2284
    -3.5895  -3.0700  -2.5641  -1.8389  -1.6960  -1.3027  -0.9022  -0.5853
     2.8470   3.2793   8.7723   9.8257  10.5189  10.5682

          k =-0.5000 0.0000 0.0000 (  9200 PWs)   bands (ev):

   -13.9814 -13.9814 -12.7392 -12.7392 -10.8867 -10.8867  -8.6651  -8.6651
    -6.6470  -6.6470  -5.9609  -5.9609  -4.7744  -4.7744  -4.1483  -4.1483
    -3.7483  -3.7483  -3.6258  -3.6258  -2.8367  -2.8367  -1.4657  -1.4657
     2.6864   2.6864   7.8877   7.8877   8.2628   8.2628

          k =-0.5000-0.1010 0.0000 (  9196 PWs)   bands (ev):

   -13.8217 -13.8217 -12.5889 -12.5889 -10.7588 -10.7588  -8.6269  -8.6269
    -7.4614  -7.4614  -6.9098  -6.9098  -4.6835  -4.6835  -4.1567  -4.1567
    -3.5045  -3.5045  -3.1737  -3.1737  -2.6618  -2.6618  -1.3956  -1.3956
     2.7696   2.7696   8.1102   8.1102   8.6830   8.6830

          k =-0.5000-0.2020 0.0000 (  9170 PWs)   bands (ev):

   -13.3727 -13.3727 -12.1712 -12.1712 -10.4162 -10.4162  -9.0289  -9.0289
    -8.6707  -8.6707  -7.9041  -7.9041  -5.1786  -5.1786  -4.5578  -4.5578
    -3.3909  -3.3909  -2.5797  -2.5797  -1.8502  -1.8502  -1.2365  -1.2365
     2.9429   2.9429   8.7530   8.7530   9.6643   9.6643

          k =-0.5000-0.3030 0.0000 (  9170 PWs)   bands (ev):

   -12.8164 -12.8164 -11.6694 -11.6694 -10.2217 -10.2217 -10.0097 -10.0097
    -9.2311  -9.2311  -8.3433  -8.3433  -5.5651  -5.5651  -4.6931  -4.6931
    -3.5652  -3.5652  -2.4881  -2.4881  -1.3549  -1.3549  -0.9146  -0.9146
     3.0638   3.0638   9.3201   9.3201  10.7323  10.7323

     the Fermi energy is     2.9167 ev

!    total energy              =    -138.82976502 Ry
     estimated scf accuracy    <          1.0E-09 Ry
     smearing contrib. (-TS)   =       0.00040814 Ry
     internal energy E=F+TS    =    -138.83017316 Ry

     The total energy is F=E-TS. E is the sum of the following terms:
     one-electron contribution =   -2000.25580767 Ry
     hartree contribution      =    1017.68179840 Ry
     xc contribution           =     -43.73653382 Ry
     ewald contribution        =     887.48036994 Ry

     convergence has been achieved in   8 iterations

     Forces acting on atoms (cartesian axes, Ry/au):

     atom    1 type  1   force =     0.00000000   -0.00203698   -0.00090756
     atom    2 type  1   force =    -0.00000000    0.00203698   -0.00090756
     atom    3 type  1   force =     0.00000000    0.00040678   -0.00181225
     atom    4 type  1   force =     0.00000000   -0.00040678   -0.00181225
     atom    5 type  1   force =     0.00000000   -0.00089215   -0.00029830
     atom    6 type  1   force =     0.00000000    0.00089215   -0.00029830
     atom    7 type  1   force =     0.00000000    0.00105847    0.00025062
     atom    8 type  1   force =     0.00000000   -0.00105847    0.00025062
     atom    9 type  1   force =     0.00000000   -0.04208338   -0.04568052
     atom   10 type  1   force =     0.00000000    0.04208338   -0.04568052
     atom   11 type  1   force =     0.00000000    0.16904177    0.04451322
     atom   12 type  1   force =     0.00000000   -0.16904177    0.04451322
     atom   13 type  2   force =     0.00000000   -0.00043991    0.00393480
     atom   14 type  2   force =     0.00000000    0.00043991    0.00393480

     Total force =     0.007234     Total SCF correction =     0.000079
     Energy error            =      2.0E-04 Ry
     Gradient error          =      3.9E-03 Ry/Bohr

     number of scf cycles    =   6
     number of bfgs steps    =   5

     energy             old  =    -138.8295699698 Ry
     energy             new  =    -138.8297650179 Ry

     CASE: energy            _new < energy            _old

     new trust radius        =       0.0149246915 bohr
     new conv_thr            =       0.0000000020 Ry


ATOMIC_POSITIONS (angstrom)
C                0.0000000000       -0.9099574319       12.2906064349
C                1.2611249400       -1.7652925681       12.2906064349
C                0.0000000000        0.0029754211       11.0547480579
C                1.2611249400       -2.6782254211       11.0547480579
C                0.0000000000       -0.8924321849        9.7876857182
C                1.2611249400       -1.7828178151        9.7876857182
C                0.0000000000        0.0055063616        8.5251610993
C                1.2611249400       -2.6807563616        8.5251610993
C                0.0000000000       -0.8917500000        7.2611249400    0   0   0
C                1.2611249400       -1.7835000000        7.2611249400    0   0   0
C                0.0000000000        0.0000000000        6.0000000000    0   0   0
C                1.2611249400       -2.6752500000        6.0000000000    0   0   0
H                0.0000000000       -0.3077647361       13.2080110300
H                1.2611249400       -2.3674852639       13.2080110300



     Writing config-only to output data dir ./tmp/slab.save/ :
     XML data file
     NEW-OLD atomic charge density approx. for the potential

     total cpu time spent up to now is      173.0 secs

     Self-consistent Calculation

     iteration #  1     ecut=    60.00 Ry     beta= 0.30
     Davidson diagonalization with overlap
     ethr =  1.00E-06,  avg # of iterations =  3.0

     Threshold (ethr) on eigenvalues was too large:
     Diagonalizing with lowered threshold

     Davidson diagonalization with overlap
     ethr =  5.97E-08,  avg # of iterations =  1.8

     total cpu time spent up to now is      178.9 secs

     total energy              =    -138.82981186 Ry
     estimated scf accuracy    <       0.00003380 Ry

     iteration #  2     ecut=    60.00 Ry     beta= 0.30
     Davidson diagonalization with overlap
     ethr =  6.76E-08,  avg # of iterations =  2.0

     total cpu time spent up to now is      181.5 secs

     total energy              =    -138.82981592 Ry
     estimated scf accuracy    <       0.00000788 Ry

     iteration #  3     ecut=    60.00 Ry     beta= 0.30
     Davidson diagonalization with overlap
     ethr =  1.58E-08,  avg # of iterations =  2.0

     total cpu time spent up to now is      184.0 secs

     total energy              =    -138.82981668 Ry
     estimated scf accuracy    <       0.00000283 Ry

     iteration #  4     ecut=    60.00 Ry     beta= 0.30
     Davidson diagonalization with overlap
     ethr =  5.66E-09,  avg # of iterations =  1.5

     total cpu time spent up to now is      186.4 secs

     total energy              =    -138.82981700 Ry
     estimated scf accuracy    <       0.00000056 Ry

     iteration #  5     ecut=    60.00 Ry     beta= 0.30
     Davidson diagonalization with overlap
     ethr =  1.12E-09,  avg # of iterations =  2.0

     total cpu time spent up to now is      188.9 secs

     total energy              =    -138.82981705 Ry
     estimated scf accuracy    <       0.00000005 Ry

     iteration #  6     ecut=    60.00 Ry     beta= 0.30
     Davidson diagonalization with overlap
     ethr =  1.06E-10,  avg # of iterations =  2.2

     total cpu time spent up to now is      191.6 secs

     total energy              =    -138.82981705 Ry
     estimated scf accuracy    <          5.0E-09 Ry

     iteration #  7     ecut=    60.00 Ry     beta= 0.30
     Davidson diagonalization with overlap
     ethr =  1.01E-11,  avg # of iterations =  2.8

     total cpu time spent up to now is      194.6 secs

     End of self-consistent calculation

          k = 0.0000-0.0000 0.0000 (  9127 PWs)   bands (ev):

   -18.4432 -17.1328 -15.1887 -12.8471 -10.6768  -9.9324  -9.7533  -8.5815
    -6.8044  -6.7538  -5.7404  -4.9461  -4.4224  -3.6608  -3.4292  -2.4135
    -1.9372  -1.7303  -1.0204   0.3804   0.4503   1.0473   1.7048   2.3675
     2.5628   4.9850   4.9993   7.3038   7.7567   8.1025

          k = 0.0000-0.1010 0.0000 (  9121 PWs)   bands (ev):

   -18.2555 -16.9507 -15.0239 -12.7794 -12.0155 -11.1886  -8.9652  -8.1285
    -7.6083  -5.9729  -5.6204  -4.8061  -3.8582  -3.4419  -3.2545  -2.2665
    -2.0814  -1.3380  -0.9374   0.3886   0.4203   0.8724   1.3814   1.8762
     2.6409   4.5608   5.1969   7.4553   7.8541   8.3330

          k = 0.0000-0.2020 0.0000 (  9137 PWs)   bands (ev):

   -17.6949 -16.4096 -14.5545 -13.8756 -12.9972 -12.3103  -9.5381  -8.6889
    -7.1915  -6.1531  -4.7285  -4.0441  -3.1364  -2.7381  -2.7276  -1.8402
    -1.5063  -1.1024  -0.7178   0.1534   0.2230   0.4183   0.7910   1.0502
     2.5708   3.8226   5.7969   7.7277   8.4488   8.5896

          k = 0.0000-0.3030 0.0000 (  9120 PWs)   bands (ev):

   -16.7705 -15.6047 -15.4069 -14.3344 -13.8033 -12.7514  -9.8554  -9.1550
    -7.2836  -6.4077  -4.3860  -3.4351  -2.2920  -1.9065  -1.5934  -1.1951
    -1.0658  -0.7990  -0.5297  -0.4907  -0.3839  -0.2322   0.1520   0.5308
     2.6048   3.2436   6.6807   7.8296   8.1891   9.0020

          k = 0.1000-0.0000 0.0000 (  9133 PWs)   bands (ev):

   -18.2586 -16.9506 -15.0101 -12.6740 -10.5121  -9.7704  -9.6947  -8.5314
    -6.7169  -6.6458  -5.5924  -4.8064  -4.4053  -4.2718  -3.5519  -3.2225
    -1.8939  -1.8029  -1.7356  -0.3130   0.2447   0.8783   0.9896   1.5017
     2.2425   5.0443   5.1465   7.5169   8.1102   8.6104

          k = 0.1000-0.1010 0.0000 (  9113 PWs)   bands (ev):

   -18.0713 -16.7689 -14.8460 -12.6082 -11.8656 -11.0335  -8.8438  -8.0241
    -7.5536  -5.8986  -5.5384  -4.7535  -4.0285  -3.8422  -3.3660  -2.9979
    -2.0632  -1.6656  -1.3925  -0.3825   0.1723   0.4075   0.8271   1.1445
     2.5137   4.6442   5.3801   7.7445   8.4829   8.7570

          k = 0.1000-0.2020 0.0000 (  9112 PWs)   bands (ev):

   -17.5121 -16.2296 -14.3793 -13.7096 -12.8341 -12.1443  -9.3880  -8.5369
    -7.0681  -6.0905  -4.8672  -4.0550  -3.5257  -3.2652  -2.6962  -2.1783
    -1.8307  -1.2963  -1.0662  -0.8652  -0.6918  -0.1464   0.5093   1.0471
     2.5560   3.9535   6.0097   8.2941   8.9388   9.0404

          k = 0.1000-0.3030 0.0000 (  9124 PWs)   bands (ev):

   -16.5906 -15.4284 -15.2318 -14.1633 -13.6342 -12.5842  -9.6936  -8.9965
    -7.1426  -6.2714  -4.3800  -3.4421  -3.2076  -2.4720  -2.1546  -1.7559
    -1.5295  -1.3695  -1.1880  -0.8517  -0.7237  -0.1086   0.0686   0.3160
     2.7281   3.3083   6.9409   8.2251   8.8393   9.4898

          k = 0.2000-0.0000 0.0000 (  9130 PWs)   bands (ev):

   -17.7070 -16.4060 -14.4765 -12.1569 -10.0197  -9.7098  -9.2855  -8.5628
    -6.7747  -6.1834  -5.8460  -5.1681  -4.7578  -4.5000  -4.4059  -3.3019
    -3.2631  -1.9236  -1.8605  -1.8306  -0.8227  -0.3919  -0.3255   0.7421
     1.6562   4.9105   5.6722   7.7863   8.1563   8.3842

          k = 0.2000-0.1010 0.0000 (  9140 PWs)   bands (ev):

   -17.5212 -16.2263 -14.3151 -12.0979 -11.4526 -10.5888  -8.5934  -7.9495
    -7.5458  -6.0190  -5.5895  -5.1308  -4.7333  -4.1878  -3.8341  -3.1994
    -2.8268  -2.1971  -1.9268  -1.7629  -1.5311  -0.7496   0.2734   0.4065
     2.0227   4.5806   5.9255   8.3215   8.5139   8.7342

          k = 0.2000-0.2020 0.0000 (  9135 PWs)   bands (ev):

   -16.9668 -15.6927 -13.8568 -13.2251 -12.3531 -11.6530  -8.9738  -8.1239
    -6.9334  -6.5177  -5.4769  -4.8788  -4.0735  -3.5946  -3.2942  -3.0641
    -2.4499  -2.3115  -2.1404  -2.0885  -1.4708  -1.0119  -0.0344   0.6341
     2.4250   3.9622   6.5829   9.0805   9.5597   9.5980

          k = 0.2000-0.3030 0.0000 (  9150 PWs)   bands (ev):

   -16.0546 -14.9044 -14.7120 -13.6562 -13.1304 -12.0870  -9.2300  -8.5402
    -6.7863  -5.9725  -5.5722  -4.5097  -4.4199  -3.6923  -3.4502  -3.1235
    -2.7147  -2.4095  -1.5346  -1.1029  -0.9899  -0.9470  -0.0872   0.0732
     2.8095   3.3603   7.5034   8.8991   9.9882  10.3536

          k = 0.3000-0.0000 0.0000 (  9160 PWs)   bands (ev):

   -16.7964 -15.5075 -13.5964 -11.3036 -10.5326  -9.3642  -9.2046  -8.4823
    -7.5757  -6.5407  -5.5064  -5.4635  -5.3418  -4.5390  -4.1286  -3.8197
    -3.1332  -2.9247  -2.8810  -2.4067  -2.1001  -1.7389  -1.6964   0.2249
     1.4842   4.4387   6.5143   7.6923   7.7655   9.2595

          k = 0.3000-0.1010 0.0000 (  9159 PWs)   bands (ev):

   -16.6135 -15.3312 -13.4398 -11.2638 -11.1039 -10.0603  -9.0146  -8.5896
    -7.7602  -6.4826  -5.7045  -5.4841  -5.1078  -4.2642  -3.8591  -3.6840
    -3.4235  -3.3713  -2.9511  -2.6789  -1.9979  -1.7574  -0.7991  -0.0158
     1.7454   4.2398   6.7932   8.1389   8.2566   9.3244

          k = 0.3000-0.2020 0.0000 (  9138 PWs)   bands (ev):

   -16.0688 -14.8094 -12.9983 -12.5028 -11.6039 -10.8703  -8.6817  -8.5438
    -7.8663  -6.8897  -6.0498  -5.4901  -5.3010  -4.8699  -4.2163  -3.9120
    -3.2614  -2.8130  -2.3928  -2.3079  -1.9244  -1.4749  -0.5372  -0.1171
     2.2885   3.7972   7.4337   9.1290   9.3256   9.8891

          k = 0.3000-0.3030 0.0000 (  9153 PWs)   bands (ev):

   -15.1775 -14.0541 -13.8709 -12.8404 -12.3067 -11.2772  -8.5953  -7.9068
    -7.8666  -6.9642  -6.7052  -5.9404  -5.5828  -5.0983  -4.8321  -4.2750
    -3.0473  -2.3528  -2.1826  -1.9398  -1.2244  -1.0221  -0.6962  -0.2350
     2.7848   3.3668   8.1822   9.6356  10.1898  10.4312

          k = 0.4000-0.0000 0.0000 (  9182 PWs)   bands (ev):

   -15.5432 -14.2724 -12.3874 -12.2128 -11.0007 -10.1297  -9.1843  -8.0758
    -7.3694  -6.9899  -5.9627  -5.0676  -4.9510  -4.5896  -4.2907  -3.9816
    -3.8862  -3.3897  -3.2253  -3.1841  -3.0815  -2.2702  -2.1953  -0.5547
     1.8793   3.6375   7.2424   7.7996   8.2723   8.9284

          k = 0.4000-0.1010 0.0000 (  9188 PWs)   bands (ev):

   -15.3664 -14.1033 -12.2409 -12.1339 -10.9496 -10.0682  -9.1077  -8.7696
    -8.2151  -7.0187  -5.8053  -5.7607  -5.2745  -5.0681  -4.5307  -3.6841
    -3.6244  -3.3391  -3.2884  -2.8696  -2.3060  -2.1843  -1.9214  -0.6509
     2.0545   3.5927   7.7176   8.0672   8.3466   9.0883

          k = 0.4000-0.2020 0.0000 (  9154 PWs)   bands (ev):

   -14.8438 -13.6066 -12.1761 -11.8159 -11.0678  -9.9738  -9.8779  -9.1057
    -8.6155  -7.3444  -7.2391  -6.3684  -6.1014  -5.5731  -4.4549  -3.8728
    -3.4629  -3.2020  -2.6758  -2.3256  -2.0821  -1.7108  -1.0021  -0.8720
     2.4639   3.4572   8.3073   8.9541   9.2829   9.6845

          k = 0.4000-0.3030 0.0000 (  9140 PWs)   bands (ev):

   -14.0082 -12.9964 -12.7855 -11.8472 -11.2093 -10.2394  -9.7439  -8.8917
    -8.6887  -8.2579  -7.9249  -7.2027  -6.1535  -5.7103  -4.8299  -4.2312
    -3.5797  -3.0689  -2.5642  -1.8354  -1.6930  -1.3043  -0.9011  -0.5866
     2.8474   3.2796   8.7753   9.8392  10.5089  10.5733

          k =-0.5000 0.0000 0.0000 (  9200 PWs)   bands (ev):

   -13.9843 -13.9843 -12.7385 -12.7385 -10.8862 -10.8862  -8.6666  -8.6666
    -6.6508  -6.6508  -5.9632  -5.9632  -4.7775  -4.7775  -4.1485  -4.1485
    -3.7486  -3.7486  -3.6114  -3.6114  -2.8378  -2.8378  -1.4658  -1.4658
     2.6869   2.6869   7.8945   7.8945   8.2640   8.2640

          k =-0.5000-0.1010 0.0000 (  9196 PWs)   bands (ev):

   -13.8246 -13.8246 -12.5882 -12.5882 -10.7584 -10.7584  -8.6290  -8.6290
    -7.4666  -7.4666  -6.9096  -6.9096  -4.6803  -4.6803  -4.1562  -4.1562
    -3.5028  -3.5028  -3.1681  -3.1681  -2.6632  -2.6632  -1.3955  -1.3955
     2.7701   2.7701   8.1173   8.1173   8.6842   8.6842

          k =-0.5000-0.2020 0.0000 (  9170 PWs)   bands (ev):

   -13.3754 -13.3754 -12.1704 -12.1704 -10.4162 -10.4162  -9.0335  -9.0335
    -8.6745  -8.6745  -7.9034  -7.9034  -5.1700  -5.1700  -4.5616  -4.5616
    -3.3818  -3.3818  -2.5819  -2.5819  -1.8499  -1.8499  -1.2366  -1.2366
     2.9434   2.9434   8.7617   8.7617   9.6666   9.6666

          k =-0.5000-0.3030 0.0000 (  9170 PWs)   bands (ev):

   -12.8188 -12.8188 -11.6683 -11.6683 -10.2270 -10.2270 -10.0095 -10.0095
    -9.2342  -9.2342  -8.3443  -8.3443  -5.5554  -5.5554  -4.6972  -4.6972
    -3.5562  -3.5562  -2.4889  -2.4889  -1.3523  -1.3523  -0.9166  -0.9166
     3.0642   3.0642   9.3305   9.3305  10.7311  10.7311

     the Fermi energy is     2.9172 ev

!    total energy              =    -138.82981705 Ry
     estimated scf accuracy    <          7.2E-10 Ry
     smearing contrib. (-TS)   =       0.00040817 Ry
     internal energy E=F+TS    =    -138.83022523 Ry

     The total energy is F=E-TS. E is the sum of the following terms:
     one-electron contribution =   -2000.50287214 Ry
     hartree contribution      =    1017.80588328 Ry
     xc contribution           =     -43.73698877 Ry
     ewald contribution        =     887.60375241 Ry

     convergence has been achieved in   7 iterations

     Forces acting on atoms (cartesian axes, Ry/au):

     atom    1 type  1   force =    -0.00000000   -0.00032461    0.00058167
     atom    2 type  1   force =     0.00000000    0.00032461    0.00058167
     atom    3 type  1   force =    -0.00000000   -0.00006171   -0.00090334
     atom    4 type  1   force =     0.00000000    0.00006171   -0.00090334
     atom    5 type  1   force =     0.00000000   -0.00020094   -0.00085213
     atom    6 type  1   force =     0.00000000    0.00020094   -0.00085213
     atom    7 type  1   force =     0.00000000    0.00021489   -0.00025077
     atom    8 type  1   force =     0.00000000   -0.00021489   -0.00025077
     atom    9 type  1   force =    -0.00000000   -0.04193071   -0.04535992
     atom   10 type  1   force =     0.00000000    0.04193071   -0.04535992
     atom   11 type  1   force =    -0.00000000    0.16903750    0.04458534
     atom   12 type  1   force =     0.00000000   -0.16903750    0.04458534
     atom   13 type  2   force =     0.00000000    0.00042468    0.00219914
     atom   14 type  2   force =     0.00000000   -0.00042468    0.00219914

     Total force =     0.003783     Total SCF correction =     0.000039
     Energy error            =      5.2E-05 Ry
     Gradient error          =      2.2E-03 Ry/Bohr

     number of scf cycles    =   7
     number of bfgs steps    =   6

     energy             old  =    -138.8297650179 Ry
     energy             new  =    -138.8298170547 Ry

     CASE: energy            _new < energy            _old

     new trust radius        =       0.0045615534 bohr
     new conv_thr            =       0.0000000005 Ry


ATOMIC_POSITIONS (angstrom)
C                0.0000000000       -0.9100166497       12.2907731423
C                1.2611249400       -1.7652333503       12.2907731423
C               -0.0000000000        0.0029822908       11.0541330203
C                1.2611249400       -2.6782322908       11.0541330203
C                0.0000000000       -0.8925556192        9.7872318205
C                1.2611249400       -1.7826943808        9.7872318205
C                0.0000000000        0.0055687749        8.5251093028
C                1.2611249400       -2.6808187749        8.5251093028
C                0.0000000000       -0.8917500000        7.2611249400    0   0   0
C                1.2611249400       -1.7835000000        7.2611249400    0   0   0
C                0.0000000000        0.0000000000        6.0000000000    0   0   0
C                1.2611249400       -2.6752500000        6.0000000000    0   0   0
H                0.0000000000       -0.3090702511       13.2100413993
H                1.2611249400       -2.3661797489       13.2100413993



     Writing config-only to output data dir ./tmp/slab.save/ :
     XML data file
     NEW-OLD atomic charge density approx. for the potential

     total cpu time spent up to now is      194.9 secs

     Self-consistent Calculation

     iteration #  1     ecut=    60.00 Ry     beta= 0.30
     Davidson diagonalization with overlap
     ethr =  1.00E-06,  avg # of iterations =  2.0

     Threshold (ethr) on eigenvalues was too large:
     Diagonalizing with lowered threshold

     Davidson diagonalization with overlap
     ethr =  8.08E-09,  avg # of iterations =  3.5

     total cpu time spent up to now is      200.9 secs

     total energy              =    -138.82982973 Ry
     estimated scf accuracy    <       0.00000692 Ry

     iteration #  2     ecut=    60.00 Ry     beta= 0.30
     Davidson diagonalization with overlap
     ethr =  1.38E-08,  avg # of iterations =  2.4

     total cpu time spent up to now is      203.6 secs

     total energy              =    -138.82983066 Ry
     estimated scf accuracy    <       0.00000094 Ry

     iteration #  3     ecut=    60.00 Ry     beta= 0.30
     Davidson diagonalization with overlap
     ethr =  1.88E-09,  avg # of iterations =  1.9

     total cpu time spent up to now is      206.0 secs

     total energy              =    -138.82983071 Ry
     estimated scf accuracy    <       0.00000030 Ry

     iteration #  4     ecut=    60.00 Ry     beta= 0.30
     Davidson diagonalization with overlap
     ethr =  5.99E-10,  avg # of iterations =  2.0

     total cpu time spent up to now is      208.5 secs

     total energy              =    -138.82983074 Ry
     estimated scf accuracy    <       0.00000005 Ry

     iteration #  5     ecut=    60.00 Ry     beta= 0.30
     Davidson diagonalization with overlap
     ethr =  9.70E-11,  avg # of iterations =  2.0

     total cpu time spent up to now is      211.2 secs

     total energy              =    -138.82983074 Ry
     estimated scf accuracy    <          5.3E-09 Ry

     iteration #  6     ecut=    60.00 Ry     beta= 0.30
     Davidson diagonalization with overlap
     ethr =  1.07E-11,  avg # of iterations =  2.2

     total cpu time spent up to now is      214.1 secs

     total energy              =    -138.82983074 Ry
     estimated scf accuracy    <          8.6E-10 Ry

     iteration #  7     ecut=    60.00 Ry     beta= 0.30
     Davidson diagonalization with overlap
     ethr =  1.72E-12,  avg # of iterations =  2.6

     total cpu time spent up to now is      216.9 secs

     End of self-consistent calculation

          k = 0.0000-0.0000 0.0000 (  9127 PWs)   bands (ev):

   -18.4440 -17.1307 -15.1880 -12.8473 -10.6773  -9.9335  -9.7534  -8.5773
    -6.8020  -6.7508  -5.7407  -4.9460  -4.4201  -3.6587  -3.4306  -2.4124
    -1.9356  -1.7289  -1.0212   0.3823   0.4489   1.0471   1.7035   2.3661
     2.5623   4.9813   4.9991   7.3027   7.7554   8.1015

          k = 0.0000-0.1010 0.0000 (  9121 PWs)   bands (ev):

   -18.2563 -16.9486 -15.0232 -12.7796 -12.0162 -11.1884  -8.9609  -8.1284
    -7.6079  -5.9705  -5.6192  -4.8053  -3.8572  -3.4405  -3.2559  -2.2654
    -2.0793  -1.3363  -0.9382   0.3873   0.4203   0.8743   1.3801   1.8751
     2.6402   4.5605   5.1933   7.4541   7.8528   8.3319

          k = 0.0000-0.2020 0.0000 (  9137 PWs)   bands (ev):

   -17.6957 -16.4075 -14.5541 -13.8763 -12.9963 -12.3106  -9.5332  -8.6897
    -7.1879  -6.1536  -4.7283  -4.0436  -3.1342  -2.7395  -2.7278  -1.8393
    -1.5042  -1.1011  -0.7187   0.1524   0.2254   0.4169   0.7923   1.0497
     2.5706   3.8221   5.7930   7.7264   8.4477   8.5861

          k = 0.0000-0.3030 0.0000 (  9120 PWs)   bands (ev):

   -16.7713 -15.6038 -15.4067 -14.3327 -13.8032 -12.7516  -9.8511  -9.1549
    -7.2808  -6.4070  -4.3855  -3.4365  -2.2920  -1.9079  -1.5927  -1.1946
    -1.0642  -0.8001  -0.5284  -0.4918  -0.3844  -0.2327   0.1590   0.5303
     2.6045   3.2431   6.6763   7.8249   8.1881   9.0003

          k = 0.1000-0.0000 0.0000 (  9133 PWs)   bands (ev):

   -18.2594 -16.9485 -15.0093 -12.6742 -10.5127  -9.7715  -9.6948  -8.5272
    -6.7138  -6.6433  -5.5927  -4.8064  -4.4029  -4.2732  -3.5498  -3.2214
    -1.8923  -1.8035  -1.7344  -0.3144   0.2467   0.8770   0.9894   1.5005
     2.2419   5.0441   5.1426   7.5159   8.1101   8.6103

          k = 0.1000-0.1010 0.0000 (  9113 PWs)   bands (ev):

   -18.0721 -16.7668 -14.8453 -12.6084 -11.8663 -11.0333  -8.8395  -8.0240
    -7.5530  -5.8961  -5.5370  -4.7529  -4.0299  -3.8411  -3.3647  -2.9968
    -2.0612  -1.6660  -1.3911  -0.3837   0.1729   0.4073   0.8270   1.1440
     2.5130   4.6439   5.3762   7.7434   8.4824   8.7555

          k = 0.1000-0.2020 0.0000 (  9112 PWs)   bands (ev):

   -17.5129 -16.2275 -14.3788 -13.7104 -12.8332 -12.1445  -9.3830  -8.5377
    -7.0645  -6.0911  -4.8673  -4.0539  -3.5241  -3.2666  -2.6965  -2.1770
    -1.8297  -1.2969  -1.0645  -0.8654  -0.6923  -0.1453   0.5101   1.0470
     2.5558   3.9531   6.0057   8.2929   8.9377   9.0382

          k = 0.1000-0.3030 0.0000 (  9124 PWs)   bands (ev):

   -16.5914 -15.4275 -15.2315 -14.1617 -13.6340 -12.5844  -9.6892  -8.9963
    -7.1397  -6.2707  -4.3798  -3.4433  -3.2082  -2.4709  -2.1553  -1.7560
    -1.5292  -1.3695  -1.1884  -0.8523  -0.7213  -0.1053   0.0671   0.3186
     2.7278   3.3078   6.9365   8.2199   8.8385   9.4890

          k = 0.2000-0.0000 0.0000 (  9130 PWs)   bands (ev):

   -17.7079 -16.4039 -14.4758 -12.1571 -10.0203  -9.7100  -9.2866  -8.5587
    -6.7717  -6.1808  -5.8474  -5.1683  -4.7567  -4.4976  -4.4059  -3.3025
    -3.2609  -1.9223  -1.8587  -1.8316  -0.8236  -0.3902  -0.3266   0.7419
     1.6555   4.9103   5.6681   7.7885   8.1555   8.3836

          k = 0.2000-0.1010 0.0000 (  9140 PWs)   bands (ev):

   -17.5221 -16.2242 -14.3144 -12.0981 -11.4533 -10.5884  -8.5891  -7.9507
    -7.5442  -6.0169  -5.5887  -5.1300  -4.7339  -4.1867  -3.8335  -3.1988
    -2.8269  -2.1949  -1.9267  -1.7641  -1.5295  -0.7495   0.2742   0.4059
     2.0221   4.5804   5.9213   8.3224   8.5139   8.7338

          k = 0.2000-0.2020 0.0000 (  9135 PWs)   bands (ev):

   -16.9676 -15.6907 -13.8563 -13.2258 -12.3521 -11.6532  -8.9687  -8.1247
    -6.9320  -6.5169  -5.4755  -4.8784  -4.0732  -3.5944  -3.2951  -3.0655
    -2.4486  -2.3101  -2.1414  -2.0890  -1.4665  -1.0120  -0.0329   0.6337
     2.4246   3.9619   6.5785   9.0795   9.5612   9.5973

          k = 0.2000-0.3030 0.0000 (  9150 PWs)   bands (ev):

   -16.0554 -14.9036 -14.7116 -13.6545 -13.1303 -12.0872  -9.2255  -8.5400
    -6.7835  -5.9723  -5.5729  -4.5108  -4.4179  -3.6933  -3.4484  -3.1242
    -2.7156  -2.4099  -1.5344  -1.1046  -0.9875  -0.9432  -0.0860   0.0734
     2.8091   3.3599   7.4992   8.8938   9.9874  10.3545

          k = 0.3000-0.0000 0.0000 (  9160 PWs)   bands (ev):

   -16.7972 -15.5053 -13.5957 -11.3038 -10.5331  -9.3610  -9.2052  -8.4835
    -7.5737  -6.5417  -5.5051  -5.4607  -5.3399  -4.5390  -4.1284  -3.8198
    -3.1333  -2.9223  -2.8807  -2.4072  -2.0981  -1.7382  -1.6955   0.2246
     1.4838   4.4384   6.5110   7.6933   7.7654   9.2592

          k = 0.3000-0.1010 0.0000 (  9159 PWs)   bands (ev):

   -16.6143 -15.3291 -13.4391 -11.2638 -11.1047 -10.0590  -9.0146  -8.5889
    -7.7583  -6.4805  -5.7041  -5.4832  -5.1081  -4.2627  -3.8598  -3.6848
    -3.4238  -3.3712  -2.9491  -2.6753  -1.9976  -1.7555  -0.7993  -0.0161
     1.7450   4.2396   6.7892   8.1391   8.2575   9.3257

          k = 0.3000-0.2020 0.0000 (  9138 PWs)   bands (ev):

   -16.0696 -14.8073 -12.9978 -12.5035 -11.6026 -10.8706  -8.6814  -8.5404
    -7.8665  -6.8887  -6.0464  -5.4907  -5.3016  -4.8704  -4.2159  -3.9120
    -3.2604  -2.8128  -2.3920  -2.3053  -1.9234  -1.4740  -0.5363  -0.1178
     2.2880   3.7969   7.4295   9.1300   9.3246   9.8914

          k = 0.3000-0.3030 0.0000 (  9153 PWs)   bands (ev):

   -15.1782 -14.0534 -13.8704 -12.8385 -12.3066 -11.2773  -8.5904  -7.9067
    -7.8676  -6.9632  -6.7062  -5.9389  -5.5812  -5.0991  -4.8298  -4.2757
    -3.0467  -2.3523  -2.1809  -1.9394  -1.2250  -1.0205  -0.6947  -0.2359
     2.7843   3.3665   8.1790   9.6306  10.1913  10.4309

          k = 0.4000-0.0000 0.0000 (  9182 PWs)   bands (ev):

   -15.5440 -14.2702 -12.3866 -12.2135 -10.9982 -10.1299  -9.1831  -8.0764
    -7.3707  -6.9898  -5.9634  -5.0651  -4.9517  -4.5866  -4.2920  -3.9803
    -3.8862  -3.3918  -3.2217  -3.1834  -3.0747  -2.2700  -2.1957  -0.5552
     1.8789   3.6372   7.2431   7.7984   8.2701   8.9294

          k = 0.4000-0.1010 0.0000 (  9188 PWs)   bands (ev):

   -15.3672 -14.1011 -12.2402 -12.1346 -10.9470 -10.0685  -9.1065  -8.7705
    -8.2157  -7.0186  -5.8026  -5.7606  -5.2751  -5.0687  -4.5308  -3.6796
    -3.6230  -3.3406  -3.2849  -2.8668  -2.3058  -2.1837  -1.9222  -0.6514
     2.0542   3.5924   7.7171   8.0674   8.3456   9.0877

          k = 0.4000-0.2020 0.0000 (  9154 PWs)   bands (ev):

   -14.8446 -13.6045 -12.1766 -11.8154 -11.0653  -9.9742  -9.8792  -9.1044
    -8.6147  -7.3448  -7.2398  -6.3682  -6.0975  -5.5741  -4.4512  -3.8716
    -3.4613  -3.2024  -2.6729  -2.3261  -2.0802  -1.7114  -1.0027  -0.8724
     2.4635   3.4569   8.3059   8.9550   9.2817   9.6836

          k = 0.4000-0.3030 0.0000 (  9140 PWs)   bands (ev):

   -14.0089 -12.9965 -12.7838 -11.8449 -11.2091 -10.2393  -9.7450  -8.8905
    -8.6893  -8.2564  -7.9246  -7.2030  -6.1511  -5.7096  -4.8270  -4.2309
    -3.5761  -3.0688  -2.5636  -1.8352  -1.6917  -1.3046  -0.9016  -0.5872
     2.8470   3.2794   8.7739   9.8403  10.5050  10.5731

          k =-0.5000 0.0000 0.0000 (  9200 PWs)   bands (ev):

   -13.9851 -13.9851 -12.7362 -12.7362 -10.8853 -10.8853  -8.6667  -8.6667
    -6.6516  -6.6516  -5.9644  -5.9644  -4.7782  -4.7782  -4.1468  -4.1468
    -3.7484  -3.7484  -3.6039  -3.6039  -2.8385  -2.8385  -1.4664  -1.4664
     2.6866   2.6866   7.8960   7.8960   8.2634   8.2634

          k =-0.5000-0.1010 0.0000 (  9196 PWs)   bands (ev):

   -13.8253 -13.8253 -12.5859 -12.5859 -10.7575 -10.7575  -8.6292  -8.6292
    -7.4676  -7.4676  -6.9101  -6.9101  -4.6761  -4.6761  -4.1564  -4.1564
    -3.5031  -3.5031  -3.1639  -3.1639  -2.6633  -2.6633  -1.3961  -1.3961
     2.7698   2.7698   8.1187   8.1187   8.6839   8.6839

          k =-0.5000-0.2020 0.0000 (  9170 PWs)   bands (ev):

   -13.3761 -13.3761 -12.1680 -12.1680 -10.4154 -10.4154  -9.0344  -9.0344
    -8.6748  -8.6748  -7.9033  -7.9033  -5.1653  -5.1653  -4.5622  -4.5622
    -3.3793  -3.3793  -2.5812  -2.5812  -1.8499  -1.8499  -1.2374  -1.2374
     2.9430   2.9430   8.7632   8.7632   9.6662   9.6662

          k =-0.5000-0.3030 0.0000 (  9170 PWs)   bands (ev):

   -12.8194 -12.8194 -11.6657 -11.6657 -10.2279 -10.2279 -10.0092 -10.0092
    -9.2336  -9.2336  -8.3449  -8.3449  -5.5509  -5.5509  -4.6978  -4.6978
    -3.5537  -3.5537  -2.4882  -2.4882  -1.3525  -1.3525  -0.9174  -0.9174
     3.0639   3.0639   9.3306   9.3306  10.7317  10.7317

     the Fermi energy is     2.9169 ev

!    total energy              =    -138.82983074 Ry
     estimated scf accuracy    <          4.4E-11 Ry
     smearing contrib. (-TS)   =       0.00040836 Ry
     internal energy E=F+TS    =    -138.83023910 Ry

     The total energy is F=E-TS. E is the sum of the following terms:
     one-electron contribution =   -2000.41444791 Ry
     hartree contribution      =    1017.76185072 Ry
     xc contribution           =     -43.73556364 Ry
     ewald contribution        =     887.55792173 Ry

     convergence has been achieved in   7 iterations

     Forces acting on atoms (cartesian axes, Ry/au):

     atom    1 type  1   force =    -0.00000000    0.00030965    0.00092241
     atom    2 type  1   force =     0.00000000   -0.00030965    0.00092241
     atom    3 type  1   force =     0.00000000   -0.00010752   -0.00008079
     atom    4 type  1   force =     0.00000000    0.00010752   -0.00008079
     atom    5 type  1   force =    -0.00000000   -0.00002032   -0.00060464
     atom    6 type  1   force =     0.00000000    0.00002032   -0.00060464
     atom    7 type  1   force =    -0.00000000    0.00011664   -0.00043629
     atom    8 type  1   force =     0.00000000   -0.00011664   -0.00043629
     atom    9 type  1   force =     0.00000000   -0.04191345   -0.04543129
     atom   10 type  1   force =     0.00000000    0.04191345   -0.04543129
     atom   11 type  1   force =     0.00000000    0.16904445    0.04457663
     atom   12 type  1   force =     0.00000000   -0.16904445    0.04457663
     atom   13 type  2   force =     0.00000000    0.00028425    0.00105398
     atom   14 type  2   force =    -0.00000000   -0.00028425    0.00105398

     Total force =     0.002335     Total SCF correction =     0.000009
     Energy error            =      1.4E-05 Ry
     Gradient error          =      1.1E-03 Ry/Bohr

     number of scf cycles    =   8
     number of bfgs steps    =   7

     energy             old  =    -138.8298170547 Ry
     energy             new  =    -138.8298307425 Ry

     CASE: energy            _new < energy            _old

     new trust radius        =       0.0036461105 bohr
     new conv_thr            =       0.0000000001 Ry


ATOMIC_POSITIONS (angstrom)
C               -0.0000000000       -0.9098487700       12.2916901813
C                1.2611249400       -1.7654012300       12.2916901813
C                0.0000000000        0.0028973709       11.0537115594
C                1.2611249400       -2.6781473709       11.0537115594
C               -0.0000000000       -0.8926738644        9.7864766013
C                1.2611249400       -1.7825761356        9.7864766013
C               -0.0000000000        0.0057336119        8.5246724192
C                1.2611249400       -2.6809836119        8.5246724192
C                0.0000000000       -0.8917500000        7.2611249400    0   0   0
C                1.2611249400       -1.7835000000        7.2611249400    0   0   0
C                0.0000000000        0.0000000000        6.0000000000    0   0   0
C                1.2611249400       -2.6752500000        6.0000000000    0   0   0
H                0.0000000000       -0.3091685830       13.2119683306
H                1.2611249400       -2.3660814170       13.2119683306



     Writing config-only to output data dir ./tmp/slab.save/ :
     XML data file
     NEW-OLD atomic charge density approx. for the potential

     total cpu time spent up to now is      217.2 secs

     Self-consistent Calculation

     iteration #  1     ecut=    60.00 Ry     beta= 0.30
     Davidson diagonalization with overlap
     ethr =  1.00E-06,  avg # of iterations =  2.0

     Threshold (ethr) on eigenvalues was too large:
     Diagonalizing with lowered threshold

     Davidson diagonalization with overlap
     ethr =  1.93E-08,  avg # of iterations =  3.4

     total cpu time spent up to now is      223.2 secs

     total energy              =    -138.82983602 Ry
     estimated scf accuracy    <       0.00001700 Ry

     iteration #  2     ecut=    60.00 Ry     beta= 0.30
     Davidson diagonalization with overlap
     ethr =  3.40E-08,  avg # of iterations =  2.2

     total cpu time spent up to now is      226.0 secs

     total energy              =    -138.82983895 Ry
     estimated scf accuracy    <       0.00000168 Ry

     iteration #  3     ecut=    60.00 Ry     beta= 0.30
     Davidson diagonalization with overlap
     ethr =  3.35E-09,  avg # of iterations =  2.2

     total cpu time spent up to now is      228.6 secs

     total energy              =    -138.82983919 Ry
     estimated scf accuracy    <       0.00000039 Ry

     iteration #  4     ecut=    60.00 Ry     beta= 0.30
     Davidson diagonalization with overlap
     ethr =  7.70E-10,  avg # of iterations =  1.8

     total cpu time spent up to now is      231.0 secs

     total energy              =    -138.82983923 Ry
     estimated scf accuracy    <       0.00000012 Ry

     iteration #  5     ecut=    60.00 Ry     beta= 0.30
     Davidson diagonalization with overlap
     ethr =  2.47E-10,  avg # of iterations =  1.5

     total cpu time spent up to now is      233.4 secs

     total energy              =    -138.82983924 Ry
     estimated scf accuracy    <       0.00000002 Ry

     iteration #  6     ecut=    60.00 Ry     beta= 0.30
     Davidson diagonalization with overlap
     ethr =  4.53E-11,  avg # of iterations =  2.0

     total cpu time spent up to now is      236.0 secs

     total energy              =    -138.82983924 Ry
     estimated scf accuracy    <          2.4E-09 Ry

     iteration #  7     ecut=    60.00 Ry     beta= 0.30
     Davidson diagonalization with overlap
     ethr =  4.70E-12,  avg # of iterations =  2.3

     total cpu time spent up to now is      238.9 secs

     total energy              =    -138.82983924 Ry
     estimated scf accuracy    <          2.6E-10 Ry

     iteration #  8     ecut=    60.00 Ry     beta= 0.30
     Davidson diagonalization with overlap
     ethr =  5.11E-13,  avg # of iterations =  2.6

     total cpu time spent up to now is      241.9 secs

     End of self-consistent calculation

          k = 0.0000-0.0000 0.0000 (  9127 PWs)   bands (ev):

   -18.4432 -17.1279 -15.1866 -12.8472 -10.6774  -9.9347  -9.7515  -8.5728
    -6.7978  -6.7475  -5.7406  -4.9474  -4.4180  -3.6572  -3.4305  -2.4099
    -1.9351  -1.7277  -1.0204   0.3831   0.4483   1.0471   1.7029   2.3645
     2.5617   4.9790   4.9991   7.3020   7.7555   8.1007

          k = 0.0000-0.1010 0.0000 (  9121 PWs)   bands (ev):

   -18.2555 -16.9458 -15.0218 -12.7793 -12.0156 -11.1884  -8.9557  -8.1275
    -7.6080  -5.9665  -5.6184  -4.8048  -3.8564  -3.4395  -3.2558  -2.2630
    -2.0784  -1.3352  -0.9374   0.3867   0.4203   0.8760   1.3800   1.8737
     2.6395   4.5604   5.1910   7.4534   7.8526   8.3313

          k = 0.0000-0.2020 0.0000 (  9137 PWs)   bands (ev):

   -17.6949 -16.4048 -14.5526 -13.8757 -12.9949 -12.3107  -9.5287  -8.6890
    -7.1865  -6.1539  -4.7270  -4.0438  -3.1315  -2.7395  -2.7278  -1.8370
    -1.5029  -1.1006  -0.7180   0.1521   0.2271   0.4170   0.7946   1.0489
     2.5704   3.8215   5.7904   7.7255   8.4467   8.5832

          k = 0.0000-0.3030 0.0000 (  9120 PWs)   bands (ev):

   -16.7704 -15.6014 -15.4055 -14.3303 -13.8024 -12.7515  -9.8475  -9.1535
    -7.2801  -6.4061  -4.3862  -3.4373  -2.2922  -1.9079  -1.5911  -1.1927
    -1.0626  -0.7998  -0.5284  -0.4905  -0.3846  -0.2313   0.1651   0.5297
     2.6044   3.2425   6.6729   7.8216   8.1870   8.9990

          k = 0.1000-0.0000 0.0000 (  9133 PWs)   bands (ev):

   -18.2587 -16.9457 -15.0079 -12.6741 -10.5128  -9.7727  -9.6929  -8.5227
    -6.7106  -6.6391  -5.5925  -4.8078  -4.4007  -4.2731  -3.5483  -3.2190
    -1.8917  -1.8027  -1.7332  -0.3150   0.2480   0.8766   0.9894   1.4990
     2.2411   5.0441   5.1403   7.5153   8.1092   8.6085

          k = 0.1000-0.1010 0.0000 (  9113 PWs)   bands (ev):

   -18.0714 -16.7641 -14.8439 -12.6082 -11.8656 -11.0332  -8.8342  -8.0233
    -7.5530  -5.8920  -5.5361  -4.7526  -4.0299  -3.8403  -3.3637  -2.9945
    -2.0602  -1.6651  -1.3901  -0.3841   0.1744   0.4070   0.8269   1.1433
     2.5122   4.6438   5.3739   7.7427   8.4820   8.7540

          k = 0.1000-0.2020 0.0000 (  9112 PWs)   bands (ev):

   -17.5121 -16.2248 -14.3773 -13.7097 -12.8317 -12.1447  -9.3785  -8.5370
    -7.0631  -6.0914  -4.8657  -4.0537  -3.5220  -3.2671  -2.6956  -2.1749
    -1.8289  -1.2972  -1.0632  -0.8641  -0.6919  -0.1448   0.5107   1.0475
     2.5555   3.9526   6.0031   8.2918   8.9363   9.0363

          k = 0.1000-0.3030 0.0000 (  9124 PWs)   bands (ev):

   -16.5905 -15.4251 -15.2304 -14.1592 -13.6333 -12.5844  -9.6856  -8.9950
    -7.1390  -6.2698  -4.3804  -3.4432  -3.2088  -2.4684  -2.1549  -1.7567
    -1.5270  -1.3683  -1.1887  -0.8529  -0.7179  -0.1026   0.0660   0.3215
     2.7276   3.3072   6.9331   8.2163   8.8375   9.4882

          k = 0.2000-0.0000 0.0000 (  9130 PWs)   bands (ev):

   -17.7071 -16.4011 -14.4744 -12.1571 -10.0204  -9.7081  -9.2879  -8.5543
    -6.7685  -6.1765  -5.8472  -5.1680  -4.7544  -4.4955  -4.4074  -3.3018
    -3.2593  -1.9212  -1.8577  -1.8320  -0.8236  -0.3881  -0.3280   0.7419
     1.6546   4.9103   5.6659   7.7899   8.1542   8.3823

          k = 0.2000-0.1010 0.0000 (  9140 PWs)   bands (ev):

   -17.5213 -16.2214 -14.3130 -12.0978 -11.4525 -10.5882  -8.5837  -7.9514
    -7.5428  -6.0125  -5.5888  -5.1296  -4.7321  -4.1858  -3.8322  -3.1981
    -2.8262  -2.1940  -1.9256  -1.7659  -1.5266  -0.7495   0.2747   0.4058
     2.0212   4.5804   5.9189   8.3229   8.5133   8.7328

          k = 0.2000-0.2020 0.0000 (  9135 PWs)   bands (ev):

   -16.9668 -15.6879 -13.8548 -13.2251 -12.3505 -11.6534  -8.9640  -8.1239
    -6.9311  -6.5168  -5.4722  -4.8781  -4.0727  -3.5936  -3.2952  -3.0661
    -2.4460  -2.3079  -2.1423  -2.0894  -1.4631  -1.0123  -0.0319   0.6336
     2.4241   3.9617   6.5758   9.0786   9.5611   9.5960

          k = 0.2000-0.3030 0.0000 (  9150 PWs)   bands (ev):

   -16.0545 -14.9012 -14.7104 -13.6520 -13.1295 -12.0871  -9.2217  -8.5387
    -6.7825  -5.9720  -5.5722  -4.5110  -4.4150  -3.6935  -3.4461  -3.1239
    -2.7164  -2.4102  -1.5340  -1.1065  -0.9838  -0.9400  -0.0858   0.0741
     2.8088   3.3595   7.4959   8.8903   9.9865  10.3546

          k = 0.3000-0.0000 0.0000 (  9160 PWs)   bands (ev):

   -16.7964 -15.5025 -13.5942 -11.3037 -10.5317  -9.3572  -9.2053  -8.4848
    -7.5712  -6.5412  -5.5026  -5.4562  -5.3384  -4.5384  -4.1271  -3.8214
    -3.1335  -2.9206  -2.8800  -2.4075  -2.0965  -1.7374  -1.6933   0.2244
     1.4834   4.4384   6.5092   7.6926   7.7656   9.2584

          k = 0.3000-0.1010 0.0000 (  9159 PWs)   bands (ev):

   -16.6135 -15.3263 -13.4377 -11.2630 -11.1041 -10.0576  -9.0129  -8.5885
    -7.7561  -6.4763  -5.7043  -5.4825  -5.1077  -4.2594  -3.8593  -3.6856
    -3.4250  -3.3708  -2.9474  -2.6717  -1.9972  -1.7538  -0.7993  -0.0164
     1.7445   4.2396   6.7870   8.1392   8.2572   9.3262

          k = 0.3000-0.2020 0.0000 (  9138 PWs)   bands (ev):

   -16.0688 -14.8045 -12.9962 -12.5028 -11.6007 -10.8709  -8.6793  -8.5372
    -7.8665  -6.8861  -6.0444  -5.4897  -5.3011  -4.8711  -4.2149  -3.9121
    -3.2596  -2.8109  -2.3919  -2.3027  -1.9220  -1.4736  -0.5360  -0.1186
     2.2876   3.7969   7.4267   9.1303   9.3240   9.8921

          k = 0.3000-0.3030 0.0000 (  9153 PWs)   bands (ev):

   -15.1773 -14.0512 -13.8689 -12.8359 -12.3058 -11.2772  -8.5862  -7.9053
    -7.8672  -6.9618  -6.7063  -5.9380  -5.5790  -5.0987  -4.8275  -4.2763
    -3.0471  -2.3522  -2.1787  -1.9378  -1.2254  -1.0193  -0.6939  -0.2368
     2.7838   3.3665   8.1762   9.6272  10.1917  10.4308

          k = 0.4000-0.0000 0.0000 (  9182 PWs)   bands (ev):

   -15.5432 -14.2673 -12.3851 -12.2125 -10.9949 -10.1298  -9.1813  -8.0766
    -7.3720  -6.9893  -5.9625  -5.0624  -4.9516  -4.5820  -4.2935  -3.9784
    -3.8856  -3.3933  -3.2179  -3.1840  -3.0676  -2.2693  -2.1959  -0.5556
     1.8788   3.6371   7.2431   7.7974   8.2679   8.9294

          k = 0.4000-0.1010 0.0000 (  9188 PWs)   bands (ev):

   -15.3664 -14.0982 -12.2386 -12.1336 -10.9437 -10.0684  -9.1045  -8.7703
    -8.2165  -7.0180  -5.7987  -5.7593  -5.2759  -5.0687  -4.5313  -3.6756
    -3.6189  -3.3415  -3.2823  -2.8645  -2.3059  -2.1825  -1.9227  -0.6518
     2.0539   3.5923   7.7163   8.0672   8.3446   9.0868

          k = 0.4000-0.2020 0.0000 (  9154 PWs)   bands (ev):

   -14.8438 -13.6016 -12.1753 -11.8141 -11.0623  -9.9739  -9.8794  -9.1023
    -8.6137  -7.3431  -7.2403  -6.3681  -6.0934  -5.5740  -4.4485  -3.8705
    -3.4596  -3.2019  -2.6708  -2.3256  -2.0792  -1.7118  -1.0033  -0.8727
     2.4631   3.4569   8.3044   8.9553   9.2809   9.6818

          k = 0.4000-0.3030 0.0000 (  9140 PWs)   bands (ev):

   -14.0080 -12.9949 -12.7815 -11.8421 -11.2081 -10.2389  -9.7446  -8.8880
    -8.6887  -8.2549  -7.9234  -7.2031  -6.1484  -5.7081  -4.8253  -4.2298
    -3.5733  -3.0687  -2.5631  -1.8355  -1.6906  -1.3047  -0.9022  -0.5880
     2.8465   3.2794   8.7724   9.8387  10.5034  10.5712

          k =-0.5000 0.0000 0.0000 (  9200 PWs)   bands (ev):

   -13.9843 -13.9843 -12.7332 -12.7332 -10.8837 -10.8837  -8.6665  -8.6665
    -6.6517  -6.6517  -5.9659  -5.9659  -4.7771  -4.7771  -4.1441  -4.1441
    -3.7474  -3.7474  -3.5970  -3.5970  -2.8390  -2.8390  -1.4669  -1.4669
     2.6865   2.6865   7.8962   7.8962   8.2626   8.2626

          k =-0.5000-0.1010 0.0000 (  9196 PWs)   bands (ev):

   -13.8245 -13.8245 -12.5829 -12.5829 -10.7559 -10.7559  -8.6289  -8.6289
    -7.4672  -7.4672  -6.9110  -6.9110  -4.6710  -4.6710  -4.1557  -4.1557
    -3.5045  -3.5045  -3.1595  -3.1595  -2.6628  -2.6628  -1.3966  -1.3966
     2.7696   2.7696   8.1191   8.1191   8.6832   8.6832

          k =-0.5000-0.2020 0.0000 (  9170 PWs)   bands (ev):

   -13.3752 -13.3752 -12.1650 -12.1650 -10.4137 -10.4137  -9.0339  -9.0339
    -8.6746  -8.6746  -7.9032  -7.9032  -5.1608  -5.1608  -4.5614  -4.5614
    -3.3786  -3.3786  -2.5802  -2.5802  -1.8496  -1.8496  -1.2381  -1.2381
     2.9428   2.9428   8.7637   8.7637   9.6657   9.6657

          k =-0.5000-0.3030 0.0000 (  9170 PWs)   bands (ev):

   -12.8183 -12.8183 -11.6625 -11.6625 -10.2269 -10.2269 -10.0084 -10.0084
    -9.2323  -9.2323  -8.3453  -8.3453  -5.5468  -5.5468  -4.6968  -4.6968
    -3.5531  -3.5531  -2.4873  -2.4873  -1.3532  -1.3532  -0.9179  -0.9179
     3.0637   3.0637   9.3293   9.3293  10.7308  10.7308

     the Fermi energy is     2.9165 ev

!    total energy              =    -138.82983924 Ry
     estimated scf accuracy    <          3.1E-11 Ry
     smearing contrib. (-TS)   =       0.00040882 Ry
     internal energy E=F+TS    =    -138.83024806 Ry

     The total energy is F=E-TS. E is the sum of the following terms:
     one-electron contribution =   -2000.08914460 Ry
     hartree contribution      =    1017.59956264 Ry
     xc contribution           =     -43.73337090 Ry
     ewald contribution        =     887.39270480 Ry

     convergence has been achieved in   8 iterations

     Forces acting on atoms (cartesian axes, Ry/au):

     atom    1 type  1   force =    -0.00000000    0.00037016    0.00077241
     atom    2 type  1   force =     0.00000000   -0.00037016    0.00077241
     atom    3 type  1   force =     0.00000000   -0.00012019    0.00060064
     atom    4 type  1   force =     0.00000000    0.00012019    0.00060064
     atom    5 type  1   force =     0.00000000    0.00021133   -0.00005281
     atom    6 type  1   force =    -0.00000000   -0.00021133   -0.00005281
     atom    7 type  1   force =     0.00000000   -0.00017148   -0.00031325
     atom    8 type  1   force =     0.00000000    0.00017148   -0.00031325
     atom    9 type  1   force =     0.00000000   -0.04196142   -0.04568134
     atom   10 type  1   force =     0.00000000    0.04196142   -0.04568134
     atom   11 type  1   force =     0.00000000    0.16906008    0.04452810
     atom   12 type  1   force =     0.00000000   -0.16906008    0.04452810
     atom   13 type  2   force =    -0.00000000    0.00002151    0.00014625
     atom   14 type  2   force =     0.00000000   -0.00002151    0.00014625

     Total force =     0.001616     Total SCF correction =     0.000007
     Energy error            =      8.5E-06 Ry
     Gradient error          =      7.7E-04 Ry/Bohr

     number of scf cycles    =   9
     number of bfgs steps    =   8

     energy             old  =    -138.8298307425 Ry
     energy             new  =    -138.8298392443 Ry

     CASE: energy            _new < energy            _old

     new trust radius        =       0.0015525257 bohr
     new conv_thr            =            1.0E-10 Ry


ATOMIC_POSITIONS (angstrom)
C               -0.0000000000       -0.9097397827       12.2924423778
C                1.2611249400       -1.7655102173       12.2924423778
C                0.0000000000        0.0028040337       11.0538967231
C                1.2611249400       -2.6780540337       11.0538967231
C               -0.0000000000       -0.8926112961        9.7861974032
C                1.2611249400       -1.7826387039        9.7861974032
C               -0.0000000000        0.0057188126        8.5243326629
C                1.2611249400       -2.6809688126        8.5243326629
C                0.0000000000       -0.8917500000        7.2611249400    0   0   0
C                1.2611249400       -1.7835000000        7.2611249400    0   0   0
C                0.0000000000        0.0000000000        6.0000000000    0   0   0
C                1.2611249400       -2.6752500000        6.0000000000    0   0   0
H                0.0000000000       -0.3088892305       13.2127409398
H                1.2611249400       -2.3663607695       13.2127409398



     Writing config-only to output data dir ./tmp/slab.save/ :
     XML data file
     NEW-OLD atomic charge density approx. for the potential

     total cpu time spent up to now is      242.1 secs

     Self-consistent Calculation

     iteration #  1     ecut=    60.00 Ry     beta= 0.30
     Davidson diagonalization with overlap
     ethr =  1.00E-06,  avg # of iterations =  2.0

     Threshold (ethr) on eigenvalues was too large:
     Diagonalizing with lowered threshold

     Davidson diagonalization with overlap
     ethr =  7.62E-09,  avg # of iterations =  3.1

     total cpu time spent up to now is      248.1 secs

     total energy              =    -138.82984041 Ry
     estimated scf accuracy    <       0.00000709 Ry

     iteration #  2     ecut=    60.00 Ry     beta= 0.30
     Davidson diagonalization with overlap
     ethr =  1.42E-08,  avg # of iterations =  2.1

     total cpu time spent up to now is      250.8 secs

     total energy              =    -138.82984173 Ry
     estimated scf accuracy    <       0.00000083 Ry

     iteration #  3     ecut=    60.00 Ry     beta= 0.30
     Davidson diagonalization with overlap
     ethr =  1.65E-09,  avg # of iterations =  2.1

     total cpu time spent up to now is      253.5 secs

     total energy              =    -138.82984188 Ry
     estimated scf accuracy    <       0.00000011 Ry

     iteration #  4     ecut=    60.00 Ry     beta= 0.30
     Davidson diagonalization with overlap
     ethr =  2.19E-10,  avg # of iterations =  1.8

     total cpu time spent up to now is      255.9 secs

     total energy              =    -138.82984190 Ry
     estimated scf accuracy    <       0.00000004 Ry

     iteration #  5     ecut=    60.00 Ry     beta= 0.30
     Davidson diagonalization with overlap
     ethr =  7.64E-11,  avg # of iterations =  2.0

     total cpu time spent up to now is      258.5 secs

     total energy              =    -138.82984191 Ry
     estimated scf accuracy    <          4.8E-09 Ry

     iteration #  6     ecut=    60.00 Ry     beta= 0.30
     Davidson diagonalization with overlap
     ethr =  9.56E-12,  avg # of iterations =  2.0

     total cpu time spent up to now is      261.3 secs

     total energy              =    -138.82984191 Ry
     estimated scf accuracy    <          7.9E-10 Ry

     iteration #  7     ecut=    60.00 Ry     beta= 0.30
     Davidson diagonalization with overlap
     ethr =  1.58E-12,  avg # of iterations =  2.9

     total cpu time spent up to now is      264.3 secs

     total energy              =    -138.82984191 Ry
     estimated scf accuracy    <          1.7E-10 Ry

     iteration #  8     ecut=    60.00 Ry     beta= 0.30
     Davidson diagonalization with overlap
     ethr =  3.37E-13,  avg # of iterations =  2.7

     total cpu time spent up to now is      267.3 secs

     End of self-consistent calculation

          k = 0.0000-0.0000 0.0000 (  9127 PWs)   bands (ev):

   -18.4415 -17.1268 -15.1857 -12.8469 -10.6771  -9.9345  -9.7495  -8.5716
    -6.7955  -6.7464  -5.7402  -4.9484  -4.4175  -3.6571  -3.4285  -2.4084
    -1.9349  -1.7281  -1.0190   0.3834   0.4493   1.0463   1.7038   2.3651
     2.5615   4.9787   4.9989   7.3018   7.7574   8.1005

          k = 0.0000-0.1010 0.0000 (  9121 PWs)   bands (ev):

   -18.2538 -16.9447 -15.0209 -12.7789 -12.0139 -11.1886  -8.9537  -8.1264
    -7.6081  -5.9648  -5.6182  -4.8049  -3.8561  -3.4393  -3.2538  -2.2615
    -2.0788  -1.3348  -0.9361   0.3878   0.4196   0.8767   1.3814   1.8738
     2.6390   4.5602   5.1906   7.4533   7.8537   8.3313

          k = 0.0000-0.2020 0.0000 (  9137 PWs)   bands (ev):

   -17.6931 -16.4036 -14.5516 -13.8740 -12.9941 -12.3106  -9.5272  -8.6882
    -7.1870  -6.1540  -4.7261  -4.0440  -3.1304  -2.7374  -2.7278  -1.8355
    -1.5026  -1.1011  -0.7166   0.1533   0.2272   0.4193   0.7961   1.0485
     2.5701   3.8212   5.7900   7.7256   8.4468   8.5825

          k = 0.0000-0.3030 0.0000 (  9120 PWs)   bands (ev):

   -16.7686 -15.5997 -15.4044 -14.3293 -13.8017 -12.7512  -9.8464  -9.1525
    -7.2809  -6.4063  -4.3866  -3.4374  -2.2919  -1.9059  -1.5903  -1.1912
    -1.0622  -0.7979  -0.5290  -0.4884  -0.3838  -0.2297   0.1667   0.5295
     2.6042   3.2421   6.6721   7.8210   8.1869   8.9989

          k = 0.1000-0.0000 0.0000 (  9133 PWs)   bands (ev):

   -18.2569 -16.9446 -15.0070 -12.6738 -10.5124  -9.7724  -9.6909  -8.5215
    -6.7095  -6.6368  -5.5921  -4.8088  -4.4002  -4.2711  -3.5482  -3.2175
    -1.8914  -1.8016  -1.7333  -0.3140   0.2486   0.8772   0.9890   1.4994
     2.2408   5.0440   5.1400   7.5150   8.1086   8.6077

          k = 0.1000-0.1010 0.0000 (  9113 PWs)   bands (ev):

   -18.0696 -16.7629 -14.8430 -12.6078 -11.8639 -11.0334  -8.8322  -8.0223
    -7.5530  -5.8902  -5.5358  -4.7527  -4.0280  -3.8399  -3.3636  -2.9930
    -2.0606  -1.6638  -1.3897  -0.3831   0.1761   0.4064   0.8270   1.1437
     2.5118   4.6436   5.3736   7.7424   8.4819   8.7539

          k = 0.1000-0.2020 0.0000 (  9112 PWs)   bands (ev):

   -17.5104 -16.2236 -14.3764 -13.7080 -12.8309 -12.1446  -9.3770  -8.5362
    -7.0636  -6.0915  -4.8643  -4.0536  -3.5212  -3.2659  -2.6947  -2.1737
    -1.8284  -1.2970  -1.0629  -0.8619  -0.6905  -0.1450   0.5107   1.0485
     2.5552   3.9523   6.0026   8.2914   8.9361   9.0358

          k = 0.1000-0.3030 0.0000 (  9124 PWs)   bands (ev):

   -16.5887 -15.4234 -15.2292 -14.1582 -13.6325 -12.5840  -9.6845  -8.9940
    -7.1398  -6.2699  -4.3805  -3.4425  -3.2082  -2.4670  -2.1532  -1.7568
    -1.5256  -1.3670  -1.1882  -0.8528  -0.7164  -0.1017   0.0664   0.3224
     2.7274   3.3068   6.9324   8.2156   8.8371   9.4880

          k = 0.2000-0.0000 0.0000 (  9130 PWs)   bands (ev):

   -17.7053 -16.4000 -14.4735 -12.1567 -10.0201  -9.7061  -9.2876  -8.5531
    -6.7674  -6.1742  -5.8452  -5.1674  -4.7530  -4.4949  -4.4086  -3.3006
    -3.2591  -1.9211  -1.8574  -1.8315  -0.8224  -0.3866  -0.3278   0.7410
     1.6541   4.9101   5.6657   7.7905   8.1534   8.3815

          k = 0.2000-0.1010 0.0000 (  9140 PWs)   bands (ev):

   -17.5195 -16.2202 -14.3121 -12.0973 -11.4508 -10.5883  -8.5815  -7.9508
    -7.5424  -6.0100  -5.5887  -5.1292  -4.7305  -4.1853  -3.8316  -3.1981
    -2.8252  -2.1939  -1.9247  -1.7661  -1.5244  -0.7494   0.2747   0.4059
     2.0208   4.5802   5.9187   8.3232   8.5130   8.7322

          k = 0.2000-0.2020 0.0000 (  9135 PWs)   bands (ev):

   -16.9650 -15.6867 -13.8539 -13.2234 -12.3497 -11.6534  -8.9624  -8.1230
    -6.9306  -6.5167  -5.4704  -4.8780  -4.0720  -3.5930  -3.2944  -3.0648
    -2.4443  -2.3067  -2.1423  -2.0891  -1.4623  -1.0126  -0.0321   0.6343
     2.4238   3.9616   6.5754   9.0782   9.5604   9.5956

          k = 0.2000-0.3030 0.0000 (  9150 PWs)   bands (ev):

   -16.0527 -14.8995 -14.7093 -13.6510 -13.1288 -12.0868  -9.2206  -8.5377
    -6.7831  -5.9720  -5.5707  -4.5097  -4.4134  -3.6933  -3.4447  -3.1233
    -2.7164  -2.4101  -1.5336  -1.1067  -0.9819  -0.9391  -0.0864   0.0752
     2.8085   3.3593   7.4952   8.8897   9.9857  10.3541

          k = 0.3000-0.0000 0.0000 (  9160 PWs)   bands (ev):

   -16.7946 -15.5013 -13.5933 -11.3034 -10.5298  -9.3560  -9.2049  -8.4845
    -7.5701  -6.5391  -5.5013  -5.4539  -5.3378  -4.5377  -4.1260  -3.8226
    -3.1333  -2.9204  -2.8790  -2.4065  -2.0959  -1.7373  -1.6914   0.2235
     1.4831   4.4382   6.5092   7.6922   7.7659   9.2579

          k = 0.3000-0.1010 0.0000 (  9159 PWs)   bands (ev):

   -16.6117 -15.3251 -13.4367 -11.2624 -11.1024 -10.0573  -9.0107  -8.5884
    -7.7553  -6.4740  -5.7042  -5.4815  -5.1071  -4.2575  -3.8577  -3.6853
    -3.4256  -3.3702  -2.9467  -2.6707  -1.9972  -1.7530  -0.7983  -0.0172
     1.7442   4.2394   6.7869   8.1391   8.2572   9.3260

          k = 0.3000-0.2020 0.0000 (  9138 PWs)   bands (ev):

   -16.0670 -14.8033 -12.9952 -12.5011 -11.5998 -10.8709  -8.6770  -8.5360
    -7.8665  -6.8845  -6.0443  -5.4883  -5.2993  -4.8715  -4.2145  -3.9118
    -3.2592  -2.8090  -2.3921  -2.3015  -1.9215  -1.4735  -0.5365  -0.1182
     2.2873   3.7968   7.4263   9.1304   9.3239   9.8919

          k = 0.3000-0.3030 0.0000 (  9153 PWs)   bands (ev):

   -15.1755 -14.0494 -13.8678 -12.8348 -12.3050 -11.2769  -8.5850  -7.9044
    -7.8653  -6.9612  -6.7048  -5.9376  -5.5784  -5.0975  -4.8269  -4.2760
    -3.0475  -2.3524  -2.1776  -1.9367  -1.2249  -1.0193  -0.6940  -0.2364
     2.7835   3.3664   8.1757   9.6265  10.1918  10.4309

          k = 0.4000-0.0000 0.0000 (  9182 PWs)   bands (ev):

   -15.5414 -14.2661 -12.3842 -12.2107 -10.9937 -10.1294  -9.1802  -8.0761
    -7.3717  -6.9889  -5.9604  -5.0613  -4.9508  -4.5797  -4.2932  -3.9773
    -3.8847  -3.3928  -3.2163  -3.1846  -3.0653  -2.2691  -2.1962  -0.5565
     1.8786   3.6369   7.2431   7.7977   8.2670   8.9296

          k = 0.4000-0.1010 0.0000 (  9188 PWs)   bands (ev):

   -15.3646 -14.0970 -12.2376 -12.1317 -10.9425 -10.0680  -9.1034  -8.7686
    -8.2169  -7.0174  -5.7966  -5.7575  -5.2763  -5.0677  -4.5311  -3.6744
    -3.6161  -3.3412  -3.2816  -2.8642  -2.3063  -2.1813  -1.9227  -0.6527
     2.0536   3.5921   7.7162   8.0676   8.3441   9.0867

          k = 0.4000-0.2020 0.0000 (  9154 PWs)   bands (ev):

   -14.8420 -13.6004 -12.1734 -11.8131 -11.0612  -9.9735  -9.8777  -9.1012
    -8.6133  -7.3408  -7.2399  -6.3681  -6.0918  -5.5733  -4.4479  -3.8704
    -3.4587  -3.2011  -2.6704  -2.3244  -2.0791  -1.7123  -1.0026  -0.8735
     2.4628   3.4568   8.3041   8.9556   9.2813   9.6809

          k = 0.4000-0.3030 0.0000 (  9140 PWs)   bands (ev):

   -14.0061 -12.9930 -12.7804 -11.8409 -11.2073 -10.2385  -9.7427  -8.8863
    -8.6872  -8.2541  -7.9225  -7.2030  -6.1470  -5.7068  -4.8254  -4.2297
    -3.5722  -3.0685  -2.5632  -1.8356  -1.6910  -1.3039  -0.9026  -0.5875
     2.8463   3.2792   8.7722   9.8378  10.5039  10.5700

          k =-0.5000 0.0000 0.0000 (  9200 PWs)   bands (ev):

   -13.9825 -13.9825 -12.7320 -12.7320 -10.8827 -10.8827  -8.6661  -8.6661
    -6.6512  -6.6512  -5.9656  -5.9656  -4.7751  -4.7751  -4.1427  -4.1427
    -3.7465  -3.7465  -3.5949  -3.5949  -2.8393  -2.8393  -1.4677  -1.4677
     2.6863   2.6863   7.8963   7.8963   8.2625   8.2625

          k =-0.5000-0.1010 0.0000 (  9196 PWs)   bands (ev):

   -13.8226 -13.8226 -12.5817 -12.5817 -10.7549 -10.7549  -8.6284  -8.6284
    -7.4654  -7.4654  -6.9114  -6.9114  -4.6688  -4.6688  -4.1547  -4.1547
    -3.5048  -3.5048  -3.1578  -3.1578  -2.6624  -2.6624  -1.3974  -1.3974
     2.7694   2.7694   8.1191   8.1191   8.6834   8.6834

          k =-0.5000-0.2020 0.0000 (  9170 PWs)   bands (ev):

   -13.3734 -13.3734 -12.1638 -12.1638 -10.4127 -10.4127  -9.0321  -9.0321
    -8.6739  -8.6739  -7.9032  -7.9032  -5.1590  -5.1590  -4.5606  -4.5606
    -3.3789  -3.3789  -2.5799  -2.5799  -1.8485  -1.8485  -1.2387  -1.2387
     2.9426   2.9426   8.7640   8.7640   9.6657   9.6657

          k =-0.5000-0.3030 0.0000 (  9170 PWs)   bands (ev):

   -12.8164 -12.8164 -11.6613 -11.6613 -10.2250 -10.2250 -10.0075 -10.0075
    -9.2312  -9.2312  -8.3451  -8.3451  -5.5454  -5.5454  -4.6957  -4.6957
    -3.5537  -3.5537  -2.4870  -2.4870  -1.3537  -1.3537  -0.9174  -0.9174
     3.0635   3.0635   9.3290   9.3290  10.7307  10.7307

     the Fermi energy is     2.9163 ev

!    total energy              =    -138.82984191 Ry
     estimated scf accuracy    <          6.0E-11 Ry
     smearing contrib. (-TS)   =       0.00040893 Ry
     internal energy E=F+TS    =    -138.83025084 Ry

     The total energy is F=E-TS. E is the sum of the following terms:
     one-electron contribution =   -1999.79143232 Ry
     hartree contribution      =    1017.45131973 Ry
     xc contribution           =     -43.73222383 Ry
     ewald contribution        =     887.24208558 Ry

     convergence has been achieved in   8 iterations

     Forces acting on atoms (cartesian axes, Ry/au):

     atom    1 type  1   force =     0.00000000    0.00019549    0.00051209
     atom    2 type  1   force =    -0.00000000   -0.00019549    0.00051209
     atom    3 type  1   force =     0.00000000   -0.00001505    0.00063599
     atom    4 type  1   force =     0.00000000    0.00001505    0.00063599
     atom    5 type  1   force =     0.00000000    0.00008396    0.00027499
     atom    6 type  1   force =     0.00000000   -0.00008396    0.00027499
     atom    7 type  1   force =     0.00000000   -0.00005871   -0.00004961
     atom    8 type  1   force =     0.00000000    0.00005871   -0.00004961
     atom    9 type  1   force =    -0.00000000   -0.04202962   -0.04585021
     atom   10 type  1   force =     0.00000000    0.04202962   -0.04585021
     atom   11 type  1   force =     0.00000000    0.16906568    0.04449224
     atom   12 type  1   force =    -0.00000000   -0.16906568    0.04449224
     atom   13 type  2   force =     0.00000000   -0.00005177   -0.00001549
     atom   14 type  2   force =     0.00000000    0.00005177   -0.00001549

     Total force =     0.001262     Total SCF correction =     0.000018
     Energy error            =      2.7E-06 Ry
     Gradient error          =      6.4E-04 Ry/Bohr

     number of scf cycles    =  10
     number of bfgs steps    =   9

     energy             old  =    -138.8298392443 Ry
     energy             new  =    -138.8298419065 Ry

     CASE: energy            _new < energy            _old

     new trust radius        =       0.0017404549 bohr
     new conv_thr            =            1.0E-10 Ry


ATOMIC_POSITIONS (angstrom)
C               -0.0000000000       -0.9096451631       12.2933585136
C                1.2611249400       -1.7656048369       12.2933585136
C                0.0000000000        0.0027496899       11.0544745750
C                1.2611249400       -2.6779996899       11.0544745750
C               -0.0000000000       -0.8925523266        9.7862102714
C                1.2611249400       -1.7826976734        9.7862102714
C               -0.0000000000        0.0057280193        8.5240690796
C                1.2611249400       -2.6809780193        8.5240690796
C                0.0000000000       -0.8917500000        7.2611249400    0   0   0
C                1.2611249400       -1.7835000000        7.2611249400    0   0   0
C                0.0000000000        0.0000000000        6.0000000000    0   0   0
C                1.2611249400       -2.6752500000        6.0000000000    0   0   0
H                0.0000000000       -0.3087085638       13.2134837759
H                1.2611249400       -2.3665414362       13.2134837759



     Writing config-only to output data dir ./tmp/slab.save/ :
     XML data file
     NEW-OLD atomic charge density approx. for the potential

     total cpu time spent up to now is      267.6 secs

     Self-consistent Calculation

     iteration #  1     ecut=    60.00 Ry     beta= 0.30
     Davidson diagonalization with overlap
     ethr =  1.00E-06,  avg # of iterations =  2.0

     Threshold (ethr) on eigenvalues was too large:
     Diagonalizing with lowered threshold

     Davidson diagonalization with overlap
     ethr =  1.20E-08,  avg # of iterations =  3.3

     total cpu time spent up to now is      273.5 secs

     total energy              =    -138.82984174 Ry
     estimated scf accuracy    <       0.00001082 Ry

     iteration #  2     ecut=    60.00 Ry     beta= 0.30
     Davidson diagonalization with overlap
     ethr =  2.16E-08,  avg # of iterations =  2.3

     total cpu time spent up to now is      276.3 secs

     total energy              =    -138.82984385 Ry
     estimated scf accuracy    <       0.00000123 Ry

     iteration #  3     ecut=    60.00 Ry     beta= 0.30
     Davidson diagonalization with overlap
     ethr =  2.47E-09,  avg # of iterations =  2.0

     total cpu time spent up to now is      278.9 secs

     total energy              =    -138.82984408 Ry
     estimated scf accuracy    <       0.00000015 Ry

     iteration #  4     ecut=    60.00 Ry     beta= 0.30
     Davidson diagonalization with overlap
     ethr =  2.92E-10,  avg # of iterations =  1.8

     total cpu time spent up to now is      281.3 secs

     total energy              =    -138.82984410 Ry
     estimated scf accuracy    <       0.00000005 Ry

     iteration #  5     ecut=    60.00 Ry     beta= 0.30
     Davidson diagonalization with overlap
     ethr =  1.05E-10,  avg # of iterations =  2.0

     total cpu time spent up to now is      284.0 secs

     total energy              =    -138.82984411 Ry
     estimated scf accuracy    <          5.8E-09 Ry

     iteration #  6     ecut=    60.00 Ry     beta= 0.30
     Davidson diagonalization with overlap
     ethr =  1.17E-11,  avg # of iterations =  2.0

     total cpu time spent up to now is      286.7 secs

     total energy              =    -138.82984411 Ry
     estimated scf accuracy    <          1.4E-09 Ry

     iteration #  7     ecut=    60.00 Ry     beta= 0.30
     Davidson diagonalization with overlap
     ethr =  2.71E-12,  avg # of iterations =  3.0

     total cpu time spent up to now is      289.7 secs

     total energy              =    -138.82984411 Ry
     estimated scf accuracy    <          3.1E-10 Ry

     iteration #  8     ecut=    60.00 Ry     beta= 0.30
     Davidson diagonalization with overlap
     ethr =  6.21E-13,  avg # of iterations =  2.9

     total cpu time spent up to now is      292.7 secs

     End of self-consistent calculation

          k = 0.0000-0.0000 0.0000 (  9127 PWs)   bands (ev):

   -18.4389 -17.1259 -15.1848 -12.8467 -10.6770  -9.9338  -9.7462  -8.5706
    -6.7935  -6.7452  -5.7393  -4.9492  -4.4170  -3.6572  -3.4259  -2.4072
    -1.9344  -1.7286  -1.0176   0.3839   0.4502   1.0458   1.7045   2.3655
     2.5616   4.9786   4.9987   7.3016   7.7598   8.1006

          k = 0.0000-0.1010 0.0000 (  9121 PWs)   bands (ev):

   -18.2512 -16.9438 -15.0200 -12.7786 -12.0115 -11.1887  -8.9523  -8.1247
    -7.6078  -5.9636  -5.6174  -4.8048  -3.8554  -3.4394  -3.2512  -2.2604
    -2.0792  -1.3344  -0.9347   0.3887   0.4192   0.8776   1.3825   1.8741
     2.6389   4.5601   5.1906   7.4532   7.8551   8.3315

          k = 0.0000-0.2020 0.0000 (  9137 PWs)   bands (ev):

   -17.6905 -16.4027 -14.5506 -13.8716 -12.9936 -12.3104  -9.5259  -8.6872
    -7.1877  -6.1543  -4.7249  -4.0438  -3.1293  -2.7349  -2.7274  -1.8344
    -1.5022  -1.1017  -0.7152   0.1543   0.2278   0.4213   0.7978   1.0483
     2.5699   3.8210   5.7899   7.7257   8.4470   8.5820

          k = 0.0000-0.3030 0.0000 (  9120 PWs)   bands (ev):

   -16.7660 -15.5979 -15.4027 -14.3285 -13.8009 -12.7507  -9.8453  -9.1513
    -7.2819  -6.4068  -4.3870  -3.4375  -2.2911  -1.9035  -1.5895  -1.1899
    -1.0617  -0.7958  -0.5291  -0.4865  -0.3831  -0.2271   0.1678   0.5295
     2.6041   3.2419   6.6720   7.8207   8.1865   8.9988

          k = 0.1000-0.0000 0.0000 (  9133 PWs)   bands (ev):

   -18.2543 -16.9436 -15.0061 -12.6735 -10.5123  -9.7718  -9.6876  -8.5205
    -6.7083  -6.6348  -5.5911  -4.8096  -4.3997  -4.2685  -3.5483  -3.2164
    -1.8909  -1.8004  -1.7336  -0.3132   0.2495   0.8776   0.9888   1.4997
     2.2410   5.0439   5.1401   7.5149   8.1087   8.6065

          k = 0.1000-0.1010 0.0000 (  9113 PWs)   bands (ev):

   -18.0670 -16.7620 -14.8421 -12.6074 -11.8615 -11.0335  -8.8308  -8.0205
    -7.5528  -5.8889  -5.5351  -4.7526  -4.0255  -3.8391  -3.3637  -2.9919
    -2.0609  -1.6625  -1.3893  -0.3822   0.1779   0.4060   0.8272   1.1440
     2.5117   4.6436   5.3736   7.7421   8.4822   8.7538

          k = 0.1000-0.2020 0.0000 (  9112 PWs)   bands (ev):

   -17.5077 -16.2227 -14.3754 -13.7056 -12.8304 -12.1444  -9.3757  -8.5351
    -7.0642  -6.0917  -4.8626  -4.0534  -3.5204  -3.2644  -2.6934  -2.1727
    -1.8278  -1.2967  -1.0624  -0.8596  -0.6895  -0.1449   0.5110   1.0495
     2.5550   3.9523   6.0026   8.2909   8.9359   9.0355

          k = 0.1000-0.3030 0.0000 (  9124 PWs)   bands (ev):

   -16.5861 -15.4216 -15.2275 -14.1574 -13.6317 -12.5836  -9.6835  -8.9927
    -7.1408  -6.2704  -4.3804  -3.4415  -3.2073  -2.4657  -2.1511  -1.7568
    -1.5243  -1.3657  -1.1875  -0.8524  -0.7147  -0.1010   0.0673   0.3233
     2.7274   3.3066   6.9323   8.2153   8.8363   9.4876

          k = 0.2000-0.0000 0.0000 (  9130 PWs)   bands (ev):

   -17.7027 -16.3990 -14.4725 -12.1565 -10.0200  -9.7029  -9.2870  -8.5521
    -6.7662  -6.1722  -5.8427  -5.1663  -4.7519  -4.4944  -4.4094  -3.2993
    -3.2591  -1.9211  -1.8568  -1.8311  -0.8214  -0.3847  -0.3276   0.7404
     1.6540   4.9101   5.6661   7.7907   8.1528   8.3813

          k = 0.2000-0.1010 0.0000 (  9140 PWs)   bands (ev):

   -17.5169 -16.2193 -14.3111 -12.0970 -11.4484 -10.5884  -8.5800  -7.9492
    -7.5417  -6.0080  -5.5883  -5.1286  -4.7287  -4.1846  -3.8308  -3.1982
    -2.8241  -2.1938  -1.9240  -1.7656  -1.5225  -0.7493   0.2749   0.4060
     2.0207   4.5801   5.9189   8.3234   8.5122   8.7325

          k = 0.2000-0.2020 0.0000 (  9135 PWs)   bands (ev):

   -16.9624 -15.6858 -13.8528 -13.2210 -12.3491 -11.6531  -8.9611  -8.1219
    -6.9299  -6.5164  -5.4692  -4.8780  -4.0713  -3.5922  -3.2934  -3.0629
    -2.4430  -2.3055  -2.1416  -2.0888  -1.4616  -1.0130  -0.0320   0.6349
     2.4237   3.9615   6.5755   9.0779   9.5595   9.5956

          k = 0.2000-0.3030 0.0000 (  9150 PWs)   bands (ev):

   -16.0500 -14.8976 -14.7076 -13.6502 -13.1280 -12.0863  -9.2196  -8.5364
    -6.7839  -5.9721  -5.5688  -4.5080  -4.4121  -3.6929  -3.4436  -3.1226
    -2.7163  -2.4099  -1.5332  -1.1062  -0.9800  -0.9382  -0.0867   0.0763
     2.8084   3.3593   7.4952   8.8895   9.9846  10.3533

          k = 0.3000-0.0000 0.0000 (  9160 PWs)   bands (ev):

   -16.7920 -15.5004 -13.5924 -11.3031 -10.5268  -9.3550  -9.2047  -8.4839
    -7.5690  -6.5364  -5.5001  -5.4520  -5.3375  -4.5364  -4.1247  -3.8235
    -3.1334  -2.9203  -2.8780  -2.4055  -2.0953  -1.7373  -1.6890   0.2229
     1.4829   4.4381   6.5097   7.6914   7.7665   9.2577

          k = 0.3000-0.1010 0.0000 (  9159 PWs)   bands (ev):

   -16.6091 -15.3242 -13.4358 -11.2619 -11.0999 -10.0571  -9.0085  -8.5881
    -7.7542  -6.4721  -5.7039  -5.4807  -5.1061  -4.2560  -3.8561  -3.6846
    -3.4258  -3.3696  -2.9457  -2.6703  -1.9971  -1.7524  -0.7972  -0.0179
     1.7441   4.2394   6.7874   8.1392   8.2569   9.3260

          k = 0.3000-0.2020 0.0000 (  9138 PWs)   bands (ev):

   -16.0643 -14.8024 -12.9941 -12.4985 -11.5992 -10.8706  -8.6745  -8.5349
    -7.8661  -6.8831  -6.0445  -5.4867  -5.2973  -4.8719  -4.2142  -3.9115
    -3.2587  -2.8072  -2.3917  -2.3003  -1.9212  -1.4735  -0.5369  -0.1178
     2.2872   3.7968   7.4266   9.1305   9.3241   9.8917

          k = 0.3000-0.3030 0.0000 (  9153 PWs)   bands (ev):

   -15.1728 -14.0474 -13.8662 -12.8340 -12.3042 -11.2765  -8.5840  -7.9031
    -7.8628  -6.9607  -6.7028  -5.9375  -5.5782  -5.0963  -4.8267  -4.2757
    -3.0479  -2.3525  -2.1763  -1.9355  -1.2243  -1.0192  -0.6941  -0.2360
     2.7834   3.3664   8.1758   9.6262  10.1918  10.4313

          k = 0.4000-0.0000 0.0000 (  9182 PWs)   bands (ev):

   -15.5388 -14.2652 -12.3832 -12.2079 -10.9928 -10.1291  -9.1791  -8.0759
    -7.3711  -6.9885  -5.9576  -5.0606  -4.9503  -4.5777  -4.2926  -3.9761
    -3.8831  -3.3912  -3.2151  -3.1850  -3.0639  -2.2688  -2.1965  -0.5572
     1.8785   3.6368   7.2433   7.7981   8.2665   8.9298

          k = 0.4000-0.1010 0.0000 (  9188 PWs)   bands (ev):

   -15.3620 -14.0961 -12.2366 -12.1290 -10.9416 -10.0677  -9.1022  -8.7668
    -8.2171  -7.0169  -5.7948  -5.7558  -5.2764  -5.0662  -4.5306  -3.6738
    -3.6136  -3.3400  -3.2809  -2.8642  -2.3067  -2.1799  -1.9225  -0.6533
     2.0535   3.5921   7.7165   8.0680   8.3440   9.0864

          k = 0.4000-0.2020 0.0000 (  9154 PWs)   bands (ev):

   -14.8393 -13.5995 -12.1706 -11.8121 -11.0603  -9.9730  -9.8756  -9.1003
    -8.6128  -7.3383  -7.2393  -6.3679  -6.0905  -5.5724  -4.4476  -3.8705
    -3.4575  -3.2004  -2.6702  -2.3230  -2.0790  -1.7125  -1.0018  -0.8740
     2.4627   3.4567   8.3044   8.9561   9.2820   9.6804

          k = 0.4000-0.3030 0.0000 (  9140 PWs)   bands (ev):

   -14.0034 -12.9905 -12.7794 -11.8401 -11.2063 -10.2380  -9.7403  -8.8850
    -8.6852  -8.2535  -7.9217  -7.2026  -6.1458  -5.7056  -4.8255  -4.2297
    -3.5713  -3.0679  -2.5636  -1.8356  -1.6914  -1.3032  -0.9027  -0.5870
     2.8462   3.2792   8.7728   9.8375  10.5051  10.5689

          k =-0.5000 0.0000 0.0000 (  9200 PWs)   bands (ev):

   -13.9798 -13.9798 -12.7311 -12.7311 -10.8817 -10.8817  -8.6657  -8.6657
    -6.6510  -6.6510  -5.9651  -5.9651  -4.7722  -4.7722  -4.1414  -4.1414
    -3.7453  -3.7453  -3.5937  -3.5937  -2.8391  -2.8391  -1.4684  -1.4684
     2.6862   2.6862   7.8964   7.8964   8.2628   8.2628

          k =-0.5000-0.1010 0.0000 (  9196 PWs)   bands (ev):

   -13.8199 -13.8199 -12.5808 -12.5808 -10.7539 -10.7539  -8.6280  -8.6280
    -7.4634  -7.4634  -6.9116  -6.9116  -4.6672  -4.6672  -4.1531  -4.1531
    -3.5046  -3.5046  -3.1566  -3.1566  -2.6617  -2.6617  -1.3979  -1.3979
     2.7693   2.7693   8.1193   8.1193   8.6837   8.6837

          k =-0.5000-0.2020 0.0000 (  9170 PWs)   bands (ev):

   -13.3706 -13.3706 -12.1628 -12.1628 -10.4116 -10.4116  -9.0298  -9.0298
    -8.6734  -8.6734  -7.9030  -7.9030  -5.1576  -5.1576  -4.5594  -4.5594
    -3.3793  -3.3793  -2.5799  -2.5799  -1.8473  -1.8473  -1.2390  -1.2390
     2.9425   2.9425   8.7645   8.7645   9.6660   9.6660

          k =-0.5000-0.3030 0.0000 (  9170 PWs)   bands (ev):

   -12.8136 -12.8136 -11.6604 -11.6604 -10.2227 -10.2227 -10.0065 -10.0065
    -9.2305  -9.2305  -8.3448  -8.3448  -5.5441  -5.5441  -4.6943  -4.6943
    -3.5546  -3.5546  -2.4870  -2.4870  -1.3539  -1.3539  -0.9168  -0.9168
     3.0634   3.0634   9.3295   9.3295  10.7294  10.7294

     the Fermi energy is     2.9162 ev

!    total energy              =    -138.82984411 Ry
     estimated scf accuracy    <          8.7E-11 Ry
     smearing contrib. (-TS)   =       0.00040899 Ry
     internal energy E=F+TS    =    -138.83025310 Ry

     The total energy is F=E-TS. E is the sum of the following terms:
     one-electron contribution =   -1999.38762036 Ry
     hartree contribution      =    1017.25030938 Ry
     xc contribution           =     -43.73114321 Ry
     ewald contribution        =     887.03820109 Ry

     convergence has been achieved in   8 iterations

     Forces acting on atoms (cartesian axes, Ry/au):

     atom    1 type  1   force =     0.00000000   -0.00008040    0.00017341
     atom    2 type  1   force =     0.00000000    0.00008040    0.00017341
     atom    3 type  1   force =     0.00000000    0.00001941    0.00044573
     atom    4 type  1   force =     0.00000000   -0.00001941    0.00044573
     atom    5 type  1   force =     0.00000000    0.00002180    0.00050286
     atom    6 type  1   force =     0.00000000   -0.00002180    0.00050286
     atom    7 type  1   force =    -0.00000000   -0.00004651    0.00030729
     atom    8 type  1   force =     0.00000000    0.00004651    0.00030729
     atom    9 type  1   force =     0.00000000   -0.04209450   -0.04595019
     atom   10 type  1   force =     0.00000000    0.04209450   -0.04595019
     atom   11 type  1   force =     0.00000000    0.16906752    0.04446573
     atom   12 type  1   force =    -0.00000000   -0.16906752    0.04446573
     atom   13 type  2   force =     0.00000000   -0.00000319    0.00005517
     atom   14 type  2   force =     0.00000000    0.00000319    0.00005517

     Total force =     0.001085     Total SCF correction =     0.000016
     Energy error            =      2.2E-06 Ry
     Gradient error          =      5.0E-04 Ry/Bohr

     number of scf cycles    =  11
     number of bfgs steps    =  10

     energy             old  =    -138.8298419065 Ry
     energy             new  =    -138.8298441097 Ry

     CASE: energy            _new < energy            _old

     new trust radius        =       0.0018914320 bohr
     new conv_thr            =            1.0E-10 Ry


ATOMIC_POSITIONS (angstrom)
C                0.0000000000       -0.9096104336       12.2943588137
C                1.2611249400       -1.7656395664       12.2943588137
C                0.0000000000        0.0027022176       11.0553576806
C                1.2611249400       -2.6779522176       11.0553576806
C                0.0000000000       -0.8924592459        9.7865953064
C                1.2611249400       -1.7827907541        9.7865953064
C               -0.0000000000        0.0056798127        8.5240699181
C                1.2611249400       -2.6809298127        8.5240699181
C                0.0000000000       -0.8917500000        7.2611249400    0   0   0
C                1.2611249400       -1.7835000000        7.2611249400    0   0   0
C                0.0000000000        0.0000000000        6.0000000000    0   0   0
C                1.2611249400       -2.6752500000        6.0000000000    0   0   0
H                0.0000000000       -0.3086852024       13.2143429387
H                1.2611249400       -2.3665647976       13.2143429387



     Writing config-only to output data dir ./tmp/slab.save/ :
     XML data file
     NEW-OLD atomic charge density approx. for the potential

     total cpu time spent up to now is      293.0 secs

     Self-consistent Calculation

     iteration #  1     ecut=    60.00 Ry     beta= 0.30
     Davidson diagonalization with overlap
     ethr =  1.00E-06,  avg # of iterations =  2.0

     Threshold (ethr) on eigenvalues was too large:
     Diagonalizing with lowered threshold

     Davidson diagonalization with overlap
     ethr =  1.66E-08,  avg # of iterations =  3.8

     total cpu time spent up to now is      299.0 secs

     total energy              =    -138.82984251 Ry
     estimated scf accuracy    <       0.00001654 Ry

     iteration #  2     ecut=    60.00 Ry     beta= 0.30
     Davidson diagonalization with overlap
     ethr =  3.31E-08,  avg # of iterations =  2.7

     total cpu time spent up to now is      301.9 secs

     total energy              =    -138.82984596 Ry
     estimated scf accuracy    <       0.00000156 Ry

     iteration #  3     ecut=    60.00 Ry     beta= 0.30
     Davidson diagonalization with overlap
     ethr =  3.13E-09,  avg # of iterations =  2.0

     total cpu time spent up to now is      304.5 secs

     total energy              =    -138.82984621 Ry
     estimated scf accuracy    <       0.00000023 Ry

     iteration #  4     ecut=    60.00 Ry     beta= 0.30
     Davidson diagonalization with overlap
     ethr =  4.54E-10,  avg # of iterations =  2.2

     total cpu time spent up to now is      307.0 secs

     total energy              =    -138.82984625 Ry
     estimated scf accuracy    <       0.00000008 Ry

     iteration #  5     ecut=    60.00 Ry     beta= 0.30
     Davidson diagonalization with overlap
     ethr =  1.61E-10,  avg # of iterations =  2.0

     total cpu time spent up to now is      309.5 secs

     total energy              =    -138.82984627 Ry
     estimated scf accuracy    <       0.00000001 Ry

     iteration #  6     ecut=    60.00 Ry     beta= 0.30
     Davidson diagonalization with overlap
     ethr =  2.22E-11,  avg # of iterations =  2.0

     total cpu time spent up to now is      312.1 secs

     total energy              =    -138.82984627 Ry
     estimated scf accuracy    <          2.1E-09 Ry

     iteration #  7     ecut=    60.00 Ry     beta= 0.30
     Davidson diagonalization with overlap
     ethr =  4.20E-12,  avg # of iterations =  2.5

     total cpu time spent up to now is      315.0 secs

     total energy              =    -138.82984627 Ry
     estimated scf accuracy    <          2.4E-10 Ry

     iteration #  8     ecut=    60.00 Ry     beta= 0.30
     Davidson diagonalization with overlap
     ethr =  4.82E-13,  avg # of iterations =  3.0

     total cpu time spent up to now is      318.2 secs

     total energy              =    -138.82984627 Ry
     estimated scf accuracy    <          1.1E-10 Ry

     iteration #  9     ecut=    60.00 Ry     beta= 0.30
     Davidson diagonalization with overlap
     ethr =  2.20E-13,  avg # of iterations =  2.0

     total cpu time spent up to now is      320.8 secs

     End of self-consistent calculation

          k = 0.0000-0.0000 0.0000 (  9127 PWs)   bands (ev):

   -18.4358 -17.1249 -15.1840 -12.8464 -10.6769  -9.9328  -9.7426  -8.5696
    -6.7919  -6.7441  -5.7381  -4.9495  -4.4164  -3.6574  -3.4227  -2.4061
    -1.9339  -1.7290  -1.0164   0.3844   0.4512   1.0451   1.7053   2.3663
     2.5620   4.9787   4.9983   7.3012   7.7626   8.1006

          k = 0.0000-0.1010 0.0000 (  9121 PWs)   bands (ev):

   -18.2481 -16.9428 -15.0192 -12.7783 -12.0087 -11.1885  -8.9513  -8.1229
    -7.6069  -5.9629  -5.6164  -4.8044  -3.8546  -3.4395  -3.2481  -2.2593
    -2.0794  -1.3338  -0.9335   0.3898   0.4186   0.8785   1.3838   1.8747
     2.6389   4.5598   5.1906   7.4531   7.8568   8.3315

          k = 0.0000-0.2020 0.0000 (  9137 PWs)   bands (ev):

   -17.6874 -16.4018 -14.5498 -13.8686 -12.9930 -12.3101  -9.5247  -8.6861
    -7.1880  -6.1545  -4.7237  -4.0434  -3.1283  -2.7319  -2.7269  -1.8333
    -1.5016  -1.1020  -0.7140   0.1556   0.2284   0.4237   0.7994   1.0483
     2.5696   3.8209   5.7899   7.7258   8.4474   8.5815

          k = 0.0000-0.3030 0.0000 (  9120 PWs)   bands (ev):

   -16.7629 -15.5960 -15.4006 -14.3276 -13.8002 -12.7504  -9.8443  -9.1500
    -7.2826  -6.4074  -4.3871  -3.4378  -2.2899  -1.9006  -1.5890  -1.1888
    -1.0609  -0.7932  -0.5283  -0.4849  -0.3820  -0.2244   0.1686   0.5294
     2.6039   3.2417   6.6720   7.8203   8.1863   8.9986

          k = 0.1000-0.0000 0.0000 (  9133 PWs)   bands (ev):

   -18.2512 -16.9427 -15.0053 -12.6733 -10.5122  -9.7707  -9.6840  -8.5195
    -6.7072  -6.6333  -5.5899  -4.8099  -4.3991  -4.2654  -3.5484  -3.2154
    -1.8904  -1.7994  -1.7338  -0.3123   0.2503   0.8782   0.9884   1.5004
     2.2413   5.0434   5.1402   7.5146   8.1090   8.6057

          k = 0.1000-0.1010 0.0000 (  9113 PWs)   bands (ev):

   -18.0639 -16.7611 -14.8413 -12.6072 -11.8587 -11.0334  -8.8298  -8.0186
    -7.5518  -5.8881  -5.5341  -4.7522  -4.0226  -3.8382  -3.3639  -2.9908
    -2.0611  -1.6614  -1.3887  -0.3812   0.1799   0.4055   0.8275   1.1446
     2.5117   4.6433   5.3736   7.7417   8.4824   8.7539

          k = 0.1000-0.2020 0.0000 (  9112 PWs)   bands (ev):

   -17.5046 -16.2218 -14.3746 -13.7026 -12.8298 -12.1441  -9.3745  -8.5340
    -7.0645  -6.0916  -4.8611  -4.0531  -3.5194  -3.2624  -2.6923  -2.1717
    -1.8271  -1.2961  -1.0618  -0.8572  -0.6884  -0.1447   0.5111   1.0507
     2.5547   3.9522   6.0027   8.2902   8.9359   9.0352

          k = 0.1000-0.3030 0.0000 (  9124 PWs)   bands (ev):

   -16.5830 -15.4197 -15.2255 -14.1565 -13.6310 -12.5832  -9.6824  -8.9914
    -7.1415  -6.2710  -4.3801  -3.4409  -3.2059  -2.4646  -2.1485  -1.7564
    -1.5231  -1.3645  -1.1866  -0.8514  -0.7133  -0.1004   0.0688   0.3239
     2.7271   3.3065   6.9324   8.2151   8.8354   9.4870

          k = 0.2000-0.0000 0.0000 (  9130 PWs)   bands (ev):

   -17.6996 -16.3981 -14.4717 -12.1562 -10.0198  -9.6993  -9.2859  -8.5511
    -6.7651  -6.1707  -5.8396  -5.1649  -4.7508  -4.4939  -4.4097  -3.2982
    -3.2592  -1.9212  -1.8562  -1.8305  -0.8203  -0.3829  -0.3270   0.7397
     1.6540   4.9096   5.6663   7.7909   8.1524   8.3814

          k = 0.2000-0.1010 0.0000 (  9140 PWs)   bands (ev):

   -17.5138 -16.2184 -14.3103 -12.0967 -11.4455 -10.5882  -8.5789  -7.9471
    -7.5408  -6.0065  -5.5872  -5.1275  -4.7272  -4.1839  -3.8299  -3.1985
    -2.8229  -2.1936  -1.9234  -1.7644  -1.5207  -0.7492   0.2751   0.4061
     2.0207   4.5797   5.9191   8.3236   8.5115   8.7329

          k = 0.2000-0.2020 0.0000 (  9135 PWs)   bands (ev):

   -16.9593 -15.6849 -13.8520 -13.2180 -12.3485 -11.6528  -8.9600  -8.1208
    -6.9286  -6.5156  -5.4683  -4.8776  -4.0707  -3.5914  -3.2922  -3.0604
    -2.4419  -2.3045  -2.1405  -2.0884  -1.4608  -1.0134  -0.0320   0.6358
     2.4234   3.9613   6.5757   9.0774   9.5590   9.5956

          k = 0.2000-0.3030 0.0000 (  9150 PWs)   bands (ev):

   -16.0470 -14.8957 -14.7055 -13.6493 -13.1272 -12.0859  -9.2185  -8.5351
    -6.7844  -5.9721  -5.5667  -4.5057  -4.4108  -3.6924  -3.4425  -3.1221
    -2.7162  -2.4095  -1.5329  -1.1048  -0.9787  -0.9373  -0.0867   0.0776
     2.8081   3.3591   7.4954   8.8894   9.9831  10.3525

          k = 0.3000-0.0000 0.0000 (  9160 PWs)   bands (ev):

   -16.7889 -15.4995 -13.5915 -11.3028 -10.5234  -9.3540  -9.2046  -8.4828
    -7.5680  -6.5332  -5.4990  -5.4505  -5.3371  -4.5348  -4.1235  -3.8238
    -3.1333  -2.9203  -2.8770  -2.4042  -2.0946  -1.7372  -1.6865   0.2222
     1.4827   4.4377   6.5102   7.6910   7.7670   9.2575

          k = 0.3000-0.1010 0.0000 (  9159 PWs)   bands (ev):

   -16.6060 -15.3233 -13.4349 -11.2615 -11.0967 -10.0566  -9.0062  -8.5876
    -7.7532  -6.4706  -5.7030  -5.4796  -5.1049  -4.2549  -3.8542  -3.6834
    -3.4255  -3.3689  -2.9446  -2.6701  -1.9971  -1.7518  -0.7957  -0.0187
     1.7439   4.2390   6.7878   8.1394   8.2569   9.3262

          k = 0.3000-0.2020 0.0000 (  9138 PWs)   bands (ev):

   -16.0612 -14.8015 -12.9933 -12.4955 -11.5985 -10.8703  -8.6718  -8.5337
    -7.8654  -6.8819  -6.0445  -5.4853  -5.2948  -4.8719  -4.2140  -3.9111
    -3.2580  -2.8055  -2.3906  -2.2989  -1.9213  -1.4734  -0.5373  -0.1171
     2.2870   3.7964   7.4269   9.1308   9.3245   9.8916

          k = 0.3000-0.3030 0.0000 (  9153 PWs)   bands (ev):

   -15.1697 -14.0453 -13.8643 -12.8332 -12.3034 -11.2761  -8.5831  -7.9018
    -7.8598  -6.9601  -6.7001  -5.9370  -5.5782  -5.0951  -4.8265  -4.2752
    -3.0483  -2.3527  -2.1750  -1.9343  -1.2232  -1.0191  -0.6941  -0.2352
     2.7832   3.3661   8.1762   9.6261  10.1919  10.4317

          k = 0.4000-0.0000 0.0000 (  9182 PWs)   bands (ev):

   -15.5356 -14.2642 -12.3823 -12.2046 -10.9918 -10.1288  -9.1782  -8.0757
    -7.3701  -6.9881  -5.9542  -5.0597  -4.9499  -4.5762  -4.2915  -3.9748
    -3.8812  -3.3887  -3.2141  -3.1846  -3.0630  -2.2685  -2.1970  -0.5580
     1.8782   3.6364   7.2438   7.7986   8.2663   8.9303

          k = 0.4000-0.1010 0.0000 (  9188 PWs)   bands (ev):

   -15.3588 -14.0952 -12.2357 -12.1257 -10.9406 -10.0673  -9.1013  -8.7645
    -8.2170  -7.0164  -5.7933  -5.7538  -5.2761  -5.0644  -4.5296  -3.6734
    -3.6115  -3.3383  -3.2800  -2.8642  -2.3067  -2.1783  -1.9223  -0.6541
     2.0533   3.5917   7.7171   8.0686   8.3440   9.0860

          k = 0.4000-0.2020 0.0000 (  9154 PWs)   bands (ev):

   -14.8362 -13.5985 -12.1674 -11.8113 -11.0594  -9.9725  -9.8729  -9.0996
    -8.6122  -7.3356  -7.2384  -6.3675  -6.0894  -5.5713  -4.4471  -3.8704
    -3.4562  -3.1997  -2.6699  -2.3214  -2.0787  -1.7128  -1.0006  -0.8747
     2.4624   3.4564   8.3049   8.9567   9.2826   9.6804

          k = 0.4000-0.3030 0.0000 (  9140 PWs)   bands (ev):

   -14.0003 -12.9876 -12.7781 -11.8392 -11.2055 -10.2375  -9.7373  -8.8838
    -8.6828  -8.2527  -7.9208  -7.2020  -6.1447  -5.7045  -4.8254  -4.2298
    -3.5702  -3.0670  -2.5640  -1.8355  -1.6919  -1.3022  -0.9030  -0.5861
     2.8460   3.2788   8.7736   9.8378  10.5060  10.5684

          k =-0.5000 0.0000 0.0000 (  9200 PWs)   bands (ev):

   -13.9766 -13.9766 -12.7301 -12.7301 -10.8808 -10.8808  -8.6654  -8.6654
    -6.6508  -6.6508  -5.9640  -5.9640  -4.7688  -4.7688  -4.1399  -4.1399
    -3.7439  -3.7439  -3.5928  -3.5928  -2.8389  -2.8389  -1.4692  -1.4692
     2.6859   2.6859   7.8968   7.8968   8.2632   8.2632

          k =-0.5000-0.1010 0.0000 (  9196 PWs)   bands (ev):

   -13.8167 -13.8167 -12.5798 -12.5798 -10.7530 -10.7530  -8.6276  -8.6276
    -7.4610  -7.4610  -6.9115  -6.9115  -4.6660  -4.6660  -4.1513  -4.1513
    -3.5034  -3.5034  -3.1557  -3.1557  -2.6610  -2.6610  -1.3986  -1.3986
     2.7690   2.7690   8.1197   8.1197   8.6842   8.6842

          k =-0.5000-0.2020 0.0000 (  9170 PWs)   bands (ev):

   -13.3674 -13.3674 -12.1619 -12.1619 -10.4108 -10.4108  -9.0270  -9.0270
    -8.6728  -8.6728  -7.9027  -7.9027  -5.1564  -5.1564  -4.5581  -4.5581
    -3.3793  -3.3793  -2.5799  -2.5799  -1.8458  -1.8458  -1.2394  -1.2394
     2.9422   2.9422   8.7652   8.7652   9.6664   9.6664

          k =-0.5000-0.3030 0.0000 (  9170 PWs)   bands (ev):

   -12.8104 -12.8104 -11.6594 -11.6594 -10.2201 -10.2201 -10.0054 -10.0054
    -9.2298  -9.2298  -8.3446  -8.3446  -5.5429  -5.5429  -4.6929  -4.6929
    -3.5551  -3.5551  -2.4871  -2.4871  -1.3541  -1.3541  -0.9161  -0.9161
     3.0631   3.0631   9.3305   9.3305  10.7285  10.7285

     the Fermi energy is     2.9159 ev

!    total energy              =    -138.82984627 Ry
     estimated scf accuracy    <          9.6E-12 Ry
     smearing contrib. (-TS)   =       0.00040885 Ry
     internal energy E=F+TS    =    -138.83025512 Ry

     The total energy is F=E-TS. E is the sum of the following terms:
     one-electron contribution =   -1998.91001734 Ry
     hartree contribution      =    1017.01255820 Ry
     xc contribution           =     -43.73001234 Ry
     ewald contribution        =     886.79721637 Ry

     convergence has been achieved in   9 iterations

     Forces acting on atoms (cartesian axes, Ry/au):

     atom    1 type  1   force =     0.00000000   -0.00025244   -0.00006045
     atom    2 type  1   force =     0.00000000    0.00025244   -0.00006045
     atom    3 type  1   force =     0.00000000    0.00009414    0.00017477
     atom    4 type  1   force =     0.00000000   -0.00009414    0.00017477
     atom    5 type  1   force =     0.00000000   -0.00012501    0.00058502
     atom    6 type  1   force =     0.00000000    0.00012501    0.00058502
     atom    7 type  1   force =     0.00000000    0.00005910    0.00056977
     atom    8 type  1   force =     0.00000000   -0.00005910    0.00056977
     atom    9 type  1   force =     0.00000000   -0.04212631   -0.04590258
     atom   10 type  1   force =     0.00000000    0.04212631   -0.04590258
     atom   11 type  1   force =     0.00000000    0.16906049    0.04446767
     atom   12 type  1   force =    -0.00000000   -0.16906049    0.04446767
     atom   13 type  2   force =     0.00000000    0.00007936    0.00016581
     atom   14 type  2   force =     0.00000000   -0.00007936    0.00016581

     Total force =     0.001286     Total SCF correction =     0.000009
     Energy error            =      2.2E-06 Ry
     Gradient error          =      5.9E-04 Ry/Bohr

     number of scf cycles    =  12
     number of bfgs steps    =  11

     energy             old  =    -138.8298441097 Ry
     energy             new  =    -138.8298462676 Ry

     CASE: energy            _new < energy            _old

     new trust radius        =       0.0020805753 bohr
     new conv_thr            =            1.0E-10 Ry


ATOMIC_POSITIONS (angstrom)
C                0.0000000000       -0.9096074250       12.2954598026
C                1.2611249400       -1.7656425750       12.2954598026
C                0.0000000000        0.0026994706       11.0564249513
C                1.2611249400       -2.6779494706       11.0564249513
C                0.0000000000       -0.8924180310        9.7873067165
C                1.2611249400       -1.7828319690        9.7873067165
C               -0.0000000000        0.0056442149        8.5243727783
C                1.2611249400       -2.6808942149        8.5243727783
C                0.0000000000       -0.8917500000        7.2611249400    0   0   0
C                1.2611249400       -1.7835000000        7.2611249400    0   0   0
C                0.0000000000        0.0000000000        6.0000000000    0   0   0
C                1.2611249400       -2.6752500000        6.0000000000    0   0   0
H                0.0000000000       -0.3087390263       13.2153671366
H                1.2611249400       -2.3665109737       13.2153671366



     Writing config-only to output data dir ./tmp/slab.save/ :
     XML data file
     NEW-OLD atomic charge density approx. for the potential

     total cpu time spent up to now is      321.1 secs

     Self-consistent Calculation

     iteration #  1     ecut=    60.00 Ry     beta= 0.30
     Davidson diagonalization with overlap
     ethr =  1.00E-06,  avg # of iterations =  2.5

     Threshold (ethr) on eigenvalues was too large:
     Diagonalizing with lowered threshold

     Davidson diagonalization with overlap
     ethr =  2.73E-08,  avg # of iterations =  3.2

     total cpu time spent up to now is      327.1 secs

     total energy              =    -138.82984323 Ry
     estimated scf accuracy    <       0.00002424 Ry

     iteration #  2     ecut=    60.00 Ry     beta= 0.30
     Davidson diagonalization with overlap
     ethr =  4.85E-08,  avg # of iterations =  2.6

     total cpu time spent up to now is      329.9 secs

     total energy              =    -138.82984827 Ry
     estimated scf accuracy    <       0.00000178 Ry

     iteration #  3     ecut=    60.00 Ry     beta= 0.30
     Davidson diagonalization with overlap
     ethr =  3.56E-09,  avg # of iterations =  2.0

     total cpu time spent up to now is      332.5 secs

     total energy              =    -138.82984853 Ry
     estimated scf accuracy    <       0.00000034 Ry

     iteration #  4     ecut=    60.00 Ry     beta= 0.30
     Davidson diagonalization with overlap
     ethr =  6.72E-10,  avg # of iterations =  2.4

     total cpu time spent up to now is      335.1 secs

     total energy              =    -138.82984859 Ry
     estimated scf accuracy    <       0.00000011 Ry

     iteration #  5     ecut=    60.00 Ry     beta= 0.30
     Davidson diagonalization with overlap
     ethr =  2.28E-10,  avg # of iterations =  2.0

     total cpu time spent up to now is      337.6 secs

     total energy              =    -138.82984861 Ry
     estimated scf accuracy    <       0.00000002 Ry

     iteration #  6     ecut=    60.00 Ry     beta= 0.30
     Davidson diagonalization with overlap
     ethr =  3.52E-11,  avg # of iterations =  2.1

     total cpu time spent up to now is      340.3 secs

     total energy              =    -138.82984861 Ry
     estimated scf accuracy    <          2.9E-09 Ry

     iteration #  7     ecut=    60.00 Ry     beta= 0.30
     Davidson diagonalization with overlap
     ethr =  5.85E-12,  avg # of iterations =  2.2

     total cpu time spent up to now is      343.1 secs

     total energy              =    -138.82984861 Ry
     estimated scf accuracy    <          2.6E-10 Ry

     iteration #  8     ecut=    60.00 Ry     beta= 0.30
     Davidson diagonalization with overlap
     ethr =  5.13E-13,  avg # of iterations =  3.0

     total cpu time spent up to now is      346.2 secs

     End of self-consistent calculation

          k = 0.0000-0.0000 0.0000 (  9127 PWs)   bands (ev):

   -18.4325 -17.1237 -15.1833 -12.8463 -10.6771  -9.9316  -9.7385  -8.5678
    -6.7906  -6.7429  -5.7365  -4.9492  -4.4156  -3.6574  -3.4198  -2.4050
    -1.9335  -1.7287  -1.0158   0.3848   0.4516   1.0449   1.7055   2.3665
     2.5625   4.9787   4.9977   7.3008   7.7651   8.1006

          k = 0.0000-0.1010 0.0000 (  9121 PWs)   bands (ev):

   -18.2449 -16.9416 -15.0185 -12.7782 -12.0060 -11.1880  -8.9504  -8.1209
    -7.6053  -5.9624  -5.6151  -4.8033  -3.8535  -3.4396  -3.2452  -2.2582
    -2.0790  -1.3333  -0.9328   0.3903   0.4185   0.8794   1.3843   1.8751
     2.6393   4.5594   5.1906   7.4529   7.8583   8.3315

          k = 0.0000-0.2020 0.0000 (  9137 PWs)   bands (ev):

   -17.6842 -16.4005 -14.5492 -13.8656 -12.9924 -12.3097  -9.5235  -8.6849
    -7.1878  -6.1545  -4.7226  -4.0430  -3.1270  -2.7291  -2.7262  -1.8322
    -1.5006  -1.1018  -0.7133   0.1562   0.2295   0.4252   0.8011   1.0484
     2.5693   3.8210   5.7898   7.7257   8.4478   8.5807

          k = 0.0000-0.3030 0.0000 (  9120 PWs)   bands (ev):

   -16.7597 -15.5941 -15.3982 -14.3265 -13.7996 -12.7501  -9.8431  -9.1486
    -7.2828  -6.4077  -4.3875  -3.4384  -2.2884  -1.8980  -1.5887  -1.1877
    -1.0593  -0.7912  -0.5265  -0.4840  -0.3812  -0.2215   0.1698   0.5293
     2.6036   3.2417   6.6720   7.8199   8.1857   8.9980

          k = 0.1000-0.0000 0.0000 (  9133 PWs)   bands (ev):

   -18.2480 -16.9414 -15.0047 -12.6732 -10.5124  -9.7696  -9.6799  -8.5177
    -6.7059  -6.6319  -5.5883  -4.8096  -4.3983  -4.2625  -3.5485  -3.2143
    -1.8900  -1.7988  -1.7335  -0.3118   0.2510   0.8784   0.9884   1.5006
     2.2420   5.0428   5.1403   7.5143   8.1095   8.6049

          k = 0.1000-0.1010 0.0000 (  9113 PWs)   bands (ev):

   -18.0607 -16.7598 -14.8406 -12.6071 -11.8559 -11.0328  -8.8289  -8.0166
    -7.5502  -5.8876  -5.5328  -4.7511  -4.0198  -3.8370  -3.3640  -2.9898
    -2.0607  -1.6607  -1.3881  -0.3807   0.1813   0.4054   0.8277   1.1449
     2.5120   4.6428   5.3736   7.7413   8.4826   8.7538

          k = 0.1000-0.2020 0.0000 (  9112 PWs)   bands (ev):

   -17.5014 -16.2205 -14.3739 -13.6996 -12.8291 -12.1437  -9.3733  -8.5328
    -7.0643  -6.0913  -4.8595  -4.0527  -3.5180  -3.2606  -2.6913  -2.1706
    -1.8264  -1.2954  -1.0609  -0.8553  -0.6877  -0.1442   0.5114   1.0516
     2.5544   3.9522   6.0026   8.2895   8.9356   9.0348

          k = 0.1000-0.3030 0.0000 (  9124 PWs)   bands (ev):

   -16.5798 -15.4178 -15.2230 -14.1554 -13.6305 -12.5830  -9.6812  -8.9901
    -7.1417  -6.2713  -4.3799  -3.4404  -3.2045  -2.4634  -2.1461  -1.7560
    -1.5219  -1.3637  -1.1858  -0.8500  -0.7117  -0.0997   0.0705   0.3247
     2.7268   3.3065   6.9324   8.2148   8.8343   9.4862

          k = 0.2000-0.0000 0.0000 (  9130 PWs)   bands (ev):

   -17.6964 -16.3968 -14.4711 -12.1561 -10.0200  -9.6952  -9.2848  -8.5493
    -6.7639  -6.1693  -5.8367  -5.1633  -4.7497  -4.4931  -4.4094  -3.2976
    -3.2592  -1.9210  -1.8556  -1.8301  -0.8198  -0.3812  -0.3267   0.7395
     1.6544   4.9091   5.6664   7.7909   8.1521   8.3815

          k = 0.2000-0.1010 0.0000 (  9140 PWs)   bands (ev):

   -17.5106 -16.2171 -14.3097 -12.0966 -11.4426 -10.5876  -8.5779  -7.9445
    -7.5394  -6.0055  -5.5858  -5.1262  -4.7259  -4.1830  -3.8287  -3.1987
    -2.8221  -2.1931  -1.9231  -1.7627  -1.5196  -0.7491   0.2755   0.4062
     2.0208   4.5792   5.9192   8.3237   8.5107   8.7334

          k = 0.2000-0.2020 0.0000 (  9135 PWs)   bands (ev):

   -16.9561 -15.6836 -13.8514 -13.2149 -12.3478 -11.6524  -8.9588  -8.1195
    -6.9271  -6.5145  -5.4677  -4.8767  -4.0703  -3.5908  -3.2912  -3.0580
    -2.4413  -2.3034  -2.1389  -2.0883  -1.4597  -1.0135  -0.0317   0.6364
     2.4233   3.9610   6.5758   9.0770   9.5587   9.5954

          k = 0.2000-0.3030 0.0000 (  9150 PWs)   bands (ev):

   -16.0438 -14.8937 -14.7032 -13.6482 -13.1267 -12.0857  -9.2173  -8.5337
    -6.7845  -5.9716  -5.5646  -4.5034  -4.4096  -3.6920  -3.4417  -3.1217
    -2.7163  -2.4092  -1.5327  -1.1030  -0.9777  -0.9361  -0.0861   0.0787
     2.8079   3.3590   7.4955   8.8892   9.9814  10.3520

          k = 0.3000-0.0000 0.0000 (  9160 PWs)   bands (ev):

   -16.7856 -15.4982 -13.5909 -11.3027 -10.5196  -9.3524  -9.2047  -8.4818
    -7.5669  -6.5300  -5.4976  -5.4491  -5.3368  -4.5330  -4.1226  -3.8232
    -3.1333  -2.9200  -2.8762  -2.4033  -2.0940  -1.7368  -1.6840   0.2220
     1.4825   4.4373   6.5105   7.6906   7.7673   9.2573

          k = 0.3000-0.1010 0.0000 (  9159 PWs)   bands (ev):

   -16.6027 -15.3220 -13.4343 -11.2613 -11.0934 -10.0556  -9.0044  -8.5866
    -7.7520  -6.4693  -5.7018  -5.4786  -5.1036  -4.2541  -3.8526  -3.6821
    -3.4246  -3.3681  -2.9435  -2.6699  -1.9967  -1.7513  -0.7944  -0.0189
     1.7437   4.2385   6.7881   8.1396   8.2567   9.3263

          k = 0.3000-0.2020 0.0000 (  9138 PWs)   bands (ev):

   -16.0580 -14.8002 -12.9926 -12.4923 -11.5977 -10.8699  -8.6694  -8.5322
    -7.8642  -6.8808  -6.0442  -5.4842  -5.2925  -4.8715  -4.2138  -3.9108
    -3.2574  -2.8043  -2.3889  -2.2974  -1.9214  -1.4731  -0.5374  -0.1166
     2.2869   3.7959   7.4271   9.1311   9.3248   9.8916

          k = 0.3000-0.3030 0.0000 (  9153 PWs)   bands (ev):

   -15.1665 -14.0432 -13.8621 -12.8320 -12.3028 -11.2758  -8.5821  -7.9004
    -7.8570  -6.9593  -6.6975  -5.9362  -5.5781  -5.0944  -4.8261  -4.2748
    -3.0486  -2.3528  -2.1736  -1.9331  -1.2221  -1.0190  -0.6939  -0.2345
     2.7832   3.3657   8.1765   9.6259  10.1920  10.4319

          k = 0.4000-0.0000 0.0000 (  9182 PWs)   bands (ev):

   -15.5323 -14.2629 -12.3817 -12.2011 -10.9903 -10.1286  -9.1774  -8.0758
    -7.3691  -6.9877  -5.9508  -5.0585  -4.9497  -4.5748  -4.2905  -3.9736
    -3.8791  -3.3858  -3.2131  -3.1835  -3.0622  -2.2678  -2.1976  -0.5582
     1.8779   3.6360   7.2442   7.7988   8.2662   8.9308

          k = 0.4000-0.1010 0.0000 (  9188 PWs)   bands (ev):

   -15.3556 -14.0938 -12.2350 -12.1223 -10.9392 -10.0671  -9.1005  -8.7626
    -8.2166  -7.0160  -5.7920  -5.7521  -5.2754  -5.0627  -4.5281  -3.6730
    -3.6099  -3.3362  -3.2789  -2.8638  -2.3064  -2.1770  -1.9223  -0.6543
     2.0530   3.5913   7.7176   8.0689   8.3440   9.0854

          k = 0.4000-0.2020 0.0000 (  9154 PWs)   bands (ev):

   -14.8329 -13.5972 -12.1640 -11.8105 -11.0581  -9.9722  -9.8704  -9.0989
    -8.6115  -7.3334  -7.2374  -6.3668  -6.0886  -5.5703  -4.4465  -3.8699
    -3.4546  -3.1990  -2.6695  -2.3198  -2.0783  -1.7130  -0.9998  -0.8752
     2.4623   3.4559   8.3053   8.9572   9.2831   9.6807

          k = 0.4000-0.3030 0.0000 (  9140 PWs)   bands (ev):

   -13.9970 -12.9847 -12.7765 -11.8379 -11.2048 -10.2371  -9.7346  -8.8826
    -8.6804  -8.2520  -7.9198  -7.2013  -6.1438  -5.7036  -4.8248  -4.2294
    -3.5690  -3.0658  -2.5643  -1.8355  -1.6919  -1.3014  -0.9032  -0.5856
     2.8459   3.2783   8.7742   9.8381  10.5065  10.5684

          k =-0.5000 0.0000 0.0000 (  9200 PWs)   bands (ev):

   -13.9732 -13.9732 -12.7287 -12.7287 -10.8801 -10.8801  -8.6651  -8.6651
    -6.6508  -6.6508  -5.9630  -5.9630  -4.7653  -4.7653  -4.1380  -4.1380
    -3.7422  -3.7422  -3.5921  -3.5921  -2.8383  -2.8383  -1.4696  -1.4696
     2.6855   2.6855   7.8970   7.8970   8.2636   8.2636

          k =-0.5000-0.1010 0.0000 (  9196 PWs)   bands (ev):

   -13.8134 -13.8134 -12.5785 -12.5785 -10.7523 -10.7523  -8.6274  -8.6274
    -7.4591  -7.4591  -6.9110  -6.9110  -4.6648  -4.6648  -4.1493  -4.1493
    -3.5016  -3.5016  -3.1549  -3.1549  -2.6603  -2.6603  -1.3989  -1.3989
     2.7686   2.7686   8.1201   8.1201   8.6844   8.6844

          k =-0.5000-0.2020 0.0000 (  9170 PWs)   bands (ev):

   -13.3641 -13.3641 -12.1605 -12.1605 -10.4100 -10.4100  -9.0245  -9.0245
    -8.6724  -8.6724  -7.9022  -7.9022  -5.1553  -5.1553  -4.5566  -4.5566
    -3.3787  -3.3787  -2.5799  -2.5799  -1.8447  -1.8447  -1.2395  -1.2395
     2.9419   2.9419   8.7658   8.7658   9.6668   9.6668

          k =-0.5000-0.3030 0.0000 (  9170 PWs)   bands (ev):

   -12.8070 -12.8070 -11.6580 -11.6580 -10.2177 -10.2177 -10.0043 -10.0043
    -9.2290  -9.2290  -8.3444  -8.3444  -5.5416  -5.5416  -4.6914  -4.6914
    -3.5550  -3.5550  -2.4871  -2.4871  -1.3542  -1.3542  -0.9157  -0.9157
     3.0627   3.0627   9.3313   9.3313  10.7272  10.7272

     the Fermi energy is     2.9157 ev

!    total energy              =    -138.82984861 Ry
     estimated scf accuracy    <          5.0E-11 Ry
     smearing contrib. (-TS)   =       0.00040860 Ry
     internal energy E=F+TS    =    -138.83025721 Ry

     The total energy is F=E-TS. E is the sum of the following terms:
     one-electron contribution =   -1998.37263028 Ry
     hartree contribution      =    1016.74486396 Ry
     xc contribution           =     -43.72872627 Ry
     ewald contribution        =     886.52623538 Ry

     convergence has been achieved in   8 iterations

     Forces acting on atoms (cartesian axes, Ry/au):

     atom    1 type  1   force =     0.00000000   -0.00033080   -0.00021250
     atom    2 type  1   force =     0.00000000    0.00033080   -0.00021250
     atom    3 type  1   force =     0.00000000    0.00008405   -0.00006180
     atom    4 type  1   force =     0.00000000   -0.00008405   -0.00006180
     atom    5 type  1   force =     0.00000000   -0.00015698    0.00053062
     atom    6 type  1   force =     0.00000000    0.00015698    0.00053062
     atom    7 type  1   force =     0.00000000    0.00007601    0.00067776
     atom    8 type  1   force =     0.00000000   -0.00007601    0.00067776
     atom    9 type  1   force =     0.00000000   -0.04210536   -0.04569155
     atom   10 type  1   force =     0.00000000    0.04210536   -0.04569155
     atom   11 type  1   force =     0.00000000    0.16904624    0.04450325
     atom   12 type  1   force =     0.00000000   -0.16904624    0.04450325
     atom   13 type  2   force =     0.00000000    0.00015392    0.00025423
     atom   14 type  2   force =     0.00000000   -0.00015392    0.00025423

     Total force =     0.001432     Total SCF correction =     0.000016
     Energy error            =      2.3E-06 Ry
     Gradient error          =      6.8E-04 Ry/Bohr

     number of scf cycles    =  13
     number of bfgs steps    =  12

     energy             old  =    -138.8298462676 Ry
     energy             new  =    -138.8298486128 Ry

     CASE: energy            _new < energy            _old

     new trust radius        =       0.0031208629 bohr
     new conv_thr            =            1.0E-10 Ry


ATOMIC_POSITIONS (angstrom)
C                0.0000000000       -0.9096425996       12.2970816811
C                1.2611249400       -1.7656074004       12.2970816811
C                0.0000000000        0.0027039492       11.0580456535
C                1.2611249400       -2.6779539492       11.0580456535
C                0.0000000000       -0.8923907057        9.7886787710
C                1.2611249400       -1.7828592943        9.7886787710
C               -0.0000000000        0.0055688004        8.5252275718
C                1.2611249400       -2.6808188004        8.5252275718
C                0.0000000000       -0.8917500000        7.2611249400    0   0   0
C                1.2611249400       -1.7835000000        7.2611249400    0   0   0
C                0.0000000000        0.0000000000        6.0000000000    0   0   0
C                1.2611249400       -2.6752500000        6.0000000000    0   0   0
H                0.0000000000       -0.3088105308       13.2170170774
H                1.2611249400       -2.3664394692       13.2170170774



     Writing config-only to output data dir ./tmp/slab.save/ :
     XML data file
     NEW-OLD atomic charge density approx. for the potential

     total cpu time spent up to now is      346.5 secs

     Self-consistent Calculation

     iteration #  1     ecut=    60.00 Ry     beta= 0.30
     Davidson diagonalization with overlap
     ethr =  1.00E-06,  avg # of iterations =  3.0

     Threshold (ethr) on eigenvalues was too large:
     Diagonalizing with lowered threshold

     Davidson diagonalization with overlap
     ethr =  9.03E-08,  avg # of iterations =  2.5

     total cpu time spent up to now is      352.6 secs

     total energy              =    -138.82983912 Ry
     estimated scf accuracy    <       0.00005887 Ry

     iteration #  2     ecut=    60.00 Ry     beta= 0.30
     Davidson diagonalization with overlap
     ethr =  1.18E-07,  avg # of iterations =  2.6

     total cpu time spent up to now is      355.4 secs

     total energy              =    -138.82985066 Ry
     estimated scf accuracy    <       0.00000323 Ry

     iteration #  3     ecut=    60.00 Ry     beta= 0.30
     Davidson diagonalization with overlap
     ethr =  6.46E-09,  avg # of iterations =  2.2

     total cpu time spent up to now is      358.1 secs

     total energy              =    -138.82985111 Ry
     estimated scf accuracy    <       0.00000082 Ry

     iteration #  4     ecut=    60.00 Ry     beta= 0.30
     Davidson diagonalization with overlap
     ethr =  1.64E-09,  avg # of iterations =  2.3

     total cpu time spent up to now is      360.6 secs

     total energy              =    -138.82985126 Ry
     estimated scf accuracy    <       0.00000026 Ry

     iteration #  5     ecut=    60.00 Ry     beta= 0.30
     Davidson diagonalization with overlap
     ethr =  5.26E-10,  avg # of iterations =  2.0

     total cpu time spent up to now is      363.1 secs

     total energy              =    -138.82985130 Ry
     estimated scf accuracy    <       0.00000005 Ry

     iteration #  6     ecut=    60.00 Ry     beta= 0.30
     Davidson diagonalization with overlap
     ethr =  9.02E-11,  avg # of iterations =  2.1

     total cpu time spent up to now is      365.9 secs

     total energy              =    -138.82985131 Ry
     estimated scf accuracy    <          7.7E-09 Ry

     iteration #  7     ecut=    60.00 Ry     beta= 0.30
     Davidson diagonalization with overlap
     ethr =  1.53E-11,  avg # of iterations =  2.0

     total cpu time spent up to now is      368.8 secs

     total energy              =    -138.82985131 Ry
     estimated scf accuracy    <          1.0E-09 Ry

     iteration #  8     ecut=    60.00 Ry     beta= 0.30
     Davidson diagonalization with overlap
     ethr =  2.08E-12,  avg # of iterations =  3.1

     total cpu time spent up to now is      371.8 secs

     total energy              =    -138.82985131 Ry
     estimated scf accuracy    <          2.0E-10 Ry

     iteration #  9     ecut=    60.00 Ry     beta= 0.30
     Davidson diagonalization with overlap
     ethr =  3.91E-13,  avg # of iterations =  2.3

     total cpu time spent up to now is      374.4 secs

     End of self-consistent calculation

          k = 0.0000-0.0000 0.0000 (  9127 PWs)   bands (ev):

   -18.4282 -17.1213 -15.1827 -12.8462 -10.6774  -9.9301  -9.7329  -8.5642
    -6.7891  -6.7412  -5.7342  -4.9481  -4.4142  -3.6573  -3.4159  -2.4032
    -1.9335  -1.7276  -1.0155   0.3850   0.4519   1.0450   1.7056   2.3664
     2.5632   4.9786   4.9965   7.3002   7.7684   8.1004

          k = 0.0000-0.1010 0.0000 (  9121 PWs)   bands (ev):

   -18.2405 -16.9392 -15.0179 -12.7781 -12.0023 -11.1868  -8.9490  -8.1185
    -7.6022  -5.9618  -5.6134  -4.8011  -3.8520  -3.4397  -3.2414  -2.2564
    -2.0781  -1.3325  -0.9325   0.3907   0.4182   0.8805   1.3847   1.8756
     2.6399   4.5586   5.1904   7.4525   7.8601   8.3313

          k = 0.0000-0.2020 0.0000 (  9137 PWs)   bands (ev):

   -17.6799 -16.3982 -14.5487 -13.8615 -12.9911 -12.3091  -9.5218  -8.6832
    -7.1869  -6.1540  -4.7212  -4.0426  -3.1251  -2.7255  -2.7252  -1.8305
    -1.4989  -1.1008  -0.7130   0.1570   0.2309   0.4268   0.8031   1.0488
     2.5689   3.8212   5.7896   7.7254   8.4481   8.5793

          k = 0.0000-0.3030 0.0000 (  9120 PWs)   bands (ev):

   -16.7555 -15.5912 -15.3946 -14.3243 -13.7992 -12.7500  -9.8413  -9.1468
    -7.2824  -6.4075  -4.3881  -3.4396  -2.2861  -1.8948  -1.5889  -1.1861
    -1.0562  -0.7887  -0.5229  -0.4833  -0.3799  -0.2181   0.1716   0.5291
     2.6029   3.2418   6.6717   7.8190   8.1848   8.9969

          k = 0.1000-0.0000 0.0000 (  9133 PWs)   bands (ev):

   -18.2436 -16.9391 -15.0040 -12.6730 -10.5126  -9.7680  -9.6743  -8.5141
    -6.7043  -6.6304  -5.5859  -4.8085  -4.3969  -4.2587  -3.5483  -3.2125
    -1.8899  -1.7984  -1.7326  -0.3116   0.2516   0.8786   0.9885   1.5007
     2.2430   5.0416   5.1402   7.5138   8.1101   8.6042

          k = 0.1000-0.1010 0.0000 (  9113 PWs)   bands (ev):

   -18.0563 -16.7574 -14.8400 -12.6070 -11.8522 -11.0316  -8.8275  -8.0140
    -7.5471  -5.8869  -5.5311  -4.7489  -4.0163  -3.8354  -3.3642  -2.9880
    -2.0598  -1.6603  -1.3872  -0.3803   0.1830   0.4054   0.8280   1.1453
     2.5125   4.6419   5.3735   7.7406   8.4825   8.7535

          k = 0.1000-0.2020 0.0000 (  9112 PWs)   bands (ev):

   -17.4971 -16.2182 -14.3734 -13.6955 -12.8279 -12.1431  -9.3716  -8.5311
    -7.0633  -6.0904  -4.8575  -4.0526  -3.5156  -3.2583  -2.6905  -2.1687
    -1.8255  -1.2941  -1.0594  -0.8531  -0.6869  -0.1434   0.5116   1.0529
     2.5540   3.9521   6.0025   8.2884   8.9350   9.0341

          k = 0.1000-0.3030 0.0000 (  9124 PWs)   bands (ev):

   -16.5755 -15.4149 -15.2195 -14.1532 -13.6300 -12.5828  -9.6795  -8.9882
    -7.1412  -6.2710  -4.3799  -3.4403  -3.2026  -2.4616  -2.1430  -1.7553
    -1.5201  -1.3628  -1.1848  -0.8477  -0.7097  -0.0988   0.0732   0.3258
     2.7262   3.3066   6.9322   8.2142   8.8326   9.4847

          k = 0.2000-0.0000 0.0000 (  9130 PWs)   bands (ev):

   -17.6920 -16.3944 -14.4704 -12.1559 -10.0202  -9.6897  -9.2833  -8.5457
    -6.7622  -6.1678  -5.8329  -5.1609  -4.7479  -4.4918  -4.4081  -3.2973
    -3.2590  -1.9204  -1.8551  -1.8294  -0.8193  -0.3793  -0.3262   0.7395
     1.6551   4.9080   5.6664   7.7909   8.1520   8.3815

          k = 0.2000-0.1010 0.0000 (  9140 PWs)   bands (ev):

   -17.5062 -16.2147 -14.3091 -12.0965 -11.4387 -10.5862  -8.5767  -7.9410
    -7.5370  -6.0043  -5.5833  -5.1240  -4.7243  -4.1818  -3.8265  -3.1990
    -2.8212  -2.1923  -1.9228  -1.7599  -1.5183  -0.7490   0.2761   0.4063
     2.0212   4.5782   5.9191   8.3238   8.5098   8.7340

          k = 0.2000-0.2020 0.0000 (  9135 PWs)   bands (ev):

   -16.9517 -15.6813 -13.8508 -13.2108 -12.3465 -11.6518  -8.9571  -8.1178
    -6.9244  -6.5126  -5.4668  -4.8749  -4.0700  -3.5902  -3.2899  -3.0549
    -2.4405  -2.3020  -2.1363  -2.0881  -1.4579  -1.0134  -0.0313   0.6373
     2.4230   3.9603   6.5757   9.0762   9.5589   9.5945

          k = 0.2000-0.3030 0.0000 (  9150 PWs)   bands (ev):

   -16.0395 -14.8908 -14.6996 -13.6460 -13.1262 -12.0855  -9.2156  -8.5318
    -6.7839  -5.9704  -5.5620  -4.5000  -4.4079  -3.6914  -3.4407  -3.1216
    -2.7167  -2.4086  -1.5326  -1.0999  -0.9772  -0.9342  -0.0846   0.0801
     2.8076   3.3586   7.4954   8.8888   9.9790  10.3517

          k = 0.3000-0.0000 0.0000 (  9160 PWs)   bands (ev):

   -16.7813 -15.4958 -13.5902 -11.3025 -10.5145  -9.3492  -9.2049  -8.4803
    -7.5657  -6.5258  -5.4952  -5.4475  -5.3361  -4.5304  -4.1218  -3.8216
    -3.1332  -2.9193  -2.8752  -2.4023  -2.0934  -1.7359  -1.6809   0.2221
     1.4823   4.4364   6.5106   7.6904   7.7672   9.2567

          k = 0.3000-0.1010 0.0000 (  9159 PWs)   bands (ev):

   -16.5984 -15.3196 -13.4337 -11.2611 -11.0888 -10.0535  -9.0024  -8.5847
    -7.7504  -6.4679  -5.6996  -5.4774  -5.1017  -4.2533  -3.8508  -3.6801
    -3.4228  -3.3668  -2.9419  -2.6693  -1.9960  -1.7509  -0.7928  -0.0189
     1.7435   4.2375   6.7881   8.1400   8.2565   9.3265

          k = 0.3000-0.2020 0.0000 (  9138 PWs)   bands (ev):

   -16.0536 -14.7978 -12.9921 -12.4880 -11.5961 -10.8693  -8.6664  -8.5301
    -7.8621  -6.8792  -6.0433  -5.4834  -5.2896  -4.8700  -4.2132  -3.9105
    -3.2565  -2.8031  -2.3859  -2.2953  -1.9218  -1.4722  -0.5374  -0.1159
     2.2867   3.7949   7.4271   9.1314   9.3252   9.8915

          k = 0.3000-0.3030 0.0000 (  9153 PWs)   bands (ev):

   -15.1622 -14.0400 -13.8586 -12.8297 -12.3023 -11.2756  -8.5805  -7.8985
    -7.8533  -6.9577  -6.6939  -5.9343  -5.5778  -5.0939  -4.8251  -4.2742
    -3.0492  -2.3531  -2.1717  -1.9315  -1.2204  -1.0186  -0.6935  -0.2335
     2.7831   3.3648   8.1765   9.6255  10.1919  10.4318

          k = 0.4000-0.0000 0.0000 (  9182 PWs)   bands (ev):

   -15.5279 -14.2605 -12.3810 -12.1965 -10.9877 -10.1284  -9.1765  -8.0759
    -7.3677  -6.9873  -5.9462  -5.0559  -4.9495  -4.5731  -4.2893  -3.9721
    -3.8761  -3.3816  -3.2119  -3.1809  -3.0609  -2.2667  -2.1988  -0.5582
     1.8772   3.6353   7.2445   7.7985   8.2664   8.9314

          k = 0.4000-0.1010 0.0000 (  9188 PWs)   bands (ev):

   -15.3512 -14.0914 -12.2343 -12.1177 -10.9365 -10.0669  -9.0996  -8.7604
    -8.2157  -7.0155  -5.7904  -5.7500  -5.2739  -5.0606  -4.5254  -3.6722
    -3.6082  -3.3331  -3.2772  -2.8624  -2.3053  -2.1755  -1.9226  -0.6545
     2.0524   3.5905   7.7179   8.0691   8.3442   9.0843

          k = 0.4000-0.2020 0.0000 (  9154 PWs)   bands (ev):

   -14.8285 -13.5948 -12.1594 -11.8098 -11.0556  -9.9718  -9.8672  -9.0978
    -8.6106  -7.3307  -7.2359  -6.3653  -6.0875  -5.5688  -4.4455  -3.8686
    -3.4523  -3.1981  -2.6687  -2.3176  -2.0775  -1.7133  -0.9989  -0.8757
     2.4620   3.4549   8.3056   8.9577   9.2831   9.6812

          k = 0.4000-0.3030 0.0000 (  9140 PWs)   bands (ev):

   -13.9927 -12.9806 -12.7736 -11.8354 -11.2043 -10.2367  -9.7310  -8.8808
    -8.6772  -8.2509  -7.9182  -7.2001  -6.1427  -5.7026  -4.8234  -4.2284
    -3.5672  -3.0639  -2.5647  -1.8357  -1.6914  -1.3004  -0.9039  -0.5851
     2.8456   3.2773   8.7743   9.8384  10.5063  10.5691

          k =-0.5000 0.0000 0.0000 (  9200 PWs)   bands (ev):

   -13.9688 -13.9688 -12.7262 -12.7262 -10.8793 -10.8793  -8.6648  -8.6648
    -6.6509  -6.6509  -5.9617  -5.9617  -4.7607  -4.7607  -4.1349  -4.1349
    -3.7397  -3.7397  -3.5911  -3.5911  -2.8372  -2.8372  -1.4700  -1.4700
     2.6847   2.6847   7.8973   7.8973   8.2640   8.2640

          k =-0.5000-0.1010 0.0000 (  9196 PWs)   bands (ev):

   -13.8089 -13.8089 -12.5760 -12.5760 -10.7515 -10.7515  -8.6271  -8.6271
    -7.4567  -7.4567  -6.9099  -6.9099  -4.6633  -4.6633  -4.1469  -4.1469
    -3.4982  -3.4982  -3.1539  -3.1539  -2.6592  -2.6592  -1.3993  -1.3993
     2.7680   2.7680   8.1206   8.1206   8.6843   8.6843

          k =-0.5000-0.2020 0.0000 (  9170 PWs)   bands (ev):

   -13.3596 -13.3596 -12.1580 -12.1580 -10.4093 -10.4093  -9.0212  -9.0212
    -8.6717  -8.6717  -7.9014  -7.9014  -5.1538  -5.1538  -4.5544  -4.5544
    -3.3773  -3.3773  -2.5794  -2.5794  -1.8435  -1.8435  -1.2398  -1.2398
     2.9413   2.9413   8.7663   8.7663   9.6671   9.6671

          k =-0.5000-0.3030 0.0000 (  9170 PWs)   bands (ev):

   -12.8024 -12.8024 -11.6554 -11.6554 -10.2148 -10.2148 -10.0029 -10.0029
    -9.2278  -9.2278  -8.3443  -8.3443  -5.5398  -5.5398  -4.6894  -4.6894
    -3.5540  -3.5540  -2.4867  -2.4867  -1.3544  -1.3544  -0.9157  -0.9157
     3.0620   3.0620   9.3317   9.3317  10.7259  10.7259

     the Fermi energy is     2.9153 ev

!    total energy              =    -138.82985131 Ry
     estimated scf accuracy    <          9.6E-12 Ry
     smearing contrib. (-TS)   =       0.00040800 Ry
     internal energy E=F+TS    =    -138.83025931 Ry

     The total energy is F=E-TS. E is the sum of the following terms:
     one-electron contribution =   -1997.57729156 Ry
     hartree contribution      =    1016.34869852 Ry
     xc contribution           =     -43.72666576 Ry
     ewald contribution        =     886.12499949 Ry

     convergence has been achieved in   9 iterations

     Forces acting on atoms (cartesian axes, Ry/au):

     atom    1 type  1   force =     0.00000000   -0.00026579   -0.00024589
     atom    2 type  1   force =     0.00000000    0.00026579   -0.00024589
     atom    3 type  1   force =     0.00000000    0.00008544   -0.00026425
     atom    4 type  1   force =     0.00000000   -0.00008544   -0.00026425
     atom    5 type  1   force =     0.00000000   -0.00017743    0.00029077
     atom    6 type  1   force =     0.00000000    0.00017743    0.00029077
     atom    7 type  1   force =     0.00000000    0.00010024    0.00054801
     atom    8 type  1   force =    -0.00000000   -0.00010024    0.00054801
     atom    9 type  1   force =     0.00000000   -0.04200204   -0.04517673
     atom   10 type  1   force =    -0.00000000    0.04200204   -0.04517673
     atom   11 type  1   force =     0.00000000    0.16901581    0.04460116
     atom   12 type  1   force =     0.00000000   -0.16901581    0.04460116
     atom   13 type  2   force =     0.00000000    0.00017426    0.00024692
     atom   14 type  2   force =     0.00000000   -0.00017426    0.00024692

     Total force =     0.001205     Total SCF correction =     0.000004
     Energy error            =      2.7E-06 Ry
     Gradient error          =      5.5E-04 Ry/Bohr

     number of scf cycles    =  14
     number of bfgs steps    =  13

     energy             old  =    -138.8298486128 Ry
     energy             new  =    -138.8298513101 Ry

     CASE: energy            _new < energy            _old

     new trust radius        =       0.0014817222 bohr
     new conv_thr            =            1.0E-10 Ry


ATOMIC_POSITIONS (angstrom)
C                0.0000000000       -0.9096741435       12.2977345931
C                1.2611249400       -1.7655758565       12.2977345931
C                0.0000000000        0.0027405827       11.0586819677
C                1.2611249400       -2.6779905827       11.0586819677
C                0.0000000000       -0.8924464596        9.7894608799
C                1.2611249400       -1.7828035404        9.7894608799
C               -0.0000000000        0.0055481847        8.5259058485
C                1.2611249400       -2.6807981847        8.5259058485
C                0.0000000000       -0.8917500000        7.2611249400    0   0   0
C                1.2611249400       -1.7835000000        7.2611249400    0   0   0
C                0.0000000000        0.0000000000        6.0000000000    0   0   0
C                1.2611249400       -2.6752500000        6.0000000000    0   0   0
H                0.0000000000       -0.3087853050       13.2177754411
H                1.2611249400       -2.3664646950       13.2177754411



     Writing config-only to output data dir ./tmp/slab.save/ :
     XML data file
     NEW-OLD atomic charge density approx. for the potential

     total cpu time spent up to now is      374.7 secs

     Self-consistent Calculation

     iteration #  1     ecut=    60.00 Ry     beta= 0.30
     Davidson diagonalization with overlap
     ethr =  1.00E-06,  avg # of iterations =  2.0

     Threshold (ethr) on eigenvalues was too large:
     Diagonalizing with lowered threshold

     Davidson diagonalization with overlap
     ethr =  1.46E-08,  avg # of iterations =  4.0

     total cpu time spent up to now is      381.0 secs

     total energy              =    -138.82984858 Ry
     estimated scf accuracy    <       0.00001570 Ry

     iteration #  2     ecut=    60.00 Ry     beta= 0.30
     Davidson diagonalization with overlap
     ethr =  3.14E-08,  avg # of iterations =  2.9

     total cpu time spent up to now is      383.8 secs

     total energy              =    -138.82985203 Ry
     estimated scf accuracy    <       0.00000096 Ry

     iteration #  3     ecut=    60.00 Ry     beta= 0.30
     Davidson diagonalization with overlap
     ethr =  1.93E-09,  avg # of iterations =  2.2

     total cpu time spent up to now is      386.4 secs

     total energy              =    -138.82985213 Ry
     estimated scf accuracy    <       0.00000021 Ry

     iteration #  4     ecut=    60.00 Ry     beta= 0.30
     Davidson diagonalization with overlap
     ethr =  4.26E-10,  avg # of iterations =  3.0

     total cpu time spent up to now is      389.4 secs

     total energy              =    -138.82985216 Ry
     estimated scf accuracy    <       0.00000007 Ry

     iteration #  5     ecut=    60.00 Ry     beta= 0.30
     Davidson diagonalization with overlap
     ethr =  1.40E-10,  avg # of iterations =  2.5

     total cpu time spent up to now is      392.1 secs

     total energy              =    -138.82985218 Ry
     estimated scf accuracy    <          7.5E-09 Ry

     iteration #  6     ecut=    60.00 Ry     beta= 0.30
     Davidson diagonalization with overlap
     ethr =  1.51E-11,  avg # of iterations =  2.0

     total cpu time spent up to now is      394.7 secs

     total energy              =    -138.82985218 Ry
     estimated scf accuracy    <          2.9E-09 Ry

     iteration #  7     ecut=    60.00 Ry     beta= 0.30
     Davidson diagonalization with overlap
     ethr =  5.82E-12,  avg # of iterations =  3.4

     total cpu time spent up to now is      397.9 secs

     total energy              =    -138.82985218 Ry
     estimated scf accuracy    <          2.0E-09 Ry

     iteration #  8     ecut=    60.00 Ry     beta= 0.30
     Davidson diagonalization with overlap
     ethr =  4.04E-12,  avg # of iterations =  2.5

     total cpu time spent up to now is      400.5 secs

     End of self-consistent calculation

          k = 0.0000-0.0000 0.0000 (  9127 PWs)   bands (ev):

   -18.4269 -17.1199 -15.1827 -12.8462 -10.6776  -9.9296  -9.7310  -8.5618
    -6.7888  -6.7406  -5.7332  -4.9471  -4.4134  -3.6571  -3.4152  -2.4023
    -1.9341  -1.7264  -1.0161   0.3847   0.4515   1.0456   1.7050   2.3657
     2.5635   4.9786   4.9959   7.3000   7.7690   8.1002

          k = 0.0000-0.1010 0.0000 (  9121 PWs)   bands (ev):

   -18.2393 -16.9378 -15.0180 -12.7782 -12.0014 -11.1859  -8.9483  -8.1179
    -7.6004  -5.9616  -5.6127  -4.7996  -3.8516  -3.4396  -3.2407  -2.2555
    -2.0772  -1.3323  -0.9331   0.3902   0.4185   0.8807   1.3841   1.8755
     2.6404   4.5581   5.1904   7.4522   7.8604   8.3311

          k = 0.0000-0.2020 0.0000 (  9137 PWs)   bands (ev):

   -17.6787 -16.3968 -14.5487 -13.8603 -12.9904 -12.3088  -9.5213  -8.6825
    -7.1861  -6.1533  -4.7208  -4.0427  -3.1241  -2.7249  -2.7248  -1.8297
    -1.4980  -1.0997  -0.7135   0.1568   0.2317   0.4264   0.8036   1.0490
     2.5688   3.8214   5.7896   7.7250   8.4481   8.5785

          k = 0.0000-0.3030 0.0000 (  9120 PWs)   bands (ev):

   -16.7542 -15.5899 -15.3932 -14.3230 -13.7994 -12.7502  -9.8406  -9.1462
    -7.2816  -6.4068  -4.3887  -3.4404  -2.2853  -1.8943  -1.5894  -1.1854
    -1.0542  -0.7886  -0.5206  -0.4838  -0.3797  -0.2172   0.1726   0.5289
     2.6025   3.2419   6.6714   7.8185   8.1843   8.9962

          k = 0.1000-0.0000 0.0000 (  9133 PWs)   bands (ev):

   -18.2424 -16.9376 -15.0041 -12.6731 -10.5129  -9.7676  -9.6724  -8.5116
    -6.7036  -6.6301  -5.5850  -4.8074  -4.3961  -4.2580  -3.5481  -3.2116
    -1.8903  -1.7988  -1.7316  -0.3120   0.2513   0.8783   0.9888   1.5002
     2.2436   5.0410   5.1401   7.5135   8.1102   8.6040

          k = 0.1000-0.1010 0.0000 (  9113 PWs)   bands (ev):

   -18.0551 -16.7560 -14.8401 -12.6070 -11.8513 -11.0307  -8.8268  -8.0134
    -7.5453  -5.8866  -5.5304  -4.7474  -4.0156  -3.8348  -3.3641  -2.9871
    -2.0589  -1.6608  -1.3869  -0.3807   0.1829   0.4057   0.8279   1.1452
     2.5128   4.6413   5.3735   7.7403   8.4822   8.7532

          k = 0.1000-0.2020 0.0000 (  9112 PWs)   bands (ev):

   -17.4959 -16.2168 -14.3734 -13.6943 -12.8271 -12.1428  -9.3711  -8.5304
    -7.0625  -6.0897  -4.8569  -4.0528  -3.5141  -3.2580  -2.6905  -2.1678
    -1.8253  -1.2934  -1.0585  -0.8530  -0.6869  -0.1429   0.5116   1.0530
     2.5539   3.9520   6.0024   8.2880   8.9345   9.0337

          k = 0.1000-0.3030 0.0000 (  9124 PWs)   bands (ev):

   -16.5743 -15.4136 -15.2181 -14.1519 -13.6302 -12.5830  -9.6788  -8.9876
    -7.1404  -6.2703  -4.3802  -3.4406  -3.2021  -2.4607  -2.1424  -1.7550
    -1.5193  -1.3629  -1.1847  -0.8466  -0.7089  -0.0985   0.0741   0.3263
     2.7259   3.3067   6.9320   8.2138   8.8319   9.4839

          k = 0.2000-0.0000 0.0000 (  9130 PWs)   bands (ev):

   -17.6908 -16.3930 -14.4705 -12.1560 -10.0205  -9.6878  -9.2829  -8.5433
    -6.7615  -6.1674  -5.8321  -5.1600  -4.7470  -4.4910  -4.4069  -3.2978
    -3.2588  -1.9198  -1.8553  -1.8292  -0.8198  -0.3791  -0.3264   0.7402
     1.6556   4.9074   5.6662   7.7907   8.1521   8.3812

          k = 0.2000-0.1010 0.0000 (  9140 PWs)   bands (ev):

   -17.5050 -16.2133 -14.3091 -12.0965 -11.4376 -10.5852  -8.5762  -7.9397
    -7.5357  -6.0042  -5.5821  -5.1230  -4.7240  -4.1815  -3.8252  -3.1990
    -2.8213  -2.1919  -1.9229  -1.7587  -1.5185  -0.7491   0.2764   0.4063
     2.0215   4.5776   5.9190   8.3237   8.5096   8.7339

          k = 0.2000-0.2020 0.0000 (  9135 PWs)   bands (ev):

   -16.9505 -15.6799 -13.8509 -13.2096 -12.3457 -11.6515  -8.9565  -8.1171
    -6.9231  -6.5117  -5.4665  -4.8736  -4.0702  -3.5903  -3.2897  -3.0543
    -2.4405  -2.3015  -2.1351  -2.0882  -1.4569  -1.0131  -0.0310   0.6374
     2.4228   3.9599   6.5755   9.0759   9.5594   9.5936

          k = 0.2000-0.3030 0.0000 (  9150 PWs)   bands (ev):

   -16.0383 -14.8895 -14.6982 -13.6446 -13.1263 -12.0857  -9.2149  -8.5312
    -6.7831  -5.9693  -5.5613  -4.4990  -4.4074  -3.6913  -3.4406  -3.1218
    -2.7171  -2.4084  -1.5326  -1.0984  -0.9775  -0.9333  -0.0835   0.0803
     2.8074   3.3584   7.4952   8.8886   9.9781  10.3520

          k = 0.3000-0.0000 0.0000 (  9160 PWs)   bands (ev):

   -16.7800 -15.4943 -13.5903 -11.3025 -10.5129  -9.3472  -9.2052  -8.4799
    -7.5653  -6.5247  -5.4938  -5.4471  -5.3357  -4.5296  -4.1219  -3.8201
    -3.1332  -2.9187  -2.8752  -2.4024  -2.0933  -1.7351  -1.6802   0.2228
     1.4822   4.4359   6.5103   7.6904   7.7668   9.2564

          k = 0.3000-0.1010 0.0000 (  9159 PWs)   bands (ev):

   -16.5971 -15.3182 -13.4337 -11.2612 -11.0874 -10.0520  -9.0022  -8.5835
    -7.7498  -6.4675  -5.6985  -5.4773  -5.1009  -4.2531  -3.8506  -3.6794
    -3.4216  -3.3662  -2.9414  -2.6689  -1.9954  -1.7510  -0.7926  -0.0184
     1.7434   4.2370   6.7878   8.1401   8.2563   9.3264

          k = 0.3000-0.2020 0.0000 (  9138 PWs)   bands (ev):

   -16.0524 -14.7964 -12.9921 -12.4868 -11.5951 -10.8690  -8.6659  -8.5292
    -7.8609  -6.8786  -6.0425  -5.4837  -5.2891  -4.8688  -4.2129  -3.9106
    -3.2562  -2.8032  -2.3843  -2.2945  -1.9220  -1.4717  -0.5371  -0.1158
     2.2866   3.7943   7.4269   9.1314   9.3252   9.8914

          k = 0.3000-0.3030 0.0000 (  9153 PWs)   bands (ev):

   -15.1610 -14.0387 -13.8572 -12.8283 -12.3024 -11.2757  -8.5797  -7.8977
    -7.8524  -6.9566  -6.6929  -5.9332  -5.5774  -5.0943  -4.8244  -4.2742
    -3.0494  -2.3533  -2.1711  -1.9309  -1.2199  -1.0184  -0.6931  -0.2333
     2.7831   3.3642   8.1762   9.6254  10.1918  10.4313

          k = 0.4000-0.0000 0.0000 (  9182 PWs)   bands (ev):

   -15.5266 -14.2590 -12.3810 -12.1951 -10.9860 -10.1284  -9.1764  -8.0762
    -7.3674  -6.9872  -5.9450  -5.0544  -4.9497  -4.5726  -4.2891  -3.9718
    -3.8751  -3.3802  -3.2115  -3.1791  -3.0601  -2.2659  -2.1993  -0.5576
     1.8768   3.6349   7.2443   7.7980   8.2666   8.9316

          k = 0.4000-0.1010 0.0000 (  9188 PWs)   bands (ev):

   -15.3499 -14.0900 -12.2343 -12.1162 -10.9348 -10.0669  -9.0995  -8.7602
    -8.2150  -7.0154  -5.7899  -5.7498  -5.2728  -5.0602  -4.5240  -3.6717
    -3.6081  -3.3319  -3.2764  -2.8612  -2.3043  -2.1753  -1.9230  -0.6540
     2.0522   3.5900   7.7177   8.0689   8.3442   9.0837

          k = 0.4000-0.2020 0.0000 (  9154 PWs)   bands (ev):

   -14.8272 -13.5933 -12.1580 -11.8097 -11.0539  -9.9718  -9.8665  -9.0973
    -8.6102  -7.3303  -7.2353  -6.3643  -6.0874  -5.5683  -4.4450  -3.8675
    -3.4514  -3.1978  -2.6683  -2.3169  -2.0771  -1.7132  -0.9990  -0.8756
     2.4619   3.4544   8.3054   8.9576   9.2827   9.6814

          k = 0.4000-0.3030 0.0000 (  9140 PWs)   bands (ev):

   -13.9914 -12.9793 -12.7721 -11.8339 -11.2043 -10.2367  -9.7302  -8.8799
    -8.6764  -8.2505  -7.9175  -7.1996  -6.1427  -5.7025  -4.8224  -4.2274
    -3.5666  -3.0631  -2.5646  -1.8361  -1.6905  -1.3003  -0.9042  -0.5853
     2.8455   3.2767   8.7738   9.8381  10.5056  10.5698

          k =-0.5000 0.0000 0.0000 (  9200 PWs)   bands (ev):

   -13.9674 -13.9674 -12.7247 -12.7247 -10.8793 -10.8793  -8.6648  -8.6648
    -6.6512  -6.6512  -5.9614  -5.9614  -4.7595  -4.7595  -4.1332  -4.1332
    -3.7386  -3.7386  -3.5907  -3.5907  -2.8366  -2.8366  -1.4698  -1.4698
     2.6843   2.6843   7.8971   7.8971   8.2640   8.2640

          k =-0.5000-0.1010 0.0000 (  9196 PWs)   bands (ev):

   -13.8076 -13.8076 -12.5744 -12.5744 -10.7515 -10.7515  -8.6271  -8.6271
    -7.4564  -7.4564  -6.9092  -6.9092  -4.6627  -4.6627  -4.1463  -4.1463
    -3.4964  -3.4964  -3.1536  -3.1536  -2.6589  -2.6589  -1.3991  -1.3991
     2.7676   2.7676   8.1206   8.1206   8.6839   8.6839

          k =-0.5000-0.2020 0.0000 (  9170 PWs)   bands (ev):

   -13.3582 -13.3582 -12.1564 -12.1564 -10.4092 -10.4092  -9.0205  -9.0205
    -8.6715  -8.6715  -7.9008  -7.9008  -5.1533  -5.1533  -4.5536  -4.5536
    -3.3763  -3.3763  -2.5788  -2.5788  -1.8436  -1.8436  -1.2398  -1.2398
     2.9409   2.9409   8.7660   8.7660   9.6669   9.6669

          k =-0.5000-0.3030 0.0000 (  9170 PWs)   bands (ev):

   -12.8010 -12.8010 -11.6537 -11.6537 -10.2142 -10.2142 -10.0026 -10.0026
    -9.2272  -9.2272  -8.3444  -8.3444  -5.5391  -5.5391  -4.6887  -4.6887
    -3.5529  -3.5529  -2.4863  -2.4863  -1.3546  -1.3546  -0.9162  -0.9162
     3.0616   3.0616   9.3312   9.3312  10.7254  10.7254

     the Fermi energy is     2.9151 ev

!    total energy              =    -138.82985218 Ry
     estimated scf accuracy    <          3.3E-11 Ry
     smearing contrib. (-TS)   =       0.00040767 Ry
     internal energy E=F+TS    =    -138.83025985 Ry

     The total energy is F=E-TS. E is the sum of the following terms:
     one-electron contribution =   -1997.26485630 Ry
     hartree contribution      =    1016.19281191 Ry
     xc contribution           =     -43.72569406 Ry
     ewald contribution        =     885.96747859 Ry

     convergence has been achieved in   8 iterations

     Forces acting on atoms (cartesian axes, Ry/au):

     atom    1 type  1   force =     0.00000000   -0.00011391   -0.00013464
     atom    2 type  1   force =     0.00000000    0.00011391   -0.00013464
     atom    3 type  1   force =     0.00000000    0.00001264   -0.00018650
     atom    4 type  1   force =     0.00000000   -0.00001264   -0.00018650
     atom    5 type  1   force =    -0.00000000   -0.00006830    0.00007985
     atom    6 type  1   force =     0.00000000    0.00006830    0.00007985
     atom    7 type  1   force =     0.00000000    0.00003772    0.00024481
     atom    8 type  1   force =     0.00000000   -0.00003772    0.00024481
     atom    9 type  1   force =    -0.00000000   -0.04189658   -0.04480905
     atom   10 type  1   force =     0.00000000    0.04189658   -0.04480905
     atom   11 type  1   force =    -0.00000000    0.16899709    0.04467433
     atom   12 type  1   force =     0.00000000   -0.16899709    0.04467433
     atom   13 type  2   force =     0.00000000    0.00010059    0.00013120
     atom   14 type  2   force =    -0.00000000   -0.00010059    0.00013120

     Total force =     0.000576     Total SCF correction =     0.000005
     Energy error            =      8.7E-07 Ry
     Gradient error          =      2.4E-04 Ry/Bohr

     number of scf cycles    =  15
     number of bfgs steps    =  14

     energy             old  =    -138.8298513101 Ry
     energy             new  =    -138.8298521808 Ry

     CASE: energy            _new < energy            _old

     new trust radius        =       0.0004716726 bohr
     new conv_thr            =            1.0E-10 Ry


ATOMIC_POSITIONS (angstrom)
C                0.0000000000       -0.9096854922       12.2977102474
C                1.2611249400       -1.7655645078       12.2977102474
C                0.0000000000        0.0027458073       11.0586361250
C                1.2611249400       -2.6779958073       11.0586361250
C                0.0000000000       -0.8924829060        9.7896119982
C                1.2611249400       -1.7827670940        9.7896119982
C               -0.0000000000        0.0055458096        8.5261554356
C                1.2611249400       -2.6807958096        8.5261554356
C                0.0000000000       -0.8917500000        7.2611249400    0   0   0
C                1.2611249400       -1.7835000000        7.2611249400    0   0   0
C                0.0000000000        0.0000000000        6.0000000000    0   0   0
C                1.2611249400       -2.6752500000        6.0000000000    0   0   0
H                0.0000000000       -0.3087180020       13.2178300915
H                1.2611249400       -2.3665319980       13.2178300915



     Writing config-only to output data dir ./tmp/slab.save/ :
     XML data file
     NEW-OLD atomic charge density approx. for the potential

     total cpu time spent up to now is      400.8 secs

     Self-consistent Calculation

     iteration #  1     ecut=    60.00 Ry     beta= 0.30
     Davidson diagonalization with overlap
     ethr =  1.00E-06,  avg # of iterations =  1.2

     Threshold (ethr) on eigenvalues was too large:
     Diagonalizing with lowered threshold

     Davidson diagonalization with overlap
     ethr =  3.25E-10,  avg # of iterations =  5.0

     total cpu time spent up to now is      407.4 secs

     total energy              =    -138.82985217 Ry
     estimated scf accuracy    <       0.00000083 Ry

     iteration #  2     ecut=    60.00 Ry     beta= 0.30
     Davidson diagonalization with overlap
     ethr =  1.67E-09,  avg # of iterations =  2.5

     total cpu time spent up to now is      410.2 secs

     total energy              =    -138.82985236 Ry
     estimated scf accuracy    <       0.00000011 Ry

     iteration #  3     ecut=    60.00 Ry     beta= 0.30
     Davidson diagonalization with overlap
     ethr =  2.13E-10,  avg # of iterations =  2.2

     total cpu time spent up to now is      412.8 secs

     total energy              =    -138.82985237 Ry
     estimated scf accuracy    <       0.00000001 Ry

     iteration #  4     ecut=    60.00 Ry     beta= 0.30
     Davidson diagonalization with overlap
     ethr =  2.61E-11,  avg # of iterations =  2.0

     total cpu time spent up to now is      415.3 secs

     total energy              =    -138.82985237 Ry
     estimated scf accuracy    <          4.0E-09 Ry

     iteration #  5     ecut=    60.00 Ry     beta= 0.30
     Davidson diagonalization with overlap
     ethr =  7.94E-12,  avg # of iterations =  2.0

     total cpu time spent up to now is      418.0 secs

     total energy              =    -138.82985237 Ry
     estimated scf accuracy    <          7.3E-10 Ry

     iteration #  6     ecut=    60.00 Ry     beta= 0.30
     Davidson diagonalization with overlap
     ethr =  1.46E-12,  avg # of iterations =  2.0

     total cpu time spent up to now is      420.5 secs

     total energy              =    -138.82985237 Ry
     estimated scf accuracy    <          1.3E-10 Ry

     iteration #  7     ecut=    60.00 Ry     beta= 0.30
     Davidson diagonalization with overlap
     ethr =  2.60E-13,  avg # of iterations =  2.1

     total cpu time spent up to now is      423.3 secs

     End of self-consistent calculation

          k = 0.0000-0.0000 0.0000 (  9127 PWs)   bands (ev):

   -18.4274 -17.1195 -15.1830 -12.8463 -10.6776  -9.9298  -9.7315  -8.5610
    -6.7890  -6.7407  -5.7333  -4.9468  -4.4133  -3.6570  -3.4157  -2.4020
    -1.9345  -1.7258  -1.0165   0.3844   0.4512   1.0459   1.7048   2.3654
     2.5635   4.9786   4.9958   7.3000   7.7685   8.1000

          k = 0.0000-0.1010 0.0000 (  9121 PWs)   bands (ev):

   -18.2397 -16.9374 -15.0182 -12.7782 -12.0018 -11.1856  -8.9482  -8.1183
    -7.6000  -5.9616  -5.6129  -4.7992  -3.8517  -3.4395  -3.2412  -2.2552
    -2.0769  -1.3324  -0.9335   0.3900   0.4186   0.8805   1.3838   1.8753
     2.6405   4.5580   5.1904   7.4522   7.8601   8.3310

          k = 0.0000-0.2020 0.0000 (  9137 PWs)   bands (ev):

   -17.6791 -16.3964 -14.5489 -13.8607 -12.9901 -12.3088  -9.5214  -8.6825
    -7.1857  -6.1530  -4.7210  -4.0429  -3.1240  -2.7254  -2.7249  -1.8295
    -1.4980  -1.0992  -0.7140   0.1565   0.2316   0.4258   0.8034   1.0491
     2.5688   3.8215   5.7895   7.7249   8.4479   8.5784

          k = 0.0000-0.3030 0.0000 (  9120 PWs)   bands (ev):

   -16.7547 -15.5899 -15.3933 -14.3226 -13.7996 -12.7504  -9.8407  -9.1463
    -7.2811  -6.4062  -4.3889  -3.4406  -2.2854  -1.8948  -1.5897  -1.1853
    -1.0537  -0.7890  -0.5200  -0.4843  -0.3797  -0.2177   0.1728   0.5289
     2.6024   3.2420   6.6713   7.8184   8.1842   8.9960

          k = 0.1000-0.0000 0.0000 (  9133 PWs)   bands (ev):

   -18.2428 -16.9373 -15.0043 -12.6731 -10.5129  -9.7678  -9.6728  -8.5109
    -6.7037  -6.6303  -5.5850  -4.8071  -4.3960  -4.2585  -3.5480  -3.2113
    -1.8907  -1.7991  -1.7311  -0.3123   0.2509   0.8782   0.9890   1.4999
     2.2436   5.0408   5.1401   7.5135   8.1100   8.6042

          k = 0.1000-0.1010 0.0000 (  9113 PWs)   bands (ev):

   -18.0555 -16.7557 -14.8403 -12.6071 -11.8517 -11.0303  -8.8268  -8.0138
    -7.5449  -5.8866  -5.5306  -4.7470  -4.0161  -3.8349  -3.3641  -2.9869
    -2.0586  -1.6612  -1.3870  -0.3809   0.1825   0.4059   0.8278   1.1450
     2.5129   4.6412   5.3734   7.7403   8.4820   8.7531

          k = 0.1000-0.2020 0.0000 (  9112 PWs)   bands (ev):

   -17.4963 -16.2164 -14.3736 -13.6947 -12.8269 -12.1428  -9.3712  -8.5304
    -7.0621  -6.0894  -4.8571  -4.0530  -3.5138  -3.2583  -2.6909  -2.1676
    -1.8254  -1.2932  -1.0583  -0.8536  -0.6871  -0.1429   0.5115   1.0529
     2.5538   3.9520   6.0023   8.2880   8.9343   9.0336

          k = 0.1000-0.3030 0.0000 (  9124 PWs)   bands (ev):

   -16.5747 -15.4136 -15.2182 -14.1515 -13.6304 -12.5832  -9.6788  -8.9877
    -7.1400  -6.2697  -4.3805  -3.4409  -3.2024  -2.4606  -2.1428  -1.7550
    -1.5192  -1.3632  -1.1849  -0.8464  -0.7090  -0.0986   0.0740   0.3263
     2.7258   3.3068   6.9318   8.2138   8.8320   9.4838

          k = 0.2000-0.0000 0.0000 (  9130 PWs)   bands (ev):

   -17.6912 -16.3927 -14.4707 -12.1560 -10.0205  -9.6882  -9.2830  -8.5426
    -6.7616  -6.1676  -5.8326  -5.1601  -4.7467  -4.4909  -4.4065  -3.2982
    -3.2586  -1.9195  -1.8556  -1.8291  -0.8201  -0.3796  -0.3266   0.7405
     1.6557   4.9072   5.6661   7.7907   8.1523   8.3810

          k = 0.2000-0.1010 0.0000 (  9140 PWs)   bands (ev):

   -17.5054 -16.2129 -14.3093 -12.0966 -11.4381 -10.5849  -8.5761  -7.9400
    -7.5355  -6.0044  -5.5819  -5.1230  -4.7242  -4.1816  -3.8249  -3.1990
    -2.8217  -2.1919  -1.9230  -1.7586  -1.5189  -0.7492   0.2763   0.4063
     2.0216   4.5775   5.9189   8.3236   8.5097   8.7336

          k = 0.2000-0.2020 0.0000 (  9135 PWs)   bands (ev):

   -16.9509 -15.6795 -13.8511 -13.2100 -12.3455 -11.6515  -8.9566  -8.1172
    -6.9230  -6.5116  -5.4664  -4.8732  -4.0705  -3.5906  -3.2899  -3.0547
    -2.4406  -2.3015  -2.1351  -2.0884  -1.4568  -1.0129  -0.0310   0.6372
     2.4228   3.9598   6.5754   9.0759   9.5598   9.5931

          k = 0.2000-0.3030 0.0000 (  9150 PWs)   bands (ev):

   -16.0387 -14.8895 -14.6983 -13.6443 -13.1266 -12.0859  -9.2149  -8.5313
    -6.7826  -5.9689  -5.5617  -4.4992  -4.4074  -3.6913  -3.4407  -3.1221
    -2.7173  -2.4085  -1.5327  -1.0983  -0.9780  -0.9333  -0.0832   0.0802
     2.8074   3.3583   7.4950   8.8885   9.9782  10.3523

          k = 0.3000-0.0000 0.0000 (  9160 PWs)   bands (ev):

   -16.7804 -15.4940 -13.5905 -11.3026 -10.5133  -9.3466  -9.2052  -8.4801
    -7.5655  -6.5252  -5.4935  -5.4473  -5.3356  -4.5297  -4.1222  -3.8196
    -3.1331  -2.9185  -2.8754  -2.4027  -2.0934  -1.7349  -1.6806   0.2231
     1.4822   4.4357   6.5101   7.6906   7.7664   9.2562

          k = 0.3000-0.1010 0.0000 (  9159 PWs)   bands (ev):

   -16.5975 -15.3178 -13.4339 -11.2612 -11.0878 -10.0516  -9.0026  -8.5833
    -7.7499  -6.4676  -5.6984  -5.4775  -5.1009  -4.2533  -3.8509  -3.6795
    -3.4213  -3.3662  -2.9416  -2.6687  -1.9952  -1.7512  -0.7929  -0.0181
     1.7434   4.2368   6.7876   8.1401   8.2562   9.3263

          k = 0.3000-0.2020 0.0000 (  9138 PWs)   bands (ev):

   -16.0528 -14.7960 -12.9923 -12.4872 -11.5948 -10.8691  -8.6663  -8.5293
    -7.8606  -6.8786  -6.0422  -5.4841  -5.2895  -4.8683  -4.2127  -3.9107
    -3.2564  -2.8036  -2.3841  -2.2946  -1.9221  -1.4715  -0.5370  -0.1159
     2.2866   3.7941   7.4266   9.1313   9.3250   9.8913

          k = 0.3000-0.3030 0.0000 (  9153 PWs)   bands (ev):

   -15.1614 -14.0388 -13.8572 -12.8279 -12.3027 -11.2759  -8.5797  -7.8978
    -7.8529  -6.9563  -6.6932  -5.9328  -5.5771  -5.0946  -4.8242  -4.2743
    -3.0495  -2.3533  -2.1712  -1.9311  -1.2199  -1.0184  -0.6930  -0.2334
     2.7831   3.3640   8.1759   9.6253  10.1917  10.4310

          k = 0.4000-0.0000 0.0000 (  9182 PWs)   bands (ev):

   -15.5271 -14.2586 -12.3812 -12.1955 -10.9855 -10.1284  -9.1766  -8.0762
    -7.3675  -6.9872  -5.9454  -5.0538  -4.9498  -4.5727  -4.2893  -3.9720
    -3.8754  -3.3804  -3.2116  -3.1786  -3.0599  -2.2657  -2.1994  -0.5573
     1.8767   3.6348   7.2441   7.7976   8.2667   8.9315

          k = 0.4000-0.1010 0.0000 (  9188 PWs)   bands (ev):

   -15.3503 -14.0896 -12.2346 -12.1166 -10.9344 -10.0670  -9.0997  -8.7606
    -8.2148  -7.0154  -5.7900  -5.7501  -5.2725  -5.0606  -4.5238  -3.6716
    -3.6084  -3.3321  -3.2763  -2.8608  -2.3039  -2.1756  -1.9233  -0.6537
     2.0521   3.5899   7.7174   8.0686   8.3442   9.0836

          k = 0.4000-0.2020 0.0000 (  9154 PWs)   bands (ev):

   -14.8276 -13.5929 -12.1584 -11.8099 -11.0535  -9.9719  -9.8670  -9.0972
    -8.6102  -7.3308  -7.2353  -6.3641  -6.0875  -5.5684  -4.4449  -3.8671
    -3.4515  -3.1978  -2.6683  -2.3171  -2.0770  -1.7132  -0.9993  -0.8754
     2.4618   3.4542   8.3050   8.9573   9.2823   9.6815

          k = 0.4000-0.3030 0.0000 (  9140 PWs)   bands (ev):

   -13.9918 -12.9796 -12.7718 -11.8335 -11.2046 -10.2369  -9.7307  -8.8798
    -8.6767  -8.2505  -7.9173  -7.1996  -6.1429  -5.7027  -4.8221  -4.2269
    -3.5667  -3.0630  -2.5644  -1.8363  -1.6901  -1.3004  -0.9044  -0.5856
     2.8455   3.2765   8.7733   9.8378  10.5050  10.5702

          k =-0.5000 0.0000 0.0000 (  9200 PWs)   bands (ev):

   -13.9679 -13.9679 -12.7243 -12.7243 -10.8795 -10.8795  -8.6649  -8.6649
    -6.6512  -6.6512  -5.9616  -5.9616  -4.7600  -4.7600  -4.1329  -4.1329
    -3.7386  -3.7386  -3.5907  -3.5907  -2.8365  -2.8365  -1.4696  -1.4696
     2.6842   2.6842   7.8969   7.8969   8.2638   8.2638

          k =-0.5000-0.1010 0.0000 (  9196 PWs)   bands (ev):

   -13.8080 -13.8080 -12.5740 -12.5740 -10.7517 -10.7517  -8.6272  -8.6272
    -7.4569  -7.4569  -6.9089  -6.9089  -4.6627  -4.6627  -4.1467  -4.1467
    -3.4960  -3.4960  -3.1536  -3.1536  -2.6590  -2.6590  -1.3989  -1.3989
     2.7675   2.7675   8.1205   8.1205   8.6836   8.6836

          k =-0.5000-0.2020 0.0000 (  9170 PWs)   bands (ev):

   -13.3586 -13.3586 -12.1560 -12.1560 -10.4095 -10.4095  -9.0210  -9.0210
    -8.6715  -8.6715  -7.9007  -7.9007  -5.1534  -5.1534  -4.5536  -4.5536
    -3.3759  -3.3759  -2.5785  -2.5785  -1.8441  -1.8441  -1.2398  -1.2398
     2.9409   2.9409   8.7657   8.7657   9.6667   9.6667

          k =-0.5000-0.3030 0.0000 (  9170 PWs)   bands (ev):

   -12.8014 -12.8014 -11.6532 -11.6532 -10.2146 -10.2146 -10.0028 -10.0028
    -9.2271  -9.2271  -8.3446  -8.3446  -5.5392  -5.5392  -4.6888  -4.6888
    -3.5524  -3.5524  -2.4861  -2.4861  -1.3546  -1.3546  -0.9165  -0.9165
     3.0615   3.0615   9.3305   9.3305  10.7257  10.7257

     the Fermi energy is     2.9151 ev

!    total energy              =    -138.82985237 Ry
     estimated scf accuracy    <          1.5E-11 Ry
     smearing contrib. (-TS)   =       0.00040757 Ry
     internal energy E=F+TS    =    -138.83025995 Ry

     The total energy is F=E-TS. E is the sum of the following terms:
     one-electron contribution =   -1997.28412802 Ry
     hartree contribution      =    1016.20228201 Ry
     xc contribution           =     -43.72559150 Ry
     ewald contribution        =     885.97717757 Ry

     convergence has been achieved in   7 iterations

     Forces acting on atoms (cartesian axes, Ry/au):

     atom    1 type  1   force =     0.00000000   -0.00001360   -0.00002150
     atom    2 type  1   force =     0.00000000    0.00001360   -0.00002150
     atom    3 type  1   force =     0.00000000    0.00001228   -0.00005272
     atom    4 type  1   force =     0.00000000   -0.00001228   -0.00005272
     atom    5 type  1   force =     0.00000000   -0.00002222   -0.00000512
     atom    6 type  1   force =     0.00000000    0.00002222   -0.00000512
     atom    7 type  1   force =     0.00000000    0.00001226    0.00004048
     atom    8 type  1   force =     0.00000000   -0.00001226    0.00004048
     atom    9 type  1   force =     0.00000000   -0.04184896   -0.04468954
     atom   10 type  1   force =     0.00000000    0.04184896   -0.04468954
     atom   11 type  1   force =     0.00000000    0.16899202    0.04470176
     atom   12 type  1   force =     0.00000000   -0.16899202    0.04470176
     atom   13 type  2   force =     0.00000000    0.00002300    0.00002664
     atom   14 type  2   force =    -0.00000000   -0.00002300    0.00002664

     Total force =     0.000119     Total SCF correction =     0.000010
     Energy error            =      1.9E-07 Ry
     Gradient error          =      5.3E-05 Ry/Bohr

     bfgs converged in  16 scf cycles and  15 bfgs steps
     (criteria: energy <  1.0E-05 Ry, force <  1.0E-04 Ry/Bohr)

     End of BFGS Geometry Optimization

     Final energy             =    -138.8298523736 Ry

     File ./tmp/slab.bfgs deleted, as requested
Begin final coordinates

ATOMIC_POSITIONS (angstrom)
C                0.0000000000       -0.9096854922       12.2977102474
C                1.2611249400       -1.7655645078       12.2977102474
C                0.0000000000        0.0027458073       11.0586361250
C                1.2611249400       -2.6779958073       11.0586361250
C                0.0000000000       -0.8924829060        9.7896119982
C                1.2611249400       -1.7827670940        9.7896119982
C               -0.0000000000        0.0055458096        8.5261554356
C                1.2611249400       -2.6807958096        8.5261554356
C                0.0000000000       -0.8917500000        7.2611249400    0   0   0
C                1.2611249400       -1.7835000000        7.2611249400    0   0   0
C                0.0000000000        0.0000000000        6.0000000000    0   0   0
C                1.2611249400       -2.6752500000        6.0000000000    0   0   0
H                0.0000000000       -0.3087180020       13.2178300915
H                1.2611249400       -2.3665319980       13.2178300915
End final coordinates



     Writing all to output data dir ./tmp/slab.save/ :
     XML data file, charge density, pseudopotentials, collected wavefunctions

     init_run     :      3.38s CPU      3.56s WALL (       1 calls)
     electrons    :    401.11s CPU    415.49s WALL (      16 calls)
     update_pot   :      1.07s CPU      1.16s WALL (      15 calls)
     forces       :      2.67s CPU      3.06s WALL (      16 calls)

     Called by init_run:
     wfcinit      :      3.20s CPU      3.36s WALL (       1 calls)
     potinit      :      0.08s CPU      0.09s WALL (       1 calls)
     hinit0       :      0.06s CPU      0.07s WALL (       1 calls)

     Called by electrons:
     c_bands      :    335.95s CPU    349.28s WALL (     143 calls)
     sum_band     :     55.41s CPU     55.65s WALL (     143 calls)
     v_of_rho     :      8.84s CPU      9.49s WALL (     149 calls)
     mix_rho      :      1.05s CPU      1.19s WALL (     143 calls)

     Called by c_bands:
     init_us_2    :      1.89s CPU      2.07s WALL (    7272 calls)
     cegterg      :    333.90s CPU    347.15s WALL (    3432 calls)

     Called by *egterg:
     cdiaghg      :      6.34s CPU      6.74s WALL (   12153 calls)
     h_psi        :    263.86s CPU    270.17s WALL (   12777 calls)
     g_psi        :      1.59s CPU      1.59s WALL (    9321 calls)

     Called by h_psi:
     h_psi:calbec :      7.22s CPU      8.81s WALL (   12777 calls)
     vloc_psi     :    249.17s CPU    251.18s WALL (   12777 calls)
                                        0.00s GPU  (   12777 calls)
     add_vuspsi   :      6.03s CPU      7.90s WALL (   12777 calls)

     General routines
     calbec       :      8.20s CPU     10.08s WALL (   14313 calls)
     fft          :      5.17s CPU      5.18s WALL (    1797 calls)
     ffts         :      0.22s CPU      0.22s WALL (     292 calls)
     fftw         :    267.19s CPU    268.08s WALL (  616862 calls)
     interpolate  :      0.63s CPU      0.70s WALL (     149 calls)


     PWSCF        :   6m48.46s CPU   7m 3.59s WALL


   This run was terminated on:  11:40:21  17Jun2026            

=------------------------------------------------------------------------------=
   JOB DONE.
=------------------------------------------------------------------------------=
