
     Program PWSCF v.7.3.1 starts on  1Aug2026 at 11:41:15 

     This program is part of the open-source Quantum ESPRESSO suite
     for quantum simulation of materials; please cite
         "P. Giannozzi et al., J. Phys.:Condens. Matter 21 395502 (2009);
         "P. Giannozzi et al., J. Phys.:Condens. Matter 29 465901 (2017);
         "P. Giannozzi et al., J. Chem. Phys. 152 154105 (2020);
          URL http://www.quantum-espresso.org", 
     in publications or presentations arising from this work. More details at
     http://www.quantum-espresso.org/quote

     Parallel version (MPI), running on     4 processors

     MPI processes distributed on     1 nodes
     187830 MiB available memory on the printing compute node when the environment starts

     Reading input from pw.in

     Current dimensions of program PWSCF are:
     Max number of different atomic species (ntypx) = 10
     Max number of k-points (npk) =  40000
     Max angular momentum in pseudopotentials (lmaxx) =  4
     file C.pbe-n-kjpaw_psl.1.0.0.UPF: wavefunction(s)  2S 2P renormalized
     Message from routine setup:
     using ibrav=0 with symmetry is DISCOURAGED, use correct ibrav instead

     R & G space division:  proc/nbgrp/npool/nimage =       4
     Subspace diagonalization in iterative solution of the eigenvalue problem:
     a serial algorithm will be used


     Parallelization info
     --------------------
     sticks:   dense  smooth     PW     G-vecs:    dense   smooth      PW
     Min         376     186     52                69454    24556    3834
     Max         377     187     53                69479    24589    3859
     Sum        1507     745    211               277879    98259   15399

     Using Slab Decomposition



     bravais-lattice index     =            0
     lattice parameter (alat)  =       4.7752  a.u.
     unit-cell volume          =     553.1394 (a.u.)^3
     number of atoms/cell      =            8
     number of atomic types    =            2
     number of electrons       =        26.00
     number of Kohn-Sham states=           17
     kinetic-energy cutoff     =     120.0000  Ry
     charge density cutoff     =     960.0000  Ry
     scf convergence threshold =      1.0E-08
     mixing beta               =       0.3000
     number of iterations used =            8  plain     mixing
     Exchange-correlation= PBE
                           (   1   4   3   4   0   0   0)

     celldm(1)=   4.775235  celldm(2)=   0.000000  celldm(3)=   0.000000
     celldm(4)=   0.000000  celldm(5)=   0.000000  celldm(6)=   0.000000

     crystal axes: (cart. coord. in units of alat)
               a(1) = (   1.000000   0.000000   0.000000 )  
               a(2) = (   0.500000   0.866025   0.000000 )  
               a(3) = (   0.000000   0.000000   5.865696 )  

     reciprocal axes: (cart. coord. in units 2 pi/alat)
               b(1) = (  1.000000 -0.577350  0.000000 )  
               b(2) = (  0.000000  1.154701  0.000000 )  
               b(3) = (  0.000000  0.000000  0.170483 )  


     PseudoPot. # 1 for C  read from file:
     ./C.pbe-n-kjpaw_psl.1.0.0.UPF
     MD5 check sum: 5d2aebdfa2cae82b50a7e79e9516da0f
     Pseudo is Projector augmented-wave + core cor, Zval =  4.0
     Generated using "atomic" code by A. Dal Corso  v.5.1
     Shape of augmentation charge: PSQ
     Using radial grid of 1073 points,  4 beta functions with: 
                l(1) =   0
                l(2) =   0
                l(3) =   1
                l(4) =   1
     Q(r) pseudized with 0 coefficients 


     PseudoPot. # 2 for H  read from file:
     ./H_ONCV_PBE-1.0.oncvpsp.upf
     MD5 check sum: 1790becc920ee074925cf490c71280fe
     Pseudo is Norm-conserving, Zval =  1.0
     Generated using ONCVPSP code by D. R. Hamann
     Using radial grid of 1166 points,  2 beta functions with: 
                l(1) =   0
                l(2) =   0

     atomic species   valence    mass     pseudopotential
     C                 4.00    12.01100     C ( 1.00)
     H                 1.00     1.00800     H ( 1.00)

     12 Sym. Ops., with inversion, found ( 6 have fractional translation)



   Cartesian axes

     site n.     atom                  positions (alat units)
         1        C      tau(   1) = (   0.5000000   0.2886751   3.8425963  )
         2        C      tau(   2) = (   1.0000000   0.5773503   3.6495395  )
         3        C      tau(   3) = (   1.0000000   0.5773503   3.0344995  )
         4        C      tau(   4) = (  -0.0000000   0.0000000   2.8311966  )
         5        C      tau(   5) = (   0.0000000   0.0000000   2.2161565  )
         6        C      tau(   6) = (   0.5000000   0.2886751   2.0230997  )
         7        H      tau(   7) = (   0.5000000   0.2886751   4.2814431  )
         8        H      tau(   8) = (   0.5000000   0.2886751   1.5842529  )

     number of k points=    12  Marzari-Vanderbilt smearing, width (Ry)=  0.0100
                       cart. coord. in units 2pi/alat
        k(    1) = (   0.0000000   0.0000000   0.0000000), wk =   0.0246914
        k(    2) = (   0.0000000   0.1283001   0.0000000), wk =   0.1481481
        k(    3) = (   0.0000000   0.2566001   0.0000000), wk =   0.1481481
        k(    4) = (   0.0000000   0.3849002   0.0000000), wk =   0.1481481
        k(    5) = (   0.0000000   0.5132002   0.0000000), wk =   0.1481481
        k(    6) = (   0.1111111   0.1924501   0.0000000), wk =   0.1481481
        k(    7) = (   0.1111111   0.3207501   0.0000000), wk =   0.2962963
        k(    8) = (   0.1111111   0.4490502   0.0000000), wk =   0.2962963
        k(    9) = (   0.1111111  -0.5773503   0.0000000), wk =   0.1481481
        k(   10) = (   0.2222222   0.3849002   0.0000000), wk =   0.1481481
        k(   11) = (   0.2222222  -0.6415003   0.0000000), wk =   0.2962963
        k(   12) = (   0.3333333  -0.5773503   0.0000000), wk =   0.0493827

     Dense  grid:   277879 G-vectors     FFT dimensions: (  48,  48, 288)

     Smooth grid:    98259 G-vectors     FFT dimensions: (  36,  36, 200)

     Estimated max dynamical RAM per process >     119.34 MB

     Estimated total dynamical RAM >     477.37 MB

     Initial potential from superposition of free atoms

     starting charge      25.9997, renormalised to      26.0000
     Starting wfcs are   26 randomized atomic wfcs
     Checking if some PAW data can be deallocated... 

     total cpu time spent up to now is        1.2 secs

     Self-consistent Calculation

     iteration #  1     ecut=   120.00 Ry     beta= 0.30
     Davidson diagonalization with overlap
     ethr =  1.00E-02,  avg # of iterations =  2.9

     total cpu time spent up to now is        2.1 secs

     total energy              =    -113.01842251 Ry
     estimated scf accuracy    <       0.60534284 Ry

     iteration #  2     ecut=   120.00 Ry     beta= 0.30
     Davidson diagonalization with overlap
     ethr =  2.33E-03,  avg # of iterations =  3.2

     total cpu time spent up to now is        3.0 secs

     total energy              =    -112.97925882 Ry
     estimated scf accuracy    <       0.18546415 Ry

     iteration #  3     ecut=   120.00 Ry     beta= 0.30
     Davidson diagonalization with overlap
     ethr =  7.13E-04,  avg # of iterations =  4.8

     total cpu time spent up to now is        3.9 secs

     total energy              =    -112.98539765 Ry
     estimated scf accuracy    <       0.02652164 Ry

     iteration #  4     ecut=   120.00 Ry     beta= 0.30
     Davidson diagonalization with overlap
     ethr =  1.02E-04,  avg # of iterations =  5.2

     total cpu time spent up to now is        4.7 secs

     total energy              =    -112.98652222 Ry
     estimated scf accuracy    <       0.00319973 Ry

     iteration #  5     ecut=   120.00 Ry     beta= 0.30
     Davidson diagonalization with overlap
     ethr =  1.23E-05,  avg # of iterations =  5.2

     total cpu time spent up to now is        5.7 secs

     total energy              =    -112.98695661 Ry
     estimated scf accuracy    <       0.00023504 Ry

     iteration #  6     ecut=   120.00 Ry     beta= 0.30
     Davidson diagonalization with overlap
     ethr =  9.04E-07,  avg # of iterations =  3.0

     total cpu time spent up to now is        6.5 secs

     total energy              =    -112.98698516 Ry
     estimated scf accuracy    <       0.00007486 Ry

     iteration #  7     ecut=   120.00 Ry     beta= 0.30
     Davidson diagonalization with overlap
     ethr =  2.88E-07,  avg # of iterations =  2.2

     total cpu time spent up to now is        7.4 secs

     total energy              =    -112.98699898 Ry
     estimated scf accuracy    <       0.00002511 Ry

     iteration #  8     ecut=   120.00 Ry     beta= 0.30
     Davidson diagonalization with overlap
     ethr =  9.66E-08,  avg # of iterations =  1.8

     total cpu time spent up to now is        8.2 secs

     total energy              =    -112.98700154 Ry
     estimated scf accuracy    <       0.00000244 Ry

     iteration #  9     ecut=   120.00 Ry     beta= 0.30
     Davidson diagonalization with overlap
     ethr =  9.37E-09,  avg # of iterations =  2.3

     total cpu time spent up to now is        9.0 secs

     total energy              =    -112.98700182 Ry
     estimated scf accuracy    <       0.00000058 Ry

     iteration # 10     ecut=   120.00 Ry     beta= 0.30
     Davidson diagonalization with overlap
     ethr =  2.22E-09,  avg # of iterations =  2.2

     total cpu time spent up to now is        9.8 secs

     total energy              =    -112.98700191 Ry
     estimated scf accuracy    <       0.00000004 Ry

     iteration # 11     ecut=   120.00 Ry     beta= 0.30
     Davidson diagonalization with overlap
     ethr =  1.36E-10,  avg # of iterations =  3.0

     total cpu time spent up to now is       10.7 secs

     total energy              =    -112.98700192 Ry
     estimated scf accuracy    <       0.00000002 Ry

     iteration # 12     ecut=   120.00 Ry     beta= 0.30
     Davidson diagonalization with overlap
     ethr =  6.67E-11,  avg # of iterations =  2.0

     total cpu time spent up to now is       11.5 secs

     End of self-consistent calculation

          k = 0.0000 0.0000 0.0000 ( 12283 PWs)   bands (ev):

   -16.9010 -15.4130 -13.1816  -8.3583  -5.2790  -1.3853   1.5190   1.5190
     2.1010   2.3766   2.3766   3.4619   3.4619   6.4043   6.6363   9.2063
    10.3600

          k = 0.0000 0.1283 0.0000 ( 12353 PWs)   bands (ev):

   -16.6003 -15.1184 -12.8997  -8.0885  -5.0530  -1.2615   0.1107   0.8974
     1.0282   1.8492   1.9920   2.3210   3.0216   6.6556   6.9641   9.2090
    10.4099

          k = 0.0000 0.2566 0.0000 ( 12290 PWs)   bands (ev):

   -15.7046 -14.2425 -12.0637  -7.3377  -4.4687  -2.8592  -1.7460  -0.9224
    -0.3220  -0.2727   0.7711   1.7867   2.0455   7.4147   7.8491   9.3368
    10.2812

          k = 0.0000 0.3849 0.0000 ( 12264 PWs)   bands (ev):

   -14.2387 -12.8188 -10.7252  -6.8334  -5.7727  -4.5154  -3.8749  -2.6489
    -1.2664  -0.8487  -0.1821   1.0900   1.1412   8.5257   8.9157   9.6271
    10.4389

          k = 0.0000 0.5132 0.0000 ( 12264 PWs)   bands (ev):

   -12.3030 -11.0855  -9.6926  -8.2225  -8.0220  -6.1792  -3.8789  -2.5974
    -1.8078  -1.4403  -0.7083   0.5560   0.6338   8.9331   9.6572  10.3035
    10.8049

          k = 0.1111 0.1925 0.0000 ( 12313 PWs)   bands (ev):

   -16.0020 -14.5331 -12.3404  -7.5742  -4.6385  -1.6637  -1.0677  -0.9765
    -0.0623   0.2263   1.3318   1.3482   2.3145   7.1978   7.5754   9.6473
    10.4941

          k = 0.1111 0.3208 0.0000 ( 12261 PWs)   bands (ev):

   -14.8200 -13.3807 -11.2462  -6.7560  -4.4954  -3.9457  -3.0908  -2.3386
    -1.2155  -0.7945  -0.5578   0.4066   1.6949   8.3053   8.6068  10.1911
    10.9590

          k = 0.1111 0.4491 0.0000 ( 12261 PWs)   bands (ev):

   -13.1019 -11.7356  -9.7711  -7.6249  -6.7182  -4.9230  -4.3384  -2.6638
    -2.4462  -1.6691  -0.9775  -0.1591   0.8280   9.3406   9.9482  10.6992
    11.4620

          k = 0.1111-0.5774 0.0000 ( 12294 PWs)   bands (ev):

   -11.3246 -10.7886  -9.5698  -8.6364  -7.5066  -6.9495  -3.3417  -3.0463
    -2.6112  -1.6828  -1.6253  -0.2014   0.3306   9.6309  10.5066  11.3693
    11.6401

          k = 0.2222 0.3849 0.0000 ( 12272 PWs)   bands (ev):

   -13.3793 -11.9895  -9.9502  -6.8205  -5.6172  -4.8445  -3.9823  -3.4211
    -2.7432  -1.9239  -1.7011  -0.6499   0.9186   9.5294   9.8253  11.1744
    11.7597

          k = 0.2222-0.6415 0.0000 ( 12278 PWs)   bands (ev):

   -11.4955 -10.3249  -8.9521  -7.9886  -7.4283  -6.1483  -4.4610  -4.0865
    -3.0415  -2.6469  -1.7423  -0.9224  -0.0647  10.1620  10.8189  12.0192
    12.1526

          k = 0.3333-0.5774 0.0000 ( 12264 PWs)   bands (ev):

    -9.8893  -9.8893  -8.7801  -8.4761  -7.0509  -7.0509  -4.9314  -4.6334
    -4.6334  -1.8911  -1.3109  -1.3109  -1.0025  10.7659  10.7659  11.4176
    13.1182

     the Fermi energy is     4.2474 ev

!    total energy              =    -112.98700193 Ry
     estimated scf accuracy    <          3.3E-09 Ry
     smearing contrib. (-TS)   =       0.00000000 Ry
     internal energy E=F+TS    =    -112.98700193 Ry

     The total energy is F=E-TS. E is the sum of the following terms:
     one-electron contribution =    -588.52467619 Ry
     hartree contribution      =     305.25429565 Ry
     xc contribution           =     -29.50909672 Ry
     ewald contribution        =     236.77085212 Ry
     one-center paw contrib.   =     -36.97837678 Ry

     convergence has been achieved in  12 iterations

     Forces acting on atoms (cartesian axes, Ry/au):

     atom    1 type  1   force =     0.00000000    0.00000000   -0.00003853
     atom    2 type  1   force =     0.00000000    0.00000000    0.00000750
     atom    3 type  1   force =     0.00000000    0.00000000   -0.00001756
     atom    4 type  1   force =    -0.00000000   -0.00000000    0.00001756
     atom    5 type  1   force =     0.00000000   -0.00000000   -0.00000750
     atom    6 type  1   force =     0.00000000    0.00000000    0.00003853
     atom    7 type  2   force =     0.00000000    0.00000000   -0.00000284
     atom    8 type  2   force =     0.00000000    0.00000000    0.00000284

     Total force =     0.000061     Total SCF correction =     0.000097
     SCF correction compared to forces is large: reduce conv_thr to get better values


     Computing stress (Cartesian axis) and pressure

          total   stress  (Ry/bohr**3)                   (kbar)     P=        3.72
   0.00003872   0.00000000   0.00000000            5.70        0.00        0.00
   0.00000000   0.00003872   0.00000000            0.00        5.70        0.00
   0.00000000   0.00000000  -0.00000166            0.00        0.00       -0.24


     Writing all to output data dir ./tmp/slab.save/ :
     XML data file, charge density, pseudopotentials, collected wavefunctions

     init_run     :      0.67s CPU      0.94s WALL (       1 calls)
     electrons    :      9.87s CPU     10.54s WALL (       1 calls)
     forces       :      0.24s CPU      0.27s WALL (       1 calls)
     stress       :      1.32s CPU      1.34s WALL (       1 calls)

     Called by init_run:
     wfcinit      :      0.29s CPU      0.40s WALL (       1 calls)
     potinit      :      0.16s CPU      0.19s WALL (       1 calls)
     hinit0       :      0.11s CPU      0.18s WALL (       1 calls)

     Called by electrons:
     c_bands      :      5.77s CPU      5.94s WALL (      12 calls)
     sum_band     :      1.89s CPU      2.02s WALL (      12 calls)
     v_of_rho     :      0.97s CPU      1.05s WALL (      13 calls)
     newd         :      0.52s CPU      0.68s WALL (      13 calls)
     PAW_pot      :      0.75s CPU      0.77s WALL (      13 calls)
     mix_rho      :      0.08s CPU      0.10s WALL (      12 calls)

     Called by c_bands:
     init_us_2    :      0.24s CPU      0.26s WALL (     324 calls)
     cegterg      :      5.40s CPU      5.51s WALL (     144 calls)

     Called by *egterg:
     cdiaghg      :      0.16s CPU      0.27s WALL (     600 calls)
     h_psi        :      4.58s CPU      4.66s WALL (     612 calls)
     s_psi        :      0.18s CPU      0.18s WALL (     612 calls)
     g_psi        :      0.04s CPU      0.04s WALL (     456 calls)

     Called by h_psi:
     h_psi:calbec :      0.21s CPU      0.23s WALL (     612 calls)
     vloc_psi     :      4.13s CPU      4.19s WALL (     612 calls)
     add_vuspsi   :      0.21s CPU      0.21s WALL (     612 calls)

     General routines
     calbec       :      0.30s CPU      0.33s WALL (     816 calls)
     fft          :      0.39s CPU      0.50s WALL (     192 calls)
     ffts         :      0.01s CPU      0.02s WALL (      25 calls)
     fftw         :      3.32s CPU      3.36s WALL (   15738 calls)
     interpolate  :      0.03s CPU      0.04s WALL (      13 calls)

     Parallel routines

     PWSCF        :     12.19s CPU     13.44s WALL


   This run was terminated on:  11:41:28   1Aug2026            

=------------------------------------------------------------------------------=
   JOB DONE.
=------------------------------------------------------------------------------=
Note: The following floating-point exceptions are signalling: IEEE_UNDERFLOW_FLAG IEEE_DENORMAL
Note: The following floating-point exceptions are signalling: IEEE_UNDERFLOW_FLAG IEEE_DENORMAL
Note: The following floating-point exceptions are signalling: IEEE_UNDERFLOW_FLAG IEEE_DENORMAL
Note: The following floating-point exceptions are signalling: IEEE_UNDERFLOW_FLAG IEEE_DENORMAL
