
     Program PWSCF v.7.5 starts on  7Jul2026 at 14:11:31 

     This program is part of the open-source Quantum ESPRESSO suite
     for quantum simulation of materials; please cite
         "P. Giannozzi et al., J. Phys.:Condens. Matter 21 395502 (2009);
         "P. Giannozzi et al., J. Phys.:Condens. Matter 29 465901 (2017);
         "P. Giannozzi et al., J. Chem. Phys. 152 154105 (2020);
          URL http://www.quantum-espresso.org", 
     in publications or presentations arising from this work. More details at
     http://www.quantum-espresso.org/quote

     Serial version
     0 MiB available memory on the printing compute node when the environment starts

     Waiting for input...
     Reading input from standard input

     Current dimensions of program PWSCF are:
     Max number of different atomic species (ntypx) = 10
     Max number of k-points (npk) =  40000
     Max angular momentum in pseudopotentials (lmaxx) =  4
     file C.pbe-n-kjpaw_psl.1.0.0.UPF: wavefunction(s)  2S 2P renormalized
     Message from routine volume:
     axis vectors are left-handed
     Found identity + (  0.5000  0.0000  0.0000) symmetry
     This is a supercell, fractional translations are disabled
     Message from routine setup:
     using ibrav=0 with symmetry is DISCOURAGED, use correct ibrav instead


     G-vector sticks info
     --------------------
     sticks:   dense  smooth     PW     G-vecs:    dense   smooth      PW
     Sum        3509    1753    485               446327   157827   22719

     Using Slab Decomposition



     bravais-lattice index     =            0
     lattice parameter (alat)  =       9.5982  a.u.
     unit-cell volume          =    2512.0105 (a.u.)^3
     number of atoms/cell      =           32
     number of atomic types    =            2
     number of electrons       =       104.00
     number of Kohn-Sham states=           62
     kinetic-energy cutoff     =      60.0000  Ry
     charge density cutoff     =     480.0000  Ry
     scf convergence threshold =      1.0E-08
     mixing beta               =       0.3000
     number of iterations used =            8  plain     mixing
     Exchange-correlation= PBE
                           (   1   4   3   4   0   0   0)

     celldm(1)=   9.598223  celldm(2)=   0.000000  celldm(3)=   0.000000
     celldm(4)=   0.000000  celldm(5)=   0.000000  celldm(6)=   0.000000

     crystal axes: (cart. coord. in units of alat)
               a(1) = (   1.000000   0.000000   0.000000 )  
               a(2) = (   0.000000  -0.995025   0.000000 )  
               a(3) = (   0.000000   0.000000   2.855058 )  

     reciprocal axes: (cart. coord. in units 2 pi/alat)
               b(1) = (  1.000000 -0.000000 -0.000000 )  
               b(2) = ( -0.000000 -1.005000 -0.000000 )  
               b(3) = ( -0.000000 -0.000000  0.350256 )  


     PseudoPot. # 1 for C  read from file:
     ./C.pbe-n-kjpaw_psl.1.0.0.UPF
     MD5 check sum: 5d2aebdfa2cae82b50a7e79e9516da0f
     Pseudo is Projector augmented-wave + core cor, Zval =  4.0
     Generated using "atomic" code by A. Dal Corso  v.5.1
     Shape of augmentation charge: PSQ
     Using radial grid of 1073 points,  4 beta functions with: 
                l(1) =   0
                l(2) =   0
                l(3) =   1
                l(4) =   1
     Q(r) pseudized with 0 coefficients 


     PseudoPot. # 2 for H  read from file:
     ./H_ONCV_PBE-1.0.oncvpsp.upf
     MD5 check sum: 1790becc920ee074925cf490c71280fe
     Pseudo is Norm-conserving, Zval =  1.0
     Generated using ONCVPSP code by D. R. Hamann
     Using radial grid of 1166 points,  2 beta functions with: 
                l(1) =   0
                l(2) =   0

     atomic species   valence    mass     pseudopotential
     C                 4.00    12.01100     C ( 1.00)
     H                 1.00     1.00800     H ( 1.00)

      4 Sym. Ops. (no inversion) found



   Cartesian axes

     site n.     atom                  positions (alat units)
         1        C      tau(   1) = (   0.0000000  -0.1574216   1.8500310  )
         2        C      tau(   2) = (   0.2500000  -0.2287710   1.6914359  )
         3        C      tau(   3) = (   0.2500000   0.0000000   1.4862315  )
         4        C      tau(   4) = (   0.0000000   0.0000000   1.3112736  )
         5        C      tau(   5) = (   0.0000000  -0.2687414   1.1636223  )
         6        C      tau(   6) = (   0.2500000  -0.3400908   1.0050271  )
         7        C      tau(   7) = (   0.0000000  -0.8376032   1.8500310  )
         8        C      tau(   8) = (   0.2500000  -0.7662539   1.6914359  )
         9        C      tau(   9) = (   0.2500000  -0.4975124   1.5437845  )
        10        C      tau(  10) = (   0.0000000  -0.4975124   1.3688267  )
        11        C      tau(  11) = (   0.0000000  -0.7262834   1.1636223  )
        12        C      tau(  12) = (   0.2500000  -0.6549341   1.0050271  )
        13        H      tau(  13) = (   0.0000000  -0.2436896   2.0487606  )
        14        H      tau(  14) = (   0.0000000  -0.7513353   2.0487606  )
        15        H      tau(  15) = (   0.2500000  -0.2538228   0.8062976  )
        16        H      tau(  16) = (   0.2500000  -0.7412020   0.8062976  )
        17        C      tau(  17) = (   0.5000000  -0.1574216   1.8500310  )
        18        C      tau(  18) = (   0.7500000  -0.2287710   1.6914359  )
        19        C      tau(  19) = (   0.7500000   0.0000000   1.4862315  )
        20        C      tau(  20) = (   0.5000000   0.0000000   1.3112736  )
        21        C      tau(  21) = (   0.5000000  -0.2687414   1.1636223  )
        22        C      tau(  22) = (   0.7500000  -0.3400908   1.0050271  )
        23        C      tau(  23) = (   0.5000000  -0.8376032   1.8500310  )
        24        C      tau(  24) = (   0.7500000  -0.7662539   1.6914359  )
        25        C      tau(  25) = (   0.7500000  -0.4975124   1.5437845  )
        26        C      tau(  26) = (   0.5000000  -0.4975124   1.3688267  )
        27        C      tau(  27) = (   0.5000000  -0.7262834   1.1636223  )
        28        C      tau(  28) = (   0.7500000  -0.6549341   1.0050271  )
        29        H      tau(  29) = (   0.5000000  -0.2436896   2.0487606  )
        30        H      tau(  30) = (   0.5000000  -0.7513353   2.0487606  )
        31        H      tau(  31) = (   0.7500000  -0.2538228   0.8062976  )
        32        H      tau(  32) = (   0.7500000  -0.7412020   0.8062976  )

     number of k points=     9  Marzari-Vanderbilt smearing, width (Ry)=  0.0100
                       cart. coord. in units 2pi/alat
        k(    1) = (   0.0000000  -0.0000000   0.0000000), wk =   0.0800000
        k(    2) = (   0.0000000  -0.2010000   0.0000000), wk =   0.1600000
        k(    3) = (   0.0000000  -0.4020000   0.0000000), wk =   0.1600000
        k(    4) = (   0.2000000  -0.0000000   0.0000000), wk =   0.1600000
        k(    5) = (   0.2000000  -0.2010000   0.0000000), wk =   0.3200000
        k(    6) = (   0.2000000  -0.4020000   0.0000000), wk =   0.3200000
        k(    7) = (   0.4000000  -0.0000000   0.0000000), wk =   0.1600000
        k(    8) = (   0.4000000  -0.2010000   0.0000000), wk =   0.3200000
        k(    9) = (   0.4000000  -0.4020000   0.0000000), wk =   0.3200000

     Dense  grid:   446327 G-vectors     FFT dimensions: (  72,  72, 192)

     Smooth grid:   157827 G-vectors     FFT dimensions: (  48,  48, 135)

     Estimated max dynamical RAM per process >       1.26 GB

     Check: negative core charge=   -0.000002

     Initial potential from superposition of free atoms

     starting charge     103.9989, renormalised to     104.0000

     negative rho (up, down):  4.839E-06 0.000E+00
     Starting wfcs are  104 randomized atomic wfcs

     total cpu time spent up to now is        4.8 secs

     Self-consistent Calculation

     iteration #  1     ecut=    60.00 Ry     beta= 0.30
     Davidson diagonalization with overlap
     ethr =  1.00E-02,  avg # of iterations =  3.0

     negative rho (up, down):  1.474E-05 0.000E+00

     total cpu time spent up to now is       14.9 secs

     total energy              =    -451.90351343 Ry
     estimated scf accuracy    <       2.43072435 Ry

     iteration #  2     ecut=    60.00 Ry     beta= 0.30
     Davidson diagonalization with overlap
     ethr =  2.34E-03,  avg # of iterations =  5.0

     negative rho (up, down):  4.826E-05 0.000E+00

     total cpu time spent up to now is       23.9 secs

     total energy              =    -451.75030168 Ry
     estimated scf accuracy    <       0.71286664 Ry

     iteration #  3     ecut=    60.00 Ry     beta= 0.30
     Davidson diagonalization with overlap
     ethr =  6.85E-04,  avg # of iterations =  6.9

     negative rho (up, down):  6.704E-05 0.000E+00

     total cpu time spent up to now is       34.7 secs

     total energy              =    -451.77526816 Ry
     estimated scf accuracy    <       0.10591590 Ry

     iteration #  4     ecut=    60.00 Ry     beta= 0.30
     Davidson diagonalization with overlap
     ethr =  1.02E-04,  avg # of iterations =  5.0

     negative rho (up, down):  8.580E-05 0.000E+00

     total cpu time spent up to now is       44.1 secs

     total energy              =    -451.78379956 Ry
     estimated scf accuracy    <       0.01033370 Ry

     iteration #  5     ecut=    60.00 Ry     beta= 0.30
     Davidson diagonalization with overlap
     ethr =  9.94E-06,  avg # of iterations =  9.6

     negative rho (up, down):  7.131E-05 0.000E+00

     total cpu time spent up to now is       57.1 secs

     total energy              =    -451.78549572 Ry
     estimated scf accuracy    <       0.00270690 Ry

     iteration #  6     ecut=    60.00 Ry     beta= 0.30
     Davidson diagonalization with overlap
     ethr =  2.60E-06,  avg # of iterations =  8.1

     negative rho (up, down):  7.153E-05 0.000E+00

     total cpu time spent up to now is       68.3 secs

     total energy              =    -451.78590108 Ry
     estimated scf accuracy    <       0.00029971 Ry

     iteration #  7     ecut=    60.00 Ry     beta= 0.30
     Davidson diagonalization with overlap
     ethr =  2.88E-07,  avg # of iterations =  2.9

     negative rho (up, down):  7.037E-05 0.000E+00

     total cpu time spent up to now is       77.0 secs

     total energy              =    -451.78594036 Ry
     estimated scf accuracy    <       0.00003506 Ry

     iteration #  8     ecut=    60.00 Ry     beta= 0.30
     Davidson diagonalization with overlap
     ethr =  3.37E-08,  avg # of iterations =  3.2

     negative rho (up, down):  6.968E-05 0.000E+00

     total cpu time spent up to now is       86.0 secs

     total energy              =    -451.78594593 Ry
     estimated scf accuracy    <       0.00001608 Ry

     iteration #  9     ecut=    60.00 Ry     beta= 0.30
     Davidson diagonalization with overlap
     ethr =  1.55E-08,  avg # of iterations =  2.1

     negative rho (up, down):  6.959E-05 0.000E+00

     total cpu time spent up to now is       94.5 secs

     total energy              =    -451.78594935 Ry
     estimated scf accuracy    <       0.00000174 Ry

     iteration # 10     ecut=    60.00 Ry     beta= 0.30
     Davidson diagonalization with overlap
     ethr =  1.67E-09,  avg # of iterations =  3.7

     negative rho (up, down):  6.951E-05 0.000E+00

     total cpu time spent up to now is      104.4 secs

     total energy              =    -451.78594939 Ry
     estimated scf accuracy    <       0.00000113 Ry

     iteration # 11     ecut=    60.00 Ry     beta= 0.30
     Davidson diagonalization with overlap
     ethr =  1.09E-09,  avg # of iterations =  2.9

     negative rho (up, down):  6.964E-05 0.000E+00

     total cpu time spent up to now is      113.5 secs

     total energy              =    -451.78594971 Ry
     estimated scf accuracy    <       0.00000005 Ry

     iteration # 12     ecut=    60.00 Ry     beta= 0.30
     Davidson diagonalization with overlap
     ethr =  4.95E-11,  avg # of iterations =  2.4

     negative rho (up, down):  6.976E-05 0.000E+00

     total cpu time spent up to now is      121.7 secs

     total energy              =    -451.78594970 Ry
     estimated scf accuracy    <       0.00000002 Ry

     iteration # 13     ecut=    60.00 Ry     beta= 0.30
     Davidson diagonalization with overlap
     ethr =  2.18E-11,  avg # of iterations =  4.8

     negative rho (up, down):  6.985E-05 0.000E+00

     total cpu time spent up to now is      467.5 secs

     total energy              =    -451.78594970 Ry
     estimated scf accuracy    <       0.00000006 Ry

     iteration # 14     ecut=    60.00 Ry     beta= 0.30
     Davidson diagonalization with overlap
     ethr =  2.18E-11,  avg # of iterations =  3.2

     negative rho (up, down):  7.016E-05 0.000E+00

     total cpu time spent up to now is     1323.2 secs

     End of self-consistent calculation

          k = 0.0000-0.0000 0.0000 ( 19731 PWs)   bands (ev):

   -17.7114 -16.0166 -13.4108 -13.4108 -13.1375 -12.9327 -12.8339 -11.8087
   -11.5814 -11.5814  -9.3135  -9.3135  -9.0478  -8.8630  -8.8630  -8.6961
    -8.1459  -8.1459  -7.8366  -7.7806  -7.7806  -5.4096  -5.3899  -5.1642
    -4.8281  -4.8281  -3.9211  -3.9211  -3.4832  -3.4832  -2.7689  -2.2370
    -2.2370  -2.2065  -2.1343  -2.1343  -1.9373  -1.7621  -1.6647  -1.2791
    -1.1712  -1.1712   0.1546   0.3703   0.3703   0.3989   0.5152   0.7907
     0.7951   0.9269   1.2756   1.6639   5.4055   5.8554   7.4005   7.6534
     7.7499   8.2693   8.6420   8.9460   8.9460   9.1118

          k = 0.0000-0.2010 0.0000 ( 19721 PWs)   bands (ev):

   -17.5464 -16.0322 -14.2317 -13.3350 -13.2539 -13.2539 -11.6903 -11.5983
   -11.5983 -11.5248 -10.3548 -10.3548  -9.1418  -8.5561  -8.5561  -8.1673
    -7.7647  -7.6387  -7.6387  -7.4731  -7.4731  -5.9231  -5.0493  -4.9412
    -4.9412  -4.7664  -3.8491  -3.8491  -3.2805  -3.2805  -3.2118  -2.6291
    -2.3166  -2.3166  -1.9199  -1.8969  -1.8969  -1.8459  -1.3580  -1.2992
    -1.1938  -1.1938  -0.4017  -0.3406  -0.3406  -0.3019   0.3615   0.5245
     1.1867   1.2589   1.3333   1.5607   5.6390   6.0601   7.7290   8.0016
     8.1964   8.5231   8.5659   8.7351   8.8694   8.8696

          k = 0.0000-0.4020 0.0000 ( 19684 PWs)   bands (ev):

   -17.0717 -16.4105 -14.5754 -14.0764 -12.8218 -12.8218 -11.9851 -11.9851
   -11.3341 -10.9597 -10.8650 -10.8650  -8.9948  -8.9948  -8.6184  -7.7903
    -7.2571  -7.1427  -7.1427  -6.8011  -6.8011  -6.2942  -4.9997  -4.6300
    -4.6300  -4.4695  -3.9862  -3.7126  -3.7126  -3.2407  -3.2407  -3.1300
    -2.2301  -2.0643  -2.0643  -1.9469  -1.9469  -1.6821  -1.6662  -1.4083
    -1.4083  -1.3022  -1.3022  -1.1358  -0.5161  -0.4076  -0.0130   0.0864
     0.8501   1.2025   1.6798   1.7658   6.2897   6.6332   7.3404   7.5636
     8.1578   8.4434   8.5698   8.5699   8.8405   8.9047

          k = 0.2000-0.0000 0.0000 ( 19672 PWs)   bands (ev):

   -17.5302 -15.8392 -14.8719 -13.3166 -12.9699 -12.7645 -12.6621 -11.6474
   -11.3783 -10.7114 -10.4858 -10.1642  -9.3331  -9.1274  -8.9679  -8.5453
    -7.6893  -7.5566  -7.0079  -6.8470  -6.7553  -5.3899  -5.3707  -5.3211
    -5.2125  -5.0353  -4.1534  -3.7873  -3.7679  -3.3345  -2.7124  -2.5506
    -2.4558  -2.2709  -2.0904  -1.7308  -1.7248  -1.6472  -1.6241  -1.6119
    -1.2092  -0.8030  -0.5708  -0.1890  -0.1126  -0.0371   0.1687   0.5326
     0.7629   0.7886   0.8389   1.4949   5.5728   6.0504   7.8298   7.9855
     8.0608   8.0912   8.2865   8.7909   9.0526   9.1269

          k = 0.2000-0.2010 0.0000 ( 19710 PWs)   bands (ev):

   -17.3654 -15.8543 -14.7110 -14.0596 -13.3012 -13.1661 -11.6902 -11.5287
   -11.3604 -11.0968 -10.8967  -9.9847  -9.0464  -8.9579  -8.6419  -8.0287
    -7.9593  -7.6260  -7.2923  -6.2932  -6.1794  -5.8499  -5.6019  -5.0760
    -4.9957  -4.6684  -4.3506  -3.6637  -3.6113  -3.1063  -3.0211  -2.6751
    -2.4398  -2.3595  -2.3405  -1.9208  -1.7693  -1.7545  -1.5387  -1.2983
    -1.2182  -1.0558  -0.9115  -0.5474  -0.5376  -0.2072   0.0959   0.2842
     0.5173   0.6430   1.2469   1.3389   5.8042   6.2578   7.9937   8.1190
     8.2265   8.5587   8.6598   8.7782   8.7982   8.9094

          k = 0.2000-0.4020 0.0000 ( 19698 PWs)   bands (ev):

   -16.8915 -16.2313 -14.4032 -14.2483 -13.9056 -13.6111 -12.0155 -11.5218
   -11.1749 -10.8102 -10.8027 -10.4107  -8.5287  -8.5185  -8.4302  -7.8988
    -7.6981  -7.5147  -7.1144  -6.1514  -5.7868  -5.4241  -5.4064  -4.9039
    -4.7019  -4.3922  -4.2106  -4.0130  -3.9299  -3.2897  -3.1094  -3.0024
    -2.7347  -2.7158  -2.4699  -1.9405  -1.8621  -1.7598  -1.5867  -1.3346
    -1.3142  -1.1142  -0.9588  -0.9463  -0.8601  -0.8228  -0.5351  -0.0318
     0.8825   0.9593   0.9927   1.3221   6.4525   6.8300   7.5001   7.7343
     7.9622   8.1411   8.2778   8.8165   8.8940   9.1941

          k = 0.4000-0.0000 0.0000 ( 19728 PWs)   bands (ev):

   -16.9889 -16.0957 -15.3104 -14.4448 -12.4707 -12.2670 -12.1501 -11.6566
   -11.4784 -11.3084 -11.1667 -10.3796  -9.6677  -8.9027  -8.1329  -7.8814
    -7.2731  -6.9656  -6.7296  -6.4350  -5.6622  -5.6447  -5.6007  -5.2272
    -4.6677  -4.5378  -4.4370  -3.9699  -3.8639  -3.7761  -3.3257  -2.7232
    -2.5965  -2.5193  -1.8222  -1.7885  -1.5957  -1.5615  -1.5508  -1.5330
    -1.3581  -1.2418  -1.2297  -0.8931  -0.4722  -0.4549  -0.3869   0.0721
     0.1610   0.7288   0.9267   0.9549   6.0774   6.4840   6.9486   7.1244
     8.4021   8.6315   9.1021   9.1592   9.2171   9.3571

          k = 0.4000-0.2010 0.0000 ( 19711 PWs)   bands (ev):

   -16.8248 -15.9328 -15.3239 -14.4535 -13.5473 -12.7118 -12.6649 -11.8565
   -11.0520 -10.8700 -10.3099 -10.0676  -9.5617  -8.9145  -7.8084  -7.6787
    -7.2632  -6.9482  -6.6794  -6.1232  -5.8443  -5.7576  -5.4556  -5.0848
    -4.8197  -4.6591  -4.2312  -4.0446  -3.7093  -3.6232  -2.9937  -2.9905
    -2.7600  -2.7301  -2.5379  -2.1553  -1.7856  -1.6959  -1.5918  -1.3555
    -1.3071  -1.2194  -0.8042  -0.7844  -0.7426  -0.5006  -0.3897  -0.3196
    -0.0964   0.5804   0.6663   1.0255   6.2809   6.7070   7.1027   7.3422
     8.3211   8.6999   8.8068   8.8685   8.8743   9.2140

          k = 0.4000-0.4020 0.0000 ( 19745 PWs)   bands (ev):

   -16.3530 -15.6962 -15.4648 -14.8142 -13.8914 -13.3979 -13.0599 -12.5737
   -10.7103 -10.3453 -10.0459  -9.7711  -8.8041  -8.3590  -8.1705  -7.5715
    -6.7437  -6.5225  -6.2937  -5.7792  -5.6954  -5.3756  -5.3504  -5.0628
    -4.8407  -4.8378  -4.4338  -4.1806  -3.9977  -3.9522  -3.5448  -3.2861
    -2.9397  -2.7899  -2.7126  -2.5131  -2.1983  -2.0335  -1.5099  -1.4782
    -1.3087  -1.2310  -1.0570  -0.8502  -0.7173  -0.5684  -0.1812  -0.0620
    -0.0589   0.0991   0.5776   0.8938   6.8588   7.3000   7.3781   7.6146
     7.7410   8.0394   8.1107   8.2106   8.4587   8.7238

     the Fermi energy is     3.2702 ev

!    total energy              =    -451.78594970 Ry
     estimated scf accuracy    <          3.0E-09 Ry
     smearing contrib. (-TS)   =       0.00000000 Ry
     internal energy E=F+TS    =    -451.78594970 Ry

     The total energy is F=E-TS. E is the sum of the following terms:
     one-electron contribution =   -2308.66375016 Ry
     hartree contribution      =    1195.03242658 Ry
     xc contribution           =    -117.57859652 Ry
     ewald contribution        =     927.33809791 Ry
     one-center paw contrib.   =    -147.91412750 Ry

     convergence has been achieved in  14 iterations

     negative rho (up, down):  7.016E-05 0.000E+00

     Forces acting on atoms (cartesian axes, Ry/au):

     atom    1 type  1   force =     0.00000000    0.00016834   -0.00120657
     atom    2 type  1   force =    -0.00000003    0.00000616    0.00043739
     atom    3 type  1   force =    -0.00000007    0.00000000    0.00010926
     atom    4 type  1   force =     0.00000000   -0.00000000    0.00094450
     atom    5 type  1   force =     0.00000000   -0.00000609   -0.00043717
     atom    6 type  1   force =     0.00000004   -0.00016825    0.00120629
     atom    7 type  1   force =     0.00000000   -0.00016834   -0.00120657
     atom    8 type  1   force =    -0.00000003   -0.00000616    0.00043739
     atom    9 type  1   force =    -0.00000006    0.00000000   -0.00094463
     atom   10 type  1   force =     0.00000000    0.00000000   -0.00010925
     atom   11 type  1   force =     0.00000000    0.00000609   -0.00043717
     atom   12 type  1   force =     0.00000004    0.00016825    0.00120629
     atom   13 type  2   force =     0.00000000    0.00012897   -0.00013498
     atom   14 type  2   force =     0.00000000   -0.00012897   -0.00013498
     atom   15 type  2   force =     0.00000001   -0.00012906    0.00013516
     atom   16 type  2   force =     0.00000001    0.00012906    0.00013516
     atom   17 type  1   force =     0.00000000    0.00016837   -0.00120658
     atom   18 type  1   force =     0.00000003    0.00000616    0.00043739
     atom   19 type  1   force =     0.00000007   -0.00000000    0.00010926
     atom   20 type  1   force =     0.00000000   -0.00000000    0.00094444
     atom   21 type  1   force =     0.00000000   -0.00000614   -0.00043724
     atom   22 type  1   force =    -0.00000004   -0.00016825    0.00120629
     atom   23 type  1   force =     0.00000000   -0.00016837   -0.00120658
     atom   24 type  1   force =     0.00000003   -0.00000616    0.00043739
     atom   25 type  1   force =     0.00000006    0.00000000   -0.00094463
     atom   26 type  1   force =     0.00000000    0.00000000   -0.00010929
     atom   27 type  1   force =     0.00000000    0.00000614   -0.00043724
     atom   28 type  1   force =    -0.00000004    0.00016825    0.00120629
     atom   29 type  2   force =     0.00000000    0.00012898   -0.00013498
     atom   30 type  2   force =     0.00000000   -0.00012898   -0.00013498
     atom   31 type  2   force =    -0.00000001   -0.00012906    0.00013516
     atom   32 type  2   force =    -0.00000001    0.00012906    0.00013516

     Total force =     0.004159     Total SCF correction =     0.000149


     Computing stress (Cartesian axis) and pressure


     negative rho (up, down):  7.016E-05 0.000E+00
          total   stress  (Ry/bohr**3)                   (kbar)     P=      -23.59
  -0.00010314   0.00000000   0.00000000          -15.17        0.00        0.00
   0.00000000  -0.00034697   0.00000000            0.00      -51.04        0.00
   0.00000000   0.00000000  -0.00003088            0.00        0.00       -4.54


     Writing all to output data dir ./tmp/slab.save/ :
     XML data file, charge density, pseudopotentials, collected wavefunctions

     init_run     :      4.46s CPU      4.74s WALL (       1 calls)
     electrons    :    126.35s CPU   1318.39s WALL (       1 calls)
     forces       :      1.45s CPU      1.69s WALL (       1 calls)
     stress       :      3.62s CPU      4.30s WALL (       1 calls)

     Called by init_run:
     wfcinit      :      3.70s CPU      3.92s WALL (       1 calls)
     potinit      :      0.46s CPU      0.48s WALL (       1 calls)
     hinit0       :      0.14s CPU      0.15s WALL (       1 calls)

     Called by electrons:
     c_bands      :    104.69s CPU   1294.67s WALL (      14 calls)
     sum_band     :     13.99s CPU     14.99s WALL (      14 calls)
     v_of_rho     :      2.19s CPU      2.36s WALL (      15 calls)
     newd         :      1.32s CPU      1.77s WALL (      15 calls)
     PAW_pot      :      4.20s CPU      4.60s WALL (      15 calls)
     mix_rho      :      0.28s CPU      0.34s WALL (      14 calls)

     Called by c_bands:
     init_us_2    :      1.13s CPU      1.26s WALL (     279 calls)
     cegterg      :    102.18s CPU   1292.08s WALL (     126 calls)

     Called by *egterg:
     cdiaghg      :      1.81s CPU      1.85s WALL (     691 calls)
     h_psi        :     73.09s CPU   1256.36s WALL (     700 calls)
     s_psi        :      8.61s CPU     10.27s WALL (     700 calls)
     g_psi        :      0.31s CPU      0.31s WALL (     565 calls)

     Called by h_psi:
     h_psi:calbec :      7.71s CPU    343.71s WALL (     700 calls)
     vloc_psi     :     55.79s CPU    900.89s WALL (     700 calls)
                                        0.00s GPU  (     700 calls)
     add_vuspsi   :      9.33s CPU     11.30s WALL (     700 calls)

     General routines
     calbec       :     11.84s CPU    348.89s WALL (     979 calls)
     fft          :      1.39s CPU      1.40s WALL (     218 calls)
     ffts         :      0.07s CPU      0.07s WALL (      29 calls)
     fftw         :     59.41s CPU    904.13s WALL (   52082 calls)
     interpolate  :      0.15s CPU      0.17s WALL (      15 calls)


     PWSCF        :   2m15.93s CPU  22m 9.22s WALL


   This run was terminated on:  14:33:40   7Jul2026            

=------------------------------------------------------------------------------=
   JOB DONE.
=------------------------------------------------------------------------------=
Note: The following floating-point exceptions are signalling: IEEE_INVALID_FLAG IEEE_DIVIDE_BY_ZERO IEEE_OVERFLOW_FLAG IEEE_UNDERFLOW_FLAG
