
     Program PWSCF v.7.5 starts on 23Jun2026 at 15:19:53 

     This program is part of the open-source Quantum ESPRESSO suite
     for quantum simulation of materials; please cite
         "P. Giannozzi et al., J. Phys.:Condens. Matter 21 395502 (2009);
         "P. Giannozzi et al., J. Phys.:Condens. Matter 29 465901 (2017);
         "P. Giannozzi et al., J. Chem. Phys. 152 154105 (2020);
          URL http://www.quantum-espresso.org", 
     in publications or presentations arising from this work. More details at
     http://www.quantum-espresso.org/quote

     Serial version
     0 MiB available memory on the printing compute node when the environment starts

     Waiting for input...
     Reading input from standard input

     Current dimensions of program PWSCF are:
     Max number of different atomic species (ntypx) = 10
     Max number of k-points (npk) =  40000
     Max angular momentum in pseudopotentials (lmaxx) =  4
     file C.pbe-n-kjpaw_psl.1.0.0.UPF: wavefunction(s)  2S 2P renormalized
     Message from routine volume:
     axis vectors are left-handed
     Message from routine setup:
     using ibrav=0 with symmetry is DISCOURAGED, use correct ibrav instead


     G-vector sticks info
     --------------------
     sticks:   dense  smooth     PW     G-vecs:    dense   smooth      PW
     Sum        1625     817    235               366073   129623   20359

     Using Slab Decomposition



     bravais-lattice index     =            0
     lattice parameter (alat)  =       4.7275  a.u.
     unit-cell volume          =    1339.7856 (a.u.)^3
     number of atoms/cell      =           14
     number of atomic types    =            2
     number of electrons       =        50.00
     number of Kohn-Sham states=           30
     kinetic-energy cutoff     =      80.0000  Ry
     charge density cutoff     =     640.0000  Ry
     scf convergence threshold =      1.0E-08
     mixing beta               =       0.3000
     number of iterations used =            8  plain     mixing
     Exchange-correlation= PBE
                           (   1   4   3   4   0   0   0)

     celldm(1)=   4.727483  celldm(2)=   0.000000  celldm(3)=   0.000000
     celldm(4)=   0.000000  celldm(5)=   0.000000  celldm(6)=   0.000000

     crystal axes: (cart. coord. in units of alat)
               a(1) = (   1.000000   0.000000   0.000000 )  
               a(2) = (   0.000000  -1.428499   0.000000 )  
               a(3) = (   0.000000   0.000000   8.876986 )  

     reciprocal axes: (cart. coord. in units 2 pi/alat)
               b(1) = (  1.000000 -0.000000 -0.000000 )  
               b(2) = ( -0.000000 -0.700036 -0.000000 )  
               b(3) = ( -0.000000 -0.000000  0.112651 )  


     PseudoPot. # 1 for C  read from file:
     ./C.pbe-n-kjpaw_psl.1.0.0.UPF
     MD5 check sum: 5d2aebdfa2cae82b50a7e79e9516da0f
     Pseudo is Projector augmented-wave + core cor, Zval =  4.0
     Generated using "atomic" code by A. Dal Corso  v.5.1
     Shape of augmentation charge: PSQ
     Using radial grid of 1073 points,  4 beta functions with: 
                l(1) =   0
                l(2) =   0
                l(3) =   1
                l(4) =   1
     Q(r) pseudized with 0 coefficients 


     PseudoPot. # 2 for H  read from file:
     ./H_ONCV_PBE-1.0.oncvpsp.upf
     MD5 check sum: 1790becc920ee074925cf490c71280fe
     Pseudo is Norm-conserving, Zval =  1.0
     Generated using ONCVPSP code by D. R. Hamann
     Using radial grid of 1166 points,  2 beta functions with: 
                l(1) =   0
                l(2) =   0

     atomic species   valence    mass     pseudopotential
     C                 4.00    12.01100     C ( 1.00)
     H                 1.00     1.00800     H ( 1.00)

      4 Sym. Ops. (no inversion) found ( 2 have fractional translation)



   Cartesian axes

     site n.     atom                  positions (alat units)
         1        C      tau(   1) = (   0.0000000  -0.3647862   5.5105185  )
         2        C      tau(   2) = (   0.5000000  -0.7065878   5.5105185  )
         3        C      tau(   3) = (   0.0000000   0.0012780   5.0168318  )
         4        C      tau(   4) = (   0.5000000  -1.0726519   5.0168318  )
         5        C      tau(   5) = (   0.0000000  -0.3575156   4.5105770  )
         6        C      tau(   6) = (   0.5000000  -0.7138583   4.5105770  )
         7        C      tau(   7) = (   0.0000000   0.0025341   4.0066869  )
         8        C      tau(   8) = (   0.5000000  -1.0739080   4.0066869  )
         9        C      tau(   9) = (   0.0000000  -0.3571246   3.5030403  )
        10        C      tau(  10) = (   0.5000000  -0.7142493   3.5030403  )
        11        C      tau(  11) = (   0.0000000   0.0000000   2.9979898  )
        12        C      tau(  12) = (   0.5000000  -1.0713739   2.9979898  )
        13        H      tau(  13) = (   0.0000000  -0.1254120   5.8786862  )
        14        H      tau(  14) = (   0.5000000  -0.9459619   5.8786862  )

     number of k points=    20  Marzari-Vanderbilt smearing, width (Ry)=  0.0100
                       cart. coord. in units 2pi/alat
        k(    1) = (   0.0000000  -0.0000000   0.0000000), wk =   0.0317460
        k(    2) = (   0.0000000  -0.1000051   0.0000000), wk =   0.0634921
        k(    3) = (   0.0000000  -0.2000102   0.0000000), wk =   0.0634921
        k(    4) = (   0.0000000  -0.3000153   0.0000000), wk =   0.0634921
        k(    5) = (   0.1111111  -0.0000000   0.0000000), wk =   0.0634921
        k(    6) = (   0.1111111  -0.1000051   0.0000000), wk =   0.1269841
        k(    7) = (   0.1111111  -0.2000102   0.0000000), wk =   0.1269841
        k(    8) = (   0.1111111  -0.3000153   0.0000000), wk =   0.1269841
        k(    9) = (   0.2222222  -0.0000000   0.0000000), wk =   0.0634921
        k(   10) = (   0.2222222  -0.1000051   0.0000000), wk =   0.1269841
        k(   11) = (   0.2222222  -0.2000102   0.0000000), wk =   0.1269841
        k(   12) = (   0.2222222  -0.3000153   0.0000000), wk =   0.1269841
        k(   13) = (   0.3333333  -0.0000000   0.0000000), wk =   0.0634921
        k(   14) = (   0.3333333  -0.1000051   0.0000000), wk =   0.1269841
        k(   15) = (   0.3333333  -0.2000102   0.0000000), wk =   0.1269841
        k(   16) = (   0.3333333  -0.3000153   0.0000000), wk =   0.1269841
        k(   17) = (   0.4444444  -0.0000000   0.0000000), wk =   0.0634921
        k(   18) = (   0.4444444  -0.1000051   0.0000000), wk =   0.1269841
        k(   19) = (   0.4444444  -0.2000102   0.0000000), wk =   0.1269841
        k(   20) = (   0.4444444  -0.3000153   0.0000000), wk =   0.1269841

     Dense  grid:   366073 G-vectors     FFT dimensions: (  40,  60, 360)

     Smooth grid:   129623 G-vectors     FFT dimensions: (  30,  40, 240)

     Estimated max dynamical RAM per process >     835.31 MB

     Initial potential from superposition of free atoms

     starting charge      49.9995, renormalised to      50.0000

     negative rho (up, down):  6.039E-05 0.000E+00
     Starting wfcs are   50 randomized atomic wfcs

     total cpu time spent up to now is        4.2 secs

     Self-consistent Calculation

     iteration #  1     ecut=    80.00 Ry     beta= 0.30
     Davidson diagonalization with overlap
     ethr =  1.00E-02,  avg # of iterations =  2.5

     negative rho (up, down):  5.795E-05 0.000E+00

     total cpu time spent up to now is       12.3 secs

     total energy              =    -223.36563988 Ry
     estimated scf accuracy    <       0.92824105 Ry

     iteration #  2     ecut=    80.00 Ry     beta= 0.30
     Davidson diagonalization with overlap
     ethr =  1.86E-03,  avg # of iterations =  3.8

     negative rho (up, down):  6.721E-05 0.000E+00

     total cpu time spent up to now is       19.1 secs

     total energy              =    -223.27966949 Ry
     estimated scf accuracy    <       0.31884595 Ry

     iteration #  3     ecut=    80.00 Ry     beta= 0.30
     Davidson diagonalization with overlap
     ethr =  6.38E-04,  avg # of iterations =  6.8

     negative rho (up, down):  6.927E-05 0.000E+00

     total cpu time spent up to now is       27.5 secs

     total energy              =    -223.29444630 Ry
     estimated scf accuracy    <       0.04575045 Ry

     iteration #  4     ecut=    80.00 Ry     beta= 0.30
     Davidson diagonalization with overlap
     ethr =  9.15E-05,  avg # of iterations =  8.0

     negative rho (up, down):  7.130E-05 0.000E+00

     total cpu time spent up to now is       36.7 secs

     total energy              =    -223.29685488 Ry
     estimated scf accuracy    <       0.00855088 Ry

     iteration #  5     ecut=    80.00 Ry     beta= 0.30
     Davidson diagonalization with overlap
     c_bands:  1 eigenvalues not converged
     ethr =  1.71E-05,  avg # of iterations =  7.9

     negative rho (up, down):  7.237E-05 0.000E+00

     total cpu time spent up to now is       45.6 secs

     total energy              =    -223.29804961 Ry
     estimated scf accuracy    <       0.00092462 Ry

     iteration #  6     ecut=    80.00 Ry     beta= 0.30
     Davidson diagonalization with overlap
     c_bands:  1 eigenvalues not converged
     ethr =  1.85E-06,  avg # of iterations =  8.2

     negative rho (up, down):  7.234E-05 0.000E+00

     total cpu time spent up to now is       55.5 secs

     total energy              =    -223.29812751 Ry
     estimated scf accuracy    <       0.00021153 Ry

     iteration #  7     ecut=    80.00 Ry     beta= 0.30
     Davidson diagonalization with overlap
     ethr =  4.23E-07,  avg # of iterations =  2.5

     negative rho (up, down):  7.244E-05 0.000E+00

     total cpu time spent up to now is       62.8 secs

     total energy              =    -223.29816189 Ry
     estimated scf accuracy    <       0.00003013 Ry

     iteration #  8     ecut=    80.00 Ry     beta= 0.30
     Davidson diagonalization with overlap
     ethr =  6.03E-08,  avg # of iterations =  2.5

     negative rho (up, down):  7.211E-05 0.000E+00

     total cpu time spent up to now is       70.0 secs

     total energy              =    -223.29816492 Ry
     estimated scf accuracy    <       0.00000762 Ry

     iteration #  9     ecut=    80.00 Ry     beta= 0.30
     Davidson diagonalization with overlap
     ethr =  1.52E-08,  avg # of iterations =  2.1

     negative rho (up, down):  7.194E-05 0.000E+00

     total cpu time spent up to now is       77.4 secs

     total energy              =    -223.29816681 Ry
     estimated scf accuracy    <       0.00000089 Ry

     iteration # 10     ecut=    80.00 Ry     beta= 0.30
     Davidson diagonalization with overlap
     ethr =  1.78E-09,  avg # of iterations =  2.8

     negative rho (up, down):  7.188E-05 0.000E+00

     total cpu time spent up to now is       84.7 secs

     total energy              =    -223.29816699 Ry
     estimated scf accuracy    <       0.00000016 Ry

     iteration # 11     ecut=    80.00 Ry     beta= 0.30
     Davidson diagonalization with overlap
     ethr =  3.22E-10,  avg # of iterations =  3.0

     negative rho (up, down):  7.182E-05 0.000E+00

     total cpu time spent up to now is       92.6 secs

     total energy              =    -223.29816703 Ry
     estimated scf accuracy    <       0.00000007 Ry

     iteration # 12     ecut=    80.00 Ry     beta= 0.30
     Davidson diagonalization with overlap
     ethr =  1.49E-10,  avg # of iterations =  2.0

     negative rho (up, down):  7.180E-05 0.000E+00

     total cpu time spent up to now is       99.2 secs

     End of self-consistent calculation

          k = 0.0000-0.0000 0.0000 ( 16281 PWs)   bands (ev):

   -19.5240 -18.2048 -16.2572 -13.9326 -11.8020 -11.0598 -10.8259  -9.6311
    -7.8791  -7.7722  -6.7980  -5.9833  -5.4209  -4.6793  -4.2796  -3.2567
    -2.9546  -2.7035  -1.8580  -0.6294  -0.4048   0.1139   0.8340   1.5164
     1.6011   3.9096   4.1188   6.0180   6.8650   6.9875

          k = 0.0000-0.1000 0.0000 ( 16227 PWs)   bands (ev):

   -19.3380 -18.0242 -16.0944 -13.8718 -13.1363 -12.2743 -10.0300  -9.1880
    -8.6769  -7.0319  -6.6566  -5.8361  -4.8807  -4.4513  -4.1057  -3.1112
    -3.0623  -2.3493  -1.7769  -0.5314  -0.4686  -0.1168   0.5050   1.0436
     1.7049   3.6623   4.1251   6.2376   6.9238   7.0996

          k = 0.0000-0.2000 0.0000 ( 16189 PWs)   bands (ev):

   -18.7821 -17.4880 -15.6331 -14.9866 -14.1087 -13.3726 -10.5864  -9.7539
    -8.2268  -7.2103  -5.7839  -5.0700  -4.1519  -3.7277  -3.5919  -2.6897
    -2.5000  -2.0867  -1.5643  -0.7268  -0.7096  -0.4577  -0.1975   0.2465
     1.6569   2.9161   4.7325   6.7514   7.2240   7.6421

          k = 0.0000-0.3000 0.0000 ( 16152 PWs)   bands (ev):

   -17.8653 -16.7026 -16.4982 -15.4334 -14.8894 -13.8147 -10.9036 -10.2157
    -8.3215  -7.4554  -5.4145  -4.4581  -3.3205  -2.7655  -2.5713  -2.0576
    -2.0484  -1.6596  -1.5190  -1.3699  -1.2213  -1.1988  -0.8128  -0.2584
     1.6963   2.3371   5.6452   6.8383   7.2887   8.0311

          k = 0.1111-0.0000 0.0000 ( 16221 PWs)   bands (ev):

   -19.2934 -17.9769 -16.0337 -13.7158 -11.5957 -10.8561 -10.7428  -9.5591
    -7.7171  -7.6782  -6.6105  -5.8058  -5.3910  -5.3383  -4.5400  -4.2736
    -2.8961  -2.8364  -2.7078  -1.3611  -0.7927  -0.1838   0.0300   0.4564
     1.2344   4.1184   4.1748   6.2824   7.0513   7.4760

          k = 0.1111-0.1000 0.0000 ( 16195 PWs)   bands (ev):

   -19.1078 -17.7970 -15.8719 -13.6575 -12.9456 -12.0784  -9.8746  -9.0558
    -8.5955  -6.9333  -6.5458  -5.7604  -5.0835  -4.8567  -4.3470  -4.0370
    -3.0345  -2.6953  -2.4083  -1.4347  -0.9337  -0.5479  -0.1954   0.1285
     1.5449   3.7653   4.3560   6.5277   7.3527   7.6960

          k = 0.1111-0.2000 0.0000 ( 16186 PWs)   bands (ev):

   -18.5536 -17.2629 -15.4138 -14.7775 -13.9037 -13.1640 -10.3957  -9.5613
    -8.0705  -7.1279  -5.9336  -5.0595  -4.5891  -4.2809  -3.6884  -3.1712
    -2.8589  -2.3139  -2.0648  -1.9777  -1.7535  -1.1494  -0.4532   0.0584
     1.6365   3.0705   4.9953   7.1909   7.9487   8.0458

          k = 0.1111-0.3000 0.0000 ( 16187 PWs)   bands (ev):

   -17.6400 -16.4817 -16.2785 -15.2188 -14.6774 -13.6047 -10.6990 -10.0148
    -8.1430  -7.2821  -5.4118  -4.4900  -4.2541  -3.5602  -3.2662  -2.7274
    -2.6254  -2.4009  -2.1569  -1.8555  -1.7210  -1.0994  -0.8938  -0.6385
     1.8428   2.4146   5.9503   7.2717   8.0405   8.5517

          k = 0.2222-0.0000 0.0000 ( 16179 PWs)   bands (ev):

   -18.6048 -17.2967 -15.3666 -13.0687 -10.9790 -10.7941 -10.2470  -9.6292
    -7.8200  -7.1302  -7.0967  -6.0793  -6.0260  -5.5410  -5.3037  -4.5595
    -4.1815  -3.1635  -2.9240  -2.8702  -2.1768  -1.6743  -1.6165  -0.2588
     0.6488   3.9843   4.7902   6.6944   7.0989   7.3769

          k = 0.2222-0.1000 0.0000 ( 16183 PWs)   bands (ev):

   -18.4208 -17.1189 -15.2079 -13.0193 -12.4294 -11.5221  -9.6075  -9.0787
    -8.5331  -7.1691  -6.6666  -6.1856  -5.7725  -5.3459  -4.8482  -4.1532
    -3.9383  -3.4075  -3.1265  -3.0395  -2.6920  -1.9880  -0.8800  -0.6083
     1.0038   3.6668   5.0470   7.2472   7.4646   7.6463

          k = 0.2222-0.2000 0.0000 ( 16178 PWs)   bands (ev):

   -17.8721 -16.5918 -14.7603 -14.1700 -13.3007 -12.5482  -9.8819  -9.0591
    -8.1729  -7.5557  -6.6657  -5.9841  -5.2297  -4.7807  -4.4410  -4.2871
    -3.7720  -3.4114  -3.2997  -3.0915  -2.5740  -2.0549  -1.0774  -0.4976
     1.4758   3.0593   5.7094   8.0479   8.4815   8.6625

          k = 0.2222-0.3000 0.0000 ( 16182 PWs)   bands (ev):

   -16.9696 -15.8264 -15.6273 -14.5838 -14.0470 -12.9807 -10.1201  -9.4431
    -7.7425  -7.1352  -6.7427  -5.9115  -5.7780  -4.9335  -4.7004  -4.2911
    -3.8178  -3.5909  -2.5101  -2.1714  -2.1101  -1.9701  -1.1418  -0.9931
     1.9058   2.4785   6.6256   8.0209   9.1683   9.3715

          k = 0.3333-0.0000 0.0000 ( 16198 PWs)   bands (ev):

   -17.4697 -16.1763 -14.2683 -12.0124 -12.0028 -10.8161  -9.9586  -9.2389
    -9.0069  -7.5236  -6.8131  -6.4873  -6.2110  -5.3243  -5.1723  -4.7166
    -4.6127  -4.1275  -3.9460  -3.8502  -3.2661  -3.1229  -2.8575  -0.9111
     0.6534   3.3578   5.7982   6.6064   6.8261   8.4661

          k = 0.3333-0.1000 0.0000 ( 16210 PWs)   bands (ev):

   -17.2894 -16.0030 -14.1157 -12.2609 -11.9765 -11.0815 -10.2349  -9.7203
    -9.0349  -7.4245  -6.9182  -6.5201  -6.0865  -5.5136  -5.1208  -4.9618
    -4.6776  -4.3464  -4.0259  -3.6800  -3.0191  -2.9667  -2.2123  -1.1137
     0.8840   3.2048   6.1055   7.0400   7.2574   8.1253

          k = 0.3333-0.2000 0.0000 ( 16187 PWs)   bands (ev):

   -16.7531 -15.4909 -13.6911 -13.3185 -12.3935 -11.5900 -10.2625  -9.6398
    -9.0778  -7.9057  -7.0906  -7.0160  -6.8107  -6.1762  -5.3022  -5.1928
    -4.1751  -3.7935  -3.6271  -3.3697  -2.8114  -2.6738  -1.6221  -1.3595
     1.4011   2.8446   6.7359   8.0070   8.2509   8.9086

          k = 0.3333-0.3000 0.0000 ( 16143 PWs)   bands (ev):

   -15.8781 -14.7738 -14.5828 -13.5742 -13.0216 -11.9725  -9.5644  -9.4356
    -8.8023  -8.4659  -8.3178  -7.4294  -6.6704  -6.4584  -5.8968  -5.5475
    -3.8596  -3.6151  -3.3542  -3.0319  -2.2639  -2.1111  -1.7800  -1.3476
     1.8872   2.4833   7.3995   8.8465   9.1289   9.4795

          k = 0.4444-0.0000 0.0000 ( 16230 PWs)   bands (ev):

   -15.9159 -14.6447 -14.0153 -12.7756 -12.7674 -10.9351 -10.5428  -8.7471
    -8.5485  -7.8456  -6.7798  -6.5409  -6.0957  -5.7049  -5.2178  -5.0074
    -4.8265  -4.7241  -4.4832  -4.3917  -4.0370  -3.4660  -2.8480  -1.8662
     1.3190   2.3580   6.4339   7.0094   7.3901   7.6517

          k = 0.4444-0.1000 0.0000 ( 16213 PWs)   bands (ev):

   -15.7448 -14.4820 -13.8827 -12.6589 -12.6240 -10.8549 -10.4688  -9.3504
    -8.7418  -8.7338  -7.6144  -7.0286  -6.3438  -5.7024  -5.1396  -5.0227
    -4.6309  -4.4440  -4.1876  -3.9359  -3.6510  -3.4009  -2.6929  -1.8922
     1.4563   2.3732   6.9424   7.0736   7.5146   7.8512

          k = 0.4444-0.2000 0.0000 ( 16178 PWs)   bands (ev):

   -15.2435 -14.0096 -13.5816 -12.4082 -12.2262 -10.7865 -10.7427 -10.3260
    -9.5799  -9.1927  -8.8897  -8.0499  -6.7669  -6.2012  -5.5657  -4.9024
    -4.7499  -4.1077  -3.7879  -3.2828  -3.1675  -2.5765  -2.2831  -1.9563
     1.7698   2.3777   7.5607   7.8823   8.3630   8.6722

          k = 0.4444-0.3000 0.0000 ( 16170 PWs)   bands (ev):

   -14.4700 -13.6850 -13.2793 -12.5424 -11.7032 -11.3204 -10.8517 -10.5722
   -10.3309  -9.6905  -9.4740  -8.6517  -6.9821  -6.5912  -5.7122  -5.1846
    -4.8647  -4.3120  -3.5351  -3.1239  -2.5384  -2.2890  -1.8729  -1.7667
     2.0463   2.3280   8.0289   8.6540   9.5720   9.8550

     the Fermi energy is     2.1213 ev

!    total energy              =    -223.29816704 Ry
     estimated scf accuracy    <          7.3E-09 Ry
     smearing contrib. (-TS)   =       0.00044202 Ry
     internal energy E=F+TS    =    -223.29860905 Ry

     The total energy is F=E-TS. E is the sum of the following terms:
     one-electron contribution =   -2809.20559727 Ry
     hartree contribution      =    1421.85321062 Ry
     xc contribution           =     -57.34476438 Ry
     ewald contribution        =    1295.36303405 Ry
     one-center paw contrib.   =     -73.96449207 Ry

     convergence has been achieved in  12 iterations

     negative rho (up, down):  7.180E-05 0.000E+00

     Forces acting on atoms (cartesian axes, Ry/au):

     atom    1 type  1   force =     0.00000000    0.00281090    0.00020365
     atom    2 type  1   force =     0.00000000   -0.00281090    0.00020365
     atom    3 type  1   force =     0.00000000   -0.00142413   -0.00002721
     atom    4 type  1   force =    -0.00000000    0.00142413   -0.00002721
     atom    5 type  1   force =     0.00000000    0.00131415    0.00000685
     atom    6 type  1   force =     0.00000000   -0.00131415    0.00000685
     atom    7 type  1   force =     0.00000000   -0.00175625    0.00001983
     atom    8 type  1   force =     0.00000000    0.00175625    0.00001983
     atom    9 type  1   force =     0.00000000   -0.04561056   -0.04817563
     atom   10 type  1   force =     0.00000000    0.04561056   -0.04817563
     atom   11 type  1   force =     0.00000000    0.17251401    0.04785331
     atom   12 type  1   force =     0.00000000   -0.17251401    0.04785331
     atom   13 type  2   force =     0.00000000    0.00008198    0.00011919
     atom   14 type  2   force =     0.00000000   -0.00008198    0.00011919

     Total force =     0.005441     Total SCF correction =     0.000141


     Computing stress (Cartesian axis) and pressure


     negative rho (up, down):  7.180E-05 0.000E+00
          total   stress  (Ry/bohr**3)                   (kbar)     P=        1.27
   0.00012867   0.00000000   0.00000000           18.93        0.00        0.00
   0.00000000   0.00006689   0.00000000            0.00        9.84        0.00
   0.00000000   0.00000000  -0.00016975            0.00        0.00      -24.97


     Writing all to output data dir ./tmp/slab.save/ :
     XML data file, charge density, pseudopotentials, collected wavefunctions

     init_run     :      3.85s CPU      4.13s WALL (       1 calls)
     electrons    :     86.03s CPU     95.05s WALL (       1 calls)
     forces       :      0.93s CPU      1.06s WALL (       1 calls)
     stress       :      2.75s CPU      3.21s WALL (       1 calls)

     Called by init_run:
     wfcinit      :      3.27s CPU      3.50s WALL (       1 calls)
     potinit      :      0.30s CPU      0.32s WALL (       1 calls)
     hinit0       :      0.15s CPU      0.15s WALL (       1 calls)

     Called by electrons:
     c_bands      :     70.75s CPU     78.59s WALL (      12 calls)
     sum_band     :     10.92s CPU     11.57s WALL (      12 calls)
     v_of_rho     :      1.65s CPU      1.78s WALL (      13 calls)
     newd         :      0.87s CPU      1.14s WALL (      13 calls)
     PAW_pot      :      1.80s CPU      1.92s WALL (      13 calls)
     mix_rho      :      0.22s CPU      0.26s WALL (      12 calls)

     Called by c_bands:
     init_us_2    :      1.01s CPU      1.08s WALL (     540 calls)
     cegterg      :     68.77s CPU     76.57s WALL (     240 calls)

     Called by *egterg:
     cdiaghg      :      0.71s CPU      0.72s WALL (    1281 calls)
     h_psi        :     53.57s CPU     56.93s WALL (    1301 calls)
     s_psi        :      5.08s CPU      6.09s WALL (    1301 calls)
     g_psi        :      0.22s CPU      0.22s WALL (    1041 calls)

     Called by h_psi:
     h_psi:calbec :      4.71s CPU      6.03s WALL (    1301 calls)
     vloc_psi     :     42.77s CPU     43.31s WALL (    1301 calls)
                                        0.00s GPU  (    1301 calls)
     add_vuspsi   :      5.90s CPU      7.27s WALL (    1301 calls)

     General routines
     calbec       :      7.67s CPU      9.65s WALL (    1881 calls)
     fft          :      1.24s CPU      1.25s WALL (     192 calls)
     ffts         :      0.04s CPU      0.04s WALL (      25 calls)
     fftw         :     45.69s CPU     45.93s WALL (   46936 calls)
     interpolate  :      0.12s CPU      0.13s WALL (      13 calls)


     PWSCF        :   1m33.61s CPU   1m43.54s WALL


   This run was terminated on:  15:21:37  23Jun2026            

=------------------------------------------------------------------------------=
   JOB DONE.
=------------------------------------------------------------------------------=
Note: The following floating-point exceptions are signalling: IEEE_INVALID_FLAG IEEE_DIVIDE_BY_ZERO IEEE_OVERFLOW_FLAG IEEE_UNDERFLOW_FLAG
