
     Program PWSCF v.7.5 starts on 23Jun2026 at 13:28:48 

     This program is part of the open-source Quantum ESPRESSO suite
     for quantum simulation of materials; please cite
         "P. Giannozzi et al., J. Phys.:Condens. Matter 21 395502 (2009);
         "P. Giannozzi et al., J. Phys.:Condens. Matter 29 465901 (2017);
         "P. Giannozzi et al., J. Chem. Phys. 152 154105 (2020);
          URL http://www.quantum-espresso.org", 
     in publications or presentations arising from this work. More details at
     http://www.quantum-espresso.org/quote

     Serial version
     0 MiB available memory on the printing compute node when the environment starts

     Waiting for input...
     Reading input from standard input

     Current dimensions of program PWSCF are:
     Max number of different atomic species (ntypx) = 10
     Max number of k-points (npk) =  40000
     Max angular momentum in pseudopotentials (lmaxx) =  4
     file C.pbe-n-kjpaw_psl.1.0.0.UPF: wavefunction(s)  2S 2P renormalized
     Message from routine volume:
     axis vectors are left-handed
     Message from routine setup:
     using ibrav=0 with symmetry is DISCOURAGED, use correct ibrav instead


     G-vector sticks info
     --------------------
     sticks:   dense  smooth     PW     G-vecs:    dense   smooth      PW
     Sum        2295    1157    339               477449   169145   26057

     Using Slab Decomposition



     bravais-lattice index     =            0
     lattice parameter (alat)  =       4.7275  a.u.
     unit-cell volume          =    1747.7211 (a.u.)^3
     number of atoms/cell      =           14
     number of atomic types    =            2
     number of electrons       =        50.00
     number of Kohn-Sham states=           30
     kinetic-energy cutoff     =      80.0000  Ry
     charge density cutoff     =     640.0000  Ry
     scf convergence threshold =      1.0E-08
     mixing beta               =       0.3000
     number of iterations used =            8  plain     mixing
     Exchange-correlation= PBE
                           (   1   4   3   4   0   0   0)

     celldm(1)=   4.727483  celldm(2)=   0.000000  celldm(3)=   0.000000
     celldm(4)=   0.000000  celldm(5)=   0.000000  celldm(6)=   0.000000

     crystal axes: (cart. coord. in units of alat)
               a(1) = (   1.000000   0.000000   0.000000 )  
               a(2) = (   0.000000  -2.020202   0.000000 )  
               a(3) = (   0.000000   0.000000   8.188180 )  

     reciprocal axes: (cart. coord. in units 2 pi/alat)
               b(1) = (  1.000000 -0.000000 -0.000000 )  
               b(2) = ( -0.000000 -0.495000 -0.000000 )  
               b(3) = ( -0.000000 -0.000000  0.122127 )  


     PseudoPot. # 1 for C  read from file:
     ./C.pbe-n-kjpaw_psl.1.0.0.UPF
     MD5 check sum: 5d2aebdfa2cae82b50a7e79e9516da0f
     Pseudo is Projector augmented-wave + core cor, Zval =  4.0
     Generated using "atomic" code by A. Dal Corso  v.5.1
     Shape of augmentation charge: PSQ
     Using radial grid of 1073 points,  4 beta functions with: 
                l(1) =   0
                l(2) =   0
                l(3) =   1
                l(4) =   1
     Q(r) pseudized with 0 coefficients 


     PseudoPot. # 2 for H  read from file:
     ./H_ONCV_PBE-1.0.oncvpsp.upf
     MD5 check sum: 1790becc920ee074925cf490c71280fe
     Pseudo is Norm-conserving, Zval =  1.0
     Generated using ONCVPSP code by D. R. Hamann
     Using radial grid of 1166 points,  2 beta functions with: 
                l(1) =   0
                l(2) =   0

     atomic species   valence    mass     pseudopotential
     C                 4.00    12.01100     C ( 1.00)
     H                 1.00     1.00800     H ( 1.00)

      4 Sym. Ops. (no inversion) found



   Cartesian axes

     site n.     atom                  positions (alat units)
         1        C      tau(   1) = (   0.0000000  -0.3244814   4.7561188  )
         2        C      tau(   2) = (   0.5000000  -0.4689560   4.4319882  )
         3        C      tau(   3) = (   0.5000000   0.0000000   4.0335089  )
         4        C      tau(   4) = (   0.0000000   0.0000000   3.6945760  )
         5        C      tau(   5) = (   0.0000000  -0.5050505   3.3551144  )
         6        C      tau(   6) = (   0.5000000  -0.5050505   2.9979898  )
         7        C      tau(   7) = (   0.0000000  -1.6957206   4.7561188  )
         8        C      tau(   8) = (   0.5000000  -1.5512461   4.4319882  )
         9        C      tau(   9) = (   0.5000000  -1.0101010   4.1072858  )
        10        C      tau(  10) = (   0.0000000  -1.0101010   3.7372322  )
        11        C      tau(  11) = (   0.0000000  -1.5151515   3.3551144  )
        12        C      tau(  12) = (   0.5000000  -1.5151515   2.9979898  )
        13        H      tau(  13) = (   0.0000000  -0.4952320   5.1609764  )
        14        H      tau(  14) = (   0.0000000  -1.5249701   5.1609764  )

     number of k points=    15  Marzari-Vanderbilt smearing, width (Ry)=  0.0100
                       cart. coord. in units 2pi/alat
        k(    1) = (   0.0000000  -0.0000000   0.0000000), wk =   0.0444444
        k(    2) = (   0.0000000  -0.0990000   0.0000000), wk =   0.0888889
        k(    3) = (   0.0000000  -0.1980000   0.0000000), wk =   0.0888889
        k(    4) = (   0.1111111  -0.0000000   0.0000000), wk =   0.0888889
        k(    5) = (   0.1111111  -0.0990000   0.0000000), wk =   0.1777778
        k(    6) = (   0.1111111  -0.1980000   0.0000000), wk =   0.1777778
        k(    7) = (   0.2222222  -0.0000000   0.0000000), wk =   0.0888889
        k(    8) = (   0.2222222  -0.0990000   0.0000000), wk =   0.1777778
        k(    9) = (   0.2222222  -0.1980000   0.0000000), wk =   0.1777778
        k(   10) = (   0.3333333  -0.0000000   0.0000000), wk =   0.0888889
        k(   11) = (   0.3333333  -0.0990000   0.0000000), wk =   0.1777778
        k(   12) = (   0.3333333  -0.1980000   0.0000000), wk =   0.1777778
        k(   13) = (   0.4444444  -0.0000000   0.0000000), wk =   0.0888889
        k(   14) = (   0.4444444  -0.0990000   0.0000000), wk =   0.1777778
        k(   15) = (   0.4444444  -0.1980000   0.0000000), wk =   0.1777778

     Dense  grid:   477449 G-vectors     FFT dimensions: (  40,  80, 320)

     Smooth grid:   169145 G-vectors     FFT dimensions: (  27,  60, 225)

     Estimated max dynamical RAM per process >       1.01 GB

     Initial potential from superposition of free atoms

     starting charge      49.9995, renormalised to      50.0000

     negative rho (up, down):  7.351E-05 0.000E+00
     Starting wfcs are   50 randomized atomic wfcs

     total cpu time spent up to now is        4.0 secs

     Self-consistent Calculation

     iteration #  1     ecut=    80.00 Ry     beta= 0.30
     Davidson diagonalization with overlap
     ethr =  1.00E-02,  avg # of iterations =  2.5
     Minimization algorithm failed to find Fermi energy: reverting to bisection
     Possible cause: smearing is larger than the electronic band-gap.

     negative rho (up, down):  7.077E-05 0.000E+00

     total cpu time spent up to now is       11.9 secs

     total energy              =    -223.06972614 Ry
     estimated scf accuracy    <       0.91734101 Ry

     iteration #  2     ecut=    80.00 Ry     beta= 0.30
     Davidson diagonalization with overlap
     ethr =  1.83E-03,  avg # of iterations =  3.1

     negative rho (up, down):  7.704E-05 0.000E+00

     total cpu time spent up to now is       18.2 secs

     total energy              =    -223.01608390 Ry
     estimated scf accuracy    <       0.29808026 Ry

     iteration #  3     ecut=    80.00 Ry     beta= 0.30
     Davidson diagonalization with overlap
     ethr =  5.96E-04,  avg # of iterations =  5.7

     negative rho (up, down):  8.380E-05 0.000E+00

     total cpu time spent up to now is       25.9 secs

     total energy              =    -223.02058588 Ry
     estimated scf accuracy    <       0.06636919 Ry

     iteration #  4     ecut=    80.00 Ry     beta= 0.30
     Davidson diagonalization with overlap
     ethr =  1.33E-04,  avg # of iterations =  4.7

     negative rho (up, down):  8.815E-05 0.000E+00

     total cpu time spent up to now is       33.2 secs

     total energy              =    -223.02505880 Ry
     estimated scf accuracy    <       0.01065877 Ry

     iteration #  5     ecut=    80.00 Ry     beta= 0.30
     Davidson diagonalization with overlap
     ethr =  2.13E-05,  avg # of iterations =  5.5

     negative rho (up, down):  9.020E-05 0.000E+00

     total cpu time spent up to now is       41.5 secs

     total energy              =    -223.02637359 Ry
     estimated scf accuracy    <       0.00129727 Ry

     iteration #  6     ecut=    80.00 Ry     beta= 0.30
     Davidson diagonalization with overlap
     c_bands:  1 eigenvalues not converged
     ethr =  2.59E-06,  avg # of iterations =  6.8

     negative rho (up, down):  8.795E-05 0.000E+00

     total cpu time spent up to now is       50.9 secs

     total energy              =    -223.02652326 Ry
     estimated scf accuracy    <       0.00023118 Ry

     iteration #  7     ecut=    80.00 Ry     beta= 0.30
     Davidson diagonalization with overlap
     ethr =  4.62E-07,  avg # of iterations =  3.5

     negative rho (up, down):  8.824E-05 0.000E+00

     total cpu time spent up to now is       58.4 secs

     total energy              =    -223.02655983 Ry
     estimated scf accuracy    <       0.00006076 Ry

     iteration #  8     ecut=    80.00 Ry     beta= 0.30
     Davidson diagonalization with overlap
     ethr =  1.22E-07,  avg # of iterations =  2.0

     negative rho (up, down):  8.772E-05 0.000E+00

     total cpu time spent up to now is       65.0 secs

     total energy              =    -223.02656718 Ry
     estimated scf accuracy    <       0.00000907 Ry

     iteration #  9     ecut=    80.00 Ry     beta= 0.30
     Davidson diagonalization with overlap
     ethr =  1.81E-08,  avg # of iterations =  2.5

     negative rho (up, down):  8.744E-05 0.000E+00

     total cpu time spent up to now is       72.4 secs

     total energy              =    -223.02656882 Ry
     estimated scf accuracy    <       0.00000091 Ry

     iteration # 10     ecut=    80.00 Ry     beta= 0.30
     Davidson diagonalization with overlap
     ethr =  1.83E-09,  avg # of iterations =  4.0

     negative rho (up, down):  8.721E-05 0.000E+00

     total cpu time spent up to now is       80.9 secs

     total energy              =    -223.02656905 Ry
     estimated scf accuracy    <       0.00000041 Ry

     iteration # 11     ecut=    80.00 Ry     beta= 0.30
     Davidson diagonalization with overlap
     ethr =  8.24E-10,  avg # of iterations =  2.0

     negative rho (up, down):  8.715E-05 0.000E+00

     total cpu time spent up to now is       87.4 secs

     total energy              =    -223.02656911 Ry
     estimated scf accuracy    <       0.00000005 Ry

     iteration # 12     ecut=    80.00 Ry     beta= 0.30
     Davidson diagonalization with overlap
     ethr =  9.02E-11,  avg # of iterations =  3.7

     negative rho (up, down):  8.707E-05 0.000E+00

     total cpu time spent up to now is       95.7 secs

     End of self-consistent calculation

          k = 0.0000-0.0000 0.0000 ( 21117 PWs)   bands (ev):

   -21.1903 -18.9239 -16.7852 -16.3897 -15.3583 -15.2638 -12.1029 -11.3683
   -11.0497  -8.1520  -7.9880  -7.2249  -5.9716  -5.7413  -4.2451  -4.1296
    -3.9604  -3.2715  -3.1712  -2.8129  -2.5077  -2.3663  -1.4908  -0.8671
    -0.4692  -0.0235   2.6700   3.1120   4.3406   4.4399

          k = 0.0000-0.0990 0.0000 ( 21133 PWs)   bands (ev):

   -21.0406 -18.8632 -17.9506 -15.9686 -15.1063 -15.0019 -11.6340 -11.2998
   -10.9593  -8.2792  -7.7126  -7.3638  -6.2861  -5.8614  -4.6197  -4.1533
    -3.9198  -3.6586  -3.5684  -2.8743  -2.5097  -2.0838  -1.4408  -0.9868
    -0.6476   0.3194   2.7903   2.8900   4.7406   5.1185

          k = 0.0000-0.1980 0.0000 ( 21147 PWs)   bands (ev):

   -20.6779 -19.2246 -18.3443 -16.6743 -14.8052 -14.1767 -11.4286 -10.5478
   -10.2395  -9.0861  -8.0793  -7.1122  -6.8464  -5.6141  -5.3472  -4.3878
    -4.3130  -3.7238  -3.4513  -3.1809  -2.7307  -1.7425  -1.3596  -1.0257
    -0.9355   1.0570   2.0192   3.4615   4.3763   5.0190

          k = 0.1111-0.0000 0.0000 ( 21123 PWs)   bands (ev):

   -20.9605 -18.7008 -16.5709 -16.1710 -15.1490 -15.0597 -11.9098 -11.2673
   -10.8630  -8.0168  -7.9140  -7.4663  -6.8832  -5.5826  -5.1727  -4.3888
    -4.2069  -3.9008  -3.4317  -3.4007  -3.3150  -2.7250  -2.4041  -0.9904
    -0.4945   0.0023   2.8837   3.2385   4.7848   5.0263

          k = 0.1111-0.0990 0.0000 ( 21154 PWs)   bands (ev):

   -20.8110 -18.6398 -17.7305 -15.7597 -14.8958 -14.7959 -11.4799 -11.1278
   -10.8074  -8.1993  -7.6253  -7.4604  -6.8291  -6.1761  -5.1208  -4.8468
    -4.4210  -4.1973  -3.4846  -3.4028  -3.0880  -2.9746  -2.2634  -1.0408
    -0.6278   0.3258   2.8764   3.0958   5.1038   5.5173

          k = 0.1111-0.1980 0.0000 ( 21116 PWs)   bands (ev):

   -20.4492 -18.9987 -18.1243 -16.4621 -14.6021 -13.9710 -11.2935 -10.3709
   -10.1113  -8.9153  -7.9445  -7.3073  -6.7448  -6.5073  -5.5310  -5.2917
    -4.9054  -4.3612  -3.8177  -3.3378  -3.0272  -2.6359  -2.3294  -1.0278
    -0.8644   1.0659   2.0424   3.6580   4.5439   5.1497

          k = 0.2222-0.0000 0.0000 ( 21107 PWs)   bands (ev):

   -20.2745 -18.0393 -15.9330 -15.5198 -14.5396 -14.4523 -11.4241 -11.3379
   -10.3433  -9.1245  -8.2908  -7.9201  -7.4953  -6.3151  -6.0957  -5.4538
    -5.3274  -5.1537  -5.0936  -4.1696  -4.0919  -3.1271  -2.5700  -1.3262
    -0.9047  -0.1033   3.4406   3.5411   5.4775   5.8120

          k = 0.2222-0.0990 0.0000 ( 21118 PWs)   bands (ev):

   -20.1261 -17.9765 -17.0756 -15.1433 -14.2756 -14.1877 -11.3672 -10.7509
   -10.3926  -9.0088  -8.4068  -7.9871  -7.2669  -6.5412  -6.2446  -5.7345
    -5.6418  -5.0721  -4.8479  -4.4233  -4.1020  -3.3310  -2.8641  -1.2696
    -0.8891   0.1638   2.9829   3.6612   5.6068   5.8558

          k = 0.2222-0.1980 0.0000 ( 21087 PWs)   bands (ev):

   -19.7669 -18.3254 -17.4720 -15.8367 -14.0140 -13.3571 -11.1961 -10.1298
    -9.8098  -8.8417  -8.5391  -7.8676  -7.6269  -7.1796  -6.5390  -6.1483
    -5.8796  -5.1801  -4.6284  -4.4597  -4.2351  -3.4085  -3.1431  -1.1573
    -0.9701   0.8855   1.9167   4.1552   4.8041   5.2959

          k = 0.3333-0.0000 0.0000 ( 21144 PWs)   bands (ev):

   -19.1465 -16.9816 -14.8980 -14.4541 -13.8377 -13.4657 -12.7263 -11.0168
   -10.6314  -9.8255  -9.0497  -8.9388  -8.1995  -7.6143  -7.2919  -6.8788
    -6.1049  -5.6655  -5.1268  -4.6542  -4.0973  -4.0579  -2.5098  -1.6016
    -1.3036  -0.3292   3.8229   4.3358   5.8932   6.5059

          k = 0.3333-0.0990 0.0000 ( 21105 PWs)   bands (ev):

   -18.9998 -16.9106 -16.0117 -14.2039 -13.5535 -13.1955 -12.5726 -10.9736
   -10.4751  -9.7893  -9.1580  -8.8078  -8.0772  -7.6972  -7.3744  -6.2760
    -6.1921  -5.6378  -5.3906  -4.8578  -4.4581  -3.9424  -3.1874  -1.5106
    -1.2779  -0.0995   3.1864   4.5057   5.4992   6.1381

          k = 0.3333-0.1980 0.0000 ( 21070 PWs)   bands (ev):

   -18.6445 -17.2233 -16.4267 -14.8677 -13.4111 -12.3528 -12.2644 -11.2882
   -10.3673  -9.4405  -8.8728  -8.4536  -7.9160  -7.3777  -7.2194  -7.1961
    -6.2840  -5.6567  -5.5036  -4.9827  -4.7178  -4.1480  -3.7979  -1.3839
    -1.2904   0.6462   1.8742   4.6504   4.9605   5.7066

          k = 0.4444-0.0000 0.0000 ( 21148 PWs)   bands (ev):

   -17.6234 -16.1077 -14.9521 -13.4551 -13.0335 -13.0043 -12.2704 -12.0056
   -11.5273 -10.9797 -10.2052  -9.9356  -8.2555  -7.8982  -7.4693  -7.1064
    -6.4488  -5.7909  -5.6223  -5.3115  -4.5543  -3.3883  -2.7685  -1.7669
    -1.5254  -0.5259   3.9691   5.4420   5.8186   6.4094

          k = 0.4444-0.0990 0.0000 ( 21132 PWs)   bands (ev):

   -17.4788 -15.9698 -14.9737 -14.4935 -13.3543 -12.8580 -11.9319 -11.7154
   -11.5184 -10.6597 -10.0835  -9.7567  -8.2260  -7.8403  -7.6583  -6.4701
    -6.3866  -5.8401  -5.5718  -5.1430  -4.7453  -4.0192  -3.5270  -1.6553
    -1.5310  -0.3025   3.3226   5.2719   5.8465   6.1867

          k = 0.4444-0.1980 0.0000 ( 21130 PWs)   bands (ev):

   -17.1271 -15.7821 -15.5013 -14.6151 -14.2863 -12.6250 -12.3187 -11.2814
   -11.2321 -10.7732  -9.5599  -9.1578  -8.0512  -7.4689  -7.1771  -6.4821
    -6.0262  -5.8634  -5.5234  -5.3233  -5.0801  -4.9698  -4.6179  -1.5877
    -1.5304   0.5562   1.9274   4.8904   5.6650   6.3038

     the Fermi energy is    -0.4812 ev

!    total energy              =    -223.02656911 Ry
     estimated scf accuracy    <          9.3E-09 Ry
     smearing contrib. (-TS)   =       0.00001595 Ry
     internal energy E=F+TS    =    -223.02658507 Ry

     The total energy is F=E-TS. E is the sum of the following terms:
     one-electron contribution =   -2295.97513211 Ry
     hartree contribution      =    1161.83878864 Ry
     xc contribution           =     -56.81407181 Ry
     ewald contribution        =    1041.90501176 Ry
     one-center paw contrib.   =     -73.98118155 Ry

     convergence has been achieved in  12 iterations

     negative rho (up, down):  8.707E-05 0.000E+00

     Forces acting on atoms (cartesian axes, Ry/au):

     atom    1 type  1   force =     0.00000000   -0.00049385    0.00254137
     atom    2 type  1   force =     0.00000000   -0.00008951   -0.00080001
     atom    3 type  1   force =     0.00000000   -0.00000000    0.00049523
     atom    4 type  1   force =     0.00000000    0.00000000   -0.00131830
     atom    5 type  1   force =     0.00000000   -0.03096693   -0.08996372
     atom    6 type  1   force =     0.00000000   -0.00742372    0.08775336
     atom    7 type  1   force =     0.00000000    0.00049385    0.00254137
     atom    8 type  1   force =     0.00000000    0.00008951   -0.00080001
     atom    9 type  1   force =     0.00000000   -0.00000000    0.00070477
     atom   10 type  1   force =     0.00000000   -0.00000000    0.00071128
     atom   11 type  1   force =     0.00000000    0.03096693   -0.08996372
     atom   12 type  1   force =     0.00000000    0.00742372    0.08775336
     atom   13 type  2   force =     0.00000000   -0.00018694    0.00017251
     atom   14 type  2   force =     0.00000000    0.00018694    0.00017251

     Total force =     0.004221     Total SCF correction =     0.000146


     Computing stress (Cartesian axis) and pressure


     negative rho (up, down):  8.707E-05 0.000E+00
          total   stress  (Ry/bohr**3)                   (kbar)     P=      -23.42
   0.00016985   0.00000000   0.00000000           24.99        0.00        0.00
   0.00000000  -0.00049231   0.00000000            0.00      -72.42        0.00
   0.00000000   0.00000000  -0.00015525            0.00        0.00      -22.84


     Writing all to output data dir ./tmp/slab.save/ :
     XML data file, charge density, pseudopotentials, collected wavefunctions

     init_run     :      3.69s CPU      3.96s WALL (       1 calls)
     electrons    :     83.24s CPU     91.71s WALL (       1 calls)
     forces       :      1.05s CPU      1.20s WALL (       1 calls)
     stress       :      2.98s CPU      3.59s WALL (       1 calls)

     Called by init_run:
     wfcinit      :      3.02s CPU      3.26s WALL (       1 calls)
     potinit      :      0.34s CPU      0.35s WALL (       1 calls)
     hinit0       :      0.15s CPU      0.16s WALL (       1 calls)

     Called by electrons:
     c_bands      :     67.64s CPU     74.73s WALL (      12 calls)
     sum_band     :     10.48s CPU     11.18s WALL (      12 calls)
     v_of_rho     :      2.06s CPU      2.21s WALL (      13 calls)
     newd         :      1.12s CPU      1.44s WALL (      13 calls)
     PAW_pot      :      1.82s CPU      2.01s WALL (      13 calls)
     mix_rho      :      0.30s CPU      0.34s WALL (      12 calls)

     Called by c_bands:
     init_us_2    :      0.98s CPU      1.16s WALL (     405 calls)
     cegterg      :     65.71s CPU     72.71s WALL (     180 calls)

     Called by *egterg:
     cdiaghg      :      0.48s CPU      0.49s WALL (     869 calls)
     h_psi        :     50.48s CPU     53.60s WALL (     884 calls)
     s_psi        :      5.12s CPU      6.08s WALL (     884 calls)
     g_psi        :      0.21s CPU      0.21s WALL (     689 calls)

     Called by h_psi:
     h_psi:calbec :      4.50s CPU      5.73s WALL (     884 calls)
     vloc_psi     :     40.14s CPU     40.71s WALL (     884 calls)
                                        0.00s GPU  (     884 calls)
     add_vuspsi   :      5.66s CPU      6.83s WALL (     884 calls)

     General routines
     calbec       :      7.40s CPU      9.39s WALL (    1319 calls)
     fft          :      1.70s CPU      1.70s WALL (     192 calls)
     ffts         :      0.06s CPU      0.06s WALL (      25 calls)
     fftw         :     42.61s CPU     42.76s WALL (   35356 calls)
     interpolate  :      0.16s CPU      0.18s WALL (      13 calls)


     PWSCF        :   1m30.99s CPU   1m40.56s WALL


   This run was terminated on:  13:30:29  23Jun2026            

=------------------------------------------------------------------------------=
   JOB DONE.
=------------------------------------------------------------------------------=
Note: The following floating-point exceptions are signalling: IEEE_INVALID_FLAG IEEE_DIVIDE_BY_ZERO IEEE_OVERFLOW_FLAG IEEE_UNDERFLOW_FLAG
