
     Program PWSCF v.7.5 starts on  7Jul2026 at 13:36:19 

     This program is part of the open-source Quantum ESPRESSO suite
     for quantum simulation of materials; please cite
         "P. Giannozzi et al., J. Phys.:Condens. Matter 21 395502 (2009);
         "P. Giannozzi et al., J. Phys.:Condens. Matter 29 465901 (2017);
         "P. Giannozzi et al., J. Chem. Phys. 152 154105 (2020);
          URL http://www.quantum-espresso.org", 
     in publications or presentations arising from this work. More details at
     http://www.quantum-espresso.org/quote

     Serial version
     0 MiB available memory on the printing compute node when the environment starts

     Waiting for input...
     Reading input from standard input

     Current dimensions of program PWSCF are:
     Max number of different atomic species (ntypx) = 10
     Max number of k-points (npk) =  40000
     Max angular momentum in pseudopotentials (lmaxx) =  4
     file C.pbe-n-kjpaw_psl.1.0.0.UPF: wavefunction(s)  2S 2P renormalized
     Message from routine volume:
     axis vectors are left-handed
     Message from routine setup:
     using ibrav=0 with symmetry is DISCOURAGED, use correct ibrav instead


     G-vector sticks info
     --------------------
     sticks:   dense  smooth     PW     G-vecs:    dense   smooth      PW
     Sum        1255     623    191               177715    62825   10199

     Using Slab Decomposition



     bravais-lattice index     =            0
     lattice parameter (alat)  =       4.8230  a.u.
     unit-cell volume          =    1000.6909 (a.u.)^3
     number of atoms/cell      =           16
     number of atomic types    =            2
     number of electrons       =        52.00
     number of Kohn-Sham states=           31
     kinetic-energy cutoff     =      60.0000  Ry
     charge density cutoff     =     480.0000  Ry
     scf convergence threshold =      1.0E-08
     mixing beta               =       0.3000
     number of iterations used =            8  plain     mixing
     Exchange-correlation= PBE
                           (   1   4   3   4   0   0   0)

     celldm(1)=   4.822988  celldm(2)=   0.000000  celldm(3)=   0.000000
     celldm(4)=   0.000000  celldm(5)=   0.000000  celldm(6)=   0.000000

     crystal axes: (cart. coord. in units of alat)
               a(1) = (   1.000000   0.000000   0.000000 )  
               a(2) = (   0.000000  -1.414214   0.000000 )  
               a(3) = (   0.000000   0.000000   6.307198 )  

     reciprocal axes: (cart. coord. in units 2 pi/alat)
               b(1) = (  1.000000 -0.000000 -0.000000 )  
               b(2) = ( -0.000000 -0.707107 -0.000000 )  
               b(3) = ( -0.000000 -0.000000  0.158549 )  


     PseudoPot. # 1 for C  read from file:
     ./C.pbe-n-kjpaw_psl.1.0.0.UPF
     MD5 check sum: 5d2aebdfa2cae82b50a7e79e9516da0f
     Pseudo is Projector augmented-wave + core cor, Zval =  4.0
     Generated using "atomic" code by A. Dal Corso  v.5.1
     Shape of augmentation charge: PSQ
     Using radial grid of 1073 points,  4 beta functions with: 
                l(1) =   0
                l(2) =   0
                l(3) =   1
                l(4) =   1
     Q(r) pseudized with 0 coefficients 


     PseudoPot. # 2 for H  read from file:
     ./H_ONCV_PBE-1.0.oncvpsp.upf
     MD5 check sum: 1790becc920ee074925cf490c71280fe
     Pseudo is Norm-conserving, Zval =  1.0
     Generated using ONCVPSP code by D. R. Hamann
     Using radial grid of 1166 points,  2 beta functions with: 
                l(1) =   0
                l(2) =   0

     atomic species   valence    mass     pseudopotential
     C                 4.00    12.01100     C ( 1.00)
     H                 1.00     1.00800     H ( 1.00)

      8 Sym. Ops., with inversion, found ( 6 have fractional translation)



   Cartesian axes

     site n.     atom                  positions (alat units)
         1        C      tau(   1) = (   0.0000000  -0.3611404   4.3809514  )
         2        C      tau(   2) = (   0.5000000  -0.6995197   4.3809514  )
         3        C      tau(   3) = (   0.0000000   0.0011500   3.8970698  )
         4        C      tau(   4) = (   0.5000000  -1.0618102   3.8970698  )
         5        C      tau(   5) = (   0.0000000  -0.3533013   3.4009967  )
         6        C      tau(   6) = (   0.5000000  -0.7073588   3.4009967  )
         7        C      tau(   7) = (   0.0000000  -0.0002520   2.9062014  )
         8        C      tau(   8) = (   0.5000000  -1.0604081   2.9062014  )
         9        C      tau(   9) = (   0.0000000  -0.3547034   2.4101283  )
        10        C      tau(  10) = (   0.5000000  -0.7059567   2.4101283  )
        11        C      tau(  11) = (   0.0000000   0.0075871   1.9262467  )
        12        C      tau(  12) = (   0.5000000  -1.0682472   1.9262467  )
        13        H      tau(  13) = (   0.0000000  -0.1238861   4.7419430  )
        14        H      tau(  14) = (   0.5000000  -0.9367741   4.7419430  )
        15        H      tau(  15) = (   0.0000000  -0.2296673   1.5652551  )
        16        H      tau(  16) = (   0.5000000  -0.8309929   1.5652551  )

     number of k points=    20  Marzari-Vanderbilt smearing, width (Ry)=  0.0100
                       cart. coord. in units 2pi/alat
        k(    1) = (   0.0000000  -0.0000000   0.0000000), wk =   0.0317460
        k(    2) = (   0.0000000  -0.1010153   0.0000000), wk =   0.0634921
        k(    3) = (   0.0000000  -0.2020305   0.0000000), wk =   0.0634921
        k(    4) = (   0.0000000  -0.3030458   0.0000000), wk =   0.0634921
        k(    5) = (   0.1111111  -0.0000000   0.0000000), wk =   0.0634921
        k(    6) = (   0.1111111  -0.1010153   0.0000000), wk =   0.1269841
        k(    7) = (   0.1111111  -0.2020305   0.0000000), wk =   0.1269841
        k(    8) = (   0.1111111  -0.3030458   0.0000000), wk =   0.1269841
        k(    9) = (   0.2222222  -0.0000000   0.0000000), wk =   0.0634921
        k(   10) = (   0.2222222  -0.1010153   0.0000000), wk =   0.1269841
        k(   11) = (   0.2222222  -0.2020305   0.0000000), wk =   0.1269841
        k(   12) = (   0.2222222  -0.3030458   0.0000000), wk =   0.1269841
        k(   13) = (   0.3333333  -0.0000000   0.0000000), wk =   0.0634921
        k(   14) = (   0.3333333  -0.1010153   0.0000000), wk =   0.1269841
        k(   15) = (   0.3333333  -0.2020305   0.0000000), wk =   0.1269841
        k(   16) = (   0.3333333  -0.3030458   0.0000000), wk =   0.1269841
        k(   17) = (   0.4444444  -0.0000000   0.0000000), wk =   0.0634921
        k(   18) = (   0.4444444  -0.1010153   0.0000000), wk =   0.1269841
        k(   19) = (   0.4444444  -0.2020305   0.0000000), wk =   0.1269841
        k(   20) = (   0.4444444  -0.3030458   0.0000000), wk =   0.1269841

     Dense  grid:   177715 G-vectors     FFT dimensions: (  36,  48, 216)

     Smooth grid:    62825 G-vectors     FFT dimensions: (  24,  36, 160)

     Estimated max dynamical RAM per process >     405.72 MB

     Check: negative core charge=   -0.000002

     Initial potential from superposition of free atoms

     starting charge      51.9995, renormalised to      52.0000

     negative rho (up, down):  1.770E-07 0.000E+00
     Starting wfcs are   52 randomized atomic wfcs

     total cpu time spent up to now is        2.1 secs

     Self-consistent Calculation

     iteration #  1     ecut=    60.00 Ry     beta= 0.30
     Davidson diagonalization with overlap
     ethr =  1.00E-02,  avg # of iterations =  2.5

     negative rho (up, down):  1.253E-06 0.000E+00

     total cpu time spent up to now is        6.3 secs

     total energy              =    -226.00761282 Ry
     estimated scf accuracy    <       1.15225739 Ry

     iteration #  2     ecut=    60.00 Ry     beta= 0.30
     Davidson diagonalization with overlap
     ethr =  2.22E-03,  avg # of iterations =  3.8

     negative rho (up, down):  8.511E-06 0.000E+00

     total cpu time spent up to now is        9.6 secs

     total energy              =    -225.92317949 Ry
     estimated scf accuracy    <       0.36031518 Ry

     iteration #  3     ecut=    60.00 Ry     beta= 0.30
     Davidson diagonalization with overlap
     ethr =  6.93E-04,  avg # of iterations =  5.5

     negative rho (up, down):  1.815E-05 0.000E+00

     total cpu time spent up to now is       13.3 secs

     total energy              =    -225.93650001 Ry
     estimated scf accuracy    <       0.04913982 Ry

     iteration #  4     ecut=    60.00 Ry     beta= 0.30
     Davidson diagonalization with overlap
     ethr =  9.45E-05,  avg # of iterations =  5.3

     negative rho (up, down):  2.425E-05 0.000E+00

     total cpu time spent up to now is       17.0 secs

     total energy              =    -225.93917707 Ry
     estimated scf accuracy    <       0.00487512 Ry

     iteration #  5     ecut=    60.00 Ry     beta= 0.30
     Davidson diagonalization with overlap
     ethr =  9.38E-06,  avg # of iterations =  6.4

     negative rho (up, down):  2.335E-05 0.000E+00

     total cpu time spent up to now is       21.2 secs

     total energy              =    -225.93970911 Ry
     estimated scf accuracy    <       0.00051345 Ry

     iteration #  6     ecut=    60.00 Ry     beta= 0.30
     Davidson diagonalization with overlap
     ethr =  9.87E-07,  avg # of iterations =  4.8

     negative rho (up, down):  2.400E-05 0.000E+00

     total cpu time spent up to now is       25.1 secs

     total energy              =    -225.93980750 Ry
     estimated scf accuracy    <       0.00008013 Ry

     iteration #  7     ecut=    60.00 Ry     beta= 0.30
     Davidson diagonalization with overlap
     ethr =  1.54E-07,  avg # of iterations =  2.8

     negative rho (up, down):  2.349E-05 0.000E+00

     total cpu time spent up to now is       28.5 secs

     total energy              =    -225.93981370 Ry
     estimated scf accuracy    <       0.00002746 Ry

     iteration #  8     ecut=    60.00 Ry     beta= 0.30
     Davidson diagonalization with overlap
     ethr =  5.28E-08,  avg # of iterations =  2.0

     negative rho (up, down):  2.341E-05 0.000E+00

     total cpu time spent up to now is       31.6 secs

     total energy              =    -225.93981778 Ry
     estimated scf accuracy    <       0.00000247 Ry

     iteration #  9     ecut=    60.00 Ry     beta= 0.30
     Davidson diagonalization with overlap
     ethr =  4.75E-09,  avg # of iterations =  2.4

     negative rho (up, down):  2.338E-05 0.000E+00

     total cpu time spent up to now is       35.0 secs

     total energy              =    -225.93981833 Ry
     estimated scf accuracy    <       0.00000169 Ry

     iteration # 10     ecut=    60.00 Ry     beta= 0.30
     Davidson diagonalization with overlap
     ethr =  3.25E-09,  avg # of iterations =  2.0

     negative rho (up, down):  2.340E-05 0.000E+00

     total cpu time spent up to now is       38.2 secs

     total energy              =    -225.93981843 Ry
     estimated scf accuracy    <       0.00000029 Ry

     iteration # 11     ecut=    60.00 Ry     beta= 0.30
     Davidson diagonalization with overlap
     ethr =  5.59E-10,  avg # of iterations =  3.2

     negative rho (up, down):  2.345E-05 0.000E+00

     total cpu time spent up to now is       42.0 secs

     total energy              =    -225.93981855 Ry
     estimated scf accuracy    <       0.00000012 Ry

     iteration # 12     ecut=    60.00 Ry     beta= 0.30
     Davidson diagonalization with overlap
     ethr =  2.28E-10,  avg # of iterations =  2.1

     negative rho (up, down):  2.349E-05 0.000E+00

     total cpu time spent up to now is       45.1 secs

     total energy              =    -225.93981853 Ry
     estimated scf accuracy    <       0.00000007 Ry

     iteration # 13     ecut=    60.00 Ry     beta= 0.30
     Davidson diagonalization with overlap
     ethr =  1.32E-10,  avg # of iterations =  2.3

     negative rho (up, down):  2.362E-05 0.000E+00

     total cpu time spent up to now is       48.4 secs

     End of self-consistent calculation

          k = 0.0000-0.0000 0.0000 (  7865 PWs)   bands (ev):

   -15.8982 -14.8297 -13.0835 -10.8993  -8.7401  -7.6919  -7.5041  -6.5693
    -4.9871  -4.5201  -4.0226  -3.0451  -2.9150  -2.0824  -1.0409  -0.8229
    -0.5957  -0.2348   1.0542   1.5998   1.9440   2.5441   3.7572   3.8096
     4.1076   4.6344   6.8358   7.1270   9.6008   9.7759  10.5596

          k = 0.0000-0.1010 0.0000 (  7823 PWs)   bands (ev):

   -15.7159 -14.6532 -12.9245 -10.8210  -9.5993  -9.2899  -6.9030  -6.1116
    -5.6678  -4.1796  -3.6281  -3.1469  -2.0043  -1.8559  -1.1852  -0.8678
    -0.0871   0.0549   1.1410   1.3529   2.1555   2.4957   3.5232   3.5754
     3.8646   4.0663   7.0380   7.3544   9.7879   9.7937  10.6791

          k = 0.0000-0.2020 0.0000 (  7797 PWs)   bands (ev):

   -15.1715 -14.1293 -12.4713 -11.4774 -10.6410 -10.6153  -7.3927  -6.7617
    -5.5168  -4.4433  -3.1602  -1.8915  -1.7876  -0.8954  -0.3558  -0.2868
     0.2188   0.3435   1.3786   1.8126   1.9178   2.3338   2.8052   2.8723
     3.0781   3.3236   7.6738   7.9221   9.9850  10.2208  10.6742

          k = 0.0000-0.3030 0.0000 (  7792 PWs)   bands (ev):

   -14.2744 -13.3199 -12.9729 -12.1992 -11.5665 -10.9342  -7.7474  -7.1060
    -5.7007  -4.7536  -3.0194  -1.9973  -0.4287  -0.0483   0.4707   0.6852
     0.9495   1.0076   1.5781   1.6506   1.7580   1.9175   1.9790   2.1052
     2.3793   2.4668   8.6987   8.7454   9.7365  10.1413  10.4790

          k = 0.1111-0.0000 0.0000 (  7844 PWs)   bands (ev):

   -15.6769 -14.6110 -12.8687 -10.6897  -8.5381  -7.4934  -7.4488  -6.5213
    -4.9524  -4.3319  -3.8208  -2.9022  -2.8955  -2.0284  -1.8903  -1.1874
    -0.7543  -0.6154   0.1425   1.4879   1.6271   1.8947   2.8462   3.2679
     3.5599   4.0037   7.0453   7.3512   9.5973  10.6603  10.6941

          k = 0.1111-0.1010 0.0000 (  7845 PWs)   bands (ev):

   -15.4951 -14.4351 -12.7106 -10.6135  -9.4243  -9.1014  -6.7614  -5.9886
    -5.6026  -4.0856  -3.5137  -3.1322  -1.9944  -1.7552  -1.6956  -1.1788
    -0.9274   0.0096   0.2982   1.3100   1.6045   1.8792   2.5325   2.6077
     3.5332   3.9259   7.2744   7.5812   9.9404  10.9539  11.1213

          k = 0.1111-0.2020 0.0000 (  7837 PWs)   bands (ev):

   -14.9525 -13.9134 -12.2605 -11.2794 -10.4397 -10.4220  -7.2182  -6.5779
    -5.3714  -4.3269  -3.1553  -2.2203  -1.8855  -1.1825  -0.7833  -0.2860
    -0.2540   0.0085   0.8581   1.2596   1.4338   1.4642   1.5938   2.0092
     3.0913   3.6908   7.9247   8.1867  10.5575  10.9905  11.2722

          k = 0.1111-0.3030 0.0000 (  7812 PWs)   bands (ev):

   -14.0588 -13.1079 -12.7638 -11.9932 -11.3630 -10.7351  -7.5551  -6.9186
    -5.5302  -4.5894  -2.9331  -1.9094  -1.2664  -0.5289  -0.3438   0.0349
     0.3699   0.4937   0.7948   1.0228   1.0794   1.4583   1.7359   2.0827
     2.5678   2.6797   8.9525   9.0738  10.2290  10.4153  11.3060

          k = 0.2222-0.0000 0.0000 (  7844 PWs)   bands (ev):

   -15.0165 -13.9583 -12.2281 -10.0647  -7.9346  -7.5789  -6.8997  -6.6584
    -5.1065  -3.7870  -3.6617  -3.2323  -3.0861  -2.7911  -2.4793  -1.4475
    -1.3295  -0.8395  -0.6197  -0.0140   0.9885   1.0273   1.4227   1.6129
     1.9195   3.6069   7.7427   7.9769   9.8091   9.9824  10.4352

          k = 0.2222-0.1010 0.0000 (  7864 PWs)   bands (ev):

   -14.8365 -13.7847 -12.0731  -9.9956  -8.9740  -8.5673  -6.5121  -5.8808
    -5.7395  -4.0540  -3.5798  -3.5427  -2.5044  -2.4542  -1.9071  -1.3805
    -1.0925  -0.6886  -0.5273   0.1606   0.2806   0.4682   1.2424   1.4508
     2.7753   3.2527   7.9853   8.2280  10.4112  10.4473  10.6132

          k = 0.2222-0.2020 0.0000 (  7858 PWs)   bands (ev):

   -14.2999 -13.2702 -11.6328 -10.7100  -9.8629  -9.8424  -6.7594  -6.1046
    -5.0397  -4.8997  -3.3970  -3.3966  -2.5811  -1.9334  -1.3365  -0.9788
    -0.7531  -0.5476  -0.4827   0.0304   0.1305   0.4183   0.8959   1.6988
     2.5601   3.1491   8.6462   8.8653  11.1403  11.5612  11.6543

          k = 0.2222-0.3030 0.0000 (  7854 PWs)   bands (ev):

   -13.4185 -12.4790 -12.1476 -11.3844 -10.7605 -10.1448  -7.0164  -6.3934
    -5.1057  -4.1778  -3.8962  -2.8432  -2.5737  -2.2412  -1.6145  -1.4387
    -1.2070  -0.9421   0.1613   0.9161   0.9836   1.0251   1.2147   1.4941
     2.2179   2.5819   9.6189   9.7384  10.9976  11.0829  12.3213

          k = 0.3333-0.0000 0.0000 (  7880 PWs)   bands (ev):

   -13.9293 -12.8847 -11.1752  -9.0378  -8.7587  -7.8038  -6.9395  -6.2149
    -5.9163  -4.1803  -4.0219  -3.2139  -2.9528  -2.3145  -2.0399  -2.0117
    -1.9064  -0.8933  -0.8064  -0.6330  -0.4464  -0.2531   0.0721   0.1580
     1.0022   2.8661   8.8538   8.8753   9.6444  10.0106  11.1127

          k = 0.3333-0.1010 0.0000 (  7884 PWs)   bands (ev):

   -13.7535 -12.7159 -11.0265  -9.0505  -8.8991  -8.1494  -6.7832  -6.6298
    -6.2685  -4.4071  -4.0630  -3.2008  -3.1135  -2.4391  -2.0564  -1.7944
    -1.7413  -1.2643  -0.8052  -0.7711  -0.4793  -0.2564   0.3951   0.8011
     1.1930   2.6859   9.1064   9.2112  10.0994  10.3272  11.0113

          k = 0.3333-0.2020 0.0000 (  7877 PWs)   bands (ev):

   -13.2310 -12.2176 -10.6067  -9.9525  -9.0927  -8.8806  -6.8106  -6.4464
    -6.3138  -5.0124  -4.1880  -3.7632  -3.6261  -3.3015  -2.5093  -2.1479
    -1.6121  -0.6061  -0.3443  -0.3168  -0.0909   0.2697   0.4437   0.7375
     2.0715   2.2130   9.7317   9.8278  11.0639  11.2955  11.7123

          k = 0.3333-0.3030 0.0000 (  7860 PWs)   bands (ev):

   -12.3813 -11.4648 -11.1815 -10.4208  -9.7964  -9.1964  -6.4167  -6.1039
    -5.7839  -5.5690  -5.0070  -4.5849  -3.7537  -3.3892  -2.8893  -2.7531
    -1.4750  -0.8386  -0.3329  -0.1926   0.5072   0.8364   1.1445   1.3376
     1.6541   2.1754  10.4462  10.5315  11.8479  11.9226  12.1138

          k = 0.4444-0.0000 0.0000 (  7908 PWs)   bands (ev):

   -12.4451 -11.4208 -10.6398  -9.7415  -9.6445  -8.0057  -7.6389  -5.9415
    -5.5732  -4.5545  -3.8828  -3.1070  -2.8367  -2.4478  -1.9737  -1.6136
    -1.5990  -1.4529  -1.2013  -1.0958  -1.0814  -1.0061  -0.9639   0.0269
     0.6565   1.8263   9.4224  10.0310  10.2362  10.4454  10.5895

          k = 0.4444-0.1010 0.0000 (  7896 PWs)   bands (ev):

   -12.2799 -11.2639 -10.5182  -9.6122  -9.5284  -7.9493  -7.5355  -5.9247
    -5.8780  -5.7756  -4.2513  -4.1082  -3.1888  -2.5137  -2.0625  -1.8648
    -1.5379  -1.2580  -0.9639  -0.8654  -0.7632  -0.5296  -0.3144   0.1589
     0.7670   1.8094  10.0246  10.0313  10.1959  10.6807  11.0937

          k = 0.4444-0.2020 0.0000 (  7869 PWs)   bands (ev):

   -11.7984 -10.8103 -10.2522  -9.3472  -9.1834  -7.9039  -7.3462  -7.0637
    -6.6371  -6.0062  -5.6501  -5.2180  -3.4253  -3.3840  -2.3872  -2.2298
    -1.6491  -1.4109  -0.9063  -0.2975  -0.0446   0.0120   0.4391   0.9310
     1.1468   1.7375  10.5890  10.7441  10.9846  11.1912  11.6819

          k = 0.4444-0.3030 0.0000 (  7866 PWs)   bands (ev):

   -11.0663 -10.3635 -10.1058  -9.4588  -8.6364  -8.1204  -7.7718  -7.1073
    -6.9137  -6.7167  -6.2375  -6.1525  -3.7484  -3.4332  -2.8578  -2.5300
    -1.8157  -1.5502  -0.7649  -0.4381   0.1356   0.2249   1.2831   1.3722
     1.6141   1.6695  11.1774  11.1893  11.7586  11.8974  12.7880

     the Fermi energy is     5.3152 ev

!    total energy              =    -225.93981853 Ry
     estimated scf accuracy    <          2.1E-09 Ry
     smearing contrib. (-TS)   =       0.00000000 Ry
     internal energy E=F+TS    =    -225.93981853 Ry

     The total energy is F=E-TS. E is the sum of the following terms:
     one-electron contribution =   -1208.03224125 Ry
     hartree contribution      =     627.76596715 Ry
     xc contribution           =     -58.93150683 Ry
     ewald contribution        =     487.20915480 Ry
     one-center paw contrib.   =     -73.95119240 Ry

     convergence has been achieved in  13 iterations

     negative rho (up, down):  2.362E-05 0.000E+00

     Forces acting on atoms (cartesian axes, Ry/au):

     atom    1 type  1   force =     0.00000000   -0.00417179   -0.00007336
     atom    2 type  1   force =    -0.00000000    0.00417179   -0.00007336
     atom    3 type  1   force =    -0.00000000    0.00111266    0.00049489
     atom    4 type  1   force =     0.00000000   -0.00111266    0.00049489
     atom    5 type  1   force =    -0.00000000   -0.00069741   -0.00003190
     atom    6 type  1   force =     0.00000000    0.00069741   -0.00003190
     atom    7 type  1   force =     0.00000000    0.00069741    0.00003190
     atom    8 type  1   force =     0.00000000   -0.00069741    0.00003190
     atom    9 type  1   force =    -0.00000000   -0.00111266   -0.00049489
     atom   10 type  1   force =     0.00000000    0.00111266   -0.00049489
     atom   11 type  1   force =     0.00000000    0.00417179    0.00007336
     atom   12 type  1   force =     0.00000000   -0.00417179    0.00007336
     atom   13 type  2   force =     0.00000000   -0.00394251   -0.00207587
     atom   14 type  2   force =    -0.00000000    0.00394251   -0.00207587
     atom   15 type  2   force =     0.00000000    0.00394251    0.00207587
     atom   16 type  2   force =    -0.00000000   -0.00394251    0.00207587

     Total force =     0.012527     Total SCF correction =     0.000146


     Computing stress (Cartesian axis) and pressure


     negative rho (up, down):  2.362E-05 0.000E+00
          total   stress  (Ry/bohr**3)                   (kbar)     P=      -17.63
  -0.00025524   0.00000000   0.00000000          -37.55        0.00        0.00
   0.00000000  -0.00002750   0.00000000            0.00       -4.05        0.00
   0.00000000   0.00000000  -0.00007676            0.00        0.00      -11.29


     Writing all to output data dir ./tmp/slab.save/ :
     XML data file, charge density, pseudopotentials, collected wavefunctions

     init_run     :      1.96s CPU      2.10s WALL (       1 calls)
     electrons    :     42.27s CPU     46.29s WALL (       1 calls)
     forces       :      0.46s CPU      0.54s WALL (       1 calls)
     stress       :      1.36s CPU      1.62s WALL (       1 calls)

     Called by init_run:
     wfcinit      :      1.54s CPU      1.65s WALL (       1 calls)
     potinit      :      0.23s CPU      0.25s WALL (       1 calls)
     hinit0       :      0.12s CPU      0.13s WALL (       1 calls)

     Called by electrons:
     c_bands      :     33.42s CPU     36.94s WALL (      13 calls)
     sum_band     :      5.56s CPU      5.82s WALL (      13 calls)
     v_of_rho     :      0.79s CPU      0.85s WALL (      14 calls)
     newd         :      0.47s CPU      0.57s WALL (      14 calls)
     PAW_pot      :      2.09s CPU      2.19s WALL (      14 calls)
     mix_rho      :      0.10s CPU      0.12s WALL (      13 calls)

     Called by c_bands:
     init_us_2    :      0.59s CPU      0.64s WALL (     580 calls)
     cegterg      :     32.27s CPU     35.76s WALL (     260 calls)

     Called by *egterg:
     cdiaghg      :      0.72s CPU      0.77s WALL (    1164 calls)
     h_psi        :     25.28s CPU     26.74s WALL (    1184 calls)
     s_psi        :      2.03s CPU      2.47s WALL (    1184 calls)
     g_psi        :      0.13s CPU      0.13s WALL (     904 calls)

     Called by h_psi:
     h_psi:calbec :      2.51s CPU      3.16s WALL (    1184 calls)
     vloc_psi     :     20.40s CPU     20.61s WALL (    1184 calls)
                                        0.00s GPU  (    1184 calls)
     add_vuspsi   :      2.26s CPU      2.80s WALL (    1184 calls)

     General routines
     calbec       :      4.01s CPU      4.98s WALL (    1784 calls)
     fft          :      0.49s CPU      0.49s WALL (     205 calls)
     ffts         :      0.02s CPU      0.02s WALL (      27 calls)
     fftw         :     21.54s CPU     21.60s WALL (   52160 calls)
     interpolate  :      0.05s CPU      0.05s WALL (      14 calls)


     PWSCF        :     46.09s CPU     50.63s WALL


   This run was terminated on:  13:37: 9   7Jul2026            

=------------------------------------------------------------------------------=
   JOB DONE.
=------------------------------------------------------------------------------=
Note: The following floating-point exceptions are signalling: IEEE_INVALID_FLAG IEEE_DIVIDE_BY_ZERO IEEE_OVERFLOW_FLAG IEEE_UNDERFLOW_FLAG
