
     Program PWSCF v.7.5 starts on 22Jun2026 at 14:33:34 

     This program is part of the open-source Quantum ESPRESSO suite
     for quantum simulation of materials; please cite
         "P. Giannozzi et al., J. Phys.:Condens. Matter 21 395502 (2009);
         "P. Giannozzi et al., J. Phys.:Condens. Matter 29 465901 (2017);
         "P. Giannozzi et al., J. Chem. Phys. 152 154105 (2020);
          URL http://www.quantum-espresso.org", 
     in publications or presentations arising from this work. More details at
     http://www.quantum-espresso.org/quote

     Serial version
     0 MiB available memory on the printing compute node when the environment starts

     Waiting for input...
     Reading input from standard input

     Current dimensions of program PWSCF are:
     Max number of different atomic species (ntypx) = 10
     Max number of k-points (npk) =  40000
     Max angular momentum in pseudopotentials (lmaxx) =  4
     file C.pbe-n-kjpaw_psl.1.0.0.UPF: wavefunction(s)  2S 2P renormalized
     Message from routine setup:
     using ibrav=0 with symmetry is DISCOURAGED, use correct ibrav instead


     G-vector sticks info
     --------------------
     sticks:   dense  smooth     PW     G-vecs:    dense   smooth      PW
     Sum        1027     511    151               213717    75589   12585

     Using Slab Decomposition



     bravais-lattice index     =            0
     lattice parameter (alat)  =       4.7991  a.u.
     unit-cell volume          =     781.4453 (a.u.)^3
     number of atoms/cell      =            7
     number of atomic types    =            2
     number of electrons       =        25.00
     number of Kohn-Sham states=           17
     kinetic-energy cutoff     =      80.0000  Ry
     charge density cutoff     =     640.0000  Ry
     scf convergence threshold =      1.0E-08
     mixing beta               =       0.3000
     number of iterations used =            8  plain     mixing
     Exchange-correlation= PBE
                           (   1   4   3   4   0   0   0)

     celldm(1)=   4.799112  celldm(2)=   0.000000  celldm(3)=   0.000000
     celldm(4)=   0.000000  celldm(5)=   0.000000  celldm(6)=   0.000000

     crystal axes: (cart. coord. in units of alat)
               a(1) = (   1.000000   0.000000   0.000000 )  
               a(2) = (   0.500000   0.866025   0.000000 )  
               a(3) = (   0.000000   0.000000   8.163669 )  

     reciprocal axes: (cart. coord. in units 2 pi/alat)
               b(1) = (  1.000000 -0.577350  0.000000 )  
               b(2) = (  0.000000  1.154701  0.000000 )  
               b(3) = (  0.000000  0.000000  0.122494 )  


     PseudoPot. # 1 for C  read from file:
     ./C.pbe-n-kjpaw_psl.1.0.0.UPF
     MD5 check sum: 5d2aebdfa2cae82b50a7e79e9516da0f
     Pseudo is Projector augmented-wave + core cor, Zval =  4.0
     Generated using "atomic" code by A. Dal Corso  v.5.1
     Shape of augmentation charge: PSQ
     Using radial grid of 1073 points,  4 beta functions with: 
                l(1) =   0
                l(2) =   0
                l(3) =   1
                l(4) =   1
     Q(r) pseudized with 0 coefficients 


     PseudoPot. # 2 for H  read from file:
     ./H_ONCV_PBE-1.0.oncvpsp.upf
     MD5 check sum: 1790becc920ee074925cf490c71280fe
     Pseudo is Norm-conserving, Zval =  1.0
     Generated using ONCVPSP code by D. R. Hamann
     Using radial grid of 1166 points,  2 beta functions with: 
                l(1) =   0
                l(2) =   0

     atomic species   valence    mass     pseudopotential
     C                 4.00    12.01100     C ( 1.00)
     H                 1.00     1.00800     H ( 1.00)

      6 Sym. Ops. (no inversion) found



   Cartesian axes

     site n.     atom                  positions (alat units)
         1        C      tau(   1) = (   0.5000000   0.2886751   4.7829357  )
         2        C      tau(   2) = (   1.0000000   0.5773503   4.5917094  )
         3        C      tau(   3) = (   1.0000000   0.5773503   3.9758142  )
         4        C      tau(   4) = (   0.0000000   0.0000000   3.7798270  )
         5        C      tau(   5) = (   0.0000000   0.0000000   3.1563522  )
         6        C      tau(   6) = (   0.5000000   0.2886751   2.9532436  )
         7        H      tau(   7) = (   0.5000000   0.2886751   5.2191697  )

     number of k points=    12  Marzari-Vanderbilt smearing, width (Ry)=  0.0100
                       cart. coord. in units 2pi/alat
        k(    1) = (   0.0000000   0.0000000   0.0000000), wk =   0.0246914
        k(    2) = (   0.0000000   0.1283001   0.0000000), wk =   0.1481481
        k(    3) = (   0.0000000   0.2566001   0.0000000), wk =   0.1481481
        k(    4) = (   0.0000000   0.3849002   0.0000000), wk =   0.1481481
        k(    5) = (   0.0000000   0.5132002   0.0000000), wk =   0.1481481
        k(    6) = (   0.1111111   0.1924501   0.0000000), wk =   0.1481481
        k(    7) = (   0.1111111   0.3207501   0.0000000), wk =   0.2962963
        k(    8) = (   0.1111111   0.4490502   0.0000000), wk =   0.2962963
        k(    9) = (   0.1111111  -0.5773503   0.0000000), wk =   0.1481481
        k(   10) = (   0.2222222   0.3849002   0.0000000), wk =   0.1481481
        k(   11) = (   0.2222222  -0.6415003   0.0000000), wk =   0.2962963
        k(   12) = (   0.3333333  -0.5773503   0.0000000), wk =   0.0493827

     Dense  grid:   213717 G-vectors     FFT dimensions: (  40,  40, 320)

     Smooth grid:    75589 G-vectors     FFT dimensions: (  27,  27, 225)

     Estimated max dynamical RAM per process >     363.73 MB

     Initial potential from superposition of free atoms

     starting charge      24.9997, renormalised to      25.0000

     negative rho (up, down):  3.482E-05 0.000E+00
     Starting wfcs are   25 randomized atomic wfcs

     total cpu time spent up to now is        0.9 secs

     Self-consistent Calculation

     iteration #  1     ecut=    80.00 Ry     beta= 0.30
     Davidson diagonalization with overlap
     ethr =  1.00E-02,  avg # of iterations =  2.8

     negative rho (up, down):  3.370E-05 0.000E+00

     total cpu time spent up to now is        2.5 secs

     total energy              =    -111.64666864 Ry
     estimated scf accuracy    <       0.43680204 Ry

     iteration #  2     ecut=    80.00 Ry     beta= 0.30
     Davidson diagonalization with overlap
     ethr =  1.75E-03,  avg # of iterations =  3.7

     negative rho (up, down):  4.161E-05 0.000E+00

     total cpu time spent up to now is        3.8 secs

     total energy              =    -111.60127343 Ry
     estimated scf accuracy    <       0.15184428 Ry

     iteration #  3     ecut=    80.00 Ry     beta= 0.30
     Davidson diagonalization with overlap
     ethr =  6.07E-04,  avg # of iterations =  7.7

     negative rho (up, down):  4.020E-05 0.000E+00

     total cpu time spent up to now is        5.5 secs

     total energy              =    -111.61009938 Ry
     estimated scf accuracy    <       0.02303166 Ry

     iteration #  4     ecut=    80.00 Ry     beta= 0.30
     Davidson diagonalization with overlap
     ethr =  9.21E-05,  avg # of iterations =  7.1

     negative rho (up, down):  3.536E-05 0.000E+00

     total cpu time spent up to now is        7.2 secs

     total energy              =    -111.61100670 Ry
     estimated scf accuracy    <       0.01890937 Ry

     iteration #  5     ecut=    80.00 Ry     beta= 0.30
     Davidson diagonalization with overlap
     ethr =  7.56E-05,  avg # of iterations =  2.8

     negative rho (up, down):  3.640E-05 0.000E+00

     total cpu time spent up to now is        8.4 secs

     total energy              =    -111.61311076 Ry
     estimated scf accuracy    <       0.00166435 Ry

     iteration #  6     ecut=    80.00 Ry     beta= 0.30
     Davidson diagonalization with overlap
     ethr =  6.66E-06,  avg # of iterations =  5.6

     negative rho (up, down):  3.523E-05 0.000E+00

     total cpu time spent up to now is       10.0 secs

     total energy              =    -111.61328382 Ry
     estimated scf accuracy    <       0.00021862 Ry

     iteration #  7     ecut=    80.00 Ry     beta= 0.30
     Davidson diagonalization with overlap
     ethr =  8.74E-07,  avg # of iterations =  6.2

     negative rho (up, down):  3.604E-05 0.000E+00

     total cpu time spent up to now is       11.7 secs

     total energy              =    -111.61330726 Ry
     estimated scf accuracy    <       0.00008948 Ry

     iteration #  8     ecut=    80.00 Ry     beta= 0.30
     Davidson diagonalization with overlap
     ethr =  3.58E-07,  avg # of iterations =  4.2

     negative rho (up, down):  3.551E-05 0.000E+00

     total cpu time spent up to now is       13.1 secs

     total energy              =    -111.61331979 Ry
     estimated scf accuracy    <       0.00007481 Ry

     iteration #  9     ecut=    80.00 Ry     beta= 0.30
     Davidson diagonalization with overlap
     ethr =  2.99E-07,  avg # of iterations =  1.5

     negative rho (up, down):  3.540E-05 0.000E+00

     total cpu time spent up to now is       14.3 secs

     total energy              =    -111.61332951 Ry
     estimated scf accuracy    <       0.00000102 Ry

     iteration # 10     ecut=    80.00 Ry     beta= 0.30
     Davidson diagonalization with overlap
     ethr =  4.07E-09,  avg # of iterations =  4.1

     negative rho (up, down):  3.539E-05 0.000E+00

     total cpu time spent up to now is       15.9 secs

     total energy              =    -111.61333013 Ry
     estimated scf accuracy    <       0.00000092 Ry

     iteration # 11     ecut=    80.00 Ry     beta= 0.30
     Davidson diagonalization with overlap
     ethr =  3.68E-09,  avg # of iterations =  1.6

     negative rho (up, down):  3.535E-05 0.000E+00

     total cpu time spent up to now is       17.0 secs

     total energy              =    -111.61333019 Ry
     estimated scf accuracy    <       0.00000009 Ry

     iteration # 12     ecut=    80.00 Ry     beta= 0.30
     Davidson diagonalization with overlap
     ethr =  3.64E-10,  avg # of iterations =  2.8

     negative rho (up, down):  3.533E-05 0.000E+00

     total cpu time spent up to now is       18.5 secs

     total energy              =    -111.61333022 Ry
     estimated scf accuracy    <       0.00000002 Ry

     iteration # 13     ecut=    80.00 Ry     beta= 0.30
     Davidson diagonalization with overlap
     ethr =  9.07E-11,  avg # of iterations =  1.5

     negative rho (up, down):  3.531E-05 0.000E+00

     total cpu time spent up to now is       19.6 secs

     End of self-consistent calculation

          k = 0.0000 0.0000 0.0000 (  9375 PWs)   bands (ev):

   -20.0713 -18.1381 -15.7929 -10.9625  -7.0725  -2.8445  -1.9002  -1.9002
    -0.7006  -0.7006   0.6768   0.6768   1.4605   3.4362   5.2362   6.1552
     6.6618

          k = 0.0000 0.1283 0.0000 (  9376 PWs)   bands (ev):

   -19.7744 -17.8474 -15.5145 -10.7040  -6.8664  -3.3229  -2.7409  -2.4999
    -1.9796  -1.1916  -0.5966   0.2110   1.6028   3.6426   5.5772   6.3894
     6.9439

          k = 0.0000 0.2566 0.0000 (  9436 PWs)   bands (ev):

   -18.8902 -16.9838 -14.6887  -9.9953  -6.4769  -6.0656  -4.6629  -3.6420
    -3.2631  -2.4994  -2.2240  -0.7804   1.5545   4.3311   6.2359   6.7554
     7.4801

          k = 0.0000 0.3849 0.0000 (  9462 PWs)   bands (ev):

   -17.4448 -15.5842 -13.3687  -9.8688  -8.6679  -7.4065  -6.2766  -5.1765
    -4.6177  -3.1505  -2.8675  -1.6833   1.4364   5.3323   6.1372   7.4075
     8.3502

          k = 0.0000 0.5132 0.0000 (  9478 PWs)   bands (ev):

   -15.5486 -13.9691 -12.5639 -11.2490 -10.7001  -8.8376  -6.7620  -5.2647
    -5.1504  -3.6646  -3.3453  -2.1875   1.4134   5.6405   6.5040   7.3506
     8.3166

          k = 0.1111 0.1925 0.0000 (  9431 PWs)   bands (ev):

   -19.1838 -17.2701 -14.9621 -10.2152  -6.5105  -4.9905  -4.2327  -3.0461
    -3.0092  -2.5254  -1.7093  -0.9140   1.6557   4.1300   6.2787   7.0565
     7.2265

          k = 0.1111 0.3208 0.0000 (  9437 PWs)   bands (ev):

   -18.0176 -16.1352 -13.8814  -9.5059  -7.5786  -6.6072  -5.5829  -5.2534
    -4.3753  -3.6401  -2.7074  -1.9781   1.5687   5.1355   6.9273   7.7522
     8.4711

          k = 0.1111 0.4491 0.0000 (  9463 PWs)   bands (ev):

   -16.3262 -14.5299 -12.4544 -10.7995  -9.5263  -7.5933  -7.1766  -5.8915
    -5.0899  -4.4053  -3.3739  -2.6594   1.4749   6.1775   7.1763   8.1860
     8.7431

          k = 0.1111-0.5774 0.0000 (  9456 PWs)   bands (ev):

   -14.6403 -13.8301 -12.3121 -11.5540 -10.2565  -9.5801  -6.3932  -6.1990
    -5.4663  -4.5467  -3.6798  -2.9360   1.4364   6.5915   7.1677   8.5139
     8.5714

          k = 0.2222 0.3849 0.0000 (  9427 PWs)   bands (ev):

   -16.5980 -14.7711 -12.6076  -9.9182  -8.6265  -7.6851  -6.8253  -6.4293
    -5.3623  -4.6210  -4.4752  -2.7220   1.5248   6.2857   8.0331   8.3549
     9.5401

          k = 0.2222-0.6415 0.0000 (  9443 PWs)   bands (ev):

   -14.7550 -13.2258 -11.9781 -10.6249 -10.4309  -8.8889  -7.6063  -7.0170
    -5.8595  -5.3426  -4.5257  -3.4384   1.4585   7.0641   8.0679   9.1868
     9.8005

          k = 0.3333-0.5774 0.0000 (  9453 PWs)   bands (ev):

   -13.3706 -12.8312 -12.1780 -10.3610 -10.2928  -9.8487  -7.9183  -7.9070
    -6.8904  -4.9323  -4.5651  -4.0873   1.4466   7.3545   8.2908   8.6662
    10.4661

     the Fermi energy is     1.5171 ev

!    total energy              =    -111.61333022 Ry
     estimated scf accuracy    <          6.5E-09 Ry
     smearing contrib. (-TS)   =      -0.00191723 Ry
     internal energy E=F+TS    =    -111.61141299 Ry

     The total energy is F=E-TS. E is the sum of the following terms:
     one-electron contribution =   -1207.32211788 Ry
     hartree contribution      =     611.52876401 Ry
     xc contribution           =     -28.52426762 Ry
     ewald contribution        =     549.68995376 Ry
     one-center paw contrib.   =     -36.98374527 Ry

     convergence has been achieved in  13 iterations

     negative rho (up, down):  3.531E-05 0.000E+00

     Forces acting on atoms (cartesian axes, Ry/au):

     atom    1 type  1   force =     0.00000000    0.00000000   -0.00086620
     atom    2 type  1   force =     0.00000000    0.00000000    0.00044030
     atom    3 type  1   force =     0.00000000    0.00000000   -0.00004937
     atom    4 type  1   force =     0.00000000    0.00000000   -0.00019112
     atom    5 type  1   force =     0.00000000    0.00000000   -0.16286365
     atom    6 type  1   force =     0.00000000    0.00000000    0.16398536
     atom    7 type  2   force =     0.00000000    0.00000000   -0.00045532

     Total force =     0.001091     Total SCF correction =     0.000090


     Computing stress (Cartesian axis) and pressure


     negative rho (up, down):  3.531E-05 0.000E+00
          total   stress  (Ry/bohr**3)                   (kbar)     P=      -24.52
  -0.00014015  -0.00000000   0.00000000          -20.62       -0.00        0.00
  -0.00000000  -0.00014015   0.00000000           -0.00      -20.62        0.00
   0.00000000   0.00000000  -0.00021977            0.00        0.00      -32.33


     Writing all to output data dir ./tmp/slab.save/ :
     XML data file, charge density, pseudopotentials, collected wavefunctions

     init_run     :      0.87s CPU      0.92s WALL (       1 calls)
     electrons    :     17.73s CPU     18.67s WALL (       1 calls)
     forces       :      0.26s CPU      0.29s WALL (       1 calls)
     stress       :      0.77s CPU      0.88s WALL (       1 calls)

     Called by init_run:
     wfcinit      :      0.50s CPU      0.52s WALL (       1 calls)
     potinit      :      0.17s CPU      0.18s WALL (       1 calls)
     hinit0       :      0.13s CPU      0.14s WALL (       1 calls)

     Called by electrons:
     c_bands      :     12.71s CPU     13.37s WALL (      13 calls)
     sum_band     :      2.51s CPU      2.65s WALL (      13 calls)
     v_of_rho     :      0.99s CPU      1.02s WALL (      14 calls)
     newd         :      0.52s CPU      0.62s WALL (      14 calls)
     PAW_pot      :      0.97s CPU      0.97s WALL (      14 calls)
     mix_rho      :      0.13s CPU      0.13s WALL (      13 calls)

     Called by c_bands:
     init_us_2    :      0.24s CPU      0.25s WALL (     348 calls)
     cegterg      :     12.31s CPU     12.96s WALL (     156 calls)

     Called by *egterg:
     cdiaghg      :      0.11s CPU      0.12s WALL (     774 calls)
     h_psi        :      9.65s CPU     10.02s WALL (     786 calls)
     s_psi        :      0.55s CPU      0.67s WALL (     786 calls)
     g_psi        :      0.05s CPU      0.05s WALL (     618 calls)

     Called by h_psi:
     h_psi:calbec :      0.82s CPU      1.01s WALL (     786 calls)
     vloc_psi     :      8.12s CPU      8.16s WALL (     786 calls)
                                        0.00s GPU  (     786 calls)
     add_vuspsi   :      0.68s CPU      0.82s WALL (     786 calls)

     General routines
     calbec       :      1.30s CPU      1.58s WALL (    1146 calls)
     fft          :      0.73s CPU      0.73s WALL (     205 calls)
     ffts         :      0.02s CPU      0.02s WALL (      27 calls)
     fftw         :      8.62s CPU      8.65s WALL (   17118 calls)
     interpolate  :      0.07s CPU      0.07s WALL (      14 calls)


     PWSCF        :     19.67s CPU     20.80s WALL


   This run was terminated on:  14:33:55  22Jun2026            

=------------------------------------------------------------------------------=
   JOB DONE.
=------------------------------------------------------------------------------=
Note: The following floating-point exceptions are signalling: IEEE_INVALID_FLAG IEEE_DIVIDE_BY_ZERO IEEE_OVERFLOW_FLAG IEEE_UNDERFLOW_FLAG
