
     Program PWSCF v.7.5 starts on  7Jul2026 at 14:59:37 

     This program is part of the open-source Quantum ESPRESSO suite
     for quantum simulation of materials; please cite
         "P. Giannozzi et al., J. Phys.:Condens. Matter 21 395502 (2009);
         "P. Giannozzi et al., J. Phys.:Condens. Matter 29 465901 (2017);
         "P. Giannozzi et al., J. Chem. Phys. 152 154105 (2020);
          URL http://www.quantum-espresso.org", 
     in publications or presentations arising from this work. More details at
     http://www.quantum-espresso.org/quote

     Serial version
     0 MiB available memory on the printing compute node when the environment starts

     Waiting for input...
     Reading input from standard input

     Current dimensions of program PWSCF are:
     Max number of different atomic species (ntypx) = 10
     Max number of k-points (npk) =  40000
     Max angular momentum in pseudopotentials (lmaxx) =  4
     file C.pbe-n-kjpaw_psl.1.0.0.UPF: wavefunction(s)  2S 2P renormalized
     Message from routine volume:
     axis vectors are left-handed
     Message from routine setup:
     using ibrav=0 with symmetry is DISCOURAGED, use correct ibrav instead


     G-vector sticks info
     --------------------
     sticks:   dense  smooth     PW     G-vecs:    dense   smooth      PW
     Sum        1231     615    191               175071    61917   10083

     Using Slab Decomposition



     bravais-lattice index     =            0
     lattice parameter (alat)  =       4.7752  a.u.
     unit-cell volume          =     985.8782 (a.u.)^3
     number of atoms/cell      =           16
     number of atomic types    =            2
     number of electrons       =        52.00
     number of Kohn-Sham states=           31
     kinetic-energy cutoff     =      60.0000  Ry
     charge density cutoff     =     480.0000  Ry
     scf convergence threshold =      1.0E-08
     mixing beta               =       0.3000
     number of iterations used =            8  plain     mixing
     Exchange-correlation= PBE
                           (   1   4   3   4   0   0   0)

     celldm(1)=   4.775235  celldm(2)=   0.000000  celldm(3)=   0.000000
     celldm(4)=   0.000000  celldm(5)=   0.000000  celldm(6)=   0.000000

     crystal axes: (cart. coord. in units of alat)
               a(1) = (   1.000000   0.000000   0.000000 )  
               a(2) = (   0.000000  -1.421285   0.000000 )  
               a(3) = (   0.000000   0.000000   6.370270 )  

     reciprocal axes: (cart. coord. in units 2 pi/alat)
               b(1) = (  1.000000 -0.000000 -0.000000 )  
               b(2) = ( -0.000000 -0.703589 -0.000000 )  
               b(3) = ( -0.000000 -0.000000  0.156979 )  


     PseudoPot. # 1 for C  read from file:
     ./C.pbe-n-kjpaw_psl.1.0.0.UPF
     MD5 check sum: 5d2aebdfa2cae82b50a7e79e9516da0f
     Pseudo is Projector augmented-wave + core cor, Zval =  4.0
     Generated using "atomic" code by A. Dal Corso  v.5.1
     Shape of augmentation charge: PSQ
     Using radial grid of 1073 points,  4 beta functions with: 
                l(1) =   0
                l(2) =   0
                l(3) =   1
                l(4) =   1
     Q(r) pseudized with 0 coefficients 


     PseudoPot. # 2 for H  read from file:
     ./H_ONCV_PBE-1.0.oncvpsp.upf
     MD5 check sum: 1790becc920ee074925cf490c71280fe
     Pseudo is Norm-conserving, Zval =  1.0
     Generated using ONCVPSP code by D. R. Hamann
     Using radial grid of 1166 points,  2 beta functions with: 
                l(1) =   0
                l(2) =   0

     atomic species   valence    mass     pseudopotential
     C                 4.00    12.01100     C ( 1.00)
     H                 1.00     1.00800     H ( 1.00)

      8 Sym. Ops., with inversion, found ( 6 have fractional translation)



   Cartesian axes

     site n.     atom                  positions (alat units)
         1        C      tau(   1) = (   0.0000000  -0.3629461   4.4247609  )
         2        C      tau(   2) = (   0.5000000  -0.7030173   4.4247609  )
         3        C      tau(   3) = (   0.0000000   0.0011558   3.9360405  )
         4        C      tau(   4) = (   0.5000000  -1.0671193   3.9360405  )
         5        C      tau(   5) = (   0.0000000  -0.3550679   3.4350066  )
         6        C      tau(   6) = (   0.5000000  -0.7108956   3.4350066  )
         7        C      tau(   7) = (   0.0000000  -0.0002533   2.9352634  )
         8        C      tau(   8) = (   0.5000000  -1.0657102   2.9352634  )
         9        C      tau(   9) = (   0.0000000  -0.3564770   2.4342296  )
        10        C      tau(  10) = (   0.5000000  -0.7094865   2.4342296  )
        11        C      tau(  11) = (   0.0000000   0.0076250   1.9455091  )
        12        C      tau(  12) = (   0.5000000  -1.0735885   1.9455091  )
        13        H      tau(  13) = (   0.0000000  -0.1245055   4.7893624  )
        14        H      tau(  14) = (   0.5000000  -0.9414580   4.7893624  )
        15        H      tau(  15) = (   0.0000000  -0.2308157   1.5809076  )
        16        H      tau(  16) = (   0.5000000  -0.8351478   1.5809076  )

     number of k points=    20  Marzari-Vanderbilt smearing, width (Ry)=  0.0100
                       cart. coord. in units 2pi/alat
        k(    1) = (   0.0000000  -0.0000000   0.0000000), wk =   0.0317460
        k(    2) = (   0.0000000  -0.1005127   0.0000000), wk =   0.0634921
        k(    3) = (   0.0000000  -0.2010254   0.0000000), wk =   0.0634921
        k(    4) = (   0.0000000  -0.3015381   0.0000000), wk =   0.0634921
        k(    5) = (   0.1111111  -0.0000000   0.0000000), wk =   0.0634921
        k(    6) = (   0.1111111  -0.1005127   0.0000000), wk =   0.1269841
        k(    7) = (   0.1111111  -0.2010254   0.0000000), wk =   0.1269841
        k(    8) = (   0.1111111  -0.3015381   0.0000000), wk =   0.1269841
        k(    9) = (   0.2222222  -0.0000000   0.0000000), wk =   0.0634921
        k(   10) = (   0.2222222  -0.1005127   0.0000000), wk =   0.1269841
        k(   11) = (   0.2222222  -0.2010254   0.0000000), wk =   0.1269841
        k(   12) = (   0.2222222  -0.3015381   0.0000000), wk =   0.1269841
        k(   13) = (   0.3333333  -0.0000000   0.0000000), wk =   0.0634921
        k(   14) = (   0.3333333  -0.1005127   0.0000000), wk =   0.1269841
        k(   15) = (   0.3333333  -0.2010254   0.0000000), wk =   0.1269841
        k(   16) = (   0.3333333  -0.3015381   0.0000000), wk =   0.1269841
        k(   17) = (   0.4444444  -0.0000000   0.0000000), wk =   0.0634921
        k(   18) = (   0.4444444  -0.1005127   0.0000000), wk =   0.1269841
        k(   19) = (   0.4444444  -0.2010254   0.0000000), wk =   0.1269841
        k(   20) = (   0.4444444  -0.3015381   0.0000000), wk =   0.1269841

     Dense  grid:   175071 G-vectors     FFT dimensions: (  36,  48, 216)

     Smooth grid:    61917 G-vectors     FFT dimensions: (  24,  36, 160)

     Estimated max dynamical RAM per process >     400.08 MB

     Check: negative core charge=   -0.000002

     Initial potential from superposition of free atoms

     starting charge      51.9995, renormalised to      52.0000

     negative rho (up, down):  1.161E-07 0.000E+00
     Starting wfcs are   52 randomized atomic wfcs

     total cpu time spent up to now is        2.1 secs

     Self-consistent Calculation

     iteration #  1     ecut=    60.00 Ry     beta= 0.30
     Davidson diagonalization with overlap
     ethr =  1.00E-02,  avg # of iterations =  2.8

     negative rho (up, down):  9.021E-07 0.000E+00

     total cpu time spent up to now is        5.9 secs

     total energy              =    -226.00888885 Ry
     estimated scf accuracy    <       1.18992664 Ry

     iteration #  2     ecut=    60.00 Ry     beta= 0.30
     Davidson diagonalization with overlap
     ethr =  2.29E-03,  avg # of iterations =  4.0

     negative rho (up, down):  7.532E-06 0.000E+00

     total cpu time spent up to now is        9.6 secs

     total energy              =    -225.92362787 Ry
     estimated scf accuracy    <       0.36990583 Ry

     iteration #  3     ecut=    60.00 Ry     beta= 0.30
     Davidson diagonalization with overlap
     ethr =  7.11E-04,  avg # of iterations =  5.1

     negative rho (up, down):  1.712E-05 0.000E+00

     total cpu time spent up to now is       13.1 secs

     total energy              =    -225.93648166 Ry
     estimated scf accuracy    <       0.05118726 Ry

     iteration #  4     ecut=    60.00 Ry     beta= 0.30
     Davidson diagonalization with overlap
     ethr =  9.84E-05,  avg # of iterations =  4.5

     negative rho (up, down):  2.257E-05 0.000E+00

     total cpu time spent up to now is       16.6 secs

     total energy              =    -225.93914169 Ry
     estimated scf accuracy    <       0.00514858 Ry

     iteration #  5     ecut=    60.00 Ry     beta= 0.30
     Davidson diagonalization with overlap
     c_bands:  1 eigenvalues not converged
     ethr =  9.90E-06,  avg # of iterations =  7.8

     negative rho (up, down):  2.165E-05 0.000E+00

     total cpu time spent up to now is       21.0 secs

     total energy              =    -225.93968955 Ry
     estimated scf accuracy    <       0.00052521 Ry

     iteration #  6     ecut=    60.00 Ry     beta= 0.30
     Davidson diagonalization with overlap
     ethr =  1.01E-06,  avg # of iterations =  4.7

     negative rho (up, down):  2.189E-05 0.000E+00

     total cpu time spent up to now is       24.9 secs

     total energy              =    -225.93979151 Ry
     estimated scf accuracy    <       0.00006809 Ry

     iteration #  7     ecut=    60.00 Ry     beta= 0.30
     Davidson diagonalization with overlap
     ethr =  1.31E-07,  avg # of iterations =  2.6

     negative rho (up, down):  2.148E-05 0.000E+00

     total cpu time spent up to now is       28.0 secs

     total energy              =    -225.93979651 Ry
     estimated scf accuracy    <       0.00001747 Ry

     iteration #  8     ecut=    60.00 Ry     beta= 0.30
     Davidson diagonalization with overlap
     ethr =  3.36E-08,  avg # of iterations =  2.0

     negative rho (up, down):  2.141E-05 0.000E+00

     total cpu time spent up to now is       31.3 secs

     total energy              =    -225.93979876 Ry
     estimated scf accuracy    <       0.00000237 Ry

     iteration #  9     ecut=    60.00 Ry     beta= 0.30
     Davidson diagonalization with overlap
     ethr =  4.56E-09,  avg # of iterations =  3.0

     negative rho (up, down):  2.135E-05 0.000E+00

     total cpu time spent up to now is       35.0 secs

     total energy              =    -225.93979926 Ry
     estimated scf accuracy    <       0.00000283 Ry

     iteration # 10     ecut=    60.00 Ry     beta= 0.30
     Davidson diagonalization with overlap
     ethr =  4.56E-09,  avg # of iterations =  2.0

     negative rho (up, down):  2.138E-05 0.000E+00

     total cpu time spent up to now is       38.2 secs

     total energy              =    -225.93979949 Ry
     estimated scf accuracy    <       0.00000020 Ry

     iteration # 11     ecut=    60.00 Ry     beta= 0.30
     Davidson diagonalization with overlap
     ethr =  3.92E-10,  avg # of iterations =  3.6

     negative rho (up, down):  2.141E-05 0.000E+00

     total cpu time spent up to now is       42.3 secs

     total energy              =    -225.93979958 Ry
     estimated scf accuracy    <       0.00000019 Ry

     iteration # 12     ecut=    60.00 Ry     beta= 0.30
     Davidson diagonalization with overlap
     ethr =  3.70E-10,  avg # of iterations =  2.0

     negative rho (up, down):  2.144E-05 0.000E+00

     total cpu time spent up to now is       45.5 secs

     total energy              =    -225.93979961 Ry
     estimated scf accuracy    <       0.00000001 Ry

     iteration # 13     ecut=    60.00 Ry     beta= 0.30
     Davidson diagonalization with overlap
     ethr =  2.64E-11,  avg # of iterations =  3.9

     negative rho (up, down):  2.156E-05 0.000E+00

     total cpu time spent up to now is       49.5 secs

     End of self-consistent calculation

          k = 0.0000-0.0000 0.0000 (  7737 PWs)   bands (ev):

   -15.9317 -14.8619 -13.1137 -10.9263  -8.7622  -7.6970  -7.3872  -6.4510
    -4.8651  -4.4981  -4.0213  -3.0139  -2.7862  -2.0970  -0.8700  -0.7775
    -0.4578  -0.0692   1.2137   1.6726   2.0930   2.6996   3.8762   3.9659
     4.2677   4.7963   6.9270   7.2023   9.6917  10.1607  10.7868

          k = 0.0000-0.1005 0.0000 (  7717 PWs)   bands (ev):

   -15.7475 -14.6834 -12.9528 -10.8451  -9.5680  -9.2896  -6.8554  -6.0413
    -5.6103  -4.1053  -3.5983  -3.0681  -1.9213  -1.8621  -1.0843  -0.6962
     0.0790   0.1480   1.3006   1.4712   2.2706   2.6517   3.6832   3.7104
     4.0204   4.2374   7.1303   7.4385   9.8836  10.1297  11.0191

          k = 0.0000-0.2010 0.0000 (  7699 PWs)   bands (ev):

   -15.1974 -14.1539 -12.4938 -11.4648 -10.6581 -10.6088  -7.3574  -6.7503
    -5.4700  -4.4243  -3.0920  -1.7967  -1.7525  -0.8142  -0.2061  -0.1815
     0.3511   0.5110   1.5384   1.9602   2.0111   2.4915   2.9712   3.0515
     3.2398   3.5042   7.7728   8.0211  10.2679  10.3518  10.8601

          k = 0.0000-0.3015 0.0000 (  7698 PWs)   bands (ev):

   -14.2908 -13.3336 -12.9777 -12.2052 -11.5801 -10.9458  -7.7307  -7.0884
    -5.6806  -4.7297  -2.9872  -1.9613  -0.3970   0.0822   0.6484   0.7506
     1.1084   1.1767   1.7580   1.8125   1.9289   2.0884   2.1459   2.2646
     2.5565   2.6444   8.8095   8.8664   9.8928  10.2729  10.7184

          k = 0.1111-0.0000 0.0000 (  7715 PWs)   bands (ev):

   -15.7057 -14.6384 -12.8943 -10.7123  -8.5563  -7.4957  -7.3178  -6.3896
    -4.8184  -4.3050  -3.8136  -2.8599  -2.7633  -1.8988  -1.8949  -1.0572
    -0.7041  -0.4707   0.2700   1.5691   1.7556   2.0471   2.9838   3.4025
     3.7114   4.1651   7.1416   7.4344   9.7250  10.8739  10.9164

          k = 0.1111-0.1005 0.0000 (  7722 PWs)   bands (ev):

   -15.5220 -14.4606 -12.7344 -10.6332  -9.3851  -9.0954  -6.7031  -5.9075
    -5.5308  -4.0020  -3.4771  -3.0411  -1.9024  -1.6940  -1.6280  -1.0689
    -0.8049   0.1080   0.4220   1.4337   1.7357   2.0047   2.7015   2.7436
     3.6727   4.0678   7.3718   7.6705  10.0503  11.1872  11.3734

          k = 0.1111-0.2010 0.0000 (  7699 PWs)   bands (ev):

   -14.9736 -13.9332 -12.2784 -11.2609 -10.4525 -10.4101  -7.1746  -6.5590
    -5.3162  -4.2911  -3.0684  -2.1133  -1.7861  -1.1243  -0.6715  -0.2038
    -0.1061   0.1215   0.9786   1.4314   1.5754   1.6199   1.7419   2.1075
     3.2410   3.8378   8.0293   8.2875  10.6730  11.2297  11.4654

          k = 0.1111-0.3015 0.0000 (  7700 PWs)   bands (ev):

   -14.0703 -13.1167 -12.7635 -11.9943 -11.3719 -10.7424  -7.5309  -6.8940
    -5.5027  -4.5582  -2.8839  -1.8591  -1.1088  -0.3896  -0.2591   0.1819
     0.5275   0.6005   0.9193   1.1281   1.2218   1.5968   1.8906   2.2473
     2.7093   2.8344   9.0695   9.1926  10.3734  10.5482  11.5479

          k = 0.2222-0.0000 0.0000 (  7718 PWs)   bands (ev):

   -15.0310 -13.9716 -12.2399 -10.0742  -7.9415  -7.4090  -6.8932  -6.4902
    -4.9398  -3.7458  -3.6084  -3.2076  -2.9202  -2.7374  -2.4315  -1.3903
    -1.3202  -0.6746  -0.5563   0.0553   1.0815   1.1277   1.5504   1.7663
     2.0677   3.7652   7.8542   8.0864  10.0118  10.1342  10.6596

          k = 0.2222-0.1005 0.0000 (  7740 PWs)   bands (ev):

   -14.8490 -13.7960 -12.0830 -10.0019  -8.9031  -8.5394  -6.4170  -5.7740
    -5.6242  -3.9606  -3.5473  -3.4383  -2.4508  -2.3684  -1.8486  -1.2570
    -1.0722  -0.6106  -0.4421   0.2609   0.4179   0.5802   1.3736   1.5603
     2.9074   3.3952   8.0999   8.3370  10.5563  10.6566  10.8438

          k = 0.2222-0.2010 0.0000 (  7751 PWs)   bands (ev):

   -14.3063 -13.2755 -11.6368 -10.6713  -9.8418  -9.8325  -6.6870  -6.0572
    -4.9546  -4.7757  -3.3539  -3.2949  -2.4997  -1.8331  -1.1977  -0.9375
    -0.6641  -0.4577  -0.3703   0.1109   0.2298   0.5287   1.0368   1.8079
     2.6844   3.2691   8.7681   8.9822  11.2837  11.7829  11.8836

          k = 0.2222-0.3015 0.0000 (  7732 PWs)   bands (ev):

   -13.4146 -12.4727 -12.1307 -11.3701 -10.7549 -10.1384  -6.9682  -6.3456
    -5.0497  -4.1190  -3.7604  -2.7199  -2.4410  -2.1796  -1.5137  -1.3262
    -1.1490  -0.8437   0.2162   1.0083   1.1309   1.1377   1.3229   1.6165
     2.3471   2.6934   9.7547   9.8724  11.1447  11.2313  12.5014

          k = 0.3333-0.0000 0.0000 (  7760 PWs)   bands (ev):

   -13.9196 -12.8740 -11.1636  -9.0251  -8.6064  -7.6527  -6.9275  -6.0660
    -5.8953  -4.0352  -3.9862  -3.1782  -2.8895  -2.2619  -1.9786  -1.9028
    -1.8412  -0.8359  -0.7111  -0.5541  -0.4082  -0.1570   0.1819   0.2933
     1.1504   3.0086   9.0068   9.0249   9.8355  10.1814  11.2735

          k = 0.3333-0.1005 0.0000 (  7773 PWs)   bands (ev):

   -13.7415 -12.7030 -11.0129  -8.9929  -8.7995  -8.0326  -6.7403  -6.6105
    -6.1233  -4.2926  -4.0028  -3.1617  -3.0856  -2.3234  -1.9475  -1.7270
    -1.6891  -1.2103  -0.7243  -0.6527  -0.3846  -0.2050   0.4805   0.9446
     1.3002   2.8212   9.2543   9.3578  10.2971  10.5307  11.2016

          k = 0.3333-0.2010 0.0000 (  7755 PWs)   bands (ev):

   -13.2121 -12.1980 -10.5867  -9.8643  -9.0168  -8.8559  -6.7517  -6.3261
    -6.2424  -4.9054  -4.1355  -3.7172  -3.5206  -3.2147  -2.4627  -2.1185
    -1.5150  -0.4919  -0.2806  -0.2240   0.0043   0.3816   0.5300   0.8222
     2.1647   2.3304   9.8832   9.9780  11.2727  11.4980  11.9316

          k = 0.3333-0.3015 0.0000 (  7719 PWs)   bands (ev):

   -12.3498 -11.4305 -11.1325 -10.3764  -9.7642  -9.1646  -6.3197  -6.0235
    -5.6867  -5.4824  -4.9114  -4.4898  -3.7012  -3.3434  -2.8274  -2.7121
    -1.4041  -0.7493  -0.2243  -0.0826   0.5874   0.9255   1.2370   1.4237
     1.7549   2.2635  10.6078  10.6886  12.0116  12.0953  12.3325

          k = 0.4444-0.0000 0.0000 (  7780 PWs)   bands (ev):

   -12.4002 -11.3754 -10.5471  -9.6961  -9.5520  -7.9141  -7.5942  -5.8530
    -5.5342  -4.5136  -3.8072  -3.0353  -2.7709  -2.3795  -1.8856  -1.5313
    -1.5070  -1.3731  -1.1097  -1.0021  -1.0013  -0.8989  -0.8786   0.1505
     0.7300   1.9381   9.6158  10.2202  10.4222  10.6462  10.7972

          k = 0.4444-0.1005 0.0000 (  7788 PWs)   bands (ev):

   -12.2320 -11.2156 -10.4201  -9.5616  -9.4334  -7.8570  -7.4868  -5.8465
    -5.8337  -5.7420  -4.1806  -4.0367  -3.1174  -2.4551  -1.9947  -1.7517
    -1.4520  -1.1908  -0.8791  -0.7813  -0.6739  -0.4292  -0.2313   0.2722
     0.8446   1.9205  10.2244  10.2321  10.3829  10.8723  11.2746

          k = 0.4444-0.2010 0.0000 (  7757 PWs)   bands (ev):

   -11.7406 -10.7525 -10.1372  -9.2518  -9.1106  -7.8137  -7.3107  -7.0293
    -6.6251  -5.9197  -5.5845  -5.1585  -3.3818  -3.3104  -2.3067  -2.1088
    -1.5970  -1.3380  -0.8222  -0.1901   0.0116   0.1002   0.5256   1.0107
     1.2291   1.8462  10.7818  10.9333  11.1951  11.3788  11.8922

          k = 0.4444-0.3015 0.0000 (  7758 PWs)   bands (ev):

   -10.9879 -10.2542 -10.0245  -9.3528  -8.5647  -8.0365  -7.7658  -7.0760
    -6.8962  -6.6511  -6.1901  -6.0657  -3.7075  -3.3783  -2.7612  -2.4160
    -1.7643  -1.4881  -0.6675  -0.3286   0.1862   0.2894   1.3742   1.4493
     1.7120   1.7373  11.3496  11.3576  11.9457  12.0774  13.1106

     the Fermi energy is     5.5377 ev

!    total energy              =    -225.93979961 Ry
     estimated scf accuracy    <          5.8E-09 Ry
     smearing contrib. (-TS)   =       0.00000000 Ry
     internal energy E=F+TS    =    -225.93979961 Ry

     The total energy is F=E-TS. E is the sum of the following terms:
     one-electron contribution =   -1225.89987509 Ry
     hartree contribution      =     636.94761011 Ry
     xc contribution           =     -59.08623309 Ry
     ewald contribution        =     496.05361709 Ry
     one-center paw contrib.   =     -73.95491862 Ry

     convergence has been achieved in  13 iterations

     negative rho (up, down):  2.156E-05 0.000E+00

     Forces acting on atoms (cartesian axes, Ry/au):

     atom    1 type  1   force =     0.00000000   -0.00100075    0.00007682
     atom    2 type  1   force =    -0.00000000    0.00100075    0.00007682
     atom    3 type  1   force =     0.00000000    0.00022033    0.00025003
     atom    4 type  1   force =    -0.00000000   -0.00022033    0.00025003
     atom    5 type  1   force =    -0.00000000   -0.00011086   -0.00002447
     atom    6 type  1   force =     0.00000000    0.00011086   -0.00002447
     atom    7 type  1   force =    -0.00000000    0.00011086    0.00002447
     atom    8 type  1   force =    -0.00000000   -0.00011086    0.00002447
     atom    9 type  1   force =     0.00000000   -0.00022033   -0.00025003
     atom   10 type  1   force =    -0.00000000    0.00022033   -0.00025003
     atom   11 type  1   force =     0.00000000    0.00100075   -0.00007682
     atom   12 type  1   force =     0.00000000   -0.00100075   -0.00007682
     atom   13 type  2   force =     0.00000000   -0.00194086   -0.00103950
     atom   14 type  2   force =     0.00000000    0.00194086   -0.00103950
     atom   15 type  2   force =     0.00000000    0.00194086    0.00103950
     atom   16 type  2   force =     0.00000000   -0.00194086    0.00103950

     Total force =     0.004890     Total SCF correction =     0.000159


     Computing stress (Cartesian axis) and pressure


     negative rho (up, down):  2.156E-05 0.000E+00
          total   stress  (Ry/bohr**3)                   (kbar)     P=       12.93
   0.00012955   0.00000000   0.00000000           19.06        0.00        0.00
   0.00000000   0.00017957   0.00000000            0.00       26.42        0.00
   0.00000000   0.00000000  -0.00004549            0.00        0.00       -6.69


     Writing all to output data dir ./tmp/slab.save/ :
     XML data file, charge density, pseudopotentials, collected wavefunctions

     init_run     :      1.93s CPU      2.07s WALL (       1 calls)
     electrons    :     43.20s CPU     47.42s WALL (       1 calls)
     forces       :      0.48s CPU      0.55s WALL (       1 calls)
     stress       :      1.39s CPU      1.64s WALL (       1 calls)

     Called by init_run:
     wfcinit      :      1.51s CPU      1.62s WALL (       1 calls)
     potinit      :      0.23s CPU      0.25s WALL (       1 calls)
     hinit0       :      0.12s CPU      0.12s WALL (       1 calls)

     Called by electrons:
     c_bands      :     34.28s CPU     37.90s WALL (      13 calls)
     sum_band     :      5.59s CPU      5.92s WALL (      13 calls)
     v_of_rho     :      0.80s CPU      0.85s WALL (      14 calls)
     newd         :      0.46s CPU      0.56s WALL (      14 calls)
     PAW_pot      :      2.13s CPU      2.27s WALL (      14 calls)
     mix_rho      :      0.10s CPU      0.12s WALL (      13 calls)

     Called by c_bands:
     init_us_2    :      0.59s CPU      0.64s WALL (     580 calls)
     cegterg      :     33.15s CPU     36.73s WALL (     260 calls)

     Called by *egterg:
     cdiaghg      :      0.74s CPU      0.79s WALL (    1216 calls)
     h_psi        :     25.82s CPU     27.42s WALL (    1236 calls)
     s_psi        :      2.01s CPU      2.51s WALL (    1236 calls)
     g_psi        :      0.13s CPU      0.13s WALL (     956 calls)

     Called by h_psi:
     h_psi:calbec :      2.56s CPU      3.25s WALL (    1236 calls)
     vloc_psi     :     20.86s CPU     21.10s WALL (    1236 calls)
                                        0.00s GPU  (    1236 calls)
     add_vuspsi   :      2.29s CPU      2.90s WALL (    1236 calls)

     General routines
     calbec       :      4.06s CPU      5.11s WALL (    1836 calls)
     fft          :      0.51s CPU      0.51s WALL (     205 calls)
     ffts         :      0.02s CPU      0.02s WALL (      27 calls)
     fftw         :     22.00s CPU     22.11s WALL (   53320 calls)
     interpolate  :      0.05s CPU      0.05s WALL (      14 calls)


     PWSCF        :     47.04s CPU     51.75s WALL


   This run was terminated on:  15: 0:28   7Jul2026            

=------------------------------------------------------------------------------=
   JOB DONE.
=------------------------------------------------------------------------------=
Note: The following floating-point exceptions are signalling: IEEE_INVALID_FLAG IEEE_DIVIDE_BY_ZERO IEEE_OVERFLOW_FLAG IEEE_UNDERFLOW_FLAG
