
     Program PWSCF v.7.3.1 starts on  1Aug2026 at 18:41:15 

     This program is part of the open-source Quantum ESPRESSO suite
     for quantum simulation of materials; please cite
         "P. Giannozzi et al., J. Phys.:Condens. Matter 21 395502 (2009);
         "P. Giannozzi et al., J. Phys.:Condens. Matter 29 465901 (2017);
         "P. Giannozzi et al., J. Chem. Phys. 152 154105 (2020);
          URL http://www.quantum-espresso.org", 
     in publications or presentations arising from this work. More details at
     http://www.quantum-espresso.org/quote

     Parallel version (MPI), running on     8 processors

     MPI processes distributed on     1 nodes
     186815 MiB available memory on the printing compute node when the environment starts

     Reading input from pw.in

     Current dimensions of program PWSCF are:
     Max number of different atomic species (ntypx) = 10
     Max number of k-points (npk) =  40000
     Max angular momentum in pseudopotentials (lmaxx) =  4
     file C.pbe-n-kjpaw_psl.1.0.0.UPF: wavefunction(s)  2S 2P renormalized
     Message from routine volume:
     axis vectors are left-handed
     Message from routine setup:
     using ibrav=0 with symmetry is DISCOURAGED, use correct ibrav instead

     R & G space division:  proc/nbgrp/npool/nimage =       8
     Subspace diagonalization in iterative solution of the eigenvalue problem:
     a serial algorithm will be used


     Parallelization info
     --------------------
     sticks:   dense  smooth     PW     G-vecs:    dense   smooth      PW
     Min         326     163     46                57248    20243    3082
     Max         327     164     47                57265    20252    3095
     Sum        2609    1305    373               458027   161993   24711

     Using Slab Decomposition



     bravais-lattice index     =            0
     lattice parameter (alat)  =       4.7752  a.u.
     unit-cell volume          =    1403.7489 (a.u.)^3
     number of atoms/cell      =           20
     number of atomic types    =            2
     number of electrons       =        68.00
     number of Kohn-Sham states=           41
     kinetic-energy cutoff     =      90.0000  Ry
     charge density cutoff     =     720.0000  Ry
     scf convergence threshold =      1.0E-08
     mixing beta               =       0.3000
     number of iterations used =            8  plain     mixing
     Exchange-correlation= PBE
                           (   1   4   3   4   0   0   0)

     celldm(1)=   4.775235  celldm(2)=   0.000000  celldm(3)=   0.000000
     celldm(4)=   0.000000  celldm(5)=   0.000000  celldm(6)=   0.000000

     crystal axes: (cart. coord. in units of alat)
               a(1) = (   1.000000   0.000000   0.000000 )  
               a(2) = (   0.000000  -2.000000   0.000000 )  
               a(3) = (   0.000000   0.000000   6.445774 )  

     reciprocal axes: (cart. coord. in units 2 pi/alat)
               b(1) = (  1.000000 -0.000000 -0.000000 )  
               b(2) = ( -0.000000 -0.500000 -0.000000 )  
               b(3) = ( -0.000000 -0.000000  0.155140 )  


     PseudoPot. # 1 for C  read from file:
     ./C.pbe-n-kjpaw_psl.1.0.0.UPF
     MD5 check sum: 5d2aebdfa2cae82b50a7e79e9516da0f
     Pseudo is Projector augmented-wave + core cor, Zval =  4.0
     Generated using "atomic" code by A. Dal Corso  v.5.1
     Shape of augmentation charge: PSQ
     Using radial grid of 1073 points,  4 beta functions with: 
                l(1) =   0
                l(2) =   0
                l(3) =   1
                l(4) =   1
     Q(r) pseudized with 0 coefficients 


     PseudoPot. # 2 for H  read from file:
     ./H_ONCV_PBE-1.0.oncvpsp.upf
     MD5 check sum: 1790becc920ee074925cf490c71280fe
     Pseudo is Norm-conserving, Zval =  1.0
     Generated using ONCVPSP code by D. R. Hamann
     Using radial grid of 1166 points,  2 beta functions with: 
                l(1) =   0
                l(2) =   0

     atomic species   valence    mass     pseudopotential
     C                 4.00    12.01100     C ( 1.00)
     H                 1.00     1.00800     H ( 1.00)

      4 Sym. Ops., with inversion, found ( 2 have fractional translation)



   Cartesian axes

     site n.     atom                  positions (alat units)
         1        C      tau(   1) = (   0.0000000  -0.3194268   4.4349217  )
         2        C      tau(   2) = (   0.5000000  -0.4648109   4.1154687  )
         3        C      tau(   3) = (   0.5000000  -0.0083827   3.7162356  )
         4        C      tau(   4) = (  -0.0000000  -0.0074797   3.3780291  )
         5        C      tau(   5) = (  -0.0000000  -0.5054624   3.0230253  )
         6        C      tau(   6) = (   0.5000000  -0.5051083   2.6552097  )
         7        C      tau(   7) = (   0.5000000   0.0367250   2.3397505  )
         8        C      tau(   8) = (   0.0000000   0.1773309   2.0175542  )
         9        C      tau(   9) = (  -0.0000000  -1.6773309   4.4282195  )
        10        C      tau(  10) = (   0.5000000  -1.5367250   4.1060232  )
        11        C      tau(  11) = (   0.5000000  -0.9948917   3.7905639  )
        12        C      tau(  12) = (  -0.0000000  -0.9945376   3.4227484  )
        13        C      tau(  13) = (  -0.0000000  -1.4925203   3.0677446  )
        14        C      tau(  14) = (   0.5000000  -1.4916173   2.7295380  )
        15        C      tau(  15) = (   0.5000000  -1.0351891   2.3303050  )
        16        C      tau(  16) = (   0.0000000  -1.1805732   2.0108520  )
        17        H      tau(  17) = (   0.0000000  -0.4849804   4.8374998  )
        18        H      tau(  18) = (   0.0000000  -1.5033789   4.8272782  )
        19        H      tau(  19) = (  -0.0000000   0.0033789   1.6184955  )
        20        H      tau(  20) = (  -0.0000000  -1.0150196   1.6082738  )

     number of k points=    15  Marzari-Vanderbilt smearing, width (Ry)=  0.0100
                       cart. coord. in units 2pi/alat
        k(    1) = (   0.0000000  -0.0000000   0.0000000), wk =   0.0444444
        k(    2) = (   0.0000000  -0.1000000   0.0000000), wk =   0.0888889
        k(    3) = (   0.0000000  -0.2000000   0.0000000), wk =   0.0888889
        k(    4) = (   0.1111111  -0.0000000   0.0000000), wk =   0.0888889
        k(    5) = (   0.1111111  -0.1000000   0.0000000), wk =   0.1777778
        k(    6) = (   0.1111111  -0.2000000   0.0000000), wk =   0.1777778
        k(    7) = (   0.2222222  -0.0000000   0.0000000), wk =   0.0888889
        k(    8) = (   0.2222222  -0.1000000   0.0000000), wk =   0.1777778
        k(    9) = (   0.2222222  -0.2000000   0.0000000), wk =   0.1777778
        k(   10) = (   0.3333333  -0.0000000   0.0000000), wk =   0.0888889
        k(   11) = (   0.3333333  -0.1000000   0.0000000), wk =   0.1777778
        k(   12) = (   0.3333333  -0.2000000   0.0000000), wk =   0.1777778
        k(   13) = (   0.4444444  -0.0000000   0.0000000), wk =   0.0888889
        k(   14) = (   0.4444444  -0.1000000   0.0000000), wk =   0.1777778
        k(   15) = (   0.4444444  -0.2000000   0.0000000), wk =   0.1777778

     Dense  grid:   458027 G-vectors     FFT dimensions: (  45,  96, 270)

     Smooth grid:   161993 G-vectors     FFT dimensions: (  30,  60, 192)

     Estimated max dynamical RAM per process >     145.36 MB

     Estimated total dynamical RAM >       1.14 GB

     Initial potential from superposition of free atoms

     starting charge      67.9993, renormalised to      68.0000
     Starting wfcs are   68 randomized atomic wfcs
     Checking if some PAW data can be deallocated... 

     total cpu time spent up to now is      229.6 secs

     Self-consistent Calculation

     iteration #  1     ecut=    90.00 Ry     beta= 0.30
     Davidson diagonalization with overlap
     ethr =  1.00E-02,  avg # of iterations =  2.7

     negative rho (up, down):  8.540E-08 0.000E+00

     total cpu time spent up to now is      605.3 secs

     total energy              =    -299.69057445 Ry
     estimated scf accuracy    <       1.44196257 Ry

     iteration #  2     ecut=    90.00 Ry     beta= 0.30
     Davidson diagonalization with overlap
     ethr =  2.12E-03,  avg # of iterations =  4.0

     negative rho (up, down):  1.688E-06 0.000E+00

     total cpu time spent up to now is      912.4 secs

     total energy              =    -299.58594612 Ry
     estimated scf accuracy    <       0.44868935 Ry

     iteration #  3     ecut=    90.00 Ry     beta= 0.30
     Davidson diagonalization with overlap
     ethr =  6.60E-04,  avg # of iterations =  6.3

     negative rho (up, down):  2.285E-06 0.000E+00

     total cpu time spent up to now is     1275.5 secs

     total energy              =    -299.60145396 Ry
     estimated scf accuracy    <       0.06421493 Ry

     iteration #  4     ecut=    90.00 Ry     beta= 0.30
     Davidson diagonalization with overlap
     ethr =  9.44E-05,  avg # of iterations =  4.7

     negative rho (up, down):  3.658E-06 0.000E+00

     total cpu time spent up to now is     1608.9 secs

     total energy              =    -299.60609580 Ry
     estimated scf accuracy    <       0.00570838 Ry

     iteration #  5     ecut=    90.00 Ry     beta= 0.30
     Davidson diagonalization with overlap
     ethr =  8.39E-06,  avg # of iterations =  7.8

     negative rho (up, down):  3.763E-06 0.000E+00

     total cpu time spent up to now is     2037.7 secs

     total energy              =    -299.60692262 Ry
     estimated scf accuracy    <       0.00069364 Ry

     iteration #  6     ecut=    90.00 Ry     beta= 0.30
     Davidson diagonalization with overlap
     ethr =  1.02E-06,  avg # of iterations =  5.3

     negative rho (up, down):  4.031E-06 0.000E+00

     total cpu time spent up to now is     2414.5 secs

     total energy              =    -299.60705519 Ry
     estimated scf accuracy    <       0.00012316 Ry

     iteration #  7     ecut=    90.00 Ry     beta= 0.30
     Davidson diagonalization with overlap
     ethr =  1.81E-07,  avg # of iterations =  2.5

     negative rho (up, down):  4.138E-06 0.000E+00

     total cpu time spent up to now is     2721.9 secs

     total energy              =    -299.60706747 Ry
     estimated scf accuracy    <       0.00001841 Ry

     iteration #  8     ecut=    90.00 Ry     beta= 0.30
     Davidson diagonalization with overlap
     ethr =  2.71E-08,  avg # of iterations =  2.9

     negative rho (up, down):  4.172E-06 0.000E+00

     total cpu time spent up to now is     3076.3 secs

     total energy              =    -299.60706966 Ry
     estimated scf accuracy    <       0.00000581 Ry

     iteration #  9     ecut=    90.00 Ry     beta= 0.30
     Davidson diagonalization with overlap
     ethr =  8.54E-09,  avg # of iterations =  2.0

     negative rho (up, down):  4.184E-06 0.000E+00

     total cpu time spent up to now is     3399.6 secs

     total energy              =    -299.60707074 Ry
     estimated scf accuracy    <       0.00000068 Ry

     iteration # 10     ecut=    90.00 Ry     beta= 0.30
     Davidson diagonalization with overlap
     ethr =  1.01E-09,  avg # of iterations =  3.0

     negative rho (up, down):  4.215E-06 0.000E+00

     total cpu time spent up to now is     3766.0 secs

     total energy              =    -299.60707090 Ry
     estimated scf accuracy    <       0.00000031 Ry

     iteration # 11     ecut=    90.00 Ry     beta= 0.30
     Davidson diagonalization with overlap
     ethr =  4.49E-10,  avg # of iterations =  2.0

     negative rho (up, down):  4.236E-06 0.000E+00

     total cpu time spent up to now is     4063.1 secs

     total energy              =    -299.60707092 Ry
     estimated scf accuracy    <       0.00000004 Ry

     iteration # 12     ecut=    90.00 Ry     beta= 0.30
     Davidson diagonalization with overlap
     ethr =  5.82E-11,  avg # of iterations =  3.3

     negative rho (up, down):  4.250E-06 0.000E+00

     total cpu time spent up to now is     4451.3 secs

     total energy              =    -299.60707094 Ry
     estimated scf accuracy    <       0.00000003 Ry

     iteration # 13     ecut=    90.00 Ry     beta= 0.30
     Davidson diagonalization with overlap
     ethr =  3.91E-11,  avg # of iterations =  2.1

     negative rho (up, down):  4.294E-06 0.000E+00

     total cpu time spent up to now is     4761.0 secs

     End of self-consistent calculation

          k = 0.0000-0.0000 0.0000 ( 20251 PWs)   bands (ev):

   -16.8672 -15.7805 -13.8311 -12.3105 -12.2195 -11.2959 -11.1114 -10.8393
    -8.1151  -7.7604  -7.6966  -5.4393  -5.4222  -5.0864  -2.7190  -2.7169
    -2.0292  -1.8098  -1.4740  -0.7958  -0.2998   0.0614   0.4680   0.9223
     0.9275   1.3337   1.3934   1.4255   1.5613   2.0317   2.0319   2.6989
     3.0234   3.1923   6.5662   7.0572   8.5033   8.5584   9.0080   9.3326
     9.6016

          k = 0.0000-0.1000 0.0000 ( 20237 PWs)   bands (ev):

   -16.7055 -15.6726 -13.9664 -13.5169 -12.3094 -11.0192 -10.6183 -10.4589
    -8.0370  -7.6099  -7.1520  -5.5278  -5.3645  -4.8598  -2.7893  -2.6417
    -2.2287  -2.0420  -1.6836  -0.7257  -0.6753  -0.0203   0.3318   0.5013
     0.6133   0.9033   1.4139   1.4451   1.6448   2.1186   2.3822   2.4972
     2.8389   3.1103   6.7868   7.2666   8.7612   9.2361   9.3386   9.5818
     9.6697

          k = 0.0000-0.2000 0.0000 ( 20225 PWs)   bands (ev):

   -16.2790 -15.5549 -14.7034 -13.8669 -12.7818 -11.4598 -10.1601  -9.5768
    -7.5984  -6.9087  -6.4888  -5.7002  -5.0701  -4.5083  -3.7580  -3.1981
    -2.7513  -1.9292  -1.3722  -1.1792  -0.6883  -0.4168   0.0090   0.0854
     0.6283   0.6768   1.2887   1.4821   1.5548   2.0891   2.1161   2.4587
     2.8291   3.2177   7.4115   7.8268   8.4307   8.7478   9.2887   9.5300
     9.5702

          k = 0.1111-0.0000 0.0000 ( 20245 PWs)   bands (ev):

   -16.6410 -15.5569 -13.6141 -12.0968 -12.0067 -11.0882 -10.9064 -10.6382
    -8.0046  -7.5706  -7.5199  -5.2986  -5.2724  -5.0179  -3.1665  -2.6780
    -2.5751  -2.0158  -1.8976  -1.3066  -0.3347  -0.2799   0.0745   0.3289
     0.5921   0.6299   0.7512   0.9955   1.0345   1.3902   1.4689   2.2315
     2.6873   2.9306   6.7827   7.2758   9.0990   9.1432   9.6007   9.8048
     9.8810

          k = 0.1111-0.1000 0.0000 ( 20228 PWs)   bands (ev):

   -16.4796 -15.4492 -13.7471 -13.3007 -12.0996 -10.8183 -10.4110 -10.2584
    -7.9173  -7.4353  -6.9780  -5.4267  -5.1875  -4.7811  -3.0582  -2.6953
    -2.5065  -2.0885  -2.0328  -1.7730  -0.6494  -0.4862  -0.3530   0.0338
     0.3342   0.5177   0.5924   1.1618   1.3992   1.4507   1.5611   1.9389
     2.6932   2.7664   7.0021   7.4845   9.1421   9.7305   9.7686  10.0371
    10.0911

          k = 0.1111-0.2000 0.0000 ( 20228 PWs)   bands (ev):

   -16.0541 -15.3316 -14.4816 -13.6496 -12.5710 -11.2573  -9.9649  -9.3770
    -7.4866  -6.7743  -6.3280  -5.5419  -4.9295  -4.3491  -3.6117  -3.1463
    -2.7422  -2.5666  -2.0311  -1.6504  -1.0932  -1.0621  -0.5857  -0.3107
     0.0783   0.2293   0.6814   0.9795   1.3514   1.6362   1.9401   2.0151
     2.4868   2.5223   7.6285   8.0366   8.6394   8.9175   9.2990   9.6932
    10.2832

          k = 0.2222-0.0000 0.0000 ( 20222 PWs)   bands (ev):

   -15.9659 -14.8905 -12.9717 -11.4603 -11.3733 -10.4755 -10.2969 -10.0491
    -7.9824  -7.0522  -7.0308  -5.5501  -4.9829  -4.9331  -4.8967  -3.6603
    -3.3154  -2.5485  -2.5388  -1.6100  -1.5672  -1.0064  -0.9252  -0.8292
    -0.7362  -0.7328  -0.0931   0.2244   0.5098   0.6433   1.0950   1.5440
     1.8490   2.6619   7.4216   7.7924   9.8352   9.8630  10.1708  10.3289
    10.5342

          k = 0.2222-0.1000 0.0000 ( 20228 PWs)   bands (ev):

   -15.8055 -14.7834 -13.0954 -12.6589 -11.4786 -10.2298  -9.7930  -9.6717
    -7.8575  -6.9903  -6.5187  -5.5500  -4.9333  -4.8230  -4.7083  -3.6606
    -3.2958  -2.7058  -2.5714  -1.8543  -1.7140  -1.4462  -1.2355  -0.9349
    -0.5166  -0.4770  -0.3184   0.1962   0.3807   0.6927   1.0429   1.1714
     1.9230   2.3902   7.6178   7.9978   9.4912   9.9790  10.0324  10.2420
    10.7679

          k = 0.2222-0.2000 0.0000 ( 20215 PWs)   bands (ev):

   -15.3826 -14.6655 -13.8209 -13.0040 -11.9480 -10.6646  -9.4055  -8.7894
    -7.4390  -6.6091  -5.9584  -5.2916  -4.7204  -4.5182  -4.1209  -3.7938
    -3.4651  -3.3284  -2.8089  -2.4822  -2.3637  -1.8225  -1.3793  -1.3410
    -0.4946  -0.3512  -0.2001   0.1574   0.3724   0.5314   1.0718   1.3357
     1.8009   1.9133   8.1394   8.5495   8.8679   9.1694   9.3217   9.8486
    10.2322

          k = 0.3333-0.0000 0.0000 ( 20254 PWs)   bands (ev):

   -14.8545 -13.8009 -11.9575 -10.4215 -10.3460  -9.5557  -9.3206  -9.1854
    -9.1825  -7.4815  -6.5524  -6.3915  -6.0081  -5.2186  -5.1423  -4.7861
    -3.9633  -3.4896  -3.4876  -2.7658  -2.7618  -2.5763  -1.4897  -1.4552
    -1.1499  -0.6442  -0.6102  -0.2698  -0.1816   0.2030   0.7309   0.9509
     1.2934   2.4003   8.4614   8.6142  10.0653  10.3719  10.4602  10.4731
    11.0685

          k = 0.3333-0.1000 0.0000 ( 20257 PWs)   bands (ev):

   -14.6958 -13.6940 -12.0436 -11.6257 -10.4944  -9.4016  -9.0691  -8.8084
    -8.7709  -7.4136  -6.7290  -6.2131  -5.7180  -5.3549  -4.8873  -4.3576
    -4.0829  -3.9073  -3.4500  -2.7788  -2.7422  -2.0847  -1.4960  -1.2383
    -1.0741  -0.9693  -0.6545  -0.4376  -0.2621   0.1630   0.3073   0.7697
     1.2076   1.7677   8.6102   8.8002   9.5206   9.8704  10.3849  10.8721
    10.9509

          k = 0.3333-0.2000 0.0000 ( 20240 PWs)   bands (ev):

   -14.2772 -13.5726 -12.7398 -11.9618 -10.9663  -9.7929  -8.8570  -8.6938
    -7.7428  -7.3959  -6.7852  -6.1243  -5.3936  -4.8109  -4.4170  -4.3696
    -4.0427  -3.5737  -3.1314  -3.0104  -2.8080  -2.3020  -2.0617  -1.6409
    -1.2045  -0.8339  -0.5996  -0.4652  -0.2332   0.0383   0.1886   0.6062
     0.8193   0.9592   8.6439   8.8349   9.3052   9.7843   9.8178  10.3095
    10.7953

          k = 0.4444-0.0000 0.0000 ( 20318 PWs)   bands (ev):

   -13.3430 -12.3881 -11.6204 -10.2589 -10.2349  -8.9841  -8.9310  -8.1153
    -8.0695  -7.8846  -7.5977  -7.2356  -7.0880  -6.2808  -6.2589  -5.4859
    -4.2654  -3.7871  -3.7658  -2.7259  -2.7232  -2.3961  -2.2157  -2.0208
    -1.8698  -1.0756  -1.0465  -0.7538  -0.5757   0.2531   0.4490   0.9857
     1.5414   1.8205   9.5637   9.7632   9.8823   9.9979  10.1742  10.4951
    11.4137

          k = 0.4444-0.1000 0.0000 ( 20269 PWs)   bands (ev):

   -13.1867 -12.2758 -11.4734 -10.4809 -10.2025 -10.0209  -9.2327  -8.8180
    -7.7783  -7.4162  -7.3531  -7.0647  -6.8747  -5.9163  -5.7328  -5.3927
    -4.2475  -3.9143  -3.7317  -2.7658  -2.6557  -2.1038  -1.8869  -1.8393
    -1.7484  -1.1134  -1.0162  -0.6201  -0.5290   0.0956   0.2252   0.4254
     0.8985   1.0684   9.1589   9.8433   9.9903  10.0876  10.3589  11.0215
    11.2038

          k = 0.4444-0.2000 0.0000 ( 20233 PWs)   bands (ev):

   -12.7741 -12.1193 -11.3214 -11.0738 -10.4217 -10.0927  -9.7689  -9.6565
    -7.7953  -7.6098  -7.1463  -6.7161  -6.3284  -6.0184  -4.9563  -4.6466
    -3.9486  -3.4837  -3.1928  -2.8699  -2.5808  -2.0628  -1.8573  -1.5784
    -1.2611  -1.0038  -0.9520  -0.8830  -0.6952  -0.4630  -0.2624  -0.1737
     0.0453   0.0773   9.1088   9.4664   9.9264  10.0992  10.5548  10.6378
    10.9018

     the Fermi energy is     5.0238 ev

!    total energy              =    -299.60707094 Ry
     estimated scf accuracy    <          1.0E-09 Ry
     smearing contrib. (-TS)   =      -0.00000000 Ry
     internal energy E=F+TS    =    -299.60707094 Ry

     The total energy is F=E-TS. E is the sum of the following terms:
     one-electron contribution =   -1768.72432713 Ry
     hartree contribution      =     913.85040102 Ry
     xc contribution           =     -77.52251018 Ry
     ewald contribution        =     731.39973678 Ry
     one-center paw contrib.   =     -98.61037144 Ry

     convergence has been achieved in  13 iterations

     negative rho (up, down):  4.294E-06 0.000E+00

     Forces acting on atoms (cartesian axes, Ry/au):

     atom    1 type  1   force =     0.00000000   -0.00000733   -0.00000848
     atom    2 type  1   force =     0.00000000   -0.00000817   -0.00001725
     atom    3 type  1   force =     0.00000000    0.00000105   -0.00000091
     atom    4 type  1   force =     0.00000000    0.00000661   -0.00000516
     atom    5 type  1   force =     0.00000000    0.00000889   -0.00001471
     atom    6 type  1   force =     0.00000000    0.00002311   -0.00000111
     atom    7 type  1   force =     0.00000000   -0.00002926    0.00001787
     atom    8 type  1   force =     0.00000000   -0.00005810    0.00000867
     atom    9 type  1   force =     0.00000000    0.00005810   -0.00000867
     atom   10 type  1   force =     0.00000000    0.00002926   -0.00001787
     atom   11 type  1   force =     0.00000000   -0.00002311    0.00000111
     atom   12 type  1   force =     0.00000000   -0.00000889    0.00001471
     atom   13 type  1   force =     0.00000000   -0.00000661    0.00000516
     atom   14 type  1   force =     0.00000000   -0.00000105    0.00000091
     atom   15 type  1   force =     0.00000000    0.00000817    0.00001725
     atom   16 type  1   force =     0.00000000    0.00000733    0.00000848
     atom   17 type  2   force =     0.00000000   -0.00000125   -0.00001186
     atom   18 type  2   force =     0.00000000   -0.00001615    0.00002622
     atom   19 type  2   force =     0.00000000    0.00001615   -0.00002622
     atom   20 type  2   force =     0.00000000    0.00000125    0.00001186

     Total force =     0.000119     Total SCF correction =     0.000049
     SCF correction compared to forces is large: reduce conv_thr to get better values


     Computing stress (Cartesian axis) and pressure


     negative rho (up, down):  4.294E-06 0.000E+00
          total   stress  (Ry/bohr**3)                   (kbar)     P=      -16.93
   0.00007790   0.00000000   0.00000000           11.46        0.00        0.00
   0.00000000  -0.00042208   0.00000025            0.00      -62.09        0.04
   0.00000000   0.00000025  -0.00000112            0.00        0.04       -0.17


     Writing all to output data dir /tmp/qe/slab.save/ :
     XML data file, charge density, pseudopotentials, collected wavefunctions

     init_run     :     18.97s CPU    175.38s WALL (       1 calls)
     electrons    :    488.46s CPU   4533.78s WALL (       1 calls)
     forces       :      1.58s CPU     14.39s WALL (       1 calls)
     stress       :      7.20s CPU     68.14s WALL (       1 calls)

     Called by init_run:
     wfcinit      :     17.50s CPU    161.59s WALL (       1 calls)
     potinit      :      0.52s CPU      4.71s WALL (       1 calls)
     hinit0       :      0.23s CPU      2.29s WALL (       1 calls)

     Called by electrons:
     c_bands      :    409.49s CPU   3799.33s WALL (      13 calls)
     sum_band     :     68.60s CPU    637.77s WALL (      13 calls)
     v_of_rho     :      2.93s CPU     26.74s WALL (      14 calls)
     newd         :      0.94s CPU      9.27s WALL (      14 calls)
     PAW_pot      :      2.24s CPU     21.30s WALL (      14 calls)
     mix_rho      :      3.51s CPU     31.82s WALL (      13 calls)

     Called by c_bands:
     init_us_2    :      0.86s CPU      2.31s WALL (     435 calls)
     cegterg      :    405.04s CPU   3757.14s WALL (     195 calls)

     Called by *egterg:
     cdiaghg      :      4.75s CPU     46.67s WALL (     923 calls)
     h_psi        :    377.81s CPU   3490.61s WALL (     938 calls)
     s_psi        :      1.51s CPU     16.85s WALL (     938 calls)
     g_psi        :      0.16s CPU      0.27s WALL (     728 calls)

     Called by h_psi:
     h_psi:calbec :     14.56s CPU    134.82s WALL (     938 calls)
     vloc_psi     :    361.44s CPU   3352.67s WALL (     938 calls)
     add_vuspsi   :      1.67s CPU      2.87s WALL (     938 calls)

     General routines
     calbec       :     18.91s CPU    176.32s WALL (    1208 calls)
     fft          :      1.99s CPU     19.98s WALL (     205 calls)
     ffts         :      0.25s CPU      2.57s WALL (      27 calls)
     fftw         :    418.32s CPU   3941.44s WALL (   52915 calls)
     interpolate  :      0.29s CPU      3.10s WALL (      14 calls)

     Parallel routines

     PWSCF        :   9m24.86s CPU      1h27m WALL


   This run was terminated on:  20: 7:27   1Aug2026            

=------------------------------------------------------------------------------=
   JOB DONE.
=------------------------------------------------------------------------------=
Note: The following floating-point exceptions are signalling: IEEE_UNDERFLOW_FLAG IEEE_DENORMAL
Note: The following floating-point exceptions are signalling: IEEE_UNDERFLOW_FLAG IEEE_DENORMAL
Note: The following floating-point exceptions are signalling: IEEE_UNDERFLOW_FLAG IEEE_DENORMAL
Note: The following floating-point exceptions are signalling: IEEE_UNDERFLOW_FLAG IEEE_DENORMAL
Note: The following floating-point exceptions are signalling: IEEE_UNDERFLOW_FLAG IEEE_DENORMAL
Note: The following floating-point exceptions are signalling: IEEE_UNDERFLOW_FLAG IEEE_DENORMAL
Note: The following floating-point exceptions are signalling: IEEE_UNDERFLOW_FLAG IEEE_DENORMAL
Note: The following floating-point exceptions are signalling: IEEE_UNDERFLOW_FLAG IEEE_DENORMAL
