
     Program PWSCF v.7.5 starts on  7Jul2026 at 13:33:52 

     This program is part of the open-source Quantum ESPRESSO suite
     for quantum simulation of materials; please cite
         "P. Giannozzi et al., J. Phys.:Condens. Matter 21 395502 (2009);
         "P. Giannozzi et al., J. Phys.:Condens. Matter 29 465901 (2017);
         "P. Giannozzi et al., J. Chem. Phys. 152 154105 (2020);
          URL http://www.quantum-espresso.org", 
     in publications or presentations arising from this work. More details at
     http://www.quantum-espresso.org/quote

     Serial version
     0 MiB available memory on the printing compute node when the environment starts

     Waiting for input...
     Reading input from standard input

     Current dimensions of program PWSCF are:
     Max number of different atomic species (ntypx) = 10
     Max number of k-points (npk) =  40000
     Max angular momentum in pseudopotentials (lmaxx) =  4
     file C.pbe-n-kjpaw_psl.1.0.0.UPF: wavefunction(s)  2S 2P renormalized
     Message from routine volume:
     axis vectors are left-handed
     Message from routine setup:
     using ibrav=0 with symmetry is DISCOURAGED, use correct ibrav instead


     G-vector sticks info
     --------------------
     sticks:   dense  smooth     PW     G-vecs:    dense   smooth      PW
     Sum        1211     603    183               170855    60449    9783

     Using Slab Decomposition



     bravais-lattice index     =            0
     lattice parameter (alat)  =       4.7275  a.u.
     unit-cell volume          =     961.4520 (a.u.)^3
     number of atoms/cell      =           16
     number of atomic types    =            2
     number of electrons       =        52.00
     number of Kohn-Sham states=           31
     kinetic-energy cutoff     =      60.0000  Ry
     charge density cutoff     =     480.0000  Ry
     scf convergence threshold =      1.0E-08
     mixing beta               =       0.3000
     number of iterations used =            8  plain     mixing
     Exchange-correlation= PBE
                           (   1   4   3   4   0   0   0)

     celldm(1)=   4.727483  celldm(2)=   0.000000  celldm(3)=   0.000000
     celldm(4)=   0.000000  celldm(5)=   0.000000  celldm(6)=   0.000000

     crystal axes: (cart. coord. in units of alat)
               a(1) = (   1.000000   0.000000   0.000000 )  
               a(2) = (   0.000000  -1.414214   0.000000 )  
               a(3) = (   0.000000   0.000000   6.434616 )  

     reciprocal axes: (cart. coord. in units 2 pi/alat)
               b(1) = (  1.000000 -0.000000 -0.000000 )  
               b(2) = ( -0.000000 -0.707107 -0.000000 )  
               b(3) = ( -0.000000 -0.000000  0.155409 )  


     PseudoPot. # 1 for C  read from file:
     ./C.pbe-n-kjpaw_psl.1.0.0.UPF
     MD5 check sum: 5d2aebdfa2cae82b50a7e79e9516da0f
     Pseudo is Projector augmented-wave + core cor, Zval =  4.0
     Generated using "atomic" code by A. Dal Corso  v.5.1
     Shape of augmentation charge: PSQ
     Using radial grid of 1073 points,  4 beta functions with: 
                l(1) =   0
                l(2) =   0
                l(3) =   1
                l(4) =   1
     Q(r) pseudized with 0 coefficients 


     PseudoPot. # 2 for H  read from file:
     ./H_ONCV_PBE-1.0.oncvpsp.upf
     MD5 check sum: 1790becc920ee074925cf490c71280fe
     Pseudo is Norm-conserving, Zval =  1.0
     Generated using ONCVPSP code by D. R. Hamann
     Using radial grid of 1166 points,  2 beta functions with: 
                l(1) =   0
                l(2) =   0

     atomic species   valence    mass     pseudopotential
     C                 4.00    12.01100     C ( 1.00)
     H                 1.00     1.00800     H ( 1.00)

      8 Sym. Ops., with inversion, found ( 6 have fractional translation)



   Cartesian axes

     site n.     atom                  positions (alat units)
         1        C      tau(   1) = (   0.0000000  -0.3611404   4.4694555  )
         2        C      tau(   2) = (   0.5000000  -0.6995197   4.4694555  )
         3        C      tau(   3) = (   0.0000000   0.0011500   3.9757985  )
         4        C      tau(   4) = (   0.5000000  -1.0618102   3.9757985  )
         5        C      tau(   5) = (   0.0000000  -0.3533013   3.4697037  )
         6        C      tau(   6) = (   0.5000000  -0.7073588   3.4697037  )
         7        C      tau(   7) = (   0.0000000  -0.0002520   2.9649125  )
         8        C      tau(   8) = (   0.5000000  -1.0604081   2.9649125  )
         9        C      tau(   9) = (   0.0000000  -0.3547034   2.4588177  )
        10        C      tau(  10) = (   0.5000000  -0.7059567   2.4588177  )
        11        C      tau(  11) = (   0.0000000   0.0075871   1.9651607  )
        12        C      tau(  12) = (   0.5000000  -1.0682472   1.9651607  )
        13        H      tau(  13) = (   0.0000000  -0.1238861   4.8377398  )
        14        H      tau(  14) = (   0.5000000  -0.9367741   4.8377398  )
        15        H      tau(  15) = (   0.0000000  -0.2296673   1.5968764  )
        16        H      tau(  16) = (   0.5000000  -0.8309929   1.5968764  )

     number of k points=    20  Marzari-Vanderbilt smearing, width (Ry)=  0.0100
                       cart. coord. in units 2pi/alat
        k(    1) = (   0.0000000  -0.0000000   0.0000000), wk =   0.0317460
        k(    2) = (   0.0000000  -0.1010153   0.0000000), wk =   0.0634921
        k(    3) = (   0.0000000  -0.2020305   0.0000000), wk =   0.0634921
        k(    4) = (   0.0000000  -0.3030458   0.0000000), wk =   0.0634921
        k(    5) = (   0.1111111  -0.0000000   0.0000000), wk =   0.0634921
        k(    6) = (   0.1111111  -0.1010153   0.0000000), wk =   0.1269841
        k(    7) = (   0.1111111  -0.2020305   0.0000000), wk =   0.1269841
        k(    8) = (   0.1111111  -0.3030458   0.0000000), wk =   0.1269841
        k(    9) = (   0.2222222  -0.0000000   0.0000000), wk =   0.0634921
        k(   10) = (   0.2222222  -0.1010153   0.0000000), wk =   0.1269841
        k(   11) = (   0.2222222  -0.2020305   0.0000000), wk =   0.1269841
        k(   12) = (   0.2222222  -0.3030458   0.0000000), wk =   0.1269841
        k(   13) = (   0.3333333  -0.0000000   0.0000000), wk =   0.0634921
        k(   14) = (   0.3333333  -0.1010153   0.0000000), wk =   0.1269841
        k(   15) = (   0.3333333  -0.2020305   0.0000000), wk =   0.1269841
        k(   16) = (   0.3333333  -0.3030458   0.0000000), wk =   0.1269841
        k(   17) = (   0.4444444  -0.0000000   0.0000000), wk =   0.0634921
        k(   18) = (   0.4444444  -0.1010153   0.0000000), wk =   0.1269841
        k(   19) = (   0.4444444  -0.2020305   0.0000000), wk =   0.1269841
        k(   20) = (   0.4444444  -0.3030458   0.0000000), wk =   0.1269841

     Dense  grid:   170855 G-vectors     FFT dimensions: (  36,  48, 216)

     Smooth grid:    60449 G-vectors     FFT dimensions: (  24,  36, 160)

     Estimated max dynamical RAM per process >     391.04 MB

     Check: negative core charge=   -0.000002

     Initial potential from superposition of free atoms

     starting charge      51.9995, renormalised to      52.0000

     negative rho (up, down):  1.509E-07 0.000E+00
     Starting wfcs are   52 randomized atomic wfcs

     total cpu time spent up to now is        1.9 secs

     Self-consistent Calculation

     iteration #  1     ecut=    60.00 Ry     beta= 0.30
     Davidson diagonalization with overlap
     ethr =  1.00E-02,  avg # of iterations =  2.8

     negative rho (up, down):  1.075E-06 0.000E+00

     total cpu time spent up to now is        5.4 secs

     total energy              =    -226.00147099 Ry
     estimated scf accuracy    <       1.25465056 Ry

     iteration #  2     ecut=    60.00 Ry     beta= 0.30
     Davidson diagonalization with overlap
     ethr =  2.41E-03,  avg # of iterations =  3.6

     negative rho (up, down):  7.975E-06 0.000E+00

     total cpu time spent up to now is        8.2 secs

     total energy              =    -225.91332692 Ry
     estimated scf accuracy    <       0.38716220 Ry

     iteration #  3     ecut=    60.00 Ry     beta= 0.30
     Davidson diagonalization with overlap
     ethr =  7.45E-04,  avg # of iterations =  5.5

     negative rho (up, down):  1.700E-05 0.000E+00

     total cpu time spent up to now is       11.4 secs

     total energy              =    -225.92554884 Ry
     estimated scf accuracy    <       0.05474884 Ry

     iteration #  4     ecut=    60.00 Ry     beta= 0.30
     Davidson diagonalization with overlap
     ethr =  1.05E-04,  avg # of iterations =  4.6

     negative rho (up, down):  2.173E-05 0.000E+00

     total cpu time spent up to now is       14.6 secs

     total energy              =    -225.92834249 Ry
     estimated scf accuracy    <       0.00551980 Ry

     iteration #  5     ecut=    60.00 Ry     beta= 0.30
     Davidson diagonalization with overlap
     ethr =  1.06E-05,  avg # of iterations =  6.8

     negative rho (up, down):  2.062E-05 0.000E+00

     total cpu time spent up to now is       18.6 secs

     total energy              =    -225.92891062 Ry
     estimated scf accuracy    <       0.00056825 Ry

     iteration #  6     ecut=    60.00 Ry     beta= 0.30
     Davidson diagonalization with overlap
     ethr =  1.09E-06,  avg # of iterations =  4.5

     negative rho (up, down):  2.034E-05 0.000E+00

     total cpu time spent up to now is       22.2 secs

     total energy              =    -225.92902292 Ry
     estimated scf accuracy    <       0.00006794 Ry

     iteration #  7     ecut=    60.00 Ry     beta= 0.30
     Davidson diagonalization with overlap
     ethr =  1.31E-07,  avg # of iterations =  2.4

     negative rho (up, down):  1.986E-05 0.000E+00

     total cpu time spent up to now is       25.1 secs

     total energy              =    -225.92902866 Ry
     estimated scf accuracy    <       0.00001682 Ry

     iteration #  8     ecut=    60.00 Ry     beta= 0.30
     Davidson diagonalization with overlap
     ethr =  3.24E-08,  avg # of iterations =  2.2

     negative rho (up, down):  1.971E-05 0.000E+00

     total cpu time spent up to now is       28.3 secs

     total energy              =    -225.92903069 Ry
     estimated scf accuracy    <       0.00000286 Ry

     iteration #  9     ecut=    60.00 Ry     beta= 0.30
     Davidson diagonalization with overlap
     ethr =  5.51E-09,  avg # of iterations =  3.2

     negative rho (up, down):  1.961E-05 0.000E+00

     total cpu time spent up to now is       31.8 secs

     total energy              =    -225.92903139 Ry
     estimated scf accuracy    <       0.00000404 Ry

     iteration # 10     ecut=    60.00 Ry     beta= 0.30
     Davidson diagonalization with overlap
     ethr =  5.51E-09,  avg # of iterations =  2.0

     negative rho (up, down):  1.962E-05 0.000E+00

     total cpu time spent up to now is       34.7 secs

     total energy              =    -225.92903162 Ry
     estimated scf accuracy    <       0.00000036 Ry

     iteration # 11     ecut=    60.00 Ry     beta= 0.30
     Davidson diagonalization with overlap
     ethr =  6.96E-10,  avg # of iterations =  3.6

     negative rho (up, down):  1.965E-05 0.000E+00

     total cpu time spent up to now is       38.3 secs

     total energy              =    -225.92903179 Ry
     estimated scf accuracy    <       0.00000015 Ry

     iteration # 12     ecut=    60.00 Ry     beta= 0.30
     Davidson diagonalization with overlap
     ethr =  2.98E-10,  avg # of iterations =  2.0

     negative rho (up, down):  1.969E-05 0.000E+00

     total cpu time spent up to now is       41.2 secs

     total energy              =    -225.92903180 Ry
     estimated scf accuracy    <       0.00000001 Ry

     iteration # 13     ecut=    60.00 Ry     beta= 0.30
     Davidson diagonalization with overlap
     ethr =  2.55E-11,  avg # of iterations =  3.8

     negative rho (up, down):  1.984E-05 0.000E+00

     total cpu time spent up to now is       44.9 secs

     End of self-consistent calculation

          k = 0.0000-0.0000 0.0000 (  7521 PWs)   bands (ev):

   -15.9868 -14.9127 -13.1551 -10.9488  -8.7416  -7.5760  -7.1240  -6.1909
    -4.6055  -4.3921  -4.0225  -2.8599  -2.5249  -2.1462  -0.7366  -0.5931
    -0.1978   0.0660   1.3575   1.9023   2.3480   2.8626   4.1575   4.1786
     4.5122   5.0167   7.0812   7.3330   9.8515  10.5386  11.0399

          k = 0.0000-0.1010 0.0000 (  7511 PWs)   bands (ev):

   -15.7968 -14.7284 -12.9879 -10.8570  -9.4333  -9.2198  -6.7569  -5.8806
    -5.4418  -3.9224  -3.5094  -2.8597  -1.8878  -1.6971  -0.8628  -0.5581
     0.2181   0.3970   1.4472   1.6951   2.5499   2.8164   3.8764   3.9255
     4.3671   4.4608   7.2883   7.5811  10.0466  10.4452  11.3694

          k = 0.0000-0.2020 0.0000 (  7530 PWs)   bands (ev):

   -15.2294 -14.1813 -12.5095 -11.3834 -10.6418 -10.5360  -7.2829  -6.7267
    -5.3568  -4.3721  -2.9211  -1.6899  -1.5558  -0.6047  -0.0304  -0.0301
     0.6612   0.6647   1.6926   2.1817   2.2847   2.6601   3.1624   3.2655
     3.5649   3.8879   7.9485   8.1868  10.5437  10.5483  11.1014

          k = 0.0000-0.3030 0.0000 (  7562 PWs)   bands (ev):

   -14.2941 -13.3277 -12.9470 -12.1729 -11.5655 -10.9138  -7.7025  -7.0480
    -5.6318  -4.6689  -2.9084  -1.8765  -0.3469   0.3823   0.8196   0.8861
     1.3431   1.4610   1.9513   1.9800   2.2887   2.3215   2.4321   2.4701
     2.9217   3.0153   9.0177   9.0615  10.1168  10.5226  10.9951

          k = 0.1111-0.0000 0.0000 (  7515 PWs)   bands (ev):

   -15.7559 -14.6844 -12.9309 -10.7303  -8.5317  -7.3728  -7.0461  -6.1216
    -4.5523  -4.1949  -3.8082  -2.7030  -2.4976  -1.9409  -1.7910  -0.9501
    -0.5170  -0.2098   0.3884   1.8033   1.9021   2.2943   3.1634   3.7123
     3.9282   4.4034   7.2997   7.5735   9.9364  11.2233  11.3070

          k = 0.1111-0.1010 0.0000 (  7505 PWs)   bands (ev):

   -15.5664 -14.5008 -12.7647 -10.6405  -9.2437  -9.0203  -6.5933  -5.7365
    -5.3476  -3.8125  -3.3991  -2.8338  -1.7180  -1.6804  -1.5121  -0.8499
    -0.6872   0.3533   0.5500   1.6586   1.8837   2.2786   2.9278   2.9648
     3.8839   4.3506   7.5345   7.8196  10.2374  11.3827  11.8027

          k = 0.1111-0.2020 0.0000 (  7534 PWs)   bands (ev):

   -15.0006 -13.9557 -12.2894 -11.1739 -10.4320 -10.3323  -7.0912  -6.5265
    -5.1945  -4.2177  -2.8828  -1.9484  -1.6367  -1.0419  -0.4942  -0.0503
     0.1300   0.3212   1.1826   1.6542   1.7508   1.8451   2.0459   2.2602
     3.5170   4.1494   8.2114   8.4594  10.8699  11.4592  11.7264

          k = 0.1111-0.3030 0.0000 (  7551 PWs)   bands (ev):

   -14.0686 -13.1059 -12.7275 -11.9571 -11.3527 -10.7063  -7.4943  -6.8457
    -5.4456  -4.4892  -2.7860  -1.7580  -0.9076  -0.2548  -0.1244   0.3786
     0.7118   0.7575   1.1037   1.3429   1.3876   1.8827   2.2004   2.5786
     3.0208   3.1465   9.2866   9.3995  10.6101  10.8057  11.8116

          k = 0.2222-0.0000 0.0000 (  7552 PWs)   bands (ev):

   -15.0665 -14.0030 -12.2621 -10.0784  -7.9054  -7.1354  -6.7648  -6.2210
    -4.6740  -3.6231  -3.5454  -3.1821  -2.6706  -2.6570  -2.2663  -1.3408
    -1.3097  -0.4200  -0.3623   0.1656   1.2382   1.3712   1.7530   2.0034
     2.3740   3.9816   8.0306   8.2598  10.4144  10.4158  11.0767

          k = 0.2222-0.1010 0.0000 (  7535 PWs)   bands (ev):

   -14.8786 -13.8214 -12.0990  -9.9953  -8.7361  -8.4437  -6.2718  -5.5883
    -5.4302  -3.8131  -3.5226  -3.2779  -2.3196  -2.2339  -1.7134  -1.0591
    -1.0539  -0.4233  -0.3020   0.4595   0.6546   0.7631   1.5840   1.7909
     3.1779   3.5920   8.2826   8.5117  10.8070  11.0791  11.2899

          k = 0.2222-0.2020 0.0000 (  7529 PWs)   bands (ev):

   -14.3183 -13.2832 -11.6336 -10.5648  -9.8084  -9.7378  -6.5731  -5.9918
    -4.8035  -4.6158  -3.2991  -3.1876  -2.3646  -1.7121  -1.0090  -0.8714
    -0.4416  -0.3404  -0.1928   0.2992   0.4180   0.7771   1.2946   2.0105
     2.8778   3.5387   8.9707   9.1759  11.5296  12.2191  12.2986

          k = 0.2222-0.3030 0.0000 (  7562 PWs)   bands (ev):

   -13.3972 -12.4464 -12.0780 -11.3176 -10.7215 -10.0900  -6.9036  -6.2712
    -4.9602  -4.0193  -3.5914  -2.5698  -2.2754  -2.0986  -1.3844  -1.1936
    -1.0590  -0.7229   0.2889   1.1584   1.3772   1.3973   1.5864   1.8854
     2.6001   2.9738   9.9945  10.1071  11.4044  11.5044  12.7760

          k = 0.3333-0.0000 0.0000 (  7550 PWs)   bands (ev):

   -13.9297 -12.8803 -11.1611  -9.0059  -8.4321  -7.4776  -6.8724  -5.8886
    -5.7578  -3.8576  -3.8555  -3.0519  -2.7460  -2.2022  -1.8467  -1.7321
    -1.6649  -0.6833  -0.5255  -0.4051  -0.3397   0.0403   0.4262   0.5734
     1.3547   3.1830   9.2460   9.2816  10.2343  10.5235  11.5746

          k = 0.3333-0.1010 0.0000 (  7576 PWs)   bands (ev):

   -13.7455 -12.7031 -11.0041  -8.9455  -8.6260  -7.8646  -6.6714  -6.5415
    -5.9403  -4.1586  -3.8907  -3.0548  -3.0137  -2.1508  -1.7532  -1.5816
    -1.5436  -1.0573  -0.5206  -0.4486  -0.2390  -0.0968   0.6846   1.1390
     1.5493   2.9880   9.4874   9.5960  10.7161  10.9463  11.5817

          k = 0.3333-0.2020 0.0000 (  7549 PWs)   bands (ev):

   -13.1974 -12.1795 -10.5585  -9.7125  -8.8815  -8.7993  -6.6878  -6.1672
    -6.1546  -4.7608  -4.0655  -3.6558  -3.3555  -3.0802  -2.3928  -2.0518
    -1.3534  -0.2885  -0.1592   0.0072   0.2235   0.5768   0.6661   1.0107
     2.3981   2.4769  10.1269  10.2228  11.7109  11.9112  12.3612

          k = 0.3333-0.3030 0.0000 (  7554 PWs)   bands (ev):

   -12.3035 -11.3751 -11.0469 -10.2936  -9.7044  -9.0924  -6.1968  -5.9308
    -5.5533  -5.3705  -4.7829  -4.3553  -3.6358  -3.2854  -2.7387  -2.6481
    -1.2995  -0.6091  -0.0534   0.1142   0.7191   1.1049   1.4147   1.6602
     1.9065   2.5034  10.8889  10.9581  12.2869  12.3904  12.7756

          k = 0.4444-0.0000 0.0000 (  7570 PWs)   bands (ev):

   -12.3725 -11.3442 -10.4634  -9.6571  -9.4654  -7.8217  -7.5411  -5.7512
    -5.4531  -4.3635  -3.6914  -2.8385  -2.6050  -2.1919  -1.7157  -1.3509
    -1.2654  -1.1920  -0.9646  -0.8114  -0.8100  -0.6992  -0.6732   0.3060
     0.7920   2.0567  10.0130  10.6175  10.7611  11.0571  11.2138

          k = 0.4444-0.1010 0.0000 (  7582 PWs)   bands (ev):

   -12.1971 -11.1773 -10.3245  -9.5143  -9.3369  -7.7552  -7.4278  -5.7620
    -5.7248  -5.6245  -4.0572  -3.8787  -2.9966  -2.3157  -1.8427  -1.5741
    -1.2719  -1.0182  -0.6836  -0.5793  -0.5003  -0.2282  -0.0288   0.4622
     0.9193   2.0408  10.6306  10.6378  10.7366  11.2573  11.6102

          k = 0.4444-0.2020 0.0000 (  7568 PWs)   bands (ev):

   -11.6831 -10.6920 -10.0020  -9.1497  -9.0122  -7.6945  -7.2460  -6.9679
    -6.5757  -5.7955  -5.4687  -5.0479  -3.2980  -3.2171  -2.1642  -1.9502
    -1.4737  -1.2263  -0.6576  -0.0343   0.1808   0.2860   0.7566   1.1451
     1.4158   1.9684  11.1392  11.2726  11.6359  11.7370  12.3218

          k = 0.4444-0.3030 0.0000 (  7545 PWs)   bands (ev):

   -10.8886 -10.1067  -9.9160  -9.2054  -8.4652  -7.9147  -7.7538  -7.0251
    -6.8608  -6.5581  -6.1132  -5.9421  -3.6475  -3.2978  -2.6346  -2.2689
    -1.6604  -1.3661  -0.5410  -0.1876   0.3285   0.4514   1.4882   1.6464
     1.8567   1.9405  11.6551  11.6588  12.2991  12.3974  13.4822

     the Fermi energy is     5.7893 ev

!    total energy              =    -225.92903182 Ry
     estimated scf accuracy    <          6.9E-09 Ry
     smearing contrib. (-TS)   =       0.00000000 Ry
     internal energy E=F+TS    =    -225.92903182 Ry

     The total energy is F=E-TS. E is the sum of the following terms:
     one-electron contribution =   -1256.54313274 Ry
     hartree contribution      =     652.69599537 Ry
     xc contribution           =     -59.35023100 Ry
     ewald contribution        =     511.23000695 Ry
     one-center paw contrib.   =     -73.96167040 Ry

     convergence has been achieved in  13 iterations

     negative rho (up, down):  1.984E-05 0.000E+00

     Forces acting on atoms (cartesian axes, Ry/au):

     atom    1 type  1   force =    -0.00000000    0.00527465    0.00027017
     atom    2 type  1   force =     0.00000000   -0.00527465    0.00027017
     atom    3 type  1   force =     0.00000000   -0.00190401   -0.00051859
     atom    4 type  1   force =     0.00000000    0.00190401   -0.00051859
     atom    5 type  1   force =     0.00000000    0.00144981    0.00001144
     atom    6 type  1   force =    -0.00000000   -0.00144981    0.00001144
     atom    7 type  1   force =    -0.00000000   -0.00144981   -0.00001144
     atom    8 type  1   force =    -0.00000000    0.00144981   -0.00001144
     atom    9 type  1   force =     0.00000000    0.00190401    0.00051859
     atom   10 type  1   force =     0.00000000   -0.00190401    0.00051859
     atom   11 type  1   force =     0.00000000   -0.00527465   -0.00027017
     atom   12 type  1   force =     0.00000000    0.00527465   -0.00027017
     atom   13 type  2   force =     0.00000000    0.00391713    0.00203076
     atom   14 type  2   force =    -0.00000000   -0.00391713    0.00203076
     atom   15 type  2   force =     0.00000000   -0.00391713   -0.00203076
     atom   16 type  2   force =     0.00000000    0.00391713   -0.00203076

     Total force =     0.014609     Total SCF correction =     0.000184


     Computing stress (Cartesian axis) and pressure


     negative rho (up, down):  1.984E-05 0.000E+00
          total   stress  (Ry/bohr**3)                   (kbar)     P=       68.71
   0.00060858   0.00000000   0.00000000           89.53        0.00        0.00
   0.00000000   0.00074801   0.00000000            0.00      110.04        0.00
   0.00000000   0.00000000   0.00004474            0.00        0.00        6.58


     Writing all to output data dir ./tmp/slab.save/ :
     XML data file, charge density, pseudopotentials, collected wavefunctions

     init_run     :      1.75s CPU      1.88s WALL (       1 calls)
     electrons    :     39.30s CPU     42.96s WALL (       1 calls)
     forces       :      0.43s CPU      0.49s WALL (       1 calls)
     stress       :      1.26s CPU      1.49s WALL (       1 calls)

     Called by init_run:
     wfcinit      :      1.36s CPU      1.46s WALL (       1 calls)
     potinit      :      0.21s CPU      0.23s WALL (       1 calls)
     hinit0       :      0.11s CPU      0.12s WALL (       1 calls)

     Called by electrons:
     c_bands      :     31.24s CPU     34.40s WALL (      13 calls)
     sum_band     :      5.01s CPU      5.30s WALL (      13 calls)
     v_of_rho     :      0.74s CPU      0.78s WALL (      14 calls)
     newd         :      0.42s CPU      0.51s WALL (      14 calls)
     PAW_pot      :      1.95s CPU      2.05s WALL (      14 calls)
     mix_rho      :      0.09s CPU      0.11s WALL (      13 calls)

     Called by c_bands:
     init_us_2    :      0.53s CPU      0.59s WALL (     580 calls)
     cegterg      :     30.22s CPU     33.35s WALL (     260 calls)

     Called by *egterg:
     cdiaghg      :      0.71s CPU      0.75s WALL (    1199 calls)
     h_psi        :     23.51s CPU     24.87s WALL (    1219 calls)
     s_psi        :      1.82s CPU      2.24s WALL (    1219 calls)
     g_psi        :      0.12s CPU      0.12s WALL (     939 calls)

     Called by h_psi:
     h_psi:calbec :      2.34s CPU      2.98s WALL (    1219 calls)
     vloc_psi     :     19.04s CPU     19.22s WALL (    1219 calls)
                                        0.00s GPU  (    1219 calls)
     add_vuspsi   :      2.03s CPU      2.53s WALL (    1219 calls)

     General routines
     calbec       :      3.72s CPU      4.67s WALL (    1819 calls)
     fft          :      0.45s CPU      0.45s WALL (     205 calls)
     ffts         :      0.02s CPU      0.02s WALL (      27 calls)
     fftw         :     19.98s CPU     20.03s WALL (   53320 calls)
     interpolate  :      0.05s CPU      0.05s WALL (      14 calls)


     PWSCF        :     42.77s CPU     46.89s WALL


   This run was terminated on:  13:34:39   7Jul2026            

=------------------------------------------------------------------------------=
   JOB DONE.
=------------------------------------------------------------------------------=
Note: The following floating-point exceptions are signalling: IEEE_INVALID_FLAG IEEE_DIVIDE_BY_ZERO IEEE_OVERFLOW_FLAG IEEE_UNDERFLOW_FLAG
