
     Program PWSCF v.7.3.1 starts on  1Aug2026 at 12:48: 4 

     This program is part of the open-source Quantum ESPRESSO suite
     for quantum simulation of materials; please cite
         "P. Giannozzi et al., J. Phys.:Condens. Matter 21 395502 (2009);
         "P. Giannozzi et al., J. Phys.:Condens. Matter 29 465901 (2017);
         "P. Giannozzi et al., J. Chem. Phys. 152 154105 (2020);
          URL http://www.quantum-espresso.org", 
     in publications or presentations arising from this work. More details at
     http://www.quantum-espresso.org/quote

     Parallel version (MPI), running on     8 processors

     MPI processes distributed on     1 nodes
     186996 MiB available memory on the printing compute node when the environment starts

     Reading input from pw.in

     Current dimensions of program PWSCF are:
     Max number of different atomic species (ntypx) = 10
     Max number of k-points (npk) =  40000
     Max angular momentum in pseudopotentials (lmaxx) =  4
     file C.pbe-n-kjpaw_psl.1.0.0.UPF: wavefunction(s)  2S 2P renormalized
     Message from routine volume:
     axis vectors are left-handed
     Message from routine setup:
     using ibrav=0 with symmetry is DISCOURAGED, use correct ibrav instead

     R & G space division:  proc/nbgrp/npool/nimage =       8
     Subspace diagonalization in iterative solution of the eigenvalue problem:
     a serial algorithm will be used


     Parallelization info
     --------------------
     sticks:   dense  smooth     PW     G-vecs:    dense   smooth      PW
     Min         230     115     32                59860    21169    3266
     Max         231     116     33                59889    21198    3293
     Sum        1845     921    263               479017   169439   26265

     Using Slab Decomposition



     bravais-lattice index     =            0
     lattice parameter (alat)  =       4.7752  a.u.
     unit-cell volume          =    1468.4945 (a.u.)^3
     number of atoms/cell      =           16
     number of atomic types    =            2
     number of electrons       =        52.00
     number of Kohn-Sham states=           31
     kinetic-energy cutoff     =      90.0000  Ry
     charge density cutoff     =     720.0000  Ry
     scf convergence threshold =      1.0E-08
     mixing beta               =       0.3000
     number of iterations used =            8  plain     mixing
     Exchange-correlation= PBE
                           (   1   4   3   4   0   0   0)

     celldm(1)=   4.775235  celldm(2)=   0.000000  celldm(3)=   0.000000
     celldm(4)=   0.000000  celldm(5)=   0.000000  celldm(6)=   0.000000

     crystal axes: (cart. coord. in units of alat)
               a(1) = (   1.000000   0.000000   0.000000 )  
               a(2) = (   0.000000  -1.414214   0.000000 )  
               a(3) = (   0.000000   0.000000   9.536147 )  

     reciprocal axes: (cart. coord. in units 2 pi/alat)
               b(1) = (  1.000000 -0.000000 -0.000000 )  
               b(2) = ( -0.000000 -0.707107 -0.000000 )  
               b(3) = ( -0.000000 -0.000000  0.104864 )  


     PseudoPot. # 1 for C  read from file:
     ./C.pbe-n-kjpaw_psl.1.0.0.UPF
     MD5 check sum: 5d2aebdfa2cae82b50a7e79e9516da0f
     Pseudo is Projector augmented-wave + core cor, Zval =  4.0
     Generated using "atomic" code by A. Dal Corso  v.5.1
     Shape of augmentation charge: PSQ
     Using radial grid of 1073 points,  4 beta functions with: 
                l(1) =   0
                l(2) =   0
                l(3) =   1
                l(4) =   1
     Q(r) pseudized with 0 coefficients 


     PseudoPot. # 2 for H  read from file:
     ./H_ONCV_PBE-1.0.oncvpsp.upf
     MD5 check sum: 1790becc920ee074925cf490c71280fe
     Pseudo is Norm-conserving, Zval =  1.0
     Generated using ONCVPSP code by D. R. Hamann
     Using radial grid of 1166 points,  2 beta functions with: 
                l(1) =   0
                l(2) =   0

     atomic species   valence    mass     pseudopotential
     C                 4.00    12.01100     C ( 1.00)
     H                 1.00     1.00800     H ( 1.00)

      4 Sym. Ops. (no inversion) found ( 2 have fractional translation)



   Cartesian axes

     site n.     atom                  positions (alat units)
         1        C      tau(   1) = (  -0.0000000  -0.3611404   4.4247609  )
         2        C      tau(   2) = (   0.5000000  -0.6995197   4.4247609  )
         3        C      tau(   3) = (   0.0000000   0.0011500   3.9360405  )
         4        C      tau(   4) = (   0.5000000  -1.0618102   3.9360405  )
         5        C      tau(   5) = (   0.0000000  -0.3533013   3.4350066  )
         6        C      tau(   6) = (   0.5000000  -0.7073588   3.4350066  )
         7        C      tau(   7) = (   0.0000000  -0.0002520   2.9352634  )
         8        C      tau(   8) = (   0.5000000  -1.0604081   2.9352634  )
         9        C      tau(   9) = (  -0.0000000  -0.3547034   2.4342296  )
        10        C      tau(  10) = (   0.5000000  -0.7059567   2.4342296  )
        11        C      tau(  11) = (  -0.0000000   0.0075871   1.9455091  )
        12        C      tau(  12) = (   0.5000000  -1.0682472   1.9455091  )
        13        H      tau(  13) = (   0.0000000  -0.1238861   4.7893624  )
        14        H      tau(  14) = (   0.5000000  -0.9367741   4.7893624  )
        15        H      tau(  15) = (   0.0000000  -0.2296673   1.5809076  )
        16        H      tau(  16) = (   0.5000000  -0.8309929   1.5809076  )

     number of k points=    20  Marzari-Vanderbilt smearing, width (Ry)=  0.0100
                       cart. coord. in units 2pi/alat
        k(    1) = (   0.0000000  -0.0000000   0.0000000), wk =   0.0317460
        k(    2) = (   0.0000000  -0.1010153   0.0000000), wk =   0.0634921
        k(    3) = (   0.0000000  -0.2020305   0.0000000), wk =   0.0634921
        k(    4) = (   0.0000000  -0.3030458   0.0000000), wk =   0.0634921
        k(    5) = (   0.1111111  -0.0000000   0.0000000), wk =   0.0634921
        k(    6) = (   0.1111111  -0.1010153   0.0000000), wk =   0.1269841
        k(    7) = (   0.1111111  -0.2020305   0.0000000), wk =   0.1269841
        k(    8) = (   0.1111111  -0.3030458   0.0000000), wk =   0.1269841
        k(    9) = (   0.2222222  -0.0000000   0.0000000), wk =   0.0634921
        k(   10) = (   0.2222222  -0.1010153   0.0000000), wk =   0.1269841
        k(   11) = (   0.2222222  -0.2020305   0.0000000), wk =   0.1269841
        k(   12) = (   0.2222222  -0.3030458   0.0000000), wk =   0.1269841
        k(   13) = (   0.3333333  -0.0000000   0.0000000), wk =   0.0634921
        k(   14) = (   0.3333333  -0.1010153   0.0000000), wk =   0.1269841
        k(   15) = (   0.3333333  -0.2020305   0.0000000), wk =   0.1269841
        k(   16) = (   0.3333333  -0.3030458   0.0000000), wk =   0.1269841
        k(   17) = (   0.4444444  -0.0000000   0.0000000), wk =   0.0634921
        k(   18) = (   0.4444444  -0.1010153   0.0000000), wk =   0.1269841
        k(   19) = (   0.4444444  -0.2020305   0.0000000), wk =   0.1269841
        k(   20) = (   0.4444444  -0.3030458   0.0000000), wk =   0.1269841

     Dense  grid:   479017 G-vectors     FFT dimensions: (  48,  60, 400)

     Smooth grid:   169439 G-vectors     FFT dimensions: (  30,  48, 288)

     Estimated max dynamical RAM per process >     138.87 MB

     Estimated total dynamical RAM >       1.08 GB

     Initial potential from superposition of free atoms

     starting charge      51.9995, renormalised to      52.0000

     negative rho (up, down):  4.590E-05 0.000E+00
     Starting wfcs are   52 randomized atomic wfcs
     Checking if some PAW data can be deallocated... 

     total cpu time spent up to now is        1.7 secs

     Self-consistent Calculation

     iteration #  1     ecut=    90.00 Ry     beta= 0.30
     Davidson diagonalization with overlap
     ethr =  1.00E-02,  avg # of iterations =  2.8

     negative rho (up, down):  4.677E-05 0.000E+00

     total cpu time spent up to now is        4.5 secs

     total energy              =    -226.01607965 Ry
     estimated scf accuracy    <       1.18642398 Ry

     iteration #  2     ecut=    90.00 Ry     beta= 0.30
     Davidson diagonalization with overlap
     ethr =  2.28E-03,  avg # of iterations =  4.0

     negative rho (up, down):  5.725E-05 0.000E+00

     total cpu time spent up to now is        6.9 secs

     total energy              =    -225.92494567 Ry
     estimated scf accuracy    <       0.37708025 Ry

     iteration #  3     ecut=    90.00 Ry     beta= 0.30
     Davidson diagonalization with overlap
     ethr =  7.25E-04,  avg # of iterations =  7.5

     negative rho (up, down):  6.493E-05 0.000E+00

     total cpu time spent up to now is        9.7 secs

     total energy              =    -225.93939366 Ry
     estimated scf accuracy    <       0.05134734 Ry

     iteration #  4     ecut=    90.00 Ry     beta= 0.30
     Davidson diagonalization with overlap
     ethr =  9.87E-05,  avg # of iterations =  4.6

     negative rho (up, down):  7.086E-05 0.000E+00

     total cpu time spent up to now is       12.3 secs

     total energy              =    -225.94251845 Ry
     estimated scf accuracy    <       0.00522937 Ry

     iteration #  5     ecut=    90.00 Ry     beta= 0.30
     Davidson diagonalization with overlap
     ethr =  1.01E-05,  avg # of iterations =  8.0

     negative rho (up, down):  7.216E-05 0.000E+00

     total cpu time spent up to now is       15.4 secs

     total energy              =    -225.94314835 Ry
     estimated scf accuracy    <       0.00055851 Ry

     iteration #  6     ecut=    90.00 Ry     beta= 0.30
     Davidson diagonalization with overlap
     ethr =  1.07E-06,  avg # of iterations =  4.0

     negative rho (up, down):  7.283E-05 0.000E+00

     total cpu time spent up to now is       18.2 secs

     total energy              =    -225.94326716 Ry
     estimated scf accuracy    <       0.00007307 Ry

     iteration #  7     ecut=    90.00 Ry     beta= 0.30
     Davidson diagonalization with overlap
     ethr =  1.41E-07,  avg # of iterations =  2.9

     negative rho (up, down):  7.343E-05 0.000E+00

     total cpu time spent up to now is       20.6 secs

     total energy              =    -225.94327360 Ry
     estimated scf accuracy    <       0.00001612 Ry

     iteration #  8     ecut=    90.00 Ry     beta= 0.30
     Davidson diagonalization with overlap
     ethr =  3.10E-08,  avg # of iterations =  2.3

     negative rho (up, down):  7.365E-05 0.000E+00

     total cpu time spent up to now is       23.1 secs

     total energy              =    -225.94327554 Ry
     estimated scf accuracy    <       0.00000326 Ry

     iteration #  9     ecut=    90.00 Ry     beta= 0.30
     Davidson diagonalization with overlap
     ethr =  6.27E-09,  avg # of iterations =  3.2

     negative rho (up, down):  7.386E-05 0.000E+00

     total cpu time spent up to now is       25.9 secs

     total energy              =    -225.94327630 Ry
     estimated scf accuracy    <       0.00000251 Ry

     iteration # 10     ecut=    90.00 Ry     beta= 0.30
     Davidson diagonalization with overlap
     ethr =  4.82E-09,  avg # of iterations =  2.0

     negative rho (up, down):  7.400E-05 0.000E+00

     total cpu time spent up to now is       28.2 secs

     total energy              =    -225.94327646 Ry
     estimated scf accuracy    <       0.00000023 Ry

     iteration # 11     ecut=    90.00 Ry     beta= 0.30
     Davidson diagonalization with overlap
     ethr =  4.47E-10,  avg # of iterations =  3.2

     negative rho (up, down):  7.413E-05 0.000E+00

     total cpu time spent up to now is       31.0 secs

     total energy              =    -225.94327655 Ry
     estimated scf accuracy    <       0.00000008 Ry

     iteration # 12     ecut=    90.00 Ry     beta= 0.30
     Davidson diagonalization with overlap
     ethr =  1.59E-10,  avg # of iterations =  2.6

     negative rho (up, down):  7.450E-05 0.000E+00

     total cpu time spent up to now is       33.5 secs

     End of self-consistent calculation

          k = 0.0000-0.0000 0.0000 ( 21263 PWs)   bands (ev):

   -18.6088 -17.5378 -15.7858 -13.5908 -11.4077 -10.3017  -9.9834  -9.0497
    -7.4661  -7.1255  -6.6909  -5.6219  -5.3903  -4.7814  -3.5597  -3.3774
    -3.0678  -2.7555  -1.4651  -0.9184  -0.5258   0.0326   1.3001   1.3129
     1.6382   2.1553   4.3158   4.4749   5.4264   6.1077   7.2344

          k = 0.0000-0.1010 0.0000 ( 21177 PWs)   bands (ev):

   -18.4228 -17.3575 -15.6228 -13.5057 -12.1839 -11.9213  -9.4980  -8.6639
    -8.2200  -6.7198  -6.2417  -5.6729  -4.5407  -4.5215  -3.6940  -3.3840
    -2.6056  -2.4452  -1.3768  -1.1463  -0.3183  -0.0148   1.0291   1.0796
     1.4459   1.5932   4.5557   4.6786   5.6584   6.3354   7.4671

          k = 0.0000-0.2020 0.0000 ( 21186 PWs)   bands (ev):

   -17.8671 -16.8222 -15.1572 -14.0979 -13.3084 -13.2432 -10.0053  -9.4115
    -8.1045  -7.0731  -5.7082  -4.3980  -4.3972  -3.4270  -2.8641  -2.8304
    -2.2297  -2.1688  -1.1354  -0.6234  -0.6186  -0.1739   0.3130   0.3982
     0.6480   0.9350   5.1778   5.3203   6.3595   6.9292   7.7161

          k = 0.0000-0.3030 0.0000 ( 21132 PWs)   bands (ev):

   -16.9512 -15.9908 -15.6273 -14.8534 -14.2331 -13.5913 -10.3921  -9.7443
    -8.3335  -7.3787  -5.6309  -4.6043  -3.0551  -2.4966  -2.0259  -1.8898
    -1.4958  -1.4677  -0.9063  -0.8557  -0.6494  -0.5208  -0.4771  -0.4022
    -0.0222   0.0681   6.1064   6.3388   7.2174   7.5561   7.6882

          k = 0.1111-0.0000 0.0000 ( 21201 PWs)   bands (ev):

   -18.3828 -17.3144 -15.5664 -13.3767 -11.2018 -10.1009  -9.9170  -8.9913
    -7.4224  -6.9328  -6.4830  -5.4687  -5.3704  -4.5828  -4.5804  -3.7395
    -3.3051  -3.0838  -2.4051  -1.0240  -0.9054  -0.5776   0.3347   0.8210
     1.0744   1.5318   4.5615   4.6828   5.6940   6.3799   7.3535

          k = 0.1111-0.1010 0.0000 ( 21161 PWs)   bands (ev):

   -18.1973 -17.1347 -15.4043 -13.2937 -12.0015 -11.7271  -9.3454  -8.5303
    -8.1412  -6.6181  -6.1291  -5.6536  -4.5084  -4.3749  -4.3042  -3.6844
    -3.4781  -2.4900  -2.2463  -1.1860  -0.9263  -0.5920   0.0790   0.0972
     1.0376   1.4674   4.8004   4.9154   5.9351   6.6166   7.6637

          k = 0.1111-0.2020 0.0000 ( 21158 PWs)   bands (ev):

   -17.6432 -16.6014 -14.9418 -13.8941 -13.1029 -13.0446  -9.8222  -9.2195
    -7.9506  -6.9365  -5.6882  -4.7580  -4.4183  -3.7930  -3.3092  -2.8376
    -2.7322  -2.5069  -1.6517  -1.2079  -1.0834  -1.0150  -0.8526  -0.5350
     0.6312   1.2491   5.4463   5.5738   6.6429   7.2805   8.3045

          k = 0.1111-0.3030 0.0000 ( 21159 PWs)   bands (ev):

   -16.7306 -15.7740 -15.4130 -14.6426 -14.0250 -13.3880 -10.1919  -9.5495
    -8.1552  -7.2069  -5.5256  -4.5006  -3.7592  -3.0356  -2.9232  -2.4703
    -2.1251  -2.0408  -1.7185  -1.4965  -1.4367  -1.0020  -0.7054  -0.3424
     0.1234   0.2402   6.4229   6.5991   7.6553   7.8782   8.0226

          k = 0.2222-0.0000 0.0000 ( 21192 PWs)   bands (ev):

   -17.7081 -16.6475 -14.9119 -12.7384 -10.5871 -10.0278  -9.5001  -9.1105
    -7.5611  -6.3746  -6.2728  -5.8759  -5.5429  -5.4000  -5.0425  -4.0479
    -4.0026  -3.3013  -3.1609  -2.5934  -1.5557  -1.4709  -1.0800  -0.8648
    -0.5240   1.1227   5.2667   5.3775   6.5228   7.1002   7.5276

          k = 0.2222-0.1010 0.0000 ( 21148 PWs)   bands (ev):

   -17.5242 -16.4699 -14.7529 -12.6622 -11.5223 -11.1711  -9.0617  -8.4044
    -8.2540  -6.6013  -6.2194  -6.0822  -5.0825  -5.0142  -4.4784  -3.8892
    -3.7438  -3.2280  -3.0832  -2.3613  -2.2031  -2.0526  -1.2575  -1.0515
     0.3059   0.7513   5.5133   5.6273   6.7694   7.4045   8.1166

          k = 0.2222-0.2020 0.0000 ( 21131 PWs)   bands (ev):

   -16.9759 -15.9437 -14.3002 -13.3048 -12.4925 -12.4677  -9.3340  -8.7156
    -7.5898  -7.4274  -6.0148  -5.9628  -5.1441  -4.4922  -3.8359  -3.5975
    -3.2679  -3.1148  -3.0075  -2.5038  -2.3998  -2.0743  -1.5770  -0.8157
     0.0471   0.6735   6.1757   6.2970   7.4838   8.1163   9.0070

          k = 0.2222-0.3030 0.0000 ( 21171 PWs)   bands (ev):

   -16.0749 -15.1298 -14.7802 -14.0185 -13.4082 -12.7847  -9.6273  -8.9997
    -7.7004  -6.7661  -6.4139  -5.3756  -5.0963  -4.8382  -4.1698  -3.9866
    -3.8014  -3.5024  -2.4433  -1.6163  -1.4846  -1.4817  -1.2715  -0.9824
    -0.2630   0.1078   7.1335   7.2586   8.4479   8.6612   8.7418

          k = 0.3333-0.0000 0.0000 ( 21134 PWs)   bands (ev):

   -16.5963 -15.5495 -13.8352 -11.6890 -11.2638 -10.3093  -9.5734  -8.7204
    -8.5050  -6.6867  -6.6109  -5.8041  -5.5193  -4.9275  -4.6044  -4.5504
    -4.4557  -3.4591  -3.3344  -3.1661  -3.0844  -2.7778  -2.4219  -2.3059
    -1.4931   0.3536   6.3210   6.4926   7.2873   7.4860   7.9399

          k = 0.3333-0.1010 0.0000 ( 21148 PWs)   bands (ev):

   -16.4163 -15.3765 -13.6823 -11.6494 -11.4475 -10.6739  -9.3971  -9.2532
    -8.7742  -6.9415  -6.6568  -5.7963  -5.7321  -4.9644  -4.5743  -4.3591
    -4.3101  -3.8328  -3.3336  -3.2807  -3.0083  -2.8676  -2.1312  -1.7012
    -1.2990   0.1662   6.6238   6.7455   7.7433   7.9287   8.1723

          k = 0.3333-0.2020 0.0000 ( 21193 PWs)   bands (ev):

   -15.8811 -14.8658 -13.2498 -12.5001 -11.6545 -11.5072  -9.4180  -8.9773
    -8.9043  -7.5528  -6.7985  -6.3749  -6.1607  -5.8635  -5.1197  -4.7682
    -4.1523  -3.1174  -2.9188  -2.8257  -2.6045  -2.2481  -2.1182  -1.7969
    -0.4347  -0.3254   7.2525   7.3696   8.6969   8.8378   8.9813

          k = 0.3333-0.3030 0.0000 ( 21233 PWs)   bands (ev):

   -15.0095 -14.0869 -13.7818 -13.0246 -12.4178 -11.8117  -8.9754  -8.6871
    -8.3367  -8.1401  -7.5649  -7.1400  -6.3636  -6.0066  -5.4826  -5.3693
    -4.0564  -3.3928  -2.8646  -2.7103  -2.0549  -1.6995  -1.3928  -1.1693
    -0.8917  -0.3301   8.0225   8.0497   9.4260   9.4649   9.7821

          k = 0.4444-0.0000 0.0000 ( 21132 PWs)   bands (ev):

   -15.0759 -14.0498 -13.2190 -12.3665 -12.2226 -10.5813 -10.2574  -8.5141
    -8.1809  -7.1271  -6.4552  -5.6445  -5.3890  -4.9916  -4.5150  -4.1464
    -4.1110  -3.9927  -3.7466  -3.6311  -3.6176  -3.5237  -3.4898  -2.5043
    -1.9447  -0.7284   7.0528   7.6533   7.7885   8.0798   8.2318

          k = 0.4444-0.1010 0.0000 ( 21192 PWs)   bands (ev):

   -14.9056 -13.8879 -13.0888 -12.2297 -12.1011 -10.5197 -10.1493  -8.4934
    -8.4875  -8.3694  -6.8228  -6.6629  -5.7630  -5.0853  -4.6215  -4.3903
    -4.0757  -3.8087  -3.4952  -3.3932  -3.3026  -3.0488  -2.8423  -2.3601
    -1.8264  -0.7449   7.6580   7.6759   7.7767   8.3127   8.7333

          k = 0.4444-0.2020 0.0000 ( 21195 PWs)   bands (ev):

   -14.4078 -13.4185 -12.7952 -11.9098 -11.7722 -10.4663  -9.9642  -9.6854
    -9.2749  -8.5695  -8.2289  -7.8024  -6.0315  -5.9698  -4.9461  -4.7606
    -4.2318  -3.9881  -3.4525  -2.8363  -2.6011  -2.5210  -2.0725  -1.6282
    -1.3914  -0.8171   8.2135   8.3171   8.6388   8.7993   9.3570

          k = 0.4444-0.3030 0.0000 ( 21230 PWs)   bands (ev):

   -13.6448 -12.9025 -12.6799 -12.0007 -11.2187 -10.6846 -10.4316  -9.7341
    -9.5574  -9.3057  -8.8452  -8.7160  -6.3672  -6.0348  -5.4161  -5.0698
    -4.4081  -4.1283  -3.3230  -2.9832  -2.4371  -2.3316  -1.2838  -1.1586
    -0.9358  -0.8640   8.7450   8.7595   9.3595   9.4822  10.5451

     the Fermi energy is     2.9408 ev

!    total energy              =    -225.94327656 Ry
     estimated scf accuracy    <          2.8E-09 Ry
     smearing contrib. (-TS)   =       0.00000000 Ry
     internal energy E=F+TS    =    -225.94327656 Ry

     The total energy is F=E-TS. E is the sum of the following terms:
     one-electron contribution =   -3423.77653066 Ry
     hartree contribution      =    1730.87269632 Ry
     xc contribution           =     -59.13950257 Ry
     ewald contribution        =    1600.05710156 Ry
     one-center paw contrib.   =     -73.95704121 Ry

     convergence has been achieved in  12 iterations

     negative rho (up, down):  7.450E-05 0.000E+00

     Forces acting on atoms (cartesian axes, Ry/au):

     atom    1 type  1   force =     0.00000000    0.00003534    0.00006544
     atom    2 type  1   force =     0.00000000   -0.00003534    0.00006544
     atom    3 type  1   force =     0.00000000    0.00006991   -0.00000553
     atom    4 type  1   force =     0.00000000   -0.00006991   -0.00000553
     atom    5 type  1   force =     0.00000000   -0.00006495    0.00000537
     atom    6 type  1   force =     0.00000000    0.00006495    0.00000537
     atom    7 type  1   force =     0.00000000    0.00006477   -0.00001441
     atom    8 type  1   force =     0.00000000   -0.00006477   -0.00001441
     atom    9 type  1   force =     0.00000000   -0.00007005   -0.00000339
     atom   10 type  1   force =     0.00000000    0.00007005   -0.00000339
     atom   11 type  1   force =     0.00000000   -0.00003522   -0.00005069
     atom   12 type  1   force =     0.00000000    0.00003522   -0.00005069
     atom   13 type  2   force =     0.00000000   -0.00002600   -0.00009529
     atom   14 type  2   force =     0.00000000    0.00002600   -0.00009529
     atom   15 type  2   force =     0.00000000    0.00002625    0.00009849
     atom   16 type  2   force =     0.00000000   -0.00002625    0.00009849

     Total force =     0.000310     Total SCF correction =     0.000162
     SCF correction compared to forces is large: reduce conv_thr to get better values


     Computing stress (Cartesian axis) and pressure


     negative rho (up, down):  7.450E-05 0.000E+00
          total   stress  (Ry/bohr**3)                   (kbar)     P=       17.51
   0.00011551   0.00000000   0.00000000           16.99        0.00        0.00
   0.00000000   0.00024313   0.00000000            0.00       35.76        0.00
   0.00000000   0.00000000  -0.00000158            0.00        0.00       -0.23


     Writing all to output data dir /tmp/qe/slab.save/ :
     XML data file, charge density, pseudopotentials, collected wavefunctions

     init_run     :      1.52s CPU      1.60s WALL (       1 calls)
     electrons    :     31.32s CPU     31.81s WALL (       1 calls)
     forces       :      0.44s CPU      0.48s WALL (       1 calls)
     stress       :      4.98s CPU      5.04s WALL (       1 calls)

     Called by init_run:
     wfcinit      :      1.18s CPU      1.21s WALL (       1 calls)
     potinit      :      0.15s CPU      0.16s WALL (       1 calls)
     hinit0       :      0.06s CPU      0.07s WALL (       1 calls)

     Called by electrons:
     c_bands      :     24.17s CPU     24.41s WALL (      12 calls)
     sum_band     :      4.90s CPU      5.02s WALL (      12 calls)
     v_of_rho     :      0.92s CPU      0.96s WALL (      13 calls)
     newd         :      0.53s CPU      0.62s WALL (      13 calls)
     PAW_pot      :      0.81s CPU      0.81s WALL (      13 calls)
     mix_rho      :      0.09s CPU      0.09s WALL (      12 calls)

     Called by c_bands:
     init_us_2    :      0.81s CPU      0.83s WALL (     540 calls)
     cegterg      :     22.97s CPU     23.19s WALL (     240 calls)

     Called by *egterg:
     cdiaghg      :      1.04s CPU      1.05s WALL (    1178 calls)
     h_psi        :     18.42s CPU     18.62s WALL (    1198 calls)
     s_psi        :      1.09s CPU      1.09s WALL (    1198 calls)
     g_psi        :      0.12s CPU      0.12s WALL (     938 calls)

     Called by h_psi:
     h_psi:calbec :      1.09s CPU      1.10s WALL (    1198 calls)
     vloc_psi     :     15.83s CPU     16.00s WALL (    1198 calls)
     add_vuspsi   :      1.37s CPU      1.37s WALL (    1198 calls)

     General routines
     calbec       :      1.53s CPU      1.54s WALL (    1538 calls)
     fft          :      0.41s CPU      0.48s WALL (     192 calls)
     ffts         :      0.02s CPU      0.02s WALL (      25 calls)
     fftw         :     13.88s CPU     14.01s WALL (   49580 calls)
     interpolate  :      0.04s CPU      0.04s WALL (      13 calls)

     Parallel routines

     PWSCF        :     38.46s CPU     39.24s WALL


   This run was terminated on:  12:48:44   1Aug2026            

=------------------------------------------------------------------------------=
   JOB DONE.
=------------------------------------------------------------------------------=
Note: The following floating-point exceptions are signalling: IEEE_UNDERFLOW_FLAG IEEE_DENORMAL
Note: The following floating-point exceptions are signalling: IEEE_UNDERFLOW_FLAG IEEE_DENORMAL
Note: The following floating-point exceptions are signalling: IEEE_UNDERFLOW_FLAG IEEE_DENORMAL
Note: The following floating-point exceptions are signalling: IEEE_UNDERFLOW_FLAG IEEE_DENORMAL
Note: The following floating-point exceptions are signalling: IEEE_UNDERFLOW_FLAG IEEE_DENORMAL
Note: The following floating-point exceptions are signalling: IEEE_UNDERFLOW_FLAG IEEE_DENORMAL
Note: The following floating-point exceptions are signalling: IEEE_UNDERFLOW_FLAG IEEE_DENORMAL
Note: The following floating-point exceptions are signalling: IEEE_UNDERFLOW_FLAG IEEE_DENORMAL
