
     Program PWSCF v.7.3.1 starts on  1Aug2026 at 13:14:19 

     This program is part of the open-source Quantum ESPRESSO suite
     for quantum simulation of materials; please cite
         "P. Giannozzi et al., J. Phys.:Condens. Matter 21 395502 (2009);
         "P. Giannozzi et al., J. Phys.:Condens. Matter 29 465901 (2017);
         "P. Giannozzi et al., J. Chem. Phys. 152 154105 (2020);
          URL http://www.quantum-espresso.org", 
     in publications or presentations arising from this work. More details at
     http://www.quantum-espresso.org/quote

     Parallel version (MPI), running on     4 processors

     MPI processes distributed on     1 nodes
     188204 MiB available memory on the printing compute node when the environment starts

     Reading input from pw.in

     Current dimensions of program PWSCF are:
     Max number of different atomic species (ntypx) = 10
     Max number of k-points (npk) =  40000
     Max angular momentum in pseudopotentials (lmaxx) =  4
     file C.pbe-n-kjpaw_psl.1.0.0.UPF: wavefunction(s)  2S 2P renormalized
     Found identity + ( -0.5000 -0.5000  0.0000) symmetry
     This is a supercell, fractional translations are disabled
     Message from routine setup:
     using ibrav=0 with symmetry is DISCOURAGED, use correct ibrav instead

     R & G space division:  proc/nbgrp/npool/nimage =       4
     Subspace diagonalization in iterative solution of the eigenvalue problem:
     a serial algorithm will be used


     Parallelization info
     --------------------
     sticks:   dense  smooth     PW     G-vecs:    dense   smooth      PW
     Min         640     320     93                24308     8614    1361
     Max         641     321     94                24309     8615    1364
     Sum        2561    1281    373                97233    34457    5449

     Using Slab Decomposition



     bravais-lattice index     =            0
     lattice parameter (alat)  =       6.6732  a.u.
     unit-cell volume          =     297.1745 (a.u.)^3
     number of atoms/cell      =            8
     number of atomic types    =            1
     number of electrons       =        32.00
     number of Kohn-Sham states=           16
     kinetic-energy cutoff     =      90.0000  Ry
     charge density cutoff     =     720.0000  Ry
     scf convergence threshold =      1.0E-10
     mixing beta               =       0.4000
     number of iterations used =            8  plain     mixing
     Exchange-correlation= SLA  PW   PBX  PBC
                           (   1   4   3   4   0   0   0)

     celldm(1)=   6.673247  celldm(2)=   0.000000  celldm(3)=   0.000000
     celldm(4)=   0.000000  celldm(5)=   0.000000  celldm(6)=   0.000000

     crystal axes: (cart. coord. in units of alat)
               a(1) = (   1.000000   0.000000   0.000000 )  
               a(2) = (   0.000000   1.000000   0.000000 )  
               a(3) = (   0.000000   0.000000   1.000000 )  

     reciprocal axes: (cart. coord. in units 2 pi/alat)
               b(1) = (  1.000000  0.000000  0.000000 )  
               b(2) = (  0.000000  1.000000  0.000000 )  
               b(3) = (  0.000000  0.000000  1.000000 )  


     PseudoPot. # 1 for C  read from file:
     ./C.pbe-n-kjpaw_psl.1.0.0.UPF
     MD5 check sum: 5d2aebdfa2cae82b50a7e79e9516da0f
     Pseudo is Projector augmented-wave + core cor, Zval =  4.0
     Generated using "atomic" code by A. Dal Corso  v.5.1
     Shape of augmentation charge: PSQ
     Using radial grid of 1073 points,  4 beta functions with: 
                l(1) =   0
                l(2) =   0
                l(3) =   1
                l(4) =   1
     Q(r) pseudized with 0 coefficients 


     atomic species   valence    mass     pseudopotential
     C                 4.00    12.01100     C ( 1.00)

     24 Sym. Ops. (no inversion) found



   Cartesian axes

     site n.     atom                  positions (alat units)
         1        C      tau(   1) = (   0.0000000   0.0000000   0.0000000  )
         2        C      tau(   2) = (   0.2500000   0.2500000   0.2500000  )
         3        C      tau(   3) = (   0.5000000   0.5000000   0.0000000  )
         4        C      tau(   4) = (   0.7500000   0.7500000   0.2500000  )
         5        C      tau(   5) = (   0.5000000   0.0000000   0.5000000  )
         6        C      tau(   6) = (   0.7500000   0.2500000   0.7500000  )
         7        C      tau(   7) = (   0.0000000   0.5000000   0.5000000  )
         8        C      tau(   8) = (   0.2500000   0.7500000   0.7500000  )

     number of k points=    35
                       cart. coord. in units 2pi/alat
        k(    1) = (   0.0000000   0.0000000   0.0000000), wk =   0.0039062
        k(    2) = (   0.0000000   0.0000000   0.1250000), wk =   0.0234375
        k(    3) = (   0.0000000   0.0000000   0.2500000), wk =   0.0234375
        k(    4) = (   0.0000000   0.0000000   0.3750000), wk =   0.0234375
        k(    5) = (   0.0000000   0.0000000  -0.5000000), wk =   0.0117188
        k(    6) = (   0.0000000   0.1250000   0.1250000), wk =   0.0468750
        k(    7) = (   0.0000000   0.1250000   0.2500000), wk =   0.0937500
        k(    8) = (   0.0000000   0.1250000   0.3750000), wk =   0.0937500
        k(    9) = (   0.0000000   0.1250000  -0.5000000), wk =   0.0468750
        k(   10) = (   0.0000000   0.2500000   0.2500000), wk =   0.0468750
        k(   11) = (   0.0000000   0.2500000   0.3750000), wk =   0.0937500
        k(   12) = (   0.0000000   0.2500000  -0.5000000), wk =   0.0468750
        k(   13) = (   0.0000000   0.3750000   0.3750000), wk =   0.0468750
        k(   14) = (   0.0000000   0.3750000  -0.5000000), wk =   0.0468750
        k(   15) = (   0.0000000  -0.5000000  -0.5000000), wk =   0.0117188
        k(   16) = (   0.1250000   0.1250000   0.1250000), wk =   0.0312500
        k(   17) = (   0.1250000   0.1250000   0.2500000), wk =   0.0937500
        k(   18) = (   0.1250000   0.1250000   0.3750000), wk =   0.0937500
        k(   19) = (   0.1250000   0.1250000  -0.5000000), wk =   0.0468750
        k(   20) = (   0.1250000   0.2500000   0.2500000), wk =   0.0937500
        k(   21) = (   0.1250000   0.2500000   0.3750000), wk =   0.1875000
        k(   22) = (   0.1250000   0.2500000  -0.5000000), wk =   0.0937500
        k(   23) = (   0.1250000   0.3750000   0.3750000), wk =   0.0937500
        k(   24) = (   0.1250000   0.3750000  -0.5000000), wk =   0.0937500
        k(   25) = (   0.1250000  -0.5000000  -0.5000000), wk =   0.0234375
        k(   26) = (   0.2500000   0.2500000   0.2500000), wk =   0.0312500
        k(   27) = (   0.2500000   0.2500000   0.3750000), wk =   0.0937500
        k(   28) = (   0.2500000   0.2500000  -0.5000000), wk =   0.0468750
        k(   29) = (   0.2500000   0.3750000   0.3750000), wk =   0.0937500
        k(   30) = (   0.2500000   0.3750000  -0.5000000), wk =   0.0937500
        k(   31) = (   0.2500000  -0.5000000  -0.5000000), wk =   0.0234375
        k(   32) = (   0.3750000   0.3750000   0.3750000), wk =   0.0312500
        k(   33) = (   0.3750000   0.3750000  -0.5000000), wk =   0.0468750
        k(   34) = (   0.3750000  -0.5000000  -0.5000000), wk =   0.0234375
        k(   35) = (  -0.5000000  -0.5000000  -0.5000000), wk =   0.0039062

     Dense  grid:    97233 G-vectors     FFT dimensions: (  60,  60,  60)

     Smooth grid:    34457 G-vectors     FFT dimensions: (  45,  45,  45)

     Estimated max dynamical RAM per process >      49.07 MB

     Estimated total dynamical RAM >     196.28 MB

     Check: negative core charge=   -0.000001

     Initial potential from superposition of free atoms

     starting charge      31.9997, renormalised to      32.0000
     Starting wfcs are   32 randomized atomic wfcs
     Checking if some PAW data can be deallocated... 

     total cpu time spent up to now is        0.8 secs

     Self-consistent Calculation

     iteration #  1     ecut=    90.00 Ry     beta= 0.40
     Davidson diagonalization with overlap
     ethr =  1.00E-02,  avg # of iterations =  2.0

     total cpu time spent up to now is        1.7 secs

     total energy              =    -147.50072924 Ry
     estimated scf accuracy    <       0.47738839 Ry

     iteration #  2     ecut=    90.00 Ry     beta= 0.40
     Davidson diagonalization with overlap
     ethr =  1.49E-03,  avg # of iterations =  1.0

     total cpu time spent up to now is        2.4 secs

     total energy              =    -147.45200146 Ry
     estimated scf accuracy    <       0.13278924 Ry

     iteration #  3     ecut=    90.00 Ry     beta= 0.40
     Davidson diagonalization with overlap
     ethr =  4.15E-04,  avg # of iterations =  2.0

     total cpu time spent up to now is        3.2 secs

     total energy              =    -147.46622739 Ry
     estimated scf accuracy    <       0.00133541 Ry

     iteration #  4     ecut=    90.00 Ry     beta= 0.40
     Davidson diagonalization with overlap
     ethr =  4.17E-06,  avg # of iterations =  3.4

     total cpu time spent up to now is        4.2 secs

     total energy              =    -147.46684031 Ry
     estimated scf accuracy    <       0.00020978 Ry

     iteration #  5     ecut=    90.00 Ry     beta= 0.40
     Davidson diagonalization with overlap
     ethr =  6.56E-07,  avg # of iterations =  2.3

     total cpu time spent up to now is        5.0 secs

     total energy              =    -147.46687293 Ry
     estimated scf accuracy    <       0.00000192 Ry

     iteration #  6     ecut=    90.00 Ry     beta= 0.40
     Davidson diagonalization with overlap
     ethr =  5.99E-09,  avg # of iterations =  5.7

     total cpu time spent up to now is        6.4 secs

     total energy              =    -147.46687244 Ry
     estimated scf accuracy    <       0.00001559 Ry

     iteration #  7     ecut=    90.00 Ry     beta= 0.40
     Davidson diagonalization with overlap
     ethr =  5.99E-09,  avg # of iterations =  2.0

     total cpu time spent up to now is        7.4 secs

     total energy              =    -147.46687354 Ry
     estimated scf accuracy    <       0.00000020 Ry

     iteration #  8     ecut=    90.00 Ry     beta= 0.40
     Davidson diagonalization with overlap
     ethr =  6.37E-10,  avg # of iterations =  2.1

     total cpu time spent up to now is        8.3 secs

     total energy              =    -147.46687361 Ry
     estimated scf accuracy    <          7.4E-09 Ry

     iteration #  9     ecut=    90.00 Ry     beta= 0.40
     Davidson diagonalization with overlap
     ethr =  2.31E-11,  avg # of iterations =  3.9

     total cpu time spent up to now is        9.2 secs

     total energy              =    -147.46687360 Ry
     estimated scf accuracy    <          8.0E-09 Ry

     iteration # 10     ecut=    90.00 Ry     beta= 0.40
     Davidson diagonalization with overlap
     ethr =  2.31E-11,  avg # of iterations =  1.0

     total cpu time spent up to now is        9.9 secs

     total energy              =    -147.46687360 Ry
     estimated scf accuracy    <          1.6E-09 Ry

     iteration # 11     ecut=    90.00 Ry     beta= 0.40
     Davidson diagonalization with overlap
     ethr =  5.03E-12,  avg # of iterations =  2.0

     total cpu time spent up to now is       10.8 secs

     End of self-consistent calculation

          k = 0.0000 0.0000 0.0000 (  4337 PWs)   bands (ev):

    -7.9865   0.9168   0.9168   0.9168   0.9168   0.9168   0.9168   7.4121
     7.4121   7.4121   7.4121   7.4121   7.4121  13.8997  13.8997  13.8997

          k = 0.0000 0.0000 0.1250 (  4292 PWs)   bands (ev):

    -7.8393  -1.0513   1.0123   1.0123   1.0123   1.0123   3.0240   7.0965
     7.0965   7.0965   7.0965   7.5565   7.5565  13.3257  13.3257  13.5493

          k = 0.0000 0.0000 0.2500 (  4252 PWs)   bands (ev):

    -7.3989  -2.8256   1.2724   1.2724   1.2724   1.2724   5.1951   6.3634
     6.3634   6.3634   6.3634   7.9864   7.9864  12.1154  12.1154  12.5741

          k = 0.0000 0.0000 0.3750 (  4272 PWs)   bands (ev):

    -6.6687  -4.3686   1.5948   1.5948   1.5948   1.5948   5.6297   5.6297
     5.6297   5.6297   7.3367   8.6909   8.6909  10.8184  10.8184  11.1283

          k = 0.0000 0.0000-0.5000 (  4292 PWs)   bands (ev):

    -5.6551  -5.6551   1.7579   1.7579   1.7579   1.7579   5.3102   5.3102
     5.3102   5.3102   9.3475   9.3475   9.6485   9.6485   9.6485   9.6485

          k = 0.0000 0.1250 0.1250 (  4260 PWs)   bands (ev):

    -7.6924  -0.9313  -0.9313   1.0138   1.1796   3.0658   3.0658   6.1054
     7.2023   7.2023   7.3089   7.3089   7.6589  12.4470  12.7901  13.7149

          k = 0.0000 0.1250 0.2500 (  4267 PWs)   bands (ev):

    -7.2527  -2.6934  -0.5827   1.0859   1.5350   3.1278   5.1072   5.1075
     6.3628   6.7884   7.5910   7.6057   7.8816  11.1507  11.6313  13.1151

          k = 0.0000 0.1250 0.3750 (  4269 PWs)   bands (ev):

    -6.5237  -4.2297  -0.0489   0.9958   2.0453   3.0195   4.5507   5.4263
     6.4588   6.9360   7.1111   8.2884   8.9049   9.7894  10.3692  11.8917

          k = 0.0000 0.1250-0.5000 (  4278 PWs)   bands (ev):

    -5.5124  -5.5124   0.5569   0.5569   2.6077   2.6077   4.7154   4.7155
     6.6149   6.6149   8.4315   8.4315   9.2245   9.2245  10.3625  10.3625

          k = 0.0000 0.2500 0.2500 (  4258 PWs)   bands (ev):

    -6.8151  -2.3022  -2.3022   0.7411   1.9646   4.2873   4.7614   4.7614
     6.7038   6.7038   7.7728   7.7729   8.3740   9.8387  10.5477  13.1221

          k = 0.0000 0.2500 0.3750 (  4271 PWs)   bands (ev):

    -6.0904  -3.8162  -1.6725   0.0339   2.5733   4.1117   4.2226   5.6701
     6.0773   7.3416   7.9202   8.5218   8.5268   9.2829   9.3404  12.3275

          k = 0.0000 0.2500-0.5000 (  4276 PWs)   bands (ev):

    -5.0863  -5.0863  -0.8540  -0.8540   3.3222   3.3223   4.7726   4.7726
     7.2757   7.2757   8.2381   8.2381   8.2598   8.2598  10.9372  10.9372

          k = 0.0000 0.3750 0.3750 (  4278 PWs)   bands (ev):

    -5.3739  -3.1393  -3.1393  -1.1241   3.2606   4.5416   5.0813   5.0813
     6.2528   6.2528   7.2717   8.1760   9.4735   9.6300   9.6301  12.1020

          k = 0.0000 0.3750-0.5000 (  4302 PWs)   bands (ev):

    -4.3841  -4.3841  -2.2239  -2.2239   4.1112   4.1112   5.2697   5.2697
     6.1168   6.1168   7.1100   7.1100   9.7816   9.7816  11.1428  11.1428

          k = 0.0000-0.5000-0.5000 (  4324 PWs)   bands (ev):

    -3.4204  -3.4204  -3.4204  -3.4204   5.0447   5.0447   5.0447   5.0447
     6.0794   6.0794   6.0794   6.0794  10.7975  10.7975  10.7975  10.7975

          k = 0.1250 0.1250 0.1250 (  4265 PWs)   bands (ev):

    -7.5457  -0.8161  -0.8161  -0.8161   3.0668   3.0668   3.0668   6.3334
     6.3334   6.3334   7.7994   7.7994   7.7994  11.4281  13.2257  13.2257

          k = 0.1250 0.1250 0.2500 (  4276 PWs)   bands (ev):

    -7.1066  -2.5628  -0.4894  -0.4894   2.9498   2.9498   4.8647   5.5287
     5.5287   7.1113   7.7488   7.7488   8.2170  10.0586  12.1404  12.9188

          k = 0.1250 0.1250 0.3750 (  4286 PWs)   bands (ev):

    -6.3791  -4.0915  -0.0382  -0.0381   2.5319   2.5319   5.2539   5.2539
     6.2507   7.3544   7.3544   8.5494   8.7006   8.8988  10.9321  11.8335

          k = 0.1250 0.1250-0.5000 (  4288 PWs)   bands (ev):

    -5.3701  -5.3701   0.2321   0.2321   2.2188   2.2188   5.2793   5.2793
     7.1157   7.1157   7.4437   7.4437   9.8197   9.8197  10.2732  10.2732

          k = 0.1250 0.2500 0.2500 (  4288 PWs)   bands (ev):

    -6.6699  -2.1787  -2.1787  -0.2732   2.3559   4.1085   4.1085   5.1862
     6.7701   6.7701   8.2580   8.2580   8.5007   8.6497  11.4894  12.8319

          k = 0.1250 0.2500 0.3750 (  4296 PWs)   bands (ev):

    -5.9468  -3.6809  -1.5704  -0.2613   1.8841   3.1121   5.0545   5.4506
     6.4807   7.2979   8.1838   8.2298   8.6601   9.3120  10.4008  12.1468

          k = 0.1250 0.2500-0.5000 (  4290 PWs)   bands (ev):

    -4.9456  -4.9456  -0.8286  -0.8286   2.2407   2.2407   5.9753   5.9753
     6.0922   6.0922   8.4402   8.4402   9.3020   9.3020  10.8323  10.8323

          k = 0.1250 0.3750 0.3750 (  4280 PWs)   bands (ev):

    -5.2323  -3.0117  -3.0116  -1.0947   2.0514   3.8475   3.8475   5.9666
     5.9678   7.4692   7.4692   9.4205   9.5694   9.6984   9.6984  12.0074

          k = 0.1250 0.3750-0.5000 (  4296 PWs)   bands (ev):

    -4.2469  -4.2469  -2.1177  -2.1177   2.8009   2.8009   4.8026   4.8026
     6.6766   6.6766   8.4134   8.4134   9.8632   9.8632  11.1222  11.1222

          k = 0.1250-0.5000-0.5000 (  4296 PWs)   bands (ev):

    -3.2915  -3.2915  -3.2915  -3.2914   3.6823   3.6823   3.6823   3.6823
     7.4989   7.4990   7.4990   7.4990  10.8285  10.8285  10.8285  10.8285

          k = 0.2500 0.2500 0.2500 (  4302 PWs)   bands (ev):

    -6.2357  -1.8247  -1.8247  -1.8247   2.8899   2.8899   2.8899   6.9970
     6.9970   6.9970   7.1620   8.8750   8.8750   8.8750  12.1004  12.1004

          k = 0.2500 0.2500 0.3750 (  4301 PWs)   bands (ev):

    -5.5178  -3.2816  -1.3230  -1.3230   1.7657   1.7657   3.6191   5.7808
     7.2923   7.2923   8.9289   9.0783   9.0783   9.4769  11.1816  11.7948

          k = 0.2500 0.2500-0.5000 (  4296 PWs)   bands (ev):

    -4.5265  -4.5265  -1.0096  -1.0095   1.2329   1.2329   4.5866   4.5866
     7.4459   7.4459   9.0655   9.0655  10.2683  10.2683  10.6330  10.6330

          k = 0.2500 0.3750 0.3750 (  4297 PWs)   bands (ev):

    -4.8108  -2.6441  -2.6440  -1.2646   0.9819   2.3125   2.3125   4.3942
     7.8929   8.8628   8.8628   9.8461   9.9020   9.9020  10.7041  11.7291

          k = 0.2500 0.3750-0.5000 (  4284 PWs)   bands (ev):

    -3.8410  -3.8410  -1.8564  -1.8564   1.3100   1.3100   3.2190   3.2190
     8.4416   8.4416   9.8812   9.8812  10.1013  10.1013  11.0417  11.0417

          k = 0.2500-0.5000-0.5000 (  4272 PWs)   bands (ev):

    -2.9196  -2.9196  -2.9196  -2.9196   2.0881   2.0881   2.0881   2.0881
     9.2044   9.2044   9.2044   9.2044  10.9052  10.9052  10.9052  10.9052

          k = 0.3750 0.3750 0.3750 (  4311 PWs)   bands (ev):

    -4.1205  -2.1162  -2.1162  -2.1162   1.0456   1.0456   1.0456   2.9880
     9.6515   9.6515   9.6515  10.2697  10.2697  10.2697  11.2975  11.2975

          k = 0.3750 0.3750-0.5000 (  4278 PWs)   bands (ev):

    -3.1911  -3.1911  -1.7784  -1.7784   0.4566   0.4566   1.8346   1.8346
     9.8327   9.8327  10.5045  10.5045  10.7810  10.7810  10.9064  10.9064

          k = 0.3750-0.5000-0.5000 (  4296 PWs)   bands (ev):

    -2.3834  -2.3834  -2.3834  -2.3834   0.7885   0.7885   0.7885   0.7885
    10.5116  10.5116  10.5116  10.5116  10.9845  10.9845  10.9845  10.9845

          k =-0.5000-0.5000-0.5000 (  4272 PWs)   bands (ev):

    -2.0373  -2.0373  -2.0373  -2.0373   0.1842   0.1842   0.1842   0.1842
    11.0182  11.0182  11.0182  11.0182  11.0182  11.0183  11.0183  11.0183

     highest occupied level (ev):    13.8997

!    total energy              =    -147.46687360 Ry
     total all-electron energy =      -609.579656 Ry
     estimated scf accuracy    <          6.4E-11 Ry

     The total energy is the sum of the following terms:
     one-electron contribution =      35.23860695 Ry
     hartree contribution      =       7.63914327 Ry
     xc contribution           =     -37.71141962 Ry
     ewald contribution        =    -103.32454285 Ry
     one-center paw contrib.   =     -49.30866136 Ry

     convergence has been achieved in  11 iterations

     Forces acting on atoms (cartesian axes, Ry/au):

     atom    1 type  1   force =     0.00000000    0.00000000    0.00000000
     atom    2 type  1   force =     0.00000004    0.00000004    0.00000004
     atom    3 type  1   force =     0.00000000    0.00000000    0.00000000
     atom    4 type  1   force =    -0.00000004   -0.00000004    0.00000004
     atom    5 type  1   force =     0.00000000    0.00000000    0.00000000
     atom    6 type  1   force =    -0.00000004    0.00000004   -0.00000004
     atom    7 type  1   force =     0.00000000    0.00000000    0.00000000
     atom    8 type  1   force =     0.00000004   -0.00000004   -0.00000004

     Total force =     0.000000     Total SCF correction =     0.000011
     SCF correction compared to forces is large: reduce conv_thr to get better values


     Computing stress (Cartesian axis) and pressure

          total   stress  (Ry/bohr**3)                   (kbar)     P=      162.86
   0.00110710   0.00000000   0.00000000          162.86        0.00        0.00
   0.00000000   0.00110710   0.00000000            0.00      162.86        0.00
   0.00000000   0.00000000   0.00110710            0.00        0.00      162.86


     Writing all to output data dir /tmp/qe/diamond.save/ :
     XML data file, charge density, pseudopotentials, collected wavefunctions

     init_run     :      0.67s CPU      0.69s WALL (       1 calls)
     electrons    :      9.91s CPU     10.08s WALL (       1 calls)
     forces       :      0.11s CPU      0.12s WALL (       1 calls)
     stress       :      1.14s CPU      1.14s WALL (       1 calls)

     Called by init_run:
     wfcinit      :      0.47s CPU      0.48s WALL (       1 calls)
     potinit      :      0.09s CPU      0.10s WALL (       1 calls)
     hinit0       :      0.07s CPU      0.07s WALL (       1 calls)

     Called by electrons:
     c_bands      :      7.33s CPU      7.46s WALL (      11 calls)
     sum_band     :      1.50s CPU      1.53s WALL (      11 calls)
     v_of_rho     :      0.27s CPU      0.28s WALL (      12 calls)
     newd         :      0.17s CPU      0.18s WALL (      12 calls)
     PAW_pot      :      0.69s CPU      0.69s WALL (      12 calls)
     mix_rho      :      0.02s CPU      0.02s WALL (      11 calls)

     Called by c_bands:
     init_us_2    :      0.23s CPU      0.24s WALL (     875 calls)
     cegterg      :      6.93s CPU      7.04s WALL (     385 calls)

     Called by *egterg:
     cdiaghg      :      0.27s CPU      0.29s WALL (    1341 calls)
     h_psi        :      6.32s CPU      6.42s WALL (    1376 calls)
     s_psi        :      0.17s CPU      0.18s WALL (    1376 calls)
     g_psi        :      0.04s CPU      0.04s WALL (     956 calls)

     Called by h_psi:
     h_psi:calbec :      0.23s CPU      0.23s WALL (    1376 calls)
     vloc_psi     :      5.89s CPU      5.98s WALL (    1376 calls)
     add_vuspsi   :      0.18s CPU      0.18s WALL (    1376 calls)

     General routines
     calbec       :      0.33s CPU      0.34s WALL (    1936 calls)
     fft          :      0.08s CPU      0.09s WALL (     179 calls)
     ffts         :      0.01s CPU      0.01s WALL (      23 calls)
     fftw         :      5.47s CPU      5.54s WALL (   44378 calls)
     interpolate  :      0.01s CPU      0.01s WALL (      12 calls)

     Parallel routines

     PWSCF        :     11.91s CPU     12.15s WALL


   This run was terminated on:  13:14:31   1Aug2026            

=------------------------------------------------------------------------------=
   JOB DONE.
=------------------------------------------------------------------------------=
Note: The following floating-point exceptions are signalling: IEEE_UNDERFLOW_FLAG IEEE_DENORMAL
Note: The following floating-point exceptions are signalling: IEEE_UNDERFLOW_FLAG IEEE_DENORMAL
Note: The following floating-point exceptions are signalling: IEEE_UNDERFLOW_FLAG IEEE_DENORMAL
Note: The following floating-point exceptions are signalling: IEEE_UNDERFLOW_FLAG IEEE_DENORMAL
