
     Program PWSCF v.7.5 starts on 20Jun2026 at 19:25:32 

     This program is part of the open-source Quantum ESPRESSO suite
     for quantum simulation of materials; please cite
         "P. Giannozzi et al., J. Phys.:Condens. Matter 21 395502 (2009);
         "P. Giannozzi et al., J. Phys.:Condens. Matter 29 465901 (2017);
         "P. Giannozzi et al., J. Chem. Phys. 152 154105 (2020);
          URL http://www.quantum-espresso.org", 
     in publications or presentations arising from this work. More details at
     http://www.quantum-espresso.org/quote

     Serial version
     0 MiB available memory on the printing compute node when the environment starts

     Waiting for input...
     Reading input from standard input

     Current dimensions of program PWSCF are:
     Max number of different atomic species (ntypx) = 10
     Max number of k-points (npk) =  40000
     Max angular momentum in pseudopotentials (lmaxx) =  4
     file C.pbe-n-kjpaw_psl.1.0.0.UPF: wavefunction(s)  2S 2P renormalized
     Found identity + ( -0.5000 -0.5000  0.0000) symmetry
     This is a supercell, fractional translations are disabled
     Message from routine setup:
     using ibrav=0 with symmetry is DISCOURAGED, use correct ibrav instead


     G-vector sticks info
     --------------------
     sticks:   dense  smooth     PW     G-vecs:    dense   smooth      PW
     Sum        2361    1185    349                86407    30551    4945

     Using Slab Decomposition



     bravais-lattice index     =            0
     lattice parameter (alat)  =       6.8081  a.u.
     unit-cell volume          =     315.5514 (a.u.)^3
     number of atoms/cell      =            8
     number of atomic types    =            1
     number of electrons       =        32.00
     number of Kohn-Sham states=           16
     kinetic-energy cutoff     =      80.0000  Ry
     charge density cutoff     =     640.0000  Ry
     scf convergence threshold =      1.0E-10
     mixing beta               =       0.4000
     number of iterations used =            8  plain     mixing
     Exchange-correlation= SLA  PW   PBX  PBC
                           (   1   4   3   4   0   0   0)

     celldm(1)=   6.808060  celldm(2)=   0.000000  celldm(3)=   0.000000
     celldm(4)=   0.000000  celldm(5)=   0.000000  celldm(6)=   0.000000

     crystal axes: (cart. coord. in units of alat)
               a(1) = (   1.000000   0.000000   0.000000 )  
               a(2) = (   0.000000   1.000000   0.000000 )  
               a(3) = (   0.000000   0.000000   1.000000 )  

     reciprocal axes: (cart. coord. in units 2 pi/alat)
               b(1) = (  1.000000  0.000000  0.000000 )  
               b(2) = (  0.000000  1.000000  0.000000 )  
               b(3) = (  0.000000  0.000000  1.000000 )  


     PseudoPot. # 1 for C  read from file:
     ./C.pbe-n-kjpaw_psl.1.0.0.UPF
     MD5 check sum: 5d2aebdfa2cae82b50a7e79e9516da0f
     Pseudo is Projector augmented-wave + core cor, Zval =  4.0
     Generated using "atomic" code by A. Dal Corso  v.5.1
     Shape of augmentation charge: PSQ
     Using radial grid of 1073 points,  4 beta functions with: 
                l(1) =   0
                l(2) =   0
                l(3) =   1
                l(4) =   1
     Q(r) pseudized with 0 coefficients 


     atomic species   valence    mass     pseudopotential
     C                 4.00    12.01100     C ( 1.00)

     24 Sym. Ops. (no inversion) found



   Cartesian axes

     site n.     atom                  positions (alat units)
         1        C      tau(   1) = (   0.0000000   0.0000000   0.0000000  )
         2        C      tau(   2) = (   0.2500000   0.2500000   0.2500000  )
         3        C      tau(   3) = (   0.5000000   0.5000000   0.0000000  )
         4        C      tau(   4) = (   0.7500000   0.7500000   0.2500000  )
         5        C      tau(   5) = (   0.5000000   0.0000000   0.5000000  )
         6        C      tau(   6) = (   0.7500000   0.2500000   0.7500000  )
         7        C      tau(   7) = (   0.0000000   0.5000000   0.5000000  )
         8        C      tau(   8) = (   0.2500000   0.7500000   0.7500000  )

     number of k points=    35
                       cart. coord. in units 2pi/alat
        k(    1) = (   0.0000000   0.0000000   0.0000000), wk =   0.0039062
        k(    2) = (   0.0000000   0.0000000   0.1250000), wk =   0.0234375
        k(    3) = (   0.0000000   0.0000000   0.2500000), wk =   0.0234375
        k(    4) = (   0.0000000   0.0000000   0.3750000), wk =   0.0234375
        k(    5) = (   0.0000000   0.0000000  -0.5000000), wk =   0.0117188
        k(    6) = (   0.0000000   0.1250000   0.1250000), wk =   0.0468750
        k(    7) = (   0.0000000   0.1250000   0.2500000), wk =   0.0937500
        k(    8) = (   0.0000000   0.1250000   0.3750000), wk =   0.0937500
        k(    9) = (   0.0000000   0.1250000  -0.5000000), wk =   0.0468750
        k(   10) = (   0.0000000   0.2500000   0.2500000), wk =   0.0468750
        k(   11) = (   0.0000000   0.2500000   0.3750000), wk =   0.0937500
        k(   12) = (   0.0000000   0.2500000  -0.5000000), wk =   0.0468750
        k(   13) = (   0.0000000   0.3750000   0.3750000), wk =   0.0468750
        k(   14) = (   0.0000000   0.3750000  -0.5000000), wk =   0.0468750
        k(   15) = (   0.0000000  -0.5000000  -0.5000000), wk =   0.0117188
        k(   16) = (   0.1250000   0.1250000   0.1250000), wk =   0.0312500
        k(   17) = (   0.1250000   0.1250000   0.2500000), wk =   0.0937500
        k(   18) = (   0.1250000   0.1250000   0.3750000), wk =   0.0937500
        k(   19) = (   0.1250000   0.1250000  -0.5000000), wk =   0.0468750
        k(   20) = (   0.1250000   0.2500000   0.2500000), wk =   0.0937500
        k(   21) = (   0.1250000   0.2500000   0.3750000), wk =   0.1875000
        k(   22) = (   0.1250000   0.2500000  -0.5000000), wk =   0.0937500
        k(   23) = (   0.1250000   0.3750000   0.3750000), wk =   0.0937500
        k(   24) = (   0.1250000   0.3750000  -0.5000000), wk =   0.0937500
        k(   25) = (   0.1250000  -0.5000000  -0.5000000), wk =   0.0234375
        k(   26) = (   0.2500000   0.2500000   0.2500000), wk =   0.0312500
        k(   27) = (   0.2500000   0.2500000   0.3750000), wk =   0.0937500
        k(   28) = (   0.2500000   0.2500000  -0.5000000), wk =   0.0468750
        k(   29) = (   0.2500000   0.3750000   0.3750000), wk =   0.0937500
        k(   30) = (   0.2500000   0.3750000  -0.5000000), wk =   0.0937500
        k(   31) = (   0.2500000  -0.5000000  -0.5000000), wk =   0.0234375
        k(   32) = (   0.3750000   0.3750000   0.3750000), wk =   0.0312500
        k(   33) = (   0.3750000   0.3750000  -0.5000000), wk =   0.0468750
        k(   34) = (   0.3750000  -0.5000000  -0.5000000), wk =   0.0234375
        k(   35) = (  -0.5000000  -0.5000000  -0.5000000), wk =   0.0039062

     Dense  grid:    86407 G-vectors     FFT dimensions: (  60,  60,  60)

     Smooth grid:    30551 G-vectors     FFT dimensions: (  40,  40,  40)

     Estimated max dynamical RAM per process >     174.52 MB

     Initial potential from superposition of free atoms

     starting charge      31.9997, renormalised to      32.0000
     Starting wfcs are   32 randomized atomic wfcs

     total cpu time spent up to now is        1.0 secs

     Self-consistent Calculation

     iteration #  1     ecut=    80.00 Ry     beta= 0.40
     Davidson diagonalization with overlap
     ethr =  1.00E-02,  avg # of iterations =  2.0

     total cpu time spent up to now is        2.5 secs

     total energy              =    -147.49705921 Ry
     estimated scf accuracy    <       0.41504837 Ry

     iteration #  2     ecut=    80.00 Ry     beta= 0.40
     Davidson diagonalization with overlap
     ethr =  1.30E-03,  avg # of iterations =  1.0

     total cpu time spent up to now is        3.6 secs

     total energy              =    -147.45684413 Ry
     estimated scf accuracy    <       0.11682379 Ry

     iteration #  3     ecut=    80.00 Ry     beta= 0.40
     Davidson diagonalization with overlap
     ethr =  3.65E-04,  avg # of iterations =  2.0

     total cpu time spent up to now is        5.0 secs

     total energy              =    -147.46910705 Ry
     estimated scf accuracy    <       0.00134163 Ry

     iteration #  4     ecut=    80.00 Ry     beta= 0.40
     Davidson diagonalization with overlap
     ethr =  4.19E-06,  avg # of iterations =  3.3

     total cpu time spent up to now is        6.7 secs

     total energy              =    -147.46968848 Ry
     estimated scf accuracy    <       0.00022542 Ry

     iteration #  5     ecut=    80.00 Ry     beta= 0.40
     Davidson diagonalization with overlap
     ethr =  7.04E-07,  avg # of iterations =  2.3

     total cpu time spent up to now is        8.0 secs

     total energy              =    -147.46972356 Ry
     estimated scf accuracy    <       0.00000321 Ry

     iteration #  6     ecut=    80.00 Ry     beta= 0.40
     Davidson diagonalization with overlap
     ethr =  1.00E-08,  avg # of iterations =  5.5

     total cpu time spent up to now is       10.4 secs

     total energy              =    -147.46972208 Ry
     estimated scf accuracy    <       0.00001942 Ry

     iteration #  7     ecut=    80.00 Ry     beta= 0.40
     Davidson diagonalization with overlap
     ethr =  1.00E-08,  avg # of iterations =  2.0

     total cpu time spent up to now is       11.9 secs

     total energy              =    -147.46972343 Ry
     estimated scf accuracy    <       0.00000028 Ry

     iteration #  8     ecut=    80.00 Ry     beta= 0.40
     Davidson diagonalization with overlap
     ethr =  8.82E-10,  avg # of iterations =  2.2

     total cpu time spent up to now is       13.6 secs

     total energy              =    -147.46972352 Ry
     estimated scf accuracy    <       0.00000001 Ry

     iteration #  9     ecut=    80.00 Ry     beta= 0.40
     Davidson diagonalization with overlap
     ethr =  3.32E-11,  avg # of iterations =  3.9

     total cpu time spent up to now is       15.5 secs

     total energy              =    -147.46972352 Ry
     estimated scf accuracy    <          9.7E-09 Ry

     iteration # 10     ecut=    80.00 Ry     beta= 0.40
     Davidson diagonalization with overlap
     ethr =  3.02E-11,  avg # of iterations =  1.0

     total cpu time spent up to now is       16.6 secs

     total energy              =    -147.46972352 Ry
     estimated scf accuracy    <          2.9E-09 Ry

     iteration # 11     ecut=    80.00 Ry     beta= 0.40
     Davidson diagonalization with overlap
     ethr =  9.02E-12,  avg # of iterations =  2.0

     total cpu time spent up to now is       18.1 secs

     total energy              =    -147.46972352 Ry
     estimated scf accuracy    <          2.3E-10 Ry

     iteration # 12     ecut=    80.00 Ry     beta= 0.40
     Davidson diagonalization with overlap
     ethr =  7.26E-13,  avg # of iterations =  2.4

     total cpu time spent up to now is       19.6 secs

     End of self-consistent calculation

          k = 0.0000 0.0000 0.0000 (  3791 PWs)   bands (ev):

    -8.2654   0.2560   0.2560   0.2560   0.2560   0.2560   0.2560   6.6903
     6.6903   6.6903   6.6903   6.6903   6.6903  12.8134  12.8134  12.8134

          k = 0.0000 0.0000 0.1250 (  3823 PWs)   bands (ev):

    -8.1241  -1.6238   0.3427   0.3427   0.3427   0.3427   2.2675   6.3938
     6.3938   6.3938   6.3938   6.8275   6.8275  12.2797  12.2797  12.4606

          k = 0.0000 0.0000 0.2500 (  3811 PWs)   bands (ev):

    -7.7015  -3.3202   0.5765   0.5765   0.5765   0.5765   4.3412   5.7088
     5.7088   5.7088   5.7088   7.2359   7.2359  11.1446  11.1446  11.4877

          k = 0.0000 0.0000 0.3750 (  3832 PWs)   bands (ev):

    -7.0011  -4.7969   0.8600   0.8600   0.8600   0.8600   5.0328   5.0328
     5.0328   5.0328   6.3927   7.9048   7.9048   9.9206   9.9206  10.0634

          k = 0.0000 0.0000-0.5000 (  3804 PWs)   bands (ev):

    -6.0293  -6.0293   0.9997   0.9997   0.9997   0.9997   4.7437   4.7437
     4.7437   4.7437   8.3306   8.3306   8.8130   8.8130   8.8130   8.8130

          k = 0.0000 0.1250 0.1250 (  3825 PWs)   bands (ev):

    -7.9831  -1.5117  -1.5117   0.3253   0.5108   2.3006   2.3006   5.4649
     6.4910   6.4910   6.5997   6.5997   6.9239  11.4193  11.7782  12.6371

          k = 0.0000 0.1250 0.2500 (  3823 PWs)   bands (ev):

    -7.5612  -3.1950  -1.1873   0.3643   0.8496   2.3419   4.2524   4.5401
     5.6962   6.1238   6.8615   6.8722   7.1438  10.1718  10.6866  12.0563

          k = 0.0000 0.1250 0.3750 (  3817 PWs)   bands (ev):

    -6.8622  -4.6646  -0.6949   0.2579   1.3274   2.2270   4.0271   4.8179
     5.8229   6.0292   6.4148   7.5195   8.0937   8.8538   9.4926  10.8794

          k = 0.0000 0.1250-0.5000 (  3818 PWs)   bands (ev):

    -5.8929  -5.8929  -0.1437  -0.1437   1.8464   1.8464   4.1660   4.1660
     5.9599   5.9599   7.5170   7.5170   8.4075   8.4075   9.4374   9.4374

          k = 0.0000 0.2500 0.2500 (  3800 PWs)   bands (ev):

    -7.1417  -2.8257  -2.8257   0.0099   1.2718   3.7781   3.9200   3.9200
     6.0124   6.0124   7.0481   7.0481   7.5999   8.9011   9.6588  12.0749

          k = 0.0000 0.2500 0.3750 (  3814 PWs)   bands (ev):

    -6.4473  -4.2712  -2.2336  -0.6494   1.8568   3.3107   3.6971   5.0326
     5.2240   6.6144   7.1821   7.6255   7.7452   8.4475   8.5120  11.3168

          k = 0.0000 0.2500-0.5000 (  3806 PWs)   bands (ev):

    -5.4859  -5.4859  -1.4696  -1.4696   2.5680   2.5680   4.1931   4.1931
     6.4094   6.4094   7.4648   7.4648   7.4962   7.4962   9.9971   9.9971

          k = 0.0000 0.3750 0.3750 (  3810 PWs)   bands (ev):

    -5.7617  -3.6287  -3.6287  -1.7295   2.5282   3.9717   4.2772   4.2772
     5.5772   5.5772   6.4160   7.4026   8.6379   8.7799   8.7799  11.1131

          k = 0.0000 0.3750-0.5000 (  3804 PWs)   bands (ev):

    -4.8160  -4.8160  -2.7630  -2.7630   3.3486   3.3486   4.6477   4.6477
     5.2939   5.2939   6.3888   6.3888   8.9273   8.9273  10.2058  10.2058

          k = 0.0000-0.5000-0.5000 (  3836 PWs)   bands (ev):

    -3.8984  -3.8984  -3.8984  -3.8984   4.2579   4.2579   4.2579   4.2579
     5.4096   5.4096   5.4096   5.4096   9.8854   9.8854   9.8854   9.8854

          k = 0.1250 0.1250 0.1250 (  3821 PWs)   bands (ev):

    -7.8423  -1.4052  -1.4052  -1.4052   2.2958   2.2958   2.2958   5.6815
     5.6815   5.6815   7.0573   7.0573   7.0573  10.4529  12.1818  12.1818

          k = 0.1250 0.1250 0.2500 (  3822 PWs)   bands (ev):

    -7.4212  -3.0720  -1.1057  -1.1057   2.1844   2.1844   4.0310   4.9222
     4.9222   6.4024   7.0127   7.0127   7.4537   9.1387  11.1644  11.8727

          k = 0.1250 0.1250 0.3750 (  3827 PWs)   bands (ev):

    -6.7237  -4.5333  -0.7017  -0.7017   1.8324   1.8324   4.6259   4.6259
     5.4183   6.6508   6.6508   7.7143   7.8301   8.1006  10.0253  10.8162

          k = 0.1250 0.1250-0.5000 (  3808 PWs)   bands (ev):

    -5.7570  -5.7570  -0.4697  -0.4697   1.5760   1.5760   4.6216   4.6216
     6.4354   6.4354   6.6063   6.6063   8.9732   8.9732   9.3243   9.3243

          k = 0.1250 0.2500 0.2500 (  3808 PWs)   bands (ev):

    -7.0026  -2.7110  -2.7110  -0.9262   1.6859   3.3485   3.3485   4.5633
     6.0395   6.0395   7.4982   7.4982   7.7200   7.7859  10.5377  11.8035

          k = 0.1250 0.2500 0.3750 (  3802 PWs)   bands (ev):

    -6.3100  -4.1435  -2.1435  -0.9458   1.3064   2.4362   4.3019   4.7760
     5.7336   6.4850   7.3629   7.4775   7.8723   8.4776   9.5000  11.1443

          k = 0.1250 0.2500-0.5000 (  3820 PWs)   bands (ev):

    -5.3519  -5.3519  -1.4621  -1.4621   1.6364   1.6364   5.2550   5.2550
     5.3189   5.3189   7.6702   7.6702   8.4467   8.4468   9.8930   9.8930

          k = 0.1250 0.3750 0.3750 (  3805 PWs)   bands (ev):

    -5.6269  -3.5100  -3.5100  -1.7183   1.4717   3.1618   3.1618   5.2078
     5.2523   6.6793   6.6793   8.5569   8.7282   8.8451   8.8451  11.0234

          k = 0.1250 0.3750-0.5000 (  3816 PWs)   bands (ev):

    -4.6862  -4.6862  -2.6691  -2.6691   2.1730   2.1730   4.0864   4.0864
     5.9240   5.9240   7.5897   7.5897   9.0043   9.0043  10.1850  10.1850

          k = 0.1250-0.5000-0.5000 (  3820 PWs)   bands (ev):

    -3.7785  -3.7785  -3.7785  -3.7785   3.0153   3.0153   3.0153   3.0153
     6.7121   6.7121   6.7121   6.7121   9.9138   9.9138   9.9138   9.9138

          k = 0.2500 0.2500 0.2500 (  3824 PWs)   bands (ev):

    -6.5870  -2.3851  -2.3851  -2.3851   2.2377   2.2377   2.2377   6.2285
     6.2285   6.2285   6.3610   8.0743   8.0743   8.0743  11.1176  11.1176

          k = 0.2500 0.2500 0.3750 (  3815 PWs)   bands (ev):

    -5.9003  -3.7672  -1.9349  -1.9349   1.2089   1.2089   2.9525   5.0352
     6.4949   6.4949   8.0512   8.2700   8.2700   8.6439  10.2533  10.8089

          k = 0.2500 0.2500-0.5000 (  3832 PWs)   bands (ev):

    -4.9535  -4.9535  -1.6672  -1.6672   0.7358   0.7358   3.8870   3.8870
     6.6338   6.6338   8.2628   8.2628   9.3918   9.3918   9.6811   9.6811

          k = 0.2500 0.3750 0.3750 (  3819 PWs)   bands (ev):

    -5.2259  -3.1712  -3.1712  -1.9136   0.5058   1.7214   1.7214   3.7080
     7.0735   7.9978   7.9978   8.9887   9.0398   9.0398   9.7864  10.7605

          k = 0.2500 0.3750-0.5000 (  3812 PWs)   bands (ev):

    -4.3036  -4.3036  -2.4480  -2.4480   0.7926   0.7926   2.5843   2.5843
     7.5987   7.5987   8.9938   8.9938   9.2290   9.2290  10.1054  10.1054

          k = 0.2500-0.5000-0.5000 (  3792 PWs)   bands (ev):

    -3.4356  -3.4356  -3.4356  -3.4356   1.5132   1.5132   1.5132   1.5132
     8.3395   8.3395   8.3395   8.3395   9.9841   9.9841   9.9841   9.9841

          k = 0.3750 0.3750 0.3750 (  3815 PWs)   bands (ev):

    -4.5713  -2.6976  -2.6976  -2.6976   0.5453   0.5453   0.5453   2.3673
     8.7554   8.7554   8.7554   9.3872   9.3872   9.3872  10.3538  10.3538

          k = 0.3750 0.3750-0.5000 (  3820 PWs)   bands (ev):

    -3.6956  -3.6956  -2.4103  -2.4103   0.0190   0.0190   1.2746   1.2746
     8.9340   8.9340   9.6079   9.6079   9.8680   9.8680   9.9679   9.9679

          k = 0.3750-0.5000-0.5000 (  3812 PWs)   bands (ev):

    -2.9545  -2.9545  -2.9545  -2.9545   0.3044   0.3044   0.3044   0.3044
     9.5974   9.5974   9.5974   9.5974  10.0567  10.0567  10.0567  10.0567

          k =-0.5000-0.5000-0.5000 (  3840 PWs)   bands (ev):

    -2.6608  -2.6608  -2.6608  -2.6608  -0.2358  -0.2358  -0.2358  -0.2358
    10.0875  10.0875  10.0875  10.0875  10.0875  10.0875  10.0875  10.0875

     highest occupied level (ev):    12.8134

!    total energy              =    -147.46972352 Ry
     total all-electron energy =      -609.582506 Ry
     estimated scf accuracy    <          9.0E-11 Ry

     The total energy is the sum of the following terms:
     one-electron contribution =      32.52503648 Ry
     hartree contribution      =       7.88729183 Ry
     xc contribution           =     -37.30473578 Ry
     ewald contribution        =    -101.27851229 Ry
     one-center paw contrib.   =     -49.29880375 Ry

     convergence has been achieved in  12 iterations

     Forces acting on atoms (cartesian axes, Ry/au):

     atom    1 type  1   force =     0.00000000    0.00000000    0.00000000
     atom    2 type  1   force =     0.00000039    0.00000039    0.00000039
     atom    3 type  1   force =     0.00000000    0.00000000    0.00000000
     atom    4 type  1   force =    -0.00000039   -0.00000039    0.00000039
     atom    5 type  1   force =     0.00000000    0.00000000    0.00000000
     atom    6 type  1   force =    -0.00000039    0.00000039   -0.00000039
     atom    7 type  1   force =     0.00000000    0.00000000    0.00000000
     atom    8 type  1   force =     0.00000039   -0.00000039   -0.00000039

     Total force =     0.000001     Total SCF correction =     0.000000
     SCF correction compared to forces is large: reduce conv_thr to get better values


     Computing stress (Cartesian axis) and pressure

          total   stress  (Ry/bohr**3)                   (kbar)     P=     -103.41
  -0.00070297   0.00000000   0.00000000         -103.41        0.00        0.00
   0.00000000  -0.00070297   0.00000000            0.00     -103.41        0.00
   0.00000000   0.00000000  -0.00070297            0.00        0.00     -103.41


     Writing all to output data dir ./tmp/diamond.save/ :
     XML data file, charge density, pseudopotentials, collected wavefunctions

     init_run     :      0.95s CPU      1.00s WALL (       1 calls)
     electrons    :     16.75s CPU     18.62s WALL (       1 calls)
     forces       :      0.18s CPU      0.22s WALL (       1 calls)
     stress       :      0.60s CPU      0.75s WALL (       1 calls)

     Called by init_run:
     wfcinit      :      0.69s CPU      0.72s WALL (       1 calls)
     potinit      :      0.13s CPU      0.14s WALL (       1 calls)
     hinit0       :      0.09s CPU      0.09s WALL (       1 calls)

     Called by electrons:
     c_bands      :     12.95s CPU     14.52s WALL (      12 calls)
     sum_band     :      2.06s CPU      2.20s WALL (      12 calls)
     v_of_rho     :      0.40s CPU      0.43s WALL (      13 calls)
     newd         :      0.20s CPU      0.24s WALL (      13 calls)
     PAW_pot      :      1.21s CPU      1.29s WALL (      13 calls)
     mix_rho      :      0.04s CPU      0.05s WALL (      12 calls)

     Called by c_bands:
     init_us_2    :      0.30s CPU      0.34s WALL (     945 calls)
     cegterg      :     12.39s CPU     13.93s WALL (     420 calls)

     Called by *egterg:
     cdiaghg      :      0.17s CPU      0.17s WALL (    1456 calls)
     h_psi        :     10.34s CPU     11.00s WALL (    1491 calls)
     s_psi        :      0.71s CPU      0.93s WALL (    1491 calls)
     g_psi        :      0.06s CPU      0.06s WALL (    1036 calls)

     Called by h_psi:
     h_psi:calbec :      0.76s CPU      0.98s WALL (    1491 calls)
     vloc_psi     :      8.81s CPU      9.02s WALL (    1491 calls)
                                        0.00s GPU  (    1491 calls)
     add_vuspsi   :      0.73s CPU      0.94s WALL (    1491 calls)

     General routines
     calbec       :      1.30s CPU      1.72s WALL (    2506 calls)
     fft          :      0.24s CPU      0.24s WALL (     192 calls)
     ffts         :      0.01s CPU      0.01s WALL (      25 calls)
     fftw         :      9.17s CPU      9.32s WALL (   47794 calls)
     interpolate  :      0.02s CPU      0.02s WALL (      13 calls)


     PWSCF        :     18.52s CPU     20.64s WALL


   This run was terminated on:  19:25:52  20Jun2026            

=------------------------------------------------------------------------------=
   JOB DONE.
=------------------------------------------------------------------------------=
Note: The following floating-point exceptions are signalling: IEEE_INVALID_FLAG IEEE_DIVIDE_BY_ZERO IEEE_OVERFLOW_FLAG IEEE_UNDERFLOW_FLAG
