
     Program PWSCF v.7.3.1 starts on  1Aug2026 at 18:41:15 

     This program is part of the open-source Quantum ESPRESSO suite
     for quantum simulation of materials; please cite
         "P. Giannozzi et al., J. Phys.:Condens. Matter 21 395502 (2009);
         "P. Giannozzi et al., J. Phys.:Condens. Matter 29 465901 (2017);
         "P. Giannozzi et al., J. Chem. Phys. 152 154105 (2020);
          URL http://www.quantum-espresso.org", 
     in publications or presentations arising from this work. More details at
     http://www.quantum-espresso.org/quote

     Parallel version (MPI), running on     8 processors

     MPI processes distributed on     1 nodes
     187563 MiB available memory on the printing compute node when the environment starts

     Reading input from pw.in

     Current dimensions of program PWSCF are:
     Max number of different atomic species (ntypx) = 10
     Max number of k-points (npk) =  40000
     Max angular momentum in pseudopotentials (lmaxx) =  4
     file C.pbe-n-kjpaw_psl.1.0.0.UPF: wavefunction(s)  2S 2P renormalized
     Message from routine volume:
     axis vectors are left-handed
     Message from routine setup:
     using ibrav=0 with symmetry is DISCOURAGED, use correct ibrav instead

     R & G space division:  proc/nbgrp/npool/nimage =       8
     Subspace diagonalization in iterative solution of the eigenvalue problem:
     a serial algorithm will be used


     Parallelization info
     --------------------
     sticks:   dense  smooth     PW     G-vecs:    dense   smooth      PW
     Min         230     115     32                46274    16347    2524
     Max         231     116     33                46297    16370    2543
     Sum        1845     921    263               370309   130841   20293

     Using Slab Decomposition



     bravais-lattice index     =            0
     lattice parameter (alat)  =       4.7752  a.u.
     unit-cell volume          =    1134.9658 (a.u.)^3
     number of atoms/cell      =           20
     number of atomic types    =            2
     number of electrons       =        68.00
     number of Kohn-Sham states=           41
     kinetic-energy cutoff     =      90.0000  Ry
     charge density cutoff     =     720.0000  Ry
     scf convergence threshold =      1.0E-08
     mixing beta               =       0.3000
     number of iterations used =            8  plain     mixing
     Exchange-correlation= PBE
                           (   1   4   3   4   0   0   0)

     celldm(1)=   4.775235  celldm(2)=   0.000000  celldm(3)=   0.000000
     celldm(4)=   0.000000  celldm(5)=   0.000000  celldm(6)=   0.000000

     crystal axes: (cart. coord. in units of alat)
               a(1) = (   1.000000   0.000000   0.000000 )  
               a(2) = (   0.000000  -1.414214   0.000000 )  
               a(3) = (   0.000000   0.000000   7.370270 )  

     reciprocal axes: (cart. coord. in units 2 pi/alat)
               b(1) = (  1.000000 -0.000000 -0.000000 )  
               b(2) = ( -0.000000 -0.707107 -0.000000 )  
               b(3) = ( -0.000000 -0.000000  0.135680 )  


     PseudoPot. # 1 for C  read from file:
     ./C.pbe-n-kjpaw_psl.1.0.0.UPF
     MD5 check sum: 5d2aebdfa2cae82b50a7e79e9516da0f
     Pseudo is Projector augmented-wave + core cor, Zval =  4.0
     Generated using "atomic" code by A. Dal Corso  v.5.1
     Shape of augmentation charge: PSQ
     Using radial grid of 1073 points,  4 beta functions with: 
                l(1) =   0
                l(2) =   0
                l(3) =   1
                l(4) =   1
     Q(r) pseudized with 0 coefficients 


     PseudoPot. # 2 for H  read from file:
     ./H_ONCV_PBE-1.0.oncvpsp.upf
     MD5 check sum: 1790becc920ee074925cf490c71280fe
     Pseudo is Norm-conserving, Zval =  1.0
     Generated using ONCVPSP code by D. R. Hamann
     Using radial grid of 1166 points,  2 beta functions with: 
                l(1) =   0
                l(2) =   0

     atomic species   valence    mass     pseudopotential
     C                 4.00    12.01100     C ( 1.00)
     H                 1.00     1.00800     H ( 1.00)

      8 Sym. Ops., with inversion, found ( 6 have fractional translation)



   Cartesian axes

     site n.     atom                  positions (alat units)
         1        C      tau(   1) = (  -0.0000000  -0.3611359   5.4246408  )
         2        C      tau(   2) = (   0.5000000  -0.6995242   5.4246408  )
         3        C      tau(   3) = (   0.5000000  -1.0618087   4.9359311  )
         4        C      tau(   4) = (   0.0000000   0.0011485   4.9359311  )
         5        C      tau(   5) = (  -0.0000000  -0.3533158   4.4348817  )
         6        C      tau(   6) = (   0.5000000  -0.7073444   4.4348817  )
         7        C      tau(   7) = (   0.5000000  -1.0606617   3.9350749  )
         8        C      tau(   8) = (   0.0000000   0.0000015   3.9350749  )
         9        C      tau(   9) = (   0.5000000  -0.7071052   3.4351952  )
        10        C      tau(  10) = (   0.0000000  -0.3535549   3.4351952  )
        11        C      tau(  11) = (  -0.0000000  -0.0002376   2.9353884  )
        12        C      tau(  12) = (   0.5000000  -1.0604226   2.9353884  )
        13        C      tau(  13) = (  -0.0000000  -0.3547019   2.4343389  )
        14        C      tau(  14) = (   0.5000000  -0.7059583   2.4343389  )
        15        C      tau(  15) = (   0.0000000   0.0075826   1.9456293  )
        16        C      tau(  16) = (   0.5000000  -1.0682427   1.9456293  )
        17        H      tau(  17) = (   0.0000000  -0.1238657   5.7891704  )
        18        H      tau(  18) = (   0.5000000  -0.9367945   5.7891704  )
        19        H      tau(  19) = (   0.0000000  -0.2296877   1.5810996  )
        20        H      tau(  20) = (   0.5000000  -0.8309724   1.5810996  )

     number of k points=    20  Marzari-Vanderbilt smearing, width (Ry)=  0.0100
                       cart. coord. in units 2pi/alat
        k(    1) = (   0.0000000  -0.0000000   0.0000000), wk =   0.0317460
        k(    2) = (   0.0000000  -0.1010153   0.0000000), wk =   0.0634921
        k(    3) = (   0.0000000  -0.2020305   0.0000000), wk =   0.0634921
        k(    4) = (   0.0000000  -0.3030458   0.0000000), wk =   0.0634921
        k(    5) = (   0.1111111  -0.0000000   0.0000000), wk =   0.0634921
        k(    6) = (   0.1111111  -0.1010153   0.0000000), wk =   0.1269841
        k(    7) = (   0.1111111  -0.2020305   0.0000000), wk =   0.1269841
        k(    8) = (   0.1111111  -0.3030458   0.0000000), wk =   0.1269841
        k(    9) = (   0.2222222  -0.0000000   0.0000000), wk =   0.0634921
        k(   10) = (   0.2222222  -0.1010153   0.0000000), wk =   0.1269841
        k(   11) = (   0.2222222  -0.2020305   0.0000000), wk =   0.1269841
        k(   12) = (   0.2222222  -0.3030458   0.0000000), wk =   0.1269841
        k(   13) = (   0.3333333  -0.0000000   0.0000000), wk =   0.0634921
        k(   14) = (   0.3333333  -0.1010153   0.0000000), wk =   0.1269841
        k(   15) = (   0.3333333  -0.2020305   0.0000000), wk =   0.1269841
        k(   16) = (   0.3333333  -0.3030458   0.0000000), wk =   0.1269841
        k(   17) = (   0.4444444  -0.0000000   0.0000000), wk =   0.0634921
        k(   18) = (   0.4444444  -0.1010153   0.0000000), wk =   0.1269841
        k(   19) = (   0.4444444  -0.2020305   0.0000000), wk =   0.1269841
        k(   20) = (   0.4444444  -0.3030458   0.0000000), wk =   0.1269841

     Dense  grid:   370309 G-vectors     FFT dimensions: (  48,  60, 320)

     Smooth grid:   130841 G-vectors     FFT dimensions: (  30,  48, 216)

     Estimated max dynamical RAM per process >     123.92 MB

     Estimated total dynamical RAM >     991.40 MB

     Check: negative core charge=   -0.000001

     Initial potential from superposition of free atoms

     starting charge      67.9993, renormalised to      68.0000
     Starting wfcs are   68 randomized atomic wfcs
     Checking if some PAW data can be deallocated... 

     total cpu time spent up to now is        1.7 secs

     Self-consistent Calculation

     iteration #  1     ecut=    90.00 Ry     beta= 0.30
     Davidson diagonalization with overlap
     ethr =  1.00E-02,  avg # of iterations =  2.6

     total cpu time spent up to now is        4.5 secs

     total energy              =    -299.77992014 Ry
     estimated scf accuracy    <       1.41427465 Ry

     iteration #  2     ecut=    90.00 Ry     beta= 0.30
     Davidson diagonalization with overlap
     ethr =  2.08E-03,  avg # of iterations =  3.9

     negative rho (up, down):  2.212E-07 0.000E+00

     total cpu time spent up to now is        6.8 secs

     total energy              =    -299.65640750 Ry
     estimated scf accuracy    <       0.46877846 Ry

     iteration #  3     ecut=    90.00 Ry     beta= 0.30
     Davidson diagonalization with overlap
     ethr =  6.89E-04,  avg # of iterations =  6.0

     negative rho (up, down):  1.067E-06 0.000E+00

     total cpu time spent up to now is        9.5 secs

     total energy              =    -299.67485575 Ry
     estimated scf accuracy    <       0.05787809 Ry

     iteration #  4     ecut=    90.00 Ry     beta= 0.30
     Davidson diagonalization with overlap
     ethr =  8.51E-05,  avg # of iterations =  6.5

     negative rho (up, down):  1.889E-06 0.000E+00

     total cpu time spent up to now is       12.3 secs

     total energy              =    -299.67880358 Ry
     estimated scf accuracy    <       0.00610568 Ry

     iteration #  5     ecut=    90.00 Ry     beta= 0.30
     Davidson diagonalization with overlap
     ethr =  8.98E-06,  avg # of iterations =  6.0

     negative rho (up, down):  2.290E-06 0.000E+00

     total cpu time spent up to now is       15.2 secs

     total energy              =    -299.67945554 Ry
     estimated scf accuracy    <       0.00084712 Ry

     iteration #  6     ecut=    90.00 Ry     beta= 0.30
     Davidson diagonalization with overlap
     ethr =  1.25E-06,  avg # of iterations =  5.7

     negative rho (up, down):  2.305E-06 0.000E+00

     total cpu time spent up to now is       18.0 secs

     total energy              =    -299.67954180 Ry
     estimated scf accuracy    <       0.00017684 Ry

     iteration #  7     ecut=    90.00 Ry     beta= 0.30
     Davidson diagonalization with overlap
     ethr =  2.60E-07,  avg # of iterations =  2.9

     negative rho (up, down):  2.433E-06 0.000E+00

     total cpu time spent up to now is       20.6 secs

     total energy              =    -299.67956548 Ry
     estimated scf accuracy    <       0.00007889 Ry

     iteration #  8     ecut=    90.00 Ry     beta= 0.30
     Davidson diagonalization with overlap
     ethr =  1.16E-07,  avg # of iterations =  2.1

     negative rho (up, down):  2.395E-06 0.000E+00

     total cpu time spent up to now is       23.0 secs

     total energy              =    -299.67958324 Ry
     estimated scf accuracy    <       0.00000574 Ry

     iteration #  9     ecut=    90.00 Ry     beta= 0.30
     Davidson diagonalization with overlap
     ethr =  8.44E-09,  avg # of iterations =  2.7

     negative rho (up, down):  2.435E-06 0.000E+00

     total cpu time spent up to now is       25.6 secs

     total energy              =    -299.67958463 Ry
     estimated scf accuracy    <       0.00000257 Ry

     iteration # 10     ecut=    90.00 Ry     beta= 0.30
     Davidson diagonalization with overlap
     ethr =  3.79E-09,  avg # of iterations =  2.1

     negative rho (up, down):  2.447E-06 0.000E+00

     total cpu time spent up to now is       28.0 secs

     total energy              =    -299.67958517 Ry
     estimated scf accuracy    <       0.00000012 Ry

     iteration # 11     ecut=    90.00 Ry     beta= 0.30
     Davidson diagonalization with overlap
     ethr =  1.76E-10,  avg # of iterations =  3.7

     negative rho (up, down):  2.461E-06 0.000E+00

     total cpu time spent up to now is       30.8 secs

     total energy              =    -299.67958516 Ry
     estimated scf accuracy    <       0.00000012 Ry

     iteration # 12     ecut=    90.00 Ry     beta= 0.30
     Davidson diagonalization with overlap
     ethr =  1.74E-10,  avg # of iterations =  2.0

     negative rho (up, down):  2.505E-06 0.000E+00

     total cpu time spent up to now is       33.2 secs

     End of self-consistent calculation

          k = 0.0000-0.0000 0.0000 ( 16381 PWs)   bands (ev):

   -14.9777 -14.3217 -13.2360 -11.7557 -10.0124  -8.2184  -6.8274  -6.4834
    -6.3320  -5.7583  -4.7962  -3.4441  -3.3896  -3.0628  -2.2241  -1.7990
    -1.7461  -0.7299  -0.0178   0.0232   0.1076   0.6119   1.4297   1.9077
     2.0162   2.5062   3.6745   3.8168   4.0470   4.7295   5.4433   5.5447
     5.6309   6.0448   8.0235   8.4009  10.7432  11.1438  11.6469  11.9054
    12.0478

          k = 0.0000-0.1010 0.0000 ( 16391 PWs)   bands (ev):

   -14.7910 -14.1377 -13.0583 -11.5938  -9.9045  -8.5638  -8.3340  -8.1115
    -5.7218  -5.1099  -4.7159  -4.2431  -3.1490  -2.4626  -1.9936  -1.4438
    -1.1773  -0.4928  -0.1741   0.2863   0.7177   0.7765   1.5650   1.5769
     2.5563   2.5847   3.5029   3.6484   4.2146   4.5351   5.1037   5.1327
     5.4319   5.4746   8.2351   8.6253  10.9352  11.0442  11.7906  12.1988
    12.4868

          k = 0.0000-0.2020 0.0000 ( 16364 PWs)   bands (ev):

   -14.2329 -13.5891 -12.5326 -11.1377 -10.4131  -9.9621  -9.5415  -9.1936
    -6.1764  -6.1262  -4.6778  -4.4455  -2.7515  -2.5391  -1.0745  -0.5254
    -0.2969   0.2298   0.6612   0.8158   1.2604   1.3696   1.9341   1.9548
     2.7665   2.7956   3.4994   3.5485   3.9308   4.0034   4.1687   4.1764
     4.6925   4.7590   8.8839   9.2039  11.1077  11.3665  11.7889  12.3081
    12.5166

          k = 0.0000-0.3030 0.0000 ( 16332 PWs)   bands (ev):

   -13.3113 -12.6931 -12.0300 -11.7464 -11.3521 -10.6657 -10.1904  -9.6905
    -6.7585  -6.2237  -5.3075  -4.4349  -3.2265  -2.2842  -1.0602  -0.0484
     0.9264   1.2129   1.6731   1.9872   2.0277   2.0280   2.5358   2.5532
     2.8047   3.0455   3.0667   3.1428   3.2060   3.3534   3.4070   3.6151
     3.7504   3.8439   9.9143  10.0429  11.0001  11.3096  11.5365  12.1210
    12.3617

          k = 0.1111-0.0000 0.0000 ( 16397 PWs)   bands (ev):

   -14.7514 -14.0968 -13.0137 -11.5367  -9.7978  -8.0101  -6.6267  -6.2819
    -6.2648  -5.6962  -4.7431  -3.4042  -3.1855  -2.8783  -2.0197  -1.7776
    -1.5967  -0.9184  -0.5340  -0.3912   0.0195   0.0716   0.4597   1.5687
     1.8855   1.9766   2.7544   3.5848   3.7568   3.9864   4.5228   4.8562
     4.9474   5.5200   8.2455   8.6175  10.8566  11.7251  11.9175  12.1302
    12.3302

          k = 0.1111-0.1010 0.0000 ( 16355 PWs)   bands (ev):

   -14.5651 -13.9134 -12.8366 -11.3758  -9.6917  -8.3771  -8.1362  -7.9277
    -5.5734  -4.9691  -4.5835  -4.2019  -3.0339  -2.4104  -1.8756  -1.4358
    -1.1148  -0.6344  -0.3505  -0.2185  -0.0651   0.6856   0.7293   1.5387
     1.7099   2.4568   2.7377   3.3279   3.6108   3.6517   3.9115   4.3977
     5.0706   5.4671   8.4796   8.8523  11.1526  12.0022  12.3412  12.3925
    12.8439

          k = 0.1111-0.2020 0.0000 ( 16364 PWs)   bands (ev):

   -14.0086 -13.3666 -12.3133 -10.9230 -10.2089  -9.7588  -9.3372  -8.9956
    -5.9934  -5.9325  -4.5148  -4.2702  -2.6263  -2.5231  -1.2632  -0.8458
    -0.4015   0.1205   0.1328   0.3866   0.9259   1.1018   1.5397   1.7367
     2.2304   2.4800   2.5762   2.6476   2.7668   2.8619   3.5591   3.8304
     4.8185   5.1194   9.1432   9.4714  11.7589  12.0120  12.4708  12.9243
    13.3250

          k = 0.1111-0.3030 0.0000 ( 16351 PWs)   bands (ev):

   -13.0902 -12.4743 -11.8149 -11.5315 -11.1402 -10.4566  -9.9840  -9.4879
    -6.5567  -6.0259  -5.1207  -4.2525  -3.0696  -2.1306  -1.0526  -0.0453
     0.0169   0.4724   0.9774   1.0863   1.3110   1.5052   1.8650   2.0052
     2.1256   2.1949   2.4268   2.6096   2.8823   3.0451   3.3575   3.7159
     3.9631   4.0807  10.1843  10.3835  11.5426  11.6432  12.3113  12.7096
    12.9224

          k = 0.2222-0.0000 0.0000 ( 16362 PWs)   bands (ev):

   -14.0755 -13.4256 -12.3501 -10.8835  -9.1580  -7.3885  -6.3750  -6.0264
    -5.8126  -5.6790  -4.8707  -3.5500  -2.6160  -2.5914  -2.3469  -2.0680
    -1.9487  -1.4226  -1.1922  -1.1840  -0.1863  -0.0739   0.0378   0.2757
     1.0588   1.7061   1.7321   1.9590   2.5122   2.7551   2.7812   3.3374
     3.6563   5.1011   8.9677   9.2577  11.1263  11.1664  11.4490  12.2638
    12.7194

          k = 0.2222-0.1010 0.0000 ( 16336 PWs)   bands (ev):

   -13.8909 -13.2440 -12.1754 -10.7258  -9.0577  -7.8847  -7.5565  -7.4312
    -5.2887  -4.8149  -4.6031  -4.3244  -2.8468  -2.7811  -2.2110  -2.0396
    -1.2252  -1.0960  -1.0842  -0.6222  -0.2076   0.2399   0.3756   0.6425
     1.0492   1.4221   1.4988   1.6494   1.8360   2.0893   3.2113   3.3940
     4.2791   4.7295   9.2120   9.5142  11.6249  11.8061  11.8635  12.3579
    12.9075

          k = 0.2222-0.2020 0.0000 ( 16331 PWs)   bands (ev):

   -13.3400 -12.7036 -11.6599 -10.2838  -9.6194  -9.1668  -8.7331  -8.4166
    -5.5014  -5.4109  -4.0970  -3.9617  -3.6791  -2.6889  -2.0700  -1.8510
    -1.3493  -0.6306  -0.4018  -0.0319   0.3454   0.3838   0.6162   0.7902
     0.8768   1.1410   1.4130   1.6903   1.9249   1.9373   2.9639   3.4428
     4.1766   4.6139   9.8844  10.1654  12.4251  12.8939  12.9595  13.0700
    13.2868

          k = 0.2222-0.3030 0.0000 ( 16357 PWs)   bands (ev):

   -12.4329 -11.8238 -11.1798 -10.8931 -10.5142  -9.8369  -9.3728  -8.8861
    -5.9853  -5.4641  -4.6122  -3.7527  -2.8606  -2.6929  -1.8784  -1.6928
    -1.4657  -1.0300  -0.7844  -0.2505  -0.1599  -0.0399   0.4035   0.7021
     1.4983   2.0862   2.2284   2.2948   2.5711   2.6958   2.6964   3.1003
     3.8184   3.9369  10.8814  11.0615  12.3444  12.3538  13.5531  13.6205
    13.8444

          k = 0.3333-0.0000 0.0000 ( 16356 PWs)   bands (ev):

   -12.9619 -12.3200 -11.2579  -9.8091  -8.1059  -7.6164  -7.0309  -6.3647
    -6.0563  -5.0327  -4.7074  -4.6809  -3.0940  -2.9473  -2.4382  -1.6685
    -1.6413  -1.5455  -1.3746  -0.6699  -0.6272  -0.4867   0.0848   0.2263
     0.3977   0.4969   0.8213   0.9301   1.1379   1.4323   1.4515   1.4628
     2.9615   4.3312  10.0545  10.3055  10.8814  10.8870  11.9869  12.3021
    12.6704

          k = 0.3333-0.1010 0.0000 ( 16350 PWs)   bands (ev):

   -12.7810 -12.1427 -11.0883  -9.6580  -8.0191  -7.8291  -7.2713  -6.7338
    -5.7686  -5.5180  -5.3483  -4.7881  -3.2798  -2.7913  -2.6568  -1.8693
    -1.7270  -1.6057  -0.8255  -0.7862  -0.6470  -0.5212  -0.1850   0.1315
     0.3355   0.4601   0.7241   1.1168   1.1271   1.2184   2.0641   2.5609
     2.7762   4.1420  10.3663  10.5565  11.3578  11.4573  12.0003  12.3057
    12.7533

          k = 0.3333-0.2020 0.0000 ( 16365 PWs)   bands (ev):

   -12.2430 -11.6165 -10.5895  -9.2403  -8.8188  -8.3337  -7.7694  -7.5659
    -5.7477  -5.3045  -5.1654  -5.0884  -3.9082  -3.1558  -2.6639  -2.4616
    -2.3985  -2.1553  -2.0577  -1.1487  -0.7033  -0.5760   0.3622   0.6699
     0.8309   1.0455   1.0929   1.3650   1.3862   1.7086   2.2512   2.6226
     3.5400   3.6558  11.0022  11.1698  12.3721  12.5129  12.8923  13.1088
    13.2792

          k = 0.3333-0.3030 0.0000 ( 16415 PWs)   bands (ev):

   -11.3649 -10.7678 -10.1798  -9.8613  -9.5260  -8.8447  -8.3937  -7.9122
    -5.2753  -5.0636  -4.7433  -4.5617  -4.3646  -3.9246  -3.4751  -3.4480
    -2.7950  -2.1129  -2.0587  -1.5996  -1.3719  -0.7214   0.4390   0.6432
     0.8411   1.1363   1.7562   1.8372   2.0903   2.6057   2.6495   2.6669
     3.1833   3.6053  11.7743  11.8444  13.1727  13.2461  13.5267  13.6708
    14.0141

          k = 0.4444-0.0000 0.0000 ( 16328 PWs)   bands (ev):

   -11.4385 -10.8090  -9.7669  -9.5775  -8.9659  -8.3439  -7.9522  -6.6708
    -6.5630  -4.9623  -4.9236  -3.6581  -3.2995  -3.2364  -1.9653  -1.9287
    -1.5587  -1.5432  -0.9314  -0.6382  -0.5552  -0.4016  -0.2945  -0.1588
    -0.1460   0.1127   0.1981   0.2102   0.2364   0.5884   0.6904   1.9136
     2.0629   3.2610  10.7506  11.0478  11.4210  11.7169  11.7741  11.9538
    12.5243

          k = 0.4444-0.1010 0.0000 ( 16374 PWs)   bands (ev):

   -11.2673 -10.6420  -9.6091  -9.4460  -8.8409  -8.2065  -7.8397  -6.6404
    -6.4089  -5.0685  -4.8839  -4.6486  -4.4562  -3.4016  -2.9349  -2.7813
    -1.9543  -1.5151  -1.2130  -0.6564  -0.6024  -0.3079  -0.1462  -0.0430
     0.2486   0.3031   0.4052   0.6660   0.8943   0.9299   1.1554   1.9277
     2.1702   3.2434  11.3396  11.4142  11.4304  11.7276  11.9894  12.3808
    12.5245

          k = 0.4444-0.2020 0.0000 ( 16383 PWs)   bands (ev):

   -10.7662 -10.1553  -9.1539  -9.1485  -8.5641  -7.8337  -7.5947  -6.5905
    -6.1952  -6.0637  -5.6618  -5.4000  -4.8673  -4.6335  -4.1730  -3.9617
    -2.5077  -2.1924  -1.3677  -1.2157  -1.1283  -0.6564  -0.0334   0.0264
     0.5036   0.6034   1.0508   1.4427   1.6611   1.7646   1.8790   2.3814
     2.5114   3.1660  11.9797  12.0707  12.3464  12.5142  12.7770  12.9687
    13.0532

          k = 0.4444-0.3030 0.0000 ( 16396 PWs)   bands (ev):

    -9.9964  -9.4194  -9.2196  -8.6967  -8.4296  -7.7875  -7.2261  -6.7604
    -6.7441  -6.2557  -6.0091  -5.6296  -5.4560  -5.4253  -4.9419  -4.8231
    -2.5898  -2.4366  -1.9864  -1.7683  -0.8891  -0.7912  -0.4440  -0.2334
     0.5887   0.7321   1.2809   1.5610   2.0462   2.0773   2.7447   2.8245
     3.0087   3.1111  12.5053  12.5443  13.1675  13.2068  13.9269  14.1362
    14.4357

     the Fermi energy is     6.7585 ev

!    total energy              =    -299.67958518 Ry
     estimated scf accuracy    <          4.6E-09 Ry
     smearing contrib. (-TS)   =       0.00000000 Ry
     internal energy E=F+TS    =    -299.67958518 Ry

     The total energy is F=E-TS. E is the sum of the following terms:
     one-electron contribution =   -1828.81729424 Ry
     hartree contribution      =     948.75843964 Ry
     xc contribution           =     -77.87434579 Ry
     ewald contribution        =     756.86193246 Ry
     one-center paw contrib.   =     -98.60831725 Ry

     convergence has been achieved in  12 iterations

     negative rho (up, down):  2.505E-06 0.000E+00

     Forces acting on atoms (cartesian axes, Ry/au):

     atom    1 type  1   force =     0.00000000   -0.00006358   -0.00005470
     atom    2 type  1   force =     0.00000000    0.00006358   -0.00005470
     atom    3 type  1   force =     0.00000000   -0.00001811   -0.00005494
     atom    4 type  1   force =     0.00000000    0.00001811   -0.00005494
     atom    5 type  1   force =     0.00000000   -0.00002689    0.00004330
     atom    6 type  1   force =     0.00000000    0.00002689    0.00004330
     atom    7 type  1   force =    -0.00000000    0.00000669    0.00005068
     atom    8 type  1   force =     0.00000000   -0.00000669    0.00005068
     atom    9 type  1   force =    -0.00000000   -0.00000669   -0.00005068
     atom   10 type  1   force =     0.00000000    0.00000669   -0.00005068
     atom   11 type  1   force =     0.00000000    0.00002689   -0.00004330
     atom   12 type  1   force =     0.00000000   -0.00002689   -0.00004330
     atom   13 type  1   force =     0.00000000   -0.00001811    0.00005494
     atom   14 type  1   force =     0.00000000    0.00001811    0.00005494
     atom   15 type  1   force =     0.00000000    0.00006358    0.00005470
     atom   16 type  1   force =     0.00000000   -0.00006358    0.00005470
     atom   17 type  2   force =     0.00000000    0.00003381    0.00005944
     atom   18 type  2   force =     0.00000000   -0.00003381    0.00005944
     atom   19 type  2   force =     0.00000000   -0.00003381   -0.00005944
     atom   20 type  2   force =     0.00000000    0.00003381   -0.00005944

     Total force =     0.000285     Total SCF correction =     0.000148
     SCF correction compared to forces is large: reduce conv_thr to get better values


     Computing stress (Cartesian axis) and pressure


     negative rho (up, down):  2.505E-06 0.000E+00
          total   stress  (Ry/bohr**3)                   (kbar)     P=       22.50
   0.00014716   0.00000000   0.00000000           21.65        0.00        0.00
   0.00000000   0.00031242   0.00000000            0.00       45.96        0.00
   0.00000000   0.00000000  -0.00000081            0.00        0.00       -0.12


     Writing all to output data dir /tmp/qe/slab.save/ :
     XML data file, charge density, pseudopotentials, collected wavefunctions

     init_run     :      1.50s CPU      1.58s WALL (       1 calls)
     electrons    :     31.18s CPU     31.54s WALL (       1 calls)
     forces       :      0.44s CPU      0.45s WALL (       1 calls)
     stress       :      6.24s CPU      6.26s WALL (       1 calls)

     Called by init_run:
     wfcinit      :      1.17s CPU      1.21s WALL (       1 calls)
     potinit      :      0.16s CPU      0.18s WALL (       1 calls)
     hinit0       :      0.06s CPU      0.06s WALL (       1 calls)

     Called by electrons:
     c_bands      :     24.22s CPU     24.47s WALL (      12 calls)
     sum_band     :      4.66s CPU      4.71s WALL (      12 calls)
     v_of_rho     :      0.73s CPU      0.76s WALL (      13 calls)
     newd         :      0.43s CPU      0.44s WALL (      13 calls)
     PAW_pot      :      1.20s CPU      1.21s WALL (      13 calls)
     mix_rho      :      0.07s CPU      0.07s WALL (      12 calls)

     Called by c_bands:
     init_us_2    :      0.75s CPU      0.77s WALL (     540 calls)
     cegterg      :     23.06s CPU     23.29s WALL (     240 calls)

     Called by *egterg:
     cdiaghg      :      1.68s CPU      1.70s WALL (    1167 calls)
     h_psi        :     17.59s CPU     17.79s WALL (    1187 calls)
     s_psi        :      1.15s CPU      1.16s WALL (    1187 calls)
     g_psi        :      0.11s CPU      0.12s WALL (     927 calls)

     Called by h_psi:
     h_psi:calbec :      1.23s CPU      1.24s WALL (    1187 calls)
     vloc_psi     :     14.91s CPU     15.09s WALL (    1187 calls)
     add_vuspsi   :      1.31s CPU      1.32s WALL (    1187 calls)

     General routines
     calbec       :      1.80s CPU      1.82s WALL (    1527 calls)
     fft          :      0.33s CPU      0.37s WALL (     192 calls)
     ffts         :      0.01s CPU      0.01s WALL (      25 calls)
     fftw         :     13.04s CPU     13.17s WALL (   64094 calls)
     interpolate  :      0.03s CPU      0.03s WALL (      13 calls)

     Parallel routines

     PWSCF        :     39.54s CPU     40.11s WALL


   This run was terminated on:  18:41:55   1Aug2026            

=------------------------------------------------------------------------------=
   JOB DONE.
=------------------------------------------------------------------------------=
Note: The following floating-point exceptions are signalling: IEEE_UNDERFLOW_FLAG IEEE_DENORMAL
Note: The following floating-point exceptions are signalling: IEEE_UNDERFLOW_FLAG IEEE_DENORMAL
Note: The following floating-point exceptions are signalling: IEEE_UNDERFLOW_FLAG IEEE_DENORMAL
Note: The following floating-point exceptions are signalling: IEEE_UNDERFLOW_FLAG IEEE_DENORMAL
Note: The following floating-point exceptions are signalling: IEEE_UNDERFLOW_FLAG IEEE_DENORMAL
Note: The following floating-point exceptions are signalling: IEEE_UNDERFLOW_FLAG IEEE_DENORMAL
Note: The following floating-point exceptions are signalling: IEEE_UNDERFLOW_FLAG IEEE_DENORMAL
Note: The following floating-point exceptions are signalling: IEEE_UNDERFLOW_FLAG IEEE_DENORMAL
