
     Program PWSCF v.7.3.1 starts on  2Aug2026 at 15:14: 6 

     This program is part of the open-source Quantum ESPRESSO suite
     for quantum simulation of materials; please cite
         "P. Giannozzi et al., J. Phys.:Condens. Matter 21 395502 (2009);
         "P. Giannozzi et al., J. Phys.:Condens. Matter 29 465901 (2017);
         "P. Giannozzi et al., J. Chem. Phys. 152 154105 (2020);
          URL http://www.quantum-espresso.org", 
     in publications or presentations arising from this work. More details at
     http://www.quantum-espresso.org/quote

     Parallel version (MPI), running on     8 processors

     MPI processes distributed on     1 nodes
     121838 MiB available memory on the printing compute node when the environment starts

     Reading input from pw.in

     Current dimensions of program PWSCF are:
     Max number of different atomic species (ntypx) = 10
     Max number of k-points (npk) =  40000
     Max angular momentum in pseudopotentials (lmaxx) =  4
     file C.pbe-n-kjpaw_psl.1.0.0.UPF: wavefunction(s)  2S 2P renormalized
     Message from routine setup:
     using ibrav=0 with symmetry is DISCOURAGED, use correct ibrav instead

     R & G space division:  proc/nbgrp/npool/nimage =       8
     Subspace diagonalization in iterative solution of the eigenvalue problem:
     a serial algorithm will be used


     Parallelization info
     --------------------
     sticks:   dense  smooth     PW     G-vecs:    dense   smooth      PW
     Min         141      69     20                38241    13471    2186
     Max         142      70     21                38278    13520    2229
     Sum        1135     559    163               306159   108065   17611

     Using Slab Decomposition



     bravais-lattice index     =            0
     lattice parameter (alat)  =       4.7744  a.u.
     unit-cell volume          =     937.6818 (a.u.)^3
     number of atoms/cell      =           18
     number of atomic types    =            2
     number of electrons       =        66.00
     number of Kohn-Sham states=           40
     kinetic-energy cutoff     =      90.0000  Ry
     charge density cutoff     =     720.0000  Ry
     scf convergence threshold =      1.0E-08
     mixing beta               =       0.3000
     number of iterations used =            8  plain     mixing
     Exchange-correlation= PBE
                           (   1   4   3   4   0   0   0)

     celldm(1)=   4.774375  celldm(2)=   0.000000  celldm(3)=   0.000000
     celldm(4)=   0.000000  celldm(5)=   0.000000  celldm(6)=   0.000000

     crystal axes: (cart. coord. in units of alat)
               a(1) = (   1.000000   0.000000   0.000000 )  
               a(2) = (   0.500000   0.866025   0.000000 )  
               a(3) = (   0.000000   0.000000   9.948905 )  

     reciprocal axes: (cart. coord. in units 2 pi/alat)
               b(1) = (  1.000000 -0.577350  0.000000 )  
               b(2) = (  0.000000  1.154701  0.000000 )  
               b(3) = (  0.000000  0.000000  0.100514 )  


     PseudoPot. # 1 for C  read from file:
     ./C.pbe-n-kjpaw_psl.1.0.0.UPF
     MD5 check sum: 5d2aebdfa2cae82b50a7e79e9516da0f
     Pseudo is Projector augmented-wave + core cor, Zval =  4.0
     Generated using "atomic" code by A. Dal Corso  v.5.1
     Shape of augmentation charge: PSQ
     Using radial grid of 1073 points,  4 beta functions with: 
                l(1) =   0
                l(2) =   0
                l(3) =   1
                l(4) =   1
     Q(r) pseudized with 0 coefficients 


     PseudoPot. # 2 for H  read from file:
     ./H_ONCV_PBE-1.0.oncvpsp.upf
     MD5 check sum: 1790becc920ee074925cf490c71280fe
     Pseudo is Norm-conserving, Zval =  1.0
     Generated using ONCVPSP code by D. R. Hamann
     Using radial grid of 1166 points,  2 beta functions with: 
                l(1) =   0
                l(2) =   0

     atomic species   valence    mass     pseudopotential
     C                 4.00    12.01100     C ( 1.00)
     H                 1.00     1.00800     H ( 1.00)

     12 Sym. Ops., with inversion, found ( 6 have fractional translation)



   Cartesian axes

     site n.     atom                  positions (alat units)
         1        C      tau(   1) = (   0.5000000   0.2886751   7.9256073  )
         2        C      tau(   2) = (   1.0000000   0.5773503   7.7324598  )
         3        C      tau(   3) = (   1.0000000   0.5773503   7.1173841  )
         4        C      tau(   4) = (  -0.0000000  -0.0000000   6.9136868  )
         5        C      tau(   5) = (   0.0000000   0.0000000   6.3011765  )
         6        C      tau(   6) = (   0.5000000   0.2886751   6.0971428  )
         7        C      tau(   7) = (   0.5000000   0.2886751   5.4847642  )
         8        C      tau(   8) = (   1.0000000   0.5773503   5.2806568  )
         9        C      tau(   9) = (   1.0000000   0.5773503   4.6682482  )
        10        C      tau(  10) = (   0.0000000  -0.0000000   4.4641408  )
        11        C      tau(  11) = (  -0.0000000  -0.0000000   3.8517622  )
        12        C      tau(  12) = (   0.5000000   0.2886751   3.6477285  )
        13        C      tau(  13) = (   0.5000000   0.2886751   3.0352182  )
        14        C      tau(  14) = (   1.0000000   0.5773503   2.8315209  )
        15        C      tau(  15) = (   1.0000000   0.5773503   2.2164452  )
        16        C      tau(  16) = (  -0.0000000  -0.0000000   2.0232977  )
        17        H      tau(  17) = (   0.5000000   0.2886751   8.3645954  )
        18        H      tau(  18) = (  -0.0000000   0.0000000   1.5843096  )

     number of k points=    12  Marzari-Vanderbilt smearing, width (Ry)=  0.0100
                       cart. coord. in units 2pi/alat
        k(    1) = (   0.0000000   0.0000000   0.0000000), wk =   0.0246914
        k(    2) = (   0.0000000   0.1283001   0.0000000), wk =   0.1481481
        k(    3) = (   0.0000000   0.2566001   0.0000000), wk =   0.1481481
        k(    4) = (   0.0000000   0.3849002   0.0000000), wk =   0.1481481
        k(    5) = (   0.0000000   0.5132002   0.0000000), wk =   0.1481481
        k(    6) = (   0.1111111   0.1924501   0.0000000), wk =   0.1481481
        k(    7) = (   0.1111111   0.3207501   0.0000000), wk =   0.2962963
        k(    8) = (   0.1111111   0.4490502   0.0000000), wk =   0.2962963
        k(    9) = (   0.1111111  -0.5773503   0.0000000), wk =   0.1481481
        k(   10) = (   0.2222222   0.3849002   0.0000000), wk =   0.1481481
        k(   11) = (   0.2222222  -0.6415003   0.0000000), wk =   0.2962963
        k(   12) = (   0.3333333  -0.5773503   0.0000000), wk =   0.0493827

     Dense  grid:   306159 G-vectors     FFT dimensions: (  45,  45, 405)

     Smooth grid:   108065 G-vectors     FFT dimensions: (  30,  30, 288)

     Estimated max dynamical RAM per process >      94.31 MB

     Estimated total dynamical RAM >     754.51 MB

     Check: negative core charge=   -0.000001

     Initial potential from superposition of free atoms

     starting charge      65.9993, renormalised to      66.0000
     Starting wfcs are   66 randomized atomic wfcs
     Checking if some PAW data can be deallocated... 

     total cpu time spent up to now is        1.3 secs

     Self-consistent Calculation

     iteration #  1     ecut=    90.00 Ry     beta= 0.30
     Davidson diagonalization with overlap
     ethr =  1.00E-02,  avg # of iterations =  2.6

     negative rho (up, down):  1.162E-08 0.000E+00

     total cpu time spent up to now is        2.8 secs

     total energy              =    -297.43203011 Ry
     estimated scf accuracy    <       1.15325517 Ry

     iteration #  2     ecut=    90.00 Ry     beta= 0.30
     Davidson diagonalization with overlap
     ethr =  1.75E-03,  avg # of iterations =  3.9

     negative rho (up, down):  1.391E-07 0.000E+00

     total cpu time spent up to now is        4.2 secs

     total energy              =    -297.30280577 Ry
     estimated scf accuracy    <       0.41957280 Ry

     iteration #  3     ecut=    90.00 Ry     beta= 0.30
     Davidson diagonalization with overlap
     ethr =  6.36E-04,  avg # of iterations =  5.8

     negative rho (up, down):  1.322E-07 0.000E+00

     total cpu time spent up to now is        5.5 secs

     total energy              =    -297.32329400 Ry
     estimated scf accuracy    <       0.03881617 Ry

     iteration #  4     ecut=    90.00 Ry     beta= 0.30
     Davidson diagonalization with overlap
     c_bands:  1 eigenvalues not converged
     ethr =  5.88E-05,  avg # of iterations =  8.2

     negative rho (up, down):  5.768E-08 0.000E+00

     total cpu time spent up to now is        7.2 secs

     total energy              =    -297.32686378 Ry
     estimated scf accuracy    <       0.00543083 Ry

     iteration #  5     ecut=    90.00 Ry     beta= 0.30
     Davidson diagonalization with overlap
     ethr =  8.23E-06,  avg # of iterations =  6.2

     negative rho (up, down):  5.577E-08 0.000E+00

     total cpu time spent up to now is        8.8 secs

     total energy              =    -297.32747622 Ry
     estimated scf accuracy    <       0.00093176 Ry

     iteration #  6     ecut=    90.00 Ry     beta= 0.30
     Davidson diagonalization with overlap
     ethr =  1.41E-06,  avg # of iterations =  5.6

     negative rho (up, down):  4.642E-08 0.000E+00

     total cpu time spent up to now is       10.3 secs

     total energy              =    -297.32757013 Ry
     estimated scf accuracy    <       0.00020426 Ry

     iteration #  7     ecut=    90.00 Ry     beta= 0.30
     Davidson diagonalization with overlap
     ethr =  3.09E-07,  avg # of iterations =  2.1

     negative rho (up, down):  4.758E-08 0.000E+00

     total cpu time spent up to now is       11.5 secs

     total energy              =    -297.32758834 Ry
     estimated scf accuracy    <       0.00004918 Ry

     iteration #  8     ecut=    90.00 Ry     beta= 0.30
     Davidson diagonalization with overlap
     ethr =  7.45E-08,  avg # of iterations =  2.1

     negative rho (up, down):  4.297E-08 0.000E+00

     total cpu time spent up to now is       12.8 secs

     total energy              =    -297.32759650 Ry
     estimated scf accuracy    <       0.00001084 Ry

     iteration #  9     ecut=    90.00 Ry     beta= 0.30
     Davidson diagonalization with overlap
     ethr =  1.64E-08,  avg # of iterations =  2.0

     negative rho (up, down):  4.176E-08 0.000E+00

     total cpu time spent up to now is       14.0 secs

     total energy              =    -297.32759858 Ry
     estimated scf accuracy    <       0.00000075 Ry

     iteration # 10     ecut=    90.00 Ry     beta= 0.30
     Davidson diagonalization with overlap
     ethr =  1.14E-09,  avg # of iterations =  3.0

     negative rho (up, down):  4.135E-08 0.000E+00

     total cpu time spent up to now is       15.5 secs

     total energy              =    -297.32759878 Ry
     estimated scf accuracy    <       0.00000018 Ry

     iteration # 11     ecut=    90.00 Ry     beta= 0.30
     Davidson diagonalization with overlap
     ethr =  2.74E-10,  avg # of iterations =  2.6

     negative rho (up, down):  4.162E-08 0.000E+00

     total cpu time spent up to now is       16.9 secs

     total energy              =    -297.32759882 Ry
     estimated scf accuracy    <       0.00000004 Ry

     iteration # 12     ecut=    90.00 Ry     beta= 0.30
     Davidson diagonalization with overlap
     ethr =  5.47E-11,  avg # of iterations =  2.5

     negative rho (up, down):  4.296E-08 0.000E+00

     total cpu time spent up to now is       18.2 secs

     End of self-consistent calculation

          k = 0.0000 0.0000 0.0000 ( 13421 PWs)   bands (ev):

   -13.5332 -13.2535 -12.7973 -12.1673 -11.3700 -10.4249  -9.3790  -8.3778
    -5.1750  -4.1022  -2.6229  -0.9396   0.8577   2.6869   4.4451   5.0521
     5.0521   5.2293   5.2293   5.5104   5.5104   5.8862   5.8862   6.0142
     6.3400   6.3400   6.8355   6.8355   7.2402   7.3064   7.3064   7.6524
     7.6524  10.1015  10.6729  12.7326  13.5606  13.5608  13.6875  14.0505

          k = 0.0000 0.1283 0.0000 ( 13541 PWs)   bands (ev):

   -13.2309 -12.9521 -12.4974 -11.8698 -11.0758 -10.1354  -9.0960  -8.1038
    -4.9022  -3.8429  -2.3854  -0.7332   1.0184   2.7733   3.6051   3.8099
     4.1251   4.3381   4.4027   4.6042   4.6607   4.9229   5.0330   5.3445
     5.5211   5.8454   5.9643   6.0472   6.3814   6.4426   6.8796   7.0289
     7.2390  10.3843  10.9137  12.9238  13.2895  13.8869  14.1639  14.4032

          k = 0.0000 0.2566 0.0000 ( 13481 PWs)   bands (ev):

   -12.3303 -12.0542 -11.6044 -10.9843 -10.2013  -9.2761  -8.2576  -7.2925
    -4.1392  -3.1277  -1.7579  -0.2753   0.6486   0.7641   1.1584   1.5478
     1.6695   2.2688   2.9188   3.0412   3.2080   3.4303   3.5325   3.7828
     3.9625   4.2487   4.4437   4.7993   5.3826   5.5601   5.9176   6.2922
     6.2986  11.2488  11.6163  12.5873  13.2225  13.5623  14.0808  14.4803

          k = 0.0000 0.3849 0.0000 ( 13546 PWs)   bands (ev):

   -10.8546 -10.5843 -10.1454  -9.5424  -8.7846  -7.8949  -6.9239  -6.0124
    -3.4787  -2.8905  -2.6474  -2.1894  -1.5925  -1.2376  -0.9388  -0.3886
     0.0377   0.4770   1.0433   1.3462   2.2040   2.2341   2.4348   2.8015
     2.9395   3.2867   3.8597   3.9136   4.4654   4.8161   5.0190   5.4120
     5.4164  12.0961  12.3878  12.8174  13.0211  13.4383  13.8843  14.4345

          k = 0.0000 0.5132 0.0000 ( 13528 PWs)   bands (ev):

    -8.8867  -8.6401  -8.2507  -7.7463  -7.1848  -6.6251  -6.0281  -5.3681
    -5.0177  -4.6473  -4.4414  -3.9939  -3.7021  -3.2041  -2.3498  -1.5758
    -0.4788   0.2090   1.0159   1.3199   1.5067   1.6589   1.8928   2.2647
     2.2915   2.7570   3.3384   3.3532   3.9526   4.2665   4.5136   4.8631
     4.9114  12.2895  12.6962  13.0616  13.2790  13.5969  13.7850  14.3062

          k = 0.1111 0.1925 0.0000 ( 13513 PWs)   bands (ev):

   -12.6294 -12.3524 -11.9009 -11.2781 -10.4912  -9.5607  -8.5349  -7.5607
    -4.3806  -3.3509  -1.9449  -0.3731   1.2251   2.0374   2.0971   2.2818
     2.3165   2.7619   2.8992   3.3730   3.5456   3.6171   4.0077   4.0768
     4.4795   4.5433   4.8770   5.1896   5.2344   5.4952   5.7531   6.2094
     6.9067  10.9849  11.4212  13.4991  13.7392  13.7795  14.1568  14.5645

          k = 0.1111 0.3208 0.0000 ( 13486 PWs)   bands (ev):

   -11.4402 -11.1673 -10.7233 -10.1122  -9.3421  -8.4349  -7.4401  -6.5027
    -3.5308  -2.6073  -1.5138  -0.9161  -0.5629  -0.2833   0.0836   0.2334
     0.7763   1.0120   1.3760   1.8177   2.0663   2.1158   2.4671   2.8612
     3.1405   3.2531   3.3051   3.6990   4.2681   4.3919   4.7712   5.4785
     6.0904  12.1316  12.3904  13.2135  13.8530  14.5492  14.7405  14.9835

          k = 0.1111 0.4491 0.0000 ( 13508 PWs)   bands (ev):

    -9.7066  -9.4438  -9.0191  -8.4399  -7.7203  -6.8913  -6.0103  -5.1918
    -3.9665  -3.8670  -3.7063  -3.2760  -2.6326  -1.8723  -1.1697  -0.9144
    -0.4645  -0.1986   0.6247   0.9486   1.1729   1.4249   1.6333   1.7259
     2.1410   2.3433   2.8356   3.0265   3.6726   3.7603   4.1403   4.5812
     5.1186  12.8428  13.2963  13.7408  14.2069  14.5548  14.9775  15.0691

          k = 0.1111-0.5774 0.0000 ( 13534 PWs)   bands (ev):

    -7.7040  -7.6922  -7.5866  -7.3803  -7.0487  -6.5914  -6.0121  -5.3706
    -5.0803  -4.8314  -4.3830  -4.0783  -3.4915  -3.2726  -2.6772  -2.5760
     0.2820   0.3726   0.5531   0.7717   0.8898   1.0911   1.3698   1.5238
     1.6307   2.1002   2.3849   2.9676   3.1601   3.7211   3.8684   4.3281
     4.5322  12.9795  13.5676  14.0865  14.2485  14.5220  14.9115  15.0383

          k = 0.2222 0.3849 0.0000 ( 13513 PWs)   bands (ev):

    -9.9882  -9.7224  -9.2915  -8.7014  -7.9623  -7.0986  -6.1593  -5.2725
    -3.4226  -2.8879  -2.4845  -2.1805  -1.8214  -1.3798  -0.9506  -0.6539
    -0.5764  -0.1986  -0.0473   0.4708   0.7143   0.9619   1.4452   1.5649
     1.5885   2.1808   2.2517   2.3860   2.8142   3.2197   3.9138   4.6617
     5.1798  13.4110  13.4860  14.1654  14.3623  14.9244  15.2404  15.7656

          k = 0.2222-0.6415 0.0000 ( 13557 PWs)   bands (ev):

    -8.0684  -7.8295  -7.4542  -6.9710  -6.4386  -5.9223  -5.3904  -4.7320
    -4.4936  -4.2143  -3.8459  -3.5683  -3.3495  -2.9842  -2.4404  -1.9409
    -0.9493  -0.8169  -0.5148  -0.2941   0.0716   0.1663   0.6157   0.9172
     1.3199   1.7063   1.9233   2.1922   2.3958   2.9878   3.3872   3.6694
     4.0918  13.5766  14.1263  14.7135  14.7588  15.3739  15.5412  15.7108

          k = 0.3333-0.5774 0.0000 ( 13551 PWs)   bands (ev):

    -6.2061  -6.2061  -6.1981  -6.1413  -6.1413  -6.0910  -6.0675  -4.8376
    -4.8376  -3.7259  -3.7259  -3.7131  -3.3546  -3.3546  -3.2574  -3.0242
    -1.4164  -1.4164  -1.1132  -0.9287  -0.9287  -0.3861  -0.3028  -0.3028
     1.9943   1.9943   2.0540   2.5112   2.5112   2.5177   2.9517   2.9648
     2.9648  14.2872  14.2872  14.4308  14.9022  14.9022  15.2767  15.8403

     the Fermi energy is     9.1772 ev

!    total energy              =    -297.32759883 Ry
     estimated scf accuracy    <          6.0E-09 Ry
     smearing contrib. (-TS)   =      -0.00000000 Ry
     internal energy E=F+TS    =    -297.32759883 Ry

     The total energy is F=E-TS. E is the sum of the following terms:
     one-electron contribution =   -2241.24578488 Ry
     hartree contribution      =    1157.95709438 Ry
     xc contribution           =     -76.34887122 Ry
     ewald contribution        =     960.91663192 Ry
     one-center paw contrib.   =     -98.60666903 Ry

     convergence has been achieved in  12 iterations

     negative rho (up, down):  4.296E-08 0.000E+00

     Forces acting on atoms (cartesian axes, Ry/au):

     atom    1 type  1   force =     0.00000000    0.00000000   -0.00008862
     atom    2 type  1   force =     0.00000000   -0.00000000    0.00005864
     atom    3 type  1   force =     0.00000000   -0.00000000    0.00008205
     atom    4 type  1   force =     0.00000000    0.00000000    0.00007382
     atom    5 type  1   force =     0.00000000    0.00000000   -0.00002110
     atom    6 type  1   force =     0.00000000    0.00000000   -0.00005273
     atom    7 type  1   force =     0.00000000    0.00000000   -0.00007447
     atom    8 type  1   force =    -0.00000000   -0.00000000   -0.00005486
     atom    9 type  1   force =     0.00000000    0.00000000    0.00005486
     atom   10 type  1   force =    -0.00000000    0.00000000    0.00007447
     atom   11 type  1   force =     0.00000000    0.00000000    0.00005273
     atom   12 type  1   force =     0.00000000    0.00000000    0.00002110
     atom   13 type  1   force =     0.00000000    0.00000000   -0.00007382
     atom   14 type  1   force =     0.00000000    0.00000000   -0.00008205
     atom   15 type  1   force =     0.00000000    0.00000000   -0.00005864
     atom   16 type  1   force =    -0.00000000   -0.00000000    0.00008862
     atom   17 type  2   force =     0.00000000    0.00000000   -0.00000957
     atom   18 type  2   force =    -0.00000000    0.00000000    0.00000957

     Total force =     0.000266     Total SCF correction =     0.000137
     SCF correction compared to forces is large: reduce conv_thr to get better values


     Computing stress (Cartesian axis) and pressure


     negative rho (up, down):  4.296E-08 0.000E+00
          total   stress  (Ry/bohr**3)                   (kbar)     P=        2.37
   0.00002458   0.00000000   0.00000000            3.62        0.00        0.00
   0.00000000   0.00002458   0.00000000            0.00        3.62        0.00
   0.00000000   0.00000000  -0.00000085            0.00        0.00       -0.13


     Writing all to output data dir /tmp/qe/slab.save/ :
     XML data file, charge density, pseudopotentials, collected wavefunctions

     init_run     :      0.92s CPU      1.15s WALL (       1 calls)
     electrons    :     16.68s CPU     16.92s WALL (       1 calls)
     forces       :      0.28s CPU      0.29s WALL (       1 calls)
     stress       :      3.14s CPU      3.16s WALL (       1 calls)

     Called by init_run:
     wfcinit      :      0.61s CPU      0.74s WALL (       1 calls)
     potinit      :      0.16s CPU      0.18s WALL (       1 calls)
     hinit0       :      0.06s CPU      0.11s WALL (       1 calls)

     Called by electrons:
     c_bands      :     12.01s CPU     12.15s WALL (      12 calls)
     sum_band     :      2.51s CPU      2.55s WALL (      12 calls)
     v_of_rho     :      0.66s CPU      0.68s WALL (      13 calls)
     newd         :      0.36s CPU      0.39s WALL (      13 calls)
     PAW_pot      :      1.20s CPU      1.21s WALL (      13 calls)
     mix_rho      :      0.06s CPU      0.07s WALL (      12 calls)

     Called by c_bands:
     init_us_2    :      0.34s CPU      0.35s WALL (     324 calls)
     cegterg      :     11.45s CPU     11.58s WALL (     144 calls)

     Called by *egterg:
     cdiaghg      :      0.94s CPU      1.06s WALL (     703 calls)
     h_psi        :      8.82s CPU      8.92s WALL (     715 calls)
     s_psi        :      0.52s CPU      0.53s WALL (     715 calls)
     g_psi        :      0.05s CPU      0.05s WALL (     559 calls)

     Called by h_psi:
     h_psi:calbec :      0.58s CPU      0.59s WALL (     715 calls)
     vloc_psi     :      7.59s CPU      7.67s WALL (     715 calls)
     add_vuspsi   :      0.59s CPU      0.60s WALL (     715 calls)

     General routines
     calbec       :      0.91s CPU      0.93s WALL (     919 calls)
     fft          :      0.28s CPU      0.36s WALL (     192 calls)
     ffts         :      0.01s CPU      0.02s WALL (      25 calls)
     fftw         :      6.70s CPU      6.76s WALL (   36698 calls)
     interpolate  :      0.03s CPU      0.03s WALL (      13 calls)

     Parallel routines

     PWSCF        :     21.15s CPU     21.98s WALL


   This run was terminated on:  15:14:28   2Aug2026            

=------------------------------------------------------------------------------=
   JOB DONE.
=------------------------------------------------------------------------------=
Note: The following floating-point exceptions are signalling: IEEE_UNDERFLOW_FLAG IEEE_DENORMAL
Note: The following floating-point exceptions are signalling: IEEE_UNDERFLOW_FLAG IEEE_DENORMAL
Note: The following floating-point exceptions are signalling: IEEE_UNDERFLOW_FLAG IEEE_DENORMAL
Note: The following floating-point exceptions are signalling: IEEE_UNDERFLOW_FLAG IEEE_DENORMAL
Note: The following floating-point exceptions are signalling: IEEE_UNDERFLOW_FLAG IEEE_DENORMAL
Note: The following floating-point exceptions are signalling: IEEE_UNDERFLOW_FLAG IEEE_DENORMAL
Note: The following floating-point exceptions are signalling: IEEE_UNDERFLOW_FLAG IEEE_DENORMAL
Note: The following floating-point exceptions are signalling: IEEE_UNDERFLOW_FLAG IEEE_DENORMAL
