
     Program PWSCF v.7.3.1 starts on  2Aug2026 at 15:44:34 

     This program is part of the open-source Quantum ESPRESSO suite
     for quantum simulation of materials; please cite
         "P. Giannozzi et al., J. Phys.:Condens. Matter 21 395502 (2009);
         "P. Giannozzi et al., J. Phys.:Condens. Matter 29 465901 (2017);
         "P. Giannozzi et al., J. Chem. Phys. 152 154105 (2020);
          URL http://www.quantum-espresso.org", 
     in publications or presentations arising from this work. More details at
     http://www.quantum-espresso.org/quote

     Parallel version (MPI), running on     8 processors

     MPI processes distributed on     1 nodes
     766634 MiB available memory on the printing compute node when the environment starts

     Reading input from pw.in

     Current dimensions of program PWSCF are:
     Max number of different atomic species (ntypx) = 10
     Max number of k-points (npk) =  40000
     Max angular momentum in pseudopotentials (lmaxx) =  4
     file C.pbe-n-kjpaw_psl.1.0.0.UPF: wavefunction(s)  2S 2P renormalized
     Message from routine volume:
     axis vectors are left-handed
     Message from routine setup:
     using ibrav=0 with symmetry is DISCOURAGED, use correct ibrav instead

     R & G space division:  proc/nbgrp/npool/nimage =       8
     Subspace diagonalization in iterative solution of the eigenvalue problem:
     a serial algorithm will be used


     Parallelization info
     --------------------
     sticks:   dense  smooth     PW     G-vecs:    dense   smooth      PW
     Min         230     115     33                40002    14149    2227
     Max         231     116     35                40021    14166    2233
     Sum        1845     921    269               320103   113231   17851

     Using Slab Decomposition



     bravais-lattice index     =            0
     lattice parameter (alat)  =       4.7752  a.u.
     unit-cell volume          =     980.9734 (a.u.)^3
     number of atoms/cell      =           16
     number of atomic types    =            2
     number of electrons       =        52.00
     number of Kohn-Sham states=           31
     kinetic-energy cutoff     =      90.0000  Ry
     charge density cutoff     =     720.0000  Ry
     scf convergence threshold =      1.0E-08
     mixing beta               =       0.3000
     number of iterations used =            8  plain     mixing
     Exchange-correlation= PBE
                           (   1   4   3   4   0   0   0)

     celldm(1)=   4.775235  celldm(2)=   0.000000  celldm(3)=   0.000000
     celldm(4)=   0.000000  celldm(5)=   0.000000  celldm(6)=   0.000000

     crystal axes: (cart. coord. in units of alat)
               a(1) = (   1.000000   0.000000   0.000000 )  
               a(2) = (   0.000000  -1.414214   0.000000 )  
               a(3) = (   0.000000   0.000000   6.370270 )  

     reciprocal axes: (cart. coord. in units 2 pi/alat)
               b(1) = (  1.000000 -0.000000 -0.000000 )  
               b(2) = ( -0.000000 -0.707107 -0.000000 )  
               b(3) = ( -0.000000 -0.000000  0.156979 )  


     PseudoPot. # 1 for C  read from file:
     ./C.pbe-n-kjpaw_psl.1.0.0.UPF
     MD5 check sum: 5d2aebdfa2cae82b50a7e79e9516da0f
     Pseudo is Projector augmented-wave + core cor, Zval =  4.0
     Generated using "atomic" code by A. Dal Corso  v.5.1
     Shape of augmentation charge: PSQ
     Using radial grid of 1073 points,  4 beta functions with: 
                l(1) =   0
                l(2) =   0
                l(3) =   1
                l(4) =   1
     Q(r) pseudized with 0 coefficients 


     PseudoPot. # 2 for H  read from file:
     ./H_ONCV_PBE-1.0.oncvpsp.upf
     MD5 check sum: 1790becc920ee074925cf490c71280fe
     Pseudo is Norm-conserving, Zval =  1.0
     Generated using ONCVPSP code by D. R. Hamann
     Using radial grid of 1166 points,  2 beta functions with: 
                l(1) =   0
                l(2) =   0

     atomic species   valence    mass     pseudopotential
     C                 4.00    12.01100     C ( 1.00)
     H                 1.00     1.00800     H ( 1.00)

      8 Sym. Ops., with inversion, found ( 6 have fractional translation)



   Cartesian axes

     site n.     atom                  positions (alat units)
         1        C      tau(   1) = (  -0.0000000  -0.3611404   4.4247609  )
         2        C      tau(   2) = (   0.5000000  -0.6995197   4.4247609  )
         3        C      tau(   3) = (   0.0000000   0.0011500   3.9360405  )
         4        C      tau(   4) = (   0.5000000  -1.0618102   3.9360405  )
         5        C      tau(   5) = (   0.0000000  -0.3533013   3.4350066  )
         6        C      tau(   6) = (   0.5000000  -0.7073588   3.4350066  )
         7        C      tau(   7) = (   0.0000000  -0.0002520   2.9352634  )
         8        C      tau(   8) = (   0.5000000  -1.0604081   2.9352634  )
         9        C      tau(   9) = (  -0.0000000  -0.3547034   2.4342296  )
        10        C      tau(  10) = (   0.5000000  -0.7059567   2.4342296  )
        11        C      tau(  11) = (  -0.0000000   0.0075871   1.9455091  )
        12        C      tau(  12) = (   0.5000000  -1.0682472   1.9455091  )
        13        H      tau(  13) = (   0.0000000  -0.1238861   4.7893624  )
        14        H      tau(  14) = (   0.5000000  -0.9367741   4.7893624  )
        15        H      tau(  15) = (   0.0000000  -0.2296673   1.5809076  )
        16        H      tau(  16) = (   0.5000000  -0.8309929   1.5809076  )

     number of k points=    56  Marzari-Vanderbilt smearing, width (Ry)=  0.0100
                       cart. coord. in units 2pi/alat
        k(    1) = (   0.0000000  -0.0000000   0.0000000), wk =   0.0111111
        k(    2) = (   0.0000000  -0.0589256   0.0000000), wk =   0.0222222
        k(    3) = (   0.0000000  -0.1178511   0.0000000), wk =   0.0222222
        k(    4) = (   0.0000000  -0.1767767   0.0000000), wk =   0.0222222
        k(    5) = (   0.0000000  -0.2357023   0.0000000), wk =   0.0222222
        k(    6) = (   0.0000000  -0.2946278   0.0000000), wk =   0.0222222
        k(    7) = (   0.0000000   0.3535534   0.0000000), wk =   0.0111111
        k(    8) = (   0.0666667  -0.0000000   0.0000000), wk =   0.0222222
        k(    9) = (   0.0666667  -0.0589256   0.0000000), wk =   0.0444444
        k(   10) = (   0.0666667  -0.1178511   0.0000000), wk =   0.0444444
        k(   11) = (   0.0666667  -0.1767767   0.0000000), wk =   0.0444444
        k(   12) = (   0.0666667  -0.2357023   0.0000000), wk =   0.0444444
        k(   13) = (   0.0666667  -0.2946278   0.0000000), wk =   0.0444444
        k(   14) = (   0.0666667   0.3535534   0.0000000), wk =   0.0222222
        k(   15) = (   0.1333333  -0.0000000   0.0000000), wk =   0.0222222
        k(   16) = (   0.1333333  -0.0589256   0.0000000), wk =   0.0444444
        k(   17) = (   0.1333333  -0.1178511   0.0000000), wk =   0.0444444
        k(   18) = (   0.1333333  -0.1767767   0.0000000), wk =   0.0444444
        k(   19) = (   0.1333333  -0.2357023   0.0000000), wk =   0.0444444
        k(   20) = (   0.1333333  -0.2946278   0.0000000), wk =   0.0444444
        k(   21) = (   0.1333333   0.3535534   0.0000000), wk =   0.0222222
        k(   22) = (   0.2000000  -0.0000000   0.0000000), wk =   0.0222222
        k(   23) = (   0.2000000  -0.0589256   0.0000000), wk =   0.0444444
        k(   24) = (   0.2000000  -0.1178511   0.0000000), wk =   0.0444444
        k(   25) = (   0.2000000  -0.1767767   0.0000000), wk =   0.0444444
        k(   26) = (   0.2000000  -0.2357023   0.0000000), wk =   0.0444444
        k(   27) = (   0.2000000  -0.2946278   0.0000000), wk =   0.0444444
        k(   28) = (   0.2000000   0.3535534   0.0000000), wk =   0.0222222
        k(   29) = (   0.2666667  -0.0000000   0.0000000), wk =   0.0222222
        k(   30) = (   0.2666667  -0.0589256   0.0000000), wk =   0.0444444
        k(   31) = (   0.2666667  -0.1178511   0.0000000), wk =   0.0444444
        k(   32) = (   0.2666667  -0.1767767   0.0000000), wk =   0.0444444
        k(   33) = (   0.2666667  -0.2357023   0.0000000), wk =   0.0444444
        k(   34) = (   0.2666667  -0.2946278   0.0000000), wk =   0.0444444
        k(   35) = (   0.2666667   0.3535534   0.0000000), wk =   0.0222222
        k(   36) = (   0.3333333  -0.0000000   0.0000000), wk =   0.0222222
        k(   37) = (   0.3333333  -0.0589256   0.0000000), wk =   0.0444444
        k(   38) = (   0.3333333  -0.1178511   0.0000000), wk =   0.0444444
        k(   39) = (   0.3333333  -0.1767767   0.0000000), wk =   0.0444444
        k(   40) = (   0.3333333  -0.2357023   0.0000000), wk =   0.0444444
        k(   41) = (   0.3333333  -0.2946278   0.0000000), wk =   0.0444444
        k(   42) = (   0.3333333   0.3535534   0.0000000), wk =   0.0222222
        k(   43) = (   0.4000000  -0.0000000   0.0000000), wk =   0.0222222
        k(   44) = (   0.4000000  -0.0589256   0.0000000), wk =   0.0444444
        k(   45) = (   0.4000000  -0.1178511   0.0000000), wk =   0.0444444
        k(   46) = (   0.4000000  -0.1767767   0.0000000), wk =   0.0444444
        k(   47) = (   0.4000000  -0.2357023   0.0000000), wk =   0.0444444
        k(   48) = (   0.4000000  -0.2946278   0.0000000), wk =   0.0444444
        k(   49) = (   0.4000000   0.3535534   0.0000000), wk =   0.0222222
        k(   50) = (   0.4666667  -0.0000000   0.0000000), wk =   0.0222222
        k(   51) = (   0.4666667  -0.0589256   0.0000000), wk =   0.0444444
        k(   52) = (   0.4666667  -0.1178511   0.0000000), wk =   0.0444444
        k(   53) = (   0.4666667  -0.1767767   0.0000000), wk =   0.0444444
        k(   54) = (   0.4666667  -0.2357023   0.0000000), wk =   0.0444444
        k(   55) = (   0.4666667  -0.2946278   0.0000000), wk =   0.0444444
        k(   56) = (   0.4666667   0.3535534   0.0000000), wk =   0.0222222

     Dense  grid:   320103 G-vectors     FFT dimensions: (  48,  60, 270)

     Smooth grid:   113231 G-vectors     FFT dimensions: (  30,  48, 192)

     Estimated max dynamical RAM per process >     123.43 MB

     Estimated total dynamical RAM >     987.44 MB

     Initial potential from superposition of free atoms

     starting charge      51.9995, renormalised to      52.0000
     Starting wfcs are   52 randomized atomic wfcs
     Checking if some PAW data can be deallocated... 

     total cpu time spent up to now is        2.6 secs

     Self-consistent Calculation

     iteration #  1     ecut=    90.00 Ry     beta= 0.30
     Davidson diagonalization with overlap
     ethr =  1.00E-02,  avg # of iterations =  2.7

     total cpu time spent up to now is        7.6 secs

     total energy              =    -226.01416396 Ry
     estimated scf accuracy    <       1.19525563 Ry

     iteration #  2     ecut=    90.00 Ry     beta= 0.30
     Davidson diagonalization with overlap
     ethr =  2.30E-03,  avg # of iterations =  4.1

     negative rho (up, down):  1.721E-07 0.000E+00

     total cpu time spent up to now is       11.6 secs

     total energy              =    -225.92617894 Ry
     estimated scf accuracy    <       0.37532710 Ry

     iteration #  3     ecut=    90.00 Ry     beta= 0.30
     Davidson diagonalization with overlap
     ethr =  7.22E-04,  avg # of iterations =  5.4

     negative rho (up, down):  1.002E-06 0.000E+00

     total cpu time spent up to now is       16.1 secs

     total energy              =    -225.93949348 Ry
     estimated scf accuracy    <       0.05170572 Ry

     iteration #  4     ecut=    90.00 Ry     beta= 0.30
     Davidson diagonalization with overlap
     ethr =  9.94E-05,  avg # of iterations =  4.9

     negative rho (up, down):  1.934E-06 0.000E+00

     total cpu time spent up to now is       20.4 secs

     total energy              =    -225.94260042 Ry
     estimated scf accuracy    <       0.00514131 Ry

     iteration #  5     ecut=    90.00 Ry     beta= 0.30
     Davidson diagonalization with overlap
     c_bands:  2 eigenvalues not converged
     ethr =  9.89E-06,  avg # of iterations =  7.2

     negative rho (up, down):  1.872E-06 0.000E+00

     total cpu time spent up to now is       25.7 secs

     total energy              =    -225.94318170 Ry
     estimated scf accuracy    <       0.00054653 Ry

     iteration #  6     ecut=    90.00 Ry     beta= 0.30
     Davidson diagonalization with overlap
     ethr =  1.05E-06,  avg # of iterations =  4.9

     negative rho (up, down):  2.038E-06 0.000E+00

     total cpu time spent up to now is       30.6 secs

     total energy              =    -225.94329058 Ry
     estimated scf accuracy    <       0.00007507 Ry

     iteration #  7     ecut=    90.00 Ry     beta= 0.30
     Davidson diagonalization with overlap
     ethr =  1.44E-07,  avg # of iterations =  2.4

     negative rho (up, down):  2.010E-06 0.000E+00

     total cpu time spent up to now is       34.7 secs

     total energy              =    -225.94329616 Ry
     estimated scf accuracy    <       0.00001937 Ry

     iteration #  8     ecut=    90.00 Ry     beta= 0.30
     Davidson diagonalization with overlap
     ethr =  3.72E-08,  avg # of iterations =  2.2

     negative rho (up, down):  2.033E-06 0.000E+00

     total cpu time spent up to now is       39.0 secs

     total energy              =    -225.94329897 Ry
     estimated scf accuracy    <       0.00000291 Ry

     iteration #  9     ecut=    90.00 Ry     beta= 0.30
     Davidson diagonalization with overlap
     ethr =  5.60E-09,  avg # of iterations =  2.8

     negative rho (up, down):  2.035E-06 0.000E+00

     total cpu time spent up to now is       43.5 secs

     total energy              =    -225.94329972 Ry
     estimated scf accuracy    <       0.00000279 Ry

     iteration # 10     ecut=    90.00 Ry     beta= 0.30
     Davidson diagonalization with overlap
     ethr =  5.36E-09,  avg # of iterations =  2.0

     negative rho (up, down):  2.051E-06 0.000E+00

     total cpu time spent up to now is       47.4 secs

     total energy              =    -225.94329989 Ry
     estimated scf accuracy    <       0.00000031 Ry

     iteration # 11     ecut=    90.00 Ry     beta= 0.30
     Davidson diagonalization with overlap
     ethr =  5.96E-10,  avg # of iterations =  3.2

     negative rho (up, down):  2.065E-06 0.000E+00

     total cpu time spent up to now is       52.2 secs

     total energy              =    -225.94330002 Ry
     estimated scf accuracy    <       0.00000010 Ry

     iteration # 12     ecut=    90.00 Ry     beta= 0.30
     Davidson diagonalization with overlap
     ethr =  1.84E-10,  avg # of iterations =  2.2

     negative rho (up, down):  2.074E-06 0.000E+00

     total cpu time spent up to now is       56.2 secs

     total energy              =    -225.94330002 Ry
     estimated scf accuracy    <       0.00000003 Ry

     iteration # 13     ecut=    90.00 Ry     beta= 0.30
     Davidson diagonalization with overlap
     ethr =  6.62E-11,  avg # of iterations =  2.5

     negative rho (up, down):  2.100E-06 0.000E+00

     total cpu time spent up to now is       60.5 secs

     End of self-consistent calculation

          k = 0.0000-0.0000 0.0000 ( 14193 PWs)   bands (ev):

   -15.9421 -14.8709 -13.1190 -10.9238  -8.7407  -7.6350  -7.3166  -6.3828
    -4.7992  -4.4586  -4.0239  -2.9550  -2.7234  -2.1146  -0.8929  -0.7105
    -0.4008  -0.0886   1.2018   1.7487   2.1411   2.6995   3.9662   3.9798
     4.3051   4.8221   6.9590   7.2302   9.7299  10.1505  10.8753

          k = 0.0000-0.0589 0.0000 ( 14155 PWs)   bands (ev):

   -15.8787 -14.8094 -13.0631 -10.8921  -8.9095  -8.6879  -6.6383  -6.2945
    -5.3486  -4.0295  -3.8711  -3.1151  -2.3942  -2.0291  -0.8330  -0.7332
    -0.2707  -0.0373   1.2322   1.8661   2.0305   2.6837   3.8802   4.0614
     4.0867   4.6162   7.0273   7.3168   9.7949  10.1300  10.9579

          k = 0.0000-0.1179 0.0000 ( 14183 PWs)   bands (ev):

   -15.6889 -14.6256 -12.8978 -10.8159  -9.8376  -9.4403  -6.8651  -6.2534
    -5.2982  -4.2649  -3.4086  -2.7569  -1.8302  -1.7810  -0.9434  -0.6540
     0.1149   0.3483   1.3210   1.4376   2.4393   2.6343   3.5998   3.6058
     4.0841   4.0971   7.2402   7.5446   9.9896  10.1297  11.0541

          k = 0.0000-0.1768 0.0000 ( 14138 PWs)   bands (ev):

   -15.3735 -14.3215 -12.6309 -11.0270 -10.6243 -10.2184  -7.0634  -6.8129
    -5.1068  -4.6075  -2.9211  -2.0378  -1.9417  -1.1692  -0.3586  -0.0028
     0.0784   0.3638   1.4599   1.7833   2.2995   2.5458   3.1848   3.3455
     3.3836   3.8242   7.6080   7.8799  10.2073  10.2800  10.9685

          k = 0.0000-0.2357 0.0000 ( 14138 PWs)   bands (ev):

   -14.9342 -13.9016 -12.2888 -11.9807 -11.0436 -10.6699  -7.6057  -6.6886
    -5.7684  -4.2763  -3.2376  -1.5757  -1.1206  -0.5512  -0.0265   0.0487
     0.7008   0.9583   1.6340   1.6899   2.3424   2.3960   2.6518   2.6930
     3.2190   3.2238   8.1227   8.3141  10.3755  10.3850  10.9216

          k = 0.0000-0.2946 0.0000 ( 14124 PWs)   bands (ev):

   -14.3740 -13.3901 -12.8587 -12.1291 -11.5794 -10.8774  -7.7407  -7.0045
    -5.7234  -4.6282  -3.0339  -1.8550  -0.4502   0.0283   0.5601   0.8444
     1.0500   1.1095   1.8005   1.8579   1.9323   2.2021   2.2921   2.3246
     2.6426   2.8167   8.7605   8.8269   9.9923  10.4517  10.6895

          k = 0.0000 0.3536 0.0000 ( 14112 PWs)   bands (ev):

   -13.7017 -13.7017 -12.7136 -12.7136 -11.2611 -11.2611  -7.4845  -7.4845
    -5.2257  -5.2257  -2.4704  -2.4704   0.0738   0.0738   1.1564   1.1564
     1.3007   1.3007   1.5908   1.5908   1.9997   1.9997   2.1113   2.1113
     2.5237   2.5237   9.2764   9.2764   9.7127   9.7127  11.1035

          k = 0.0667-0.0000 0.0000 ( 14175 PWs)   bands (ev):

   -15.8606 -14.7904 -13.0399 -10.8467  -8.6665  -7.5626  -7.2884  -6.3576
    -4.7796  -4.3889  -3.9487  -2.8992  -2.7129  -2.0428  -1.2995  -0.6831
    -0.4794  -0.4041   0.8302   1.7137   2.1082   2.3476   3.5924   3.7942
     4.2731   4.3936   7.0335   7.3146   9.7383  10.9519  11.0211

          k = 0.0667-0.0589 0.0000 ( 14164 PWs)   bands (ev):

   -15.7973 -14.7290 -12.9842 -10.8152  -8.8373  -8.6254  -6.5953  -6.2580
    -5.3105  -3.9834  -3.8042  -3.0900  -2.3640  -1.9597  -1.2305  -0.7255
    -0.4198  -0.2627   0.8668   1.8482   1.9746   2.3259   3.4910   3.7337
     4.0679   4.3501   7.1075   7.4005   9.8291  10.6526  11.2112

          k = 0.0667-0.1179 0.0000 ( 14140 PWs)   bands (ev):

   -15.6077 -14.5454 -12.8192 -10.7398  -9.7696  -9.3704  -6.8042  -6.1994
    -5.2631  -4.2220  -3.3761  -2.7518  -1.8138  -1.7251  -1.0248  -0.9465
    -0.2314   0.3354   0.9780   1.4219   2.2740   2.3410   3.1948   3.3105
     3.6303   4.3102   7.3292   7.6311  10.0651  10.5913  11.4227

          k = 0.0667-0.1768 0.0000 ( 14140 PWs)   bands (ev):

   -15.2927 -14.2417 -12.5530 -10.9541 -10.5502 -10.1475  -6.9997  -6.7444
    -5.0534  -4.5596  -2.9202  -2.0650  -1.9323  -1.2146  -0.6460  -0.0941
     0.0690   0.1224   1.1693   1.7162   2.1803   2.2363   2.6331   2.6909
     3.4189   4.0722   7.7008   7.9760  10.3931  10.6247  11.2380

          k = 0.0667-0.2357 0.0000 ( 14136 PWs)   bands (ev):

   -14.8539 -13.8225 -12.2118 -11.9056 -10.9705 -10.5964  -7.5359  -6.6178
    -5.7080  -4.2155  -3.2054  -1.5381  -1.3549  -0.5407  -0.3197  -0.0717
     0.6549   0.7265   1.4484   1.6922   1.8346   2.0755   2.1380   2.2456
     3.3166   3.5304   8.2167   8.4254  10.5882  10.7617  11.1062

          k = 0.0667-0.2946 0.0000 ( 14110 PWs)   bands (ev):

   -14.2944 -13.3118 -12.7816 -12.0531 -11.5044 -10.8042  -7.6682  -6.9340
    -5.6585  -4.5657  -2.9901  -1.8124  -0.5026  -0.4081   0.3248   0.6616
     0.9007   1.0726   1.2802   1.4423   1.6268   1.8832   2.0026   2.5000
     2.7568   2.9695   8.8571   8.9590  10.2067  10.5607  11.0185

          k = 0.0667 0.3536 0.0000 ( 14136 PWs)   bands (ev):

   -13.6231 -13.6231 -12.6366 -12.6366 -11.1869 -11.1869  -7.4124  -7.4124
    -5.1613  -5.1613  -2.4246  -2.4246   0.0530   0.0530   0.3809   0.3809
     0.9161   0.9161   1.6277   1.6277   1.7902   1.7902   2.2095   2.2095
     2.5260   2.5260   9.4110   9.4110   9.8477   9.8477  11.3743

          k = 0.1333-0.0000 0.0000 ( 14177 PWs)   bands (ev):

   -15.6168 -14.5493 -12.8032 -10.6158  -8.4444  -7.3458  -7.2343  -6.3114
    -4.7481  -4.1821  -3.7253  -2.7361  -2.7048  -2.2714  -1.8293  -1.4199
    -0.6102  -0.4318  -0.0731   1.4327   1.5887   2.0493   2.6456   3.2788
     3.3495   4.1434   7.2730   7.5630   9.8153  10.7723  11.0109

          k = 0.1333-0.0589 0.0000 ( 14151 PWs)   bands (ev):

   -15.5536 -14.4881 -12.7478 -10.5850  -8.6221  -8.4473  -6.4888  -6.1762
    -5.2163  -3.8665  -3.6184  -3.0369  -2.2976  -2.1571  -1.7640  -1.3060
    -0.7195  -0.2610  -0.0075   1.4209   1.7792   1.8055   2.5614   2.7857
     3.7548   3.9619   7.3563   7.6468   9.9511  10.9463  11.1606

          k = 0.1333-0.1179 0.0000 ( 14131 PWs)   bands (ev):

   -15.3646 -14.3053 -12.5839 -10.5121  -9.5705  -9.1632  -6.6341  -6.0492
    -5.2053  -4.1094  -3.3403  -2.8294  -1.8701  -1.7316  -1.5935  -1.0369
    -0.9330   0.2223   0.2565   1.3509   1.3949   1.8818   2.1453   2.4731
     3.5367   4.0168   7.5944   7.8811  10.2693  11.3677  11.5284

          k = 0.1333-0.1768 0.0000 ( 14121 PWs)   bands (ev):

   -15.0506 -14.0029 -12.3196 -10.7378 -10.3290  -9.9371  -6.8156  -6.5462
    -4.9033  -4.4668  -3.0475  -2.2130  -2.1581  -1.3307  -1.0785  -0.5588
    -0.2642   0.0807   0.6668   1.2660   1.3508   1.5069   1.5625   2.3138
     3.2370   3.9868   7.9744   8.2418  10.6556  11.4843  11.7931

          k = 0.1333-0.2357 0.0000 ( 14120 PWs)   bands (ev):

   -14.6134 -13.5856 -11.9811 -11.6821 -10.7529 -10.3767  -7.3312  -6.4101
    -5.5350  -4.0520  -3.1865  -2.0814  -1.6454  -1.0481  -0.4377  -0.1883
    -0.0561   0.5682   0.6667   0.9487   1.1440   1.2585   1.7524   1.9197
     3.1581   3.6182   8.4912   8.7131  10.9841  11.5511  11.5770

          k = 0.1333-0.2946 0.0000 ( 14118 PWs)   bands (ev):

   -14.0562 -13.0776 -12.5515 -11.8259 -11.2804 -10.5853  -7.4545  -6.7263
    -5.4702  -4.3843  -2.9171  -1.7389  -1.5562  -0.7897  -0.4080  -0.0367
     0.1598   0.3993   0.8611   0.9078   1.1485   1.5506   1.8092   2.1686
     2.9167   2.9456   9.1297   9.2709  10.6551  10.8378  11.8212

          k = 0.1333 0.3536 0.0000 ( 14138 PWs)   bands (ev):

   -13.3881 -13.3881 -12.4064 -12.4064 -10.9651 -10.9651  -7.1997  -7.1997
    -4.9743  -4.9743  -2.3337  -2.3337  -0.9308  -0.9308  -0.2745  -0.2745
     0.2635   0.2635   0.6973   0.6973   1.9410   1.9410   2.1268   2.1268
     2.4401   2.4401   9.7056   9.7056  10.1993  10.1993  12.0725

          k = 0.2000-0.0000 0.0000 ( 14165 PWs)   bands (ev):

   -15.2117 -14.1490 -12.4102 -10.2326  -8.0754  -7.2795  -6.9853  -6.3630
    -4.8131  -3.8462  -3.3602  -3.3248  -2.7922  -2.4786  -2.4523  -1.4804
    -1.0941  -0.5458  -0.5201   0.3884   1.3241   1.4856   1.8814   2.0431
     2.4638   3.8990   7.7013   7.9594  10.0725  10.2142  10.9183

          k = 0.2000-0.0589 0.0000 ( 14130 PWs)   bands (ev):

   -15.1490 -14.0883 -12.3555 -10.2032  -8.2708  -8.2010  -6.4179  -6.1627
    -5.1525  -3.7859  -3.5056  -3.0563  -2.9121  -2.3124  -2.1947  -1.3917
    -0.9075  -0.7649  -0.3478   0.4283   1.2316   1.4376   1.6039   1.7448
     2.9268   3.7518   7.7885   8.0447  10.2270  10.4359  10.9793

          k = 0.2000-0.1179 0.0000 ( 14131 PWs)   bands (ev):

   -14.9610 -13.9067 -12.1935 -10.1347  -9.2620  -8.8291  -6.4136  -5.8536
    -5.3653  -4.0122  -3.4816  -3.2882  -2.2236  -2.0784  -1.6063  -1.2815
    -1.0619  -0.2901  -0.1477   0.5151   0.6936   0.8482   1.3634   1.8966
     3.3619   3.3724   8.0349   8.2865  10.5967  11.0480  11.2234

          k = 0.2000-0.1768 0.0000 ( 14129 PWs)   bands (ev):

   -14.6489 -13.6066 -11.9325 -10.3880  -9.9640  -9.5958  -6.5403  -6.2533
    -4.7121  -4.7013  -3.3744  -3.0620  -2.3098  -1.5775  -1.1800  -1.0493
    -0.4204  -0.2842   0.0732   0.2780   0.4190   0.4935   1.1943   2.0305
     2.9480   3.5373   8.4199   8.6580  11.0186  11.7237  11.8844

          k = 0.2000-0.2357 0.0000 ( 14125 PWs)   bands (ev):

   -14.2146 -13.1929 -11.5989 -11.3167 -10.3968 -10.0130  -7.0108  -6.0841
    -5.2863  -4.1232  -3.4937  -2.6999  -2.4989  -1.3115  -1.2267  -0.8411
    -0.3548  -0.2296   0.0340   0.1056   0.6780   0.9918   1.3925   1.7280
     2.7447   3.3905   8.9329   9.1351  11.3810  11.9172  12.0909

          k = 0.2000-0.2946 0.0000 ( 14129 PWs)   bands (ev):

   -13.6616 -12.6898 -12.1727 -11.4508 -10.9106 -10.2233  -7.1141  -6.3951
    -5.1903  -4.1137  -3.4226  -2.3203  -2.2067  -1.9161  -1.0919  -1.0827
    -0.8726  -0.4092   0.1173   1.0011   1.2399   1.3527   1.3968   1.7025
     2.5866   2.9109   9.5508   9.6873  11.1188  11.2377  12.3535

          k = 0.2000 0.3536 0.0000 ( 14130 PWs)   bands (ev):

   -12.9997 -12.9997 -12.0260 -12.0260 -10.5982 -10.5982  -6.8594  -6.8594
    -4.6933  -4.6933  -2.7761  -2.7761  -1.8324  -1.8324  -1.4561  -1.4561
    -0.6561  -0.6561   0.5576   0.5576   1.4785   1.4785   2.1265   2.1265
     2.2500   2.2500  10.0730  10.0730  10.6967  10.6967  12.7205

          k = 0.2667-0.0000 0.0000 ( 14136 PWs)   bands (ev):

   -14.6480 -13.5920 -11.8638  -9.6999  -7.6909  -7.5617  -6.7637  -6.4821
    -5.2051  -3.9632  -3.3952  -3.1846  -3.1033  -2.8654  -2.1507  -1.7886
    -1.0072  -0.9597  -0.4601  -0.4237   0.4753   0.6717   0.8750   1.4534
     1.5991   3.5259   8.3182   8.4731  10.0369  10.2773  10.6323

          k = 0.2667-0.0589 0.0000 ( 14113 PWs)   bands (ev):

   -14.5857 -13.5319 -11.8100  -9.6725  -8.0986  -7.8194  -6.6263  -6.3350
    -5.3536  -3.8899  -3.7611  -3.3338  -2.6725  -2.5464  -2.3990  -1.2576
    -1.0802  -0.9436  -0.7473  -0.1125   0.1181   0.2789   1.0129   1.4758
     1.9294   3.4191   8.4008   8.5741  10.2630  10.3920  10.7321

          k = 0.2667-0.1179 0.0000 ( 14140 PWs)   bands (ev):

   -14.3995 -13.3525 -11.6509  -9.6124  -8.9242  -8.4087  -6.3566  -6.0740
    -5.7529  -4.2517  -3.7135  -3.4255  -2.8440  -2.0427  -1.5523  -1.5090
    -0.9851  -0.7289  -0.6786  -0.4527  -0.1697   0.1574   1.1713   1.2605
     2.4942   3.1256   8.6413   8.8380  10.7538  10.8927  11.0426

          k = 0.2667-0.1768 0.0000 ( 14119 PWs)   bands (ev):

   -14.0904 -13.0561 -11.3949  -9.9377  -9.4627  -9.1500  -6.2689  -6.0307
    -5.7185  -4.6308  -3.9420  -3.1865  -2.8692  -2.1445  -1.7214  -1.2264
    -0.9943  -0.7522  -0.6794  -0.1072   0.1881   0.2408   0.8223   1.4712
     2.7190   2.8566   9.0228   9.2106  11.3717  11.5052  11.5245

          k = 0.2667-0.2357 0.0000 ( 14146 PWs)   bands (ev):

   -13.6610 -12.6481 -11.0690 -10.8275  -9.9181  -9.5105  -6.6321  -5.7258
    -5.2884  -5.1210  -3.7908  -3.3564  -2.6628  -2.5742  -2.2889  -1.4728
    -1.3699  -0.5844   0.0962   0.2273   0.5475   0.5986   0.8591   1.5101
     2.3322   2.9391   9.5184   9.6689  11.7506  11.8989  12.2014

          k = 0.2667-0.2946 0.0000 ( 14163 PWs)   bands (ev):

   -13.1154 -12.1535 -11.6555 -10.9350 -10.4024  -9.7238  -6.6881  -5.9781
    -4.9820  -4.7552  -3.8847  -3.5001  -3.3051  -2.4918  -2.2163  -1.7550
    -1.6261  -0.8943   0.3174   0.6631   0.7183   1.2140   1.2981   1.4423
     2.1124   2.7002  10.0753  10.1797  11.5725  11.7233  12.5777

          k = 0.2667 0.3536 0.0000 ( 14158 PWs)   bands (ev):

   -12.4643 -12.4643 -11.5020 -11.5020 -10.0917 -10.0917  -6.4279  -6.4279
    -4.4683  -4.4683  -4.1201  -4.1201  -2.9253  -2.9253  -1.9434  -1.9434
    -1.3844  -1.3844   0.6975   0.6975   0.7992   0.7992   1.8377   1.8377
     2.1604   2.1604  10.4775  10.4775  11.3214  11.3215  12.9369

          k = 0.3333-0.0000 0.0000 ( 14106 PWs)   bands (ev):

   -13.9296 -12.8826 -11.1683  -9.0220  -8.5970  -7.6424  -6.9064  -6.0535
    -5.8382  -4.0198  -3.9441  -3.1372  -2.8523  -2.2604  -1.9375  -1.8835
    -1.7888  -0.7923  -0.6676  -0.4992  -0.4176  -0.1109   0.2450   0.3609
     1.1739   3.0205   9.0526   9.0802   9.9314  10.2620  11.3458

          k = 0.3333-0.0589 0.0000 ( 14105 PWs)   bands (ev):

   -13.8682 -12.8236 -11.1159  -9.0001  -8.6508  -7.7670  -6.8448  -6.2127
    -6.0656  -4.0879  -3.7185  -3.5433  -2.6154  -2.1402  -2.1167  -1.9700
    -1.2585  -1.1178  -1.0390  -0.3767  -0.3382  -0.3338   0.3882   0.8560
     1.1085   2.9552   9.1381   9.2046  10.0899  10.3957  11.3794

          k = 0.3333-0.1179 0.0000 ( 14124 PWs)   bands (ev):

   -13.6847 -12.6475 -10.9611  -9.0132  -8.8350  -8.1363  -6.6957  -6.6690
    -6.1327  -4.3740  -4.0483  -3.2312  -2.9812  -2.4134  -2.1753  -1.6383
    -1.4949  -1.0463  -0.7419  -0.5035  -0.3414  -0.1306   0.5944   0.8986
     1.5512   2.7685   9.3821   9.4976  10.5726  10.7392  11.3462

          k = 0.3333-0.1768 0.0000 ( 14143 PWs)   bands (ev):

   -13.3808 -12.3570 -10.7128  -9.5240  -8.8388  -8.7067  -6.8116  -6.3883
    -6.2575  -4.7204  -4.1488  -3.6087  -3.1068  -2.9891  -2.5432  -1.9520
    -1.3140  -0.5030  -0.4562  -0.3844  -0.0976   0.2481   0.6157   0.7924
     2.0767   2.4843   9.7483   9.8541  11.1445  11.3181  12.0001

          k = 0.3333-0.2357 0.0000 ( 14176 PWs)   bands (ev):

   -12.9596 -11.9585 -10.3991 -10.2726  -9.3682  -8.8822  -6.6046  -6.3417
    -6.0090  -5.1335  -4.0448  -3.9916  -3.8674  -3.3957  -2.4289  -2.3000
    -1.6196  -0.5033  -0.1365  -0.0077   0.3800   0.5116   0.8037   0.9648
     2.1412   2.3633  10.1800  10.2728  11.7758  11.8031  12.2202

          k = 0.3333-0.2946 0.0000 ( 14187 PWs)   bands (ev):

   -12.4272 -11.4789 -11.0275 -10.2976  -9.7731  -9.0998  -6.3434  -6.0904
    -5.6040  -5.5433  -4.7938  -4.3886  -3.7497  -3.3631  -2.7555  -2.6527
    -1.4397  -0.6819  -0.1953  -0.0296   0.5699   0.9684   1.2273   1.4060
     1.8098   2.3622  10.6113  10.6949  12.0770  12.1822  12.3669

          k = 0.3333 0.3536 0.0000 ( 14178 PWs)   bands (ev):

   -11.7974 -11.7974 -10.8497 -10.8497  -9.4579  -9.4579  -6.0353  -6.0353
    -5.5282  -5.5282  -4.9699  -4.9699  -3.3673  -3.3673  -2.9569  -2.9569
    -1.0511  -1.0511  -0.1417  -0.1417   0.8494   0.8494   1.5019   1.5019
     2.0497   2.0497  10.8769  10.8769  12.0073  12.0074  13.0395

          k = 0.4000-0.0000 0.0000 ( 14136 PWs)   bands (ev):

   -13.0633 -12.0278 -10.3309  -9.7555  -8.7741  -8.2060  -7.1527  -6.1144
    -5.1009  -5.0563  -3.4576  -3.0289  -2.7315  -2.2523  -1.9352  -1.7138
    -1.5899  -1.4310  -0.8997  -0.7737  -0.6176  -0.5441  -0.5017   0.2469
     0.6058   2.3994   9.4916   9.8153  10.4051  10.4612  11.2043

          k = 0.4000-0.0589 0.0000 ( 14124 PWs)   bands (ev):

   -13.0034 -11.9706 -10.2807  -9.7268  -8.7517  -8.1858  -7.1212  -6.1945
    -5.5938  -5.1054  -3.2357  -3.1622  -2.9620  -2.5263  -2.2815  -1.6561
    -1.4482  -1.0564  -1.0290  -0.8742  -0.6935  -0.2178  -0.1561   0.2921
     0.6068   2.3722   9.6941   9.9097  10.3778  10.4767  11.3732

          k = 0.4000-0.1179 0.0000 ( 14132 PWs)   bands (ev):

   -12.8248 -11.8000 -10.1328  -9.6640  -8.7092  -8.1402  -7.0313  -6.4537
    -6.4298  -5.1335  -3.6621  -3.5488  -3.4700  -2.9553  -2.3101  -1.5384
    -1.3066  -0.9948  -0.9680  -0.6833  -0.5668   0.1045   0.3069   0.4359
     0.7975   2.2906  10.1494  10.1528  10.4823  10.7622  11.5110

          k = 0.4000-0.1768 0.0000 ( 14160 PWs)   bands (ev):

   -12.5300 -11.5199  -9.8972  -9.6619  -8.7396  -8.1155  -7.1877  -6.8503
    -6.7049  -5.2258  -4.4128  -4.1284  -3.7836  -3.5009  -2.0372  -1.9764
    -1.5316  -1.1542  -0.5221  -0.1503  -0.1123   0.2335   0.3052   0.7117
     1.3579   2.1556  10.4817  10.4829  11.0121  11.3924  11.5042

          k = 0.4000-0.2357 0.0000 ( 14171 PWs)   bands (ev):

   -12.1248 -11.1388  -9.8996  -9.6088  -8.9677  -8.1793  -7.4840  -6.7708
    -6.6365  -5.4845  -5.2191  -4.7874  -3.8222  -3.6838  -2.5557  -2.1097
    -1.4080  -1.3035  -0.5681   0.0310   0.2429   0.2946   0.8402   0.9996
     1.7919   1.9709  10.7494  10.8767  11.7465  11.7670  12.1578

          k = 0.4000-0.2946 0.0000 ( 14184 PWs)   bands (ev):

   -11.6205 -10.6936 -10.3854  -9.6109  -9.0699  -8.3948  -7.3148  -6.5535
    -6.3492  -6.1389  -5.6117  -5.4318  -3.8715  -3.5540  -2.9114  -2.4524
    -1.3159  -1.1976  -0.6663  -0.2389   0.4290   0.4530   1.2590   1.4832
     1.7492   1.9796  11.0829  11.1463  12.1448  12.3756  12.7451

          k = 0.4000 0.3536 0.0000 ( 14196 PWs)   bands (ev):

   -11.0425 -11.0425 -10.1126 -10.1126  -8.7318  -8.7318  -6.8414  -6.8414
    -6.1380  -6.1380  -5.8752  -5.8752  -3.7021  -3.7021  -2.7971  -2.7971
    -1.2176  -1.2176  -0.5244  -0.5244   0.5001   0.5001   1.5005   1.5005
     1.8841   1.8841  11.2578  11.2578  12.3348  12.3348  13.2633

          k = 0.4667-0.0000 0.0000 ( 14100 PWs)   bands (ev):

   -12.0608 -11.0397 -10.9436  -9.9403  -9.3640  -8.2897  -7.2632  -6.2142
    -5.1932  -4.1559  -4.1405  -3.0969  -2.7050  -2.0963  -1.7988  -1.6274
    -1.3963  -1.3642  -1.1076  -1.0159  -0.9845  -0.9319  -0.8007  -0.0725
     0.9657   1.6990   9.8752  10.3664  10.5873  10.5884  10.7781

          k = 0.4667-0.0589 0.0000 ( 14139 PWs)   bands (ev):

   -12.0039 -10.9858 -10.8935  -9.8939  -9.3173  -8.2525  -7.2385  -6.2006
    -5.3017  -4.7271  -4.2767  -3.6933  -2.5327  -2.1809  -1.7916  -1.7331
    -1.3248  -1.2328  -1.1297  -0.9207  -0.8489  -0.7517  -0.5516  -0.0162
     0.9975   1.7040  10.0631  10.2326  10.6497  10.7886  11.1344

          k = 0.4667-0.1179 0.0000 ( 14148 PWs)   bands (ev):

   -11.8349 -10.8262 -10.7484  -9.7607  -9.1802  -8.1484  -7.1721  -6.1712
    -5.6764  -5.6399  -4.6527  -4.6464  -2.9181  -2.3885  -2.0857  -1.7238
    -1.5151  -1.1282  -0.8042  -0.6474  -0.4016  -0.3939  -0.1228   0.2381
     1.0884   1.7145  10.4371  10.5507  10.6638  10.9884  11.5125

          k = 0.4667-0.1768 0.0000 ( 14178 PWs)   bands (ev):

   -11.5599 -10.5701 -10.5265  -9.5628  -8.9621  -8.0053  -7.0990  -6.5664
    -6.1826  -6.1439  -5.5873  -5.2134  -3.0506  -2.9489  -2.2572  -2.2307
    -1.4063  -1.2216  -0.8500  -0.3922  -0.0085   0.0287   0.4048   0.7776
     1.2309   1.7197  10.8274  10.8905  11.0789  11.4274  11.6837

          k = 0.4667-0.2357 0.0000 ( 14159 PWs)   bands (ev):

   -11.1933 -10.3009 -10.2177  -9.3595  -8.6815  -7.8883  -7.4175  -6.8813
    -6.6859  -6.5476  -6.1089  -5.8507  -3.3583  -3.0463  -2.6605  -2.3412
    -1.6817  -1.3129  -0.7931  -0.3382   0.1332   0.2435   1.0426   1.2123
     1.4646   1.7124  11.1687  11.2881  11.5508  11.6931  12.3081

          k = 0.4667-0.2946 0.0000 ( 14172 PWs)   bands (ev):

   -10.7693 -10.1902  -9.8278  -9.2838  -8.3690  -7.8999  -7.8235  -7.2668
    -6.9751  -6.7566  -6.4138  -6.2633  -3.5343  -3.2281  -2.7281  -2.4382
    -1.8181  -1.5643  -0.6407  -0.3828   0.2005   0.2983   1.3942   1.4522
     1.7229   1.7305  11.5175  11.5278  11.8750  11.9838  13.1578

          k = 0.4667 0.3536 0.0000 ( 14194 PWs)   bands (ev):

   -10.3753 -10.3753  -9.4662  -9.4662  -8.0778  -8.0778  -7.7537  -7.7537
    -6.9041  -6.9041  -6.4618  -6.4618  -3.4672  -3.4672  -2.5827  -2.5827
    -1.7636  -1.7636  -0.4937  -0.4937   0.2620   0.2620   1.4942   1.4942
     1.8045   1.8045  11.6454  11.6454  12.0581  12.0581  13.5389

     the Fermi energy is     5.8426 ev

!    total energy              =    -225.94330002 Ry
     estimated scf accuracy    <          2.7E-09 Ry
     smearing contrib. (-TS)   =       0.00000000 Ry
     internal energy E=F+TS    =    -225.94330002 Ry

     The total energy is F=E-TS. E is the sum of the following terms:
     one-electron contribution =   -1231.91637321 Ry
     hartree contribution      =     640.03931383 Ry
     xc contribution           =     -59.13943484 Ry
     ewald contribution        =     499.03024464 Ry
     one-center paw contrib.   =     -73.95705043 Ry

     convergence has been achieved in  13 iterations

     negative rho (up, down):  2.100E-06 0.000E+00

     Forces acting on atoms (cartesian axes, Ry/au):

     atom    1 type  1   force =     0.00000000    0.00004039    0.00006317
     atom    2 type  1   force =     0.00000000   -0.00004039    0.00006317
     atom    3 type  1   force =     0.00000000    0.00005730    0.00002268
     atom    4 type  1   force =     0.00000000   -0.00005730    0.00002268
     atom    5 type  1   force =     0.00000000   -0.00005311    0.00000960
     atom    6 type  1   force =     0.00000000    0.00005311    0.00000960
     atom    7 type  1   force =     0.00000000    0.00005311   -0.00000960
     atom    8 type  1   force =     0.00000000   -0.00005311   -0.00000960
     atom    9 type  1   force =     0.00000000   -0.00005730   -0.00002268
     atom   10 type  1   force =     0.00000000    0.00005730   -0.00002268
     atom   11 type  1   force =     0.00000000   -0.00004039   -0.00006317
     atom   12 type  1   force =     0.00000000    0.00004039   -0.00006317
     atom   13 type  2   force =     0.00000000   -0.00002884   -0.00009455
     atom   14 type  2   force =     0.00000000    0.00002884   -0.00009455
     atom   15 type  2   force =     0.00000000    0.00002884    0.00009455
     atom   16 type  2   force =     0.00000000   -0.00002884    0.00009455

     Total force =     0.000297     Total SCF correction =     0.000154
     SCF correction compared to forces is large: reduce conv_thr to get better values


     Computing stress (Cartesian axis) and pressure


     negative rho (up, down):  2.100E-06 0.000E+00
          total   stress  (Ry/bohr**3)                   (kbar)     P=       26.20
   0.00017270   0.00000000   0.00000000           25.40        0.00        0.00
   0.00000000   0.00036396   0.00000000            0.00       53.54        0.00
   0.00000000   0.00000000  -0.00000234            0.00        0.00       -0.34


     Writing all to output data dir /tmp/qe/slab.save/ :
     XML data file, charge density, pseudopotentials, collected wavefunctions

     init_run     :      2.44s CPU      2.53s WALL (       1 calls)
     electrons    :     57.24s CPU     57.89s WALL (       1 calls)
     forces       :      0.50s CPU      0.52s WALL (       1 calls)
     stress       :      8.63s CPU      8.66s WALL (       1 calls)

     Called by init_run:
     wfcinit      :      2.16s CPU      2.22s WALL (       1 calls)
     potinit      :      0.12s CPU      0.14s WALL (       1 calls)
     hinit0       :      0.05s CPU      0.06s WALL (       1 calls)

     Called by electrons:
     c_bands      :     46.73s CPU     47.24s WALL (      13 calls)
     sum_band     :      8.61s CPU      8.72s WALL (      13 calls)
     v_of_rho     :      0.67s CPU      0.69s WALL (      14 calls)
     newd         :      0.39s CPU      0.40s WALL (      14 calls)
     PAW_pot      :      0.86s CPU      0.87s WALL (      14 calls)
     mix_rho      :      0.06s CPU      0.06s WALL (      13 calls)

     Called by c_bands:
     init_us_2    :      1.39s CPU      1.42s WALL (    1624 calls)
     cegterg      :     44.47s CPU     44.92s WALL (     728 calls)

     Called by *egterg:
     cdiaghg      :      2.85s CPU      2.87s WALL (    3331 calls)
     h_psi        :     35.14s CPU     35.56s WALL (    3387 calls)
     s_psi        :      1.88s CPU      1.90s WALL (    3387 calls)
     g_psi        :      0.23s CPU      0.23s WALL (    2603 calls)

     Called by h_psi:
     h_psi:calbec :      2.04s CPU      2.07s WALL (    3387 calls)
     vloc_psi     :     30.55s CPU     30.91s WALL (    3387 calls)
     add_vuspsi   :      2.31s CPU      2.33s WALL (    3387 calls)

     General routines
     calbec       :      2.99s CPU      3.03s WALL (    4395 calls)
     fft          :      0.31s CPU      0.35s WALL (     205 calls)
     ffts         :      0.01s CPU      0.01s WALL (      27 calls)
     fftw         :     26.94s CPU     27.24s WALL (  146894 calls)
     interpolate  :      0.03s CPU      0.03s WALL (      14 calls)

     Parallel routines

     PWSCF        :   1m 9.08s CPU   1m10.03s WALL


   This run was terminated on:  15:45:44   2Aug2026            

=------------------------------------------------------------------------------=
   JOB DONE.
=------------------------------------------------------------------------------=
Note: The following floating-point exceptions are signalling: IEEE_UNDERFLOW_FLAG IEEE_DENORMAL
Note: The following floating-point exceptions are signalling: IEEE_UNDERFLOW_FLAG IEEE_DENORMAL
Note: The following floating-point exceptions are signalling: IEEE_UNDERFLOW_FLAG IEEE_DENORMAL
Note: The following floating-point exceptions are signalling: IEEE_UNDERFLOW_FLAG IEEE_DENORMAL
Note: The following floating-point exceptions are signalling: IEEE_UNDERFLOW_FLAG IEEE_DENORMAL
Note: The following floating-point exceptions are signalling: IEEE_UNDERFLOW_FLAG IEEE_DENORMAL
Note: The following floating-point exceptions are signalling: IEEE_UNDERFLOW_FLAG IEEE_DENORMAL
Note: The following floating-point exceptions are signalling: IEEE_UNDERFLOW_FLAG IEEE_DENORMAL
