
     Program PWSCF v.7.3.1 starts on  1Aug2026 at 12:30:56 

     This program is part of the open-source Quantum ESPRESSO suite
     for quantum simulation of materials; please cite
         "P. Giannozzi et al., J. Phys.:Condens. Matter 21 395502 (2009);
         "P. Giannozzi et al., J. Phys.:Condens. Matter 29 465901 (2017);
         "P. Giannozzi et al., J. Chem. Phys. 152 154105 (2020);
          URL http://www.quantum-espresso.org", 
     in publications or presentations arising from this work. More details at
     http://www.quantum-espresso.org/quote

     Parallel version (MPI), running on     8 processors

     MPI processes distributed on     1 nodes
     187593 MiB available memory on the printing compute node when the environment starts

     Reading input from pw.in

     Current dimensions of program PWSCF are:
     Max number of different atomic species (ntypx) = 10
     Max number of k-points (npk) =  40000
     Max angular momentum in pseudopotentials (lmaxx) =  4
     file C.pbe-n-kjpaw_psl.1.0.0.UPF: wavefunction(s)  2S 2P renormalized
     Message from routine volume:
     axis vectors are left-handed
     Found identity + (  0.5000  0.0000  0.0000) symmetry
     This is a supercell, fractional translations are disabled
     Message from routine setup:
     using ibrav=0 with symmetry is DISCOURAGED, use correct ibrav instead

     R & G space division:  proc/nbgrp/npool/nimage =       8
     Subspace diagonalization in iterative solution of the eigenvalue problem:
     a serial algorithm will be used


     Parallelization info
     --------------------
     sticks:   dense  smooth     PW     G-vecs:    dense   smooth      PW
     Min         871     436    117               156923    55481    7680
     Max         872     438    119               156932    55487    7685
     Sum        6969    3497    941              1255407   443871   61463

     Using Slab Decomposition



     bravais-lattice index     =            0
     lattice parameter (alat)  =       9.5505  a.u.
     unit-cell volume          =    2499.5129 (a.u.)^3
     number of atoms/cell      =           32
     number of atomic types    =            2
     number of electrons       =       104.00
     number of Kohn-Sham states=           62
     kinetic-energy cutoff     =     120.0000  Ry
     charge density cutoff     =     960.0000  Ry
     scf convergence threshold =      1.0E-08
     mixing beta               =       0.3000
     number of iterations used =            8  plain     mixing
     Exchange-correlation= PBE
                           (   1   4   3   4   0   0   0)

     celldm(1)=   9.550471  celldm(2)=   0.000000  celldm(3)=   0.000000
     celldm(4)=   0.000000  celldm(5)=   0.000000  celldm(6)=   0.000000

     crystal axes: (cart. coord. in units of alat)
               a(1) = (   1.000000   0.000000   0.000000 )  
               a(2) = (   0.000000  -1.000000   0.000000 )  
               a(3) = (   0.000000   0.000000   2.869333 )  

     reciprocal axes: (cart. coord. in units 2 pi/alat)
               b(1) = (  1.000000 -0.000000 -0.000000 )  
               b(2) = ( -0.000000 -1.000000 -0.000000 )  
               b(3) = ( -0.000000 -0.000000  0.348513 )  


     PseudoPot. # 1 for C  read from file:
     ./C.pbe-n-kjpaw_psl.1.0.0.UPF
     MD5 check sum: 5d2aebdfa2cae82b50a7e79e9516da0f
     Pseudo is Projector augmented-wave + core cor, Zval =  4.0
     Generated using "atomic" code by A. Dal Corso  v.5.1
     Shape of augmentation charge: PSQ
     Using radial grid of 1073 points,  4 beta functions with: 
                l(1) =   0
                l(2) =   0
                l(3) =   1
                l(4) =   1
     Q(r) pseudized with 0 coefficients 


     PseudoPot. # 2 for H  read from file:
     ./H_ONCV_PBE-1.0.oncvpsp.upf
     MD5 check sum: 1790becc920ee074925cf490c71280fe
     Pseudo is Norm-conserving, Zval =  1.0
     Generated using ONCVPSP code by D. R. Hamann
     Using radial grid of 1166 points,  2 beta functions with: 
                l(1) =   0
                l(2) =   0

     atomic species   valence    mass     pseudopotential
     C                 4.00    12.01100     C ( 1.00)
     H                 1.00     1.00800     H ( 1.00)

      4 Sym. Ops. (no inversion) found



   Cartesian axes

     site n.     atom                  positions (alat units)
         1        C      tau(   1) = (   0.0000000  -0.1582087   1.8592812  )
         2        C      tau(   2) = (   0.2500000  -0.2299149   1.6998931  )
         3        C      tau(   3) = (   0.2500000   0.0000000   1.4936626  )
         4        C      tau(   4) = (   0.0000000   0.0000000   1.3178300  )
         5        C      tau(   5) = (   0.0000000  -0.2700851   1.1694404  )
         6        C      tau(   6) = (   0.2500000  -0.3417913   1.0100523  )
         7        C      tau(   7) = (   0.0000000  -0.8417913   1.8592812  )
         8        C      tau(   8) = (   0.2500000  -0.7700851   1.6998931  )
         9        C      tau(   9) = (   0.2500000  -0.5000000   1.5515034  )
        10        C      tau(  10) = (   0.0000000  -0.5000000   1.3756708  )
        11        C      tau(  11) = (   0.0000000  -0.7299149   1.1694404  )
        12        C      tau(  12) = (   0.2500000  -0.6582087   1.0100523  )
        13        H      tau(  13) = (   0.0000000  -0.2449080   2.0590044  )
        14        H      tau(  14) = (   0.0000000  -0.7550920   2.0590044  )
        15        H      tau(  15) = (   0.2500000  -0.2550919   0.8103291  )
        16        H      tau(  16) = (   0.2500000  -0.7449081   0.8103291  )
        17        C      tau(  17) = (   0.5000000  -0.1582087   1.8592812  )
        18        C      tau(  18) = (   0.7500000  -0.2299149   1.6998931  )
        19        C      tau(  19) = (   0.7500000   0.0000000   1.4936626  )
        20        C      tau(  20) = (   0.5000000   0.0000000   1.3178300  )
        21        C      tau(  21) = (   0.5000000  -0.2700851   1.1694404  )
        22        C      tau(  22) = (   0.7500000  -0.3417913   1.0100523  )
        23        C      tau(  23) = (   0.5000000  -0.8417913   1.8592812  )
        24        C      tau(  24) = (   0.7500000  -0.7700851   1.6998931  )
        25        C      tau(  25) = (   0.7500000  -0.5000000   1.5515034  )
        26        C      tau(  26) = (   0.5000000  -0.5000000   1.3756708  )
        27        C      tau(  27) = (   0.5000000  -0.7299149   1.1694404  )
        28        C      tau(  28) = (   0.7500000  -0.6582087   1.0100523  )
        29        H      tau(  29) = (   0.5000000  -0.2449080   2.0590044  )
        30        H      tau(  30) = (   0.5000000  -0.7550920   2.0590044  )
        31        H      tau(  31) = (   0.7500000  -0.2550919   0.8103291  )
        32        H      tau(  32) = (   0.7500000  -0.7449081   0.8103291  )

     number of k points=     9  Marzari-Vanderbilt smearing, width (Ry)=  0.0100
                       cart. coord. in units 2pi/alat
        k(    1) = (   0.0000000  -0.0000000   0.0000000), wk =   0.0800000
        k(    2) = (   0.0000000  -0.2000000   0.0000000), wk =   0.1600000
        k(    3) = (   0.0000000  -0.4000000   0.0000000), wk =   0.1600000
        k(    4) = (   0.2000000  -0.2000000   0.0000000), wk =   0.3200000
        k(    5) = (   0.2000000  -0.4000000   0.0000000), wk =   0.3200000
        k(    6) = (   0.4000000  -0.4000000   0.0000000), wk =   0.3200000
        k(    7) = (  -0.2000000   0.0000000   0.0000000), wk =   0.1600000
        k(    8) = (  -0.4000000   0.0000000   0.0000000), wk =   0.1600000
        k(    9) = (  -0.4000000   0.2000000   0.0000000), wk =   0.3200000

     Dense  grid:  1255407 G-vectors     FFT dimensions: (  96,  96, 288)

     Smooth grid:   443871 G-vectors     FFT dimensions: (  72,  72, 192)

     Estimated max dynamical RAM per process >     452.88 MB

     Estimated total dynamical RAM >       3.54 GB

     Initial potential from superposition of free atoms

     starting charge     103.9989, renormalised to     104.0000
     Starting wfcs are  104 randomized atomic wfcs
     Checking if some PAW data can be deallocated... 

     total cpu time spent up to now is        4.1 secs

     Self-consistent Calculation

     iteration #  1     ecut=   120.00 Ry     beta= 0.30
     Davidson diagonalization with overlap
     ethr =  1.00E-02,  avg # of iterations =  3.0

     total cpu time spent up to now is       11.0 secs

     total energy              =    -451.91551261 Ry
     estimated scf accuracy    <       2.44313162 Ry

     iteration #  2     ecut=   120.00 Ry     beta= 0.30
     Davidson diagonalization with overlap
     ethr =  2.35E-03,  avg # of iterations =  4.6

     total cpu time spent up to now is       16.7 secs

     total energy              =    -451.75800397 Ry
     estimated scf accuracy    <       0.72367546 Ry

     iteration #  3     ecut=   120.00 Ry     beta= 0.30
     Davidson diagonalization with overlap
     ethr =  6.96E-04,  avg # of iterations =  8.2

     total cpu time spent up to now is       23.8 secs

     total energy              =    -451.78483240 Ry
     estimated scf accuracy    <       0.10760729 Ry

     iteration #  4     ecut=   120.00 Ry     beta= 0.30
     Davidson diagonalization with overlap
     ethr =  1.03E-04,  avg # of iterations =  3.9

     total cpu time spent up to now is       29.7 secs

     total energy              =    -451.79433101 Ry
     estimated scf accuracy    <       0.01069742 Ry

     iteration #  5     ecut=   120.00 Ry     beta= 0.30
     Davidson diagonalization with overlap
     c_bands:  1 eigenvalues not converged
     ethr =  1.03E-05,  avg # of iterations = 11.0

     total cpu time spent up to now is       37.8 secs

     total energy              =    -451.79624244 Ry
     estimated scf accuracy    <       0.00281146 Ry

     iteration #  6     ecut=   120.00 Ry     beta= 0.30
     Davidson diagonalization with overlap
     ethr =  2.70E-06,  avg # of iterations =  7.1

     total cpu time spent up to now is       44.5 secs

     total energy              =    -451.79657378 Ry
     estimated scf accuracy    <       0.00033851 Ry

     iteration #  7     ecut=   120.00 Ry     beta= 0.30
     Davidson diagonalization with overlap
     ethr =  3.25E-07,  avg # of iterations =  3.1

     total cpu time spent up to now is       50.6 secs

     total energy              =    -451.79662270 Ry
     estimated scf accuracy    <       0.00004983 Ry

     iteration #  8     ecut=   120.00 Ry     beta= 0.30
     Davidson diagonalization with overlap
     ethr =  4.79E-08,  avg # of iterations =  3.1

     total cpu time spent up to now is       56.7 secs

     total energy              =    -451.79663385 Ry
     estimated scf accuracy    <       0.00001853 Ry

     iteration #  9     ecut=   120.00 Ry     beta= 0.30
     Davidson diagonalization with overlap
     ethr =  1.78E-08,  avg # of iterations =  2.1

     total cpu time spent up to now is       62.6 secs

     total energy              =    -451.79663759 Ry
     estimated scf accuracy    <       0.00000252 Ry

     iteration # 10     ecut=   120.00 Ry     beta= 0.30
     Davidson diagonalization with overlap
     ethr =  2.43E-09,  avg # of iterations =  3.8

     total cpu time spent up to now is       69.4 secs

     total energy              =    -451.79663778 Ry
     estimated scf accuracy    <       0.00000150 Ry

     iteration # 11     ecut=   120.00 Ry     beta= 0.30
     Davidson diagonalization with overlap
     ethr =  1.44E-09,  avg # of iterations =  2.9

     total cpu time spent up to now is       75.5 secs

     total energy              =    -451.79663817 Ry
     estimated scf accuracy    <       0.00000005 Ry

     iteration # 12     ecut=   120.00 Ry     beta= 0.30
     Davidson diagonalization with overlap
     ethr =  5.07E-11,  avg # of iterations =  3.7

     total cpu time spent up to now is       81.6 secs

     total energy              =    -451.79663816 Ry
     estimated scf accuracy    <       0.00000003 Ry

     iteration # 13     ecut=   120.00 Ry     beta= 0.30
     Davidson diagonalization with overlap
     ethr =  2.68E-11,  avg # of iterations =  4.8

     total cpu time spent up to now is       89.0 secs

     total energy              =    -451.79663816 Ry
     estimated scf accuracy    <       0.00000004 Ry

     iteration # 14     ecut=   120.00 Ry     beta= 0.30
     Davidson diagonalization with overlap
     ethr =  2.68E-11,  avg # of iterations =  2.8

     total cpu time spent up to now is       94.8 secs

     End of self-consistent calculation

          k = 0.0000-0.0000 0.0000 ( 55539 PWs)   bands (ev):

   -17.7365 -16.0426 -13.3845 -13.3845 -13.1653 -12.9579 -12.8591 -11.8376
   -11.5619 -11.5619  -9.2936  -9.2936  -9.0375  -8.8362  -8.8362  -8.7017
    -8.1487  -8.1487  -7.8479  -7.7725  -7.7725  -5.4174  -5.3764  -5.1806
    -4.8116  -4.8116  -3.9141  -3.9141  -3.4817  -3.4817  -2.6859  -2.2175
    -2.2143  -2.2143  -2.1213  -2.1213  -1.9101  -1.7692  -1.6572  -1.2008
    -1.1739  -1.1739   0.2225   0.4049   0.4049   0.4339   0.5393   0.8083
     0.8623   0.9922   1.3435   1.6795   5.4415   5.8934   7.4676   7.7478
     7.7915   8.3924   8.6202   8.9960   8.9960   9.1664

          k = 0.0000-0.2000 0.0000 ( 55515 PWs)   bands (ev):

   -17.5715 -16.0587 -14.2559 -13.3606 -13.2278 -13.2278 -11.7163 -11.5793
   -11.5793 -11.5553 -10.3250 -10.3250  -9.1347  -8.5598  -8.5598  -8.1740
    -7.7717  -7.6267  -7.6267  -7.4643  -7.4643  -5.9218  -5.0481  -4.9218
    -4.9218  -4.7792  -3.8349  -3.8349  -3.2788  -3.2788  -3.2187  -2.5466
    -2.3049  -2.3049  -1.9237  -1.8788  -1.8788  -1.8492  -1.3322  -1.2213
    -1.1956  -1.1956  -0.3782  -0.3053  -0.3053  -0.2296   0.3862   0.5936
     1.2242   1.3223   1.3435   1.6252   5.6751   6.0962   7.7916   8.1297
     8.2556   8.5361   8.6142   8.8254   8.9133   8.9133

          k = 0.0000-0.4000 0.0000 ( 55420 PWs)   bands (ev):

   -17.0974 -16.4370 -14.5990 -14.1010 -12.7962 -12.7962 -11.9653 -11.9653
   -11.3589 -10.9879 -10.8308 -10.8308  -9.0013  -9.0013  -8.6172  -7.7910
    -7.2633  -7.1373  -7.1373  -6.8015  -6.8015  -6.3061  -5.0008  -4.6067
    -4.6067  -4.4749  -3.9876  -3.6906  -3.6906  -3.2285  -3.2285  -3.1342
    -2.1493  -2.0386  -2.0386  -1.9340  -1.9340  -1.6849  -1.5878  -1.4126
    -1.4126  -1.2827  -1.2827  -1.1189  -0.4953  -0.3332   0.0594   0.1048
     0.8718   1.2421   1.7410   1.8279   6.3246   6.6646   7.3735   7.5922
     8.2333   8.5971   8.6121   8.6121   8.8751   8.9580

          k = 0.2000-0.2000 0.0000 ( 55499 PWs)   bands (ev):

   -17.3887 -15.8790 -14.7048 -14.0819 -13.2928 -13.1897 -11.6734 -11.5528
   -11.3892 -11.0676 -10.8774  -9.9543  -9.0337  -8.9606  -8.6512  -8.0320
    -7.9383  -7.6299  -7.2679  -6.2660  -6.1417  -5.8439  -5.6034  -5.0702
    -4.9886  -4.6747  -4.3511  -3.6578  -3.5484  -3.1087  -3.0202  -2.6764
    -2.3765  -2.3404  -2.3122  -1.9168  -1.7545  -1.7494  -1.5150  -1.2973
    -1.1690  -1.0186  -0.9165  -0.5209  -0.4938  -0.1697   0.1359   0.3125
     0.5688   0.6962   1.2581   1.3765   5.8423   6.2918   8.0254   8.1665
     8.2788   8.6052   8.6754   8.8245   8.8514   8.9937

          k = 0.2000-0.4000 0.0000 ( 55466 PWs)   bands (ev):

   -16.9152 -16.2560 -14.4248 -14.2428 -13.9282 -13.6062 -11.9999 -11.5085
   -11.1975 -10.8289 -10.7726 -10.3684  -8.5270  -8.5124  -8.4284  -7.8957
    -7.6940  -7.5084  -7.1176  -6.1606  -5.7654  -5.4034  -5.3973  -4.9006
    -4.6894  -4.3911  -4.2027  -3.9993  -3.9267  -3.2475  -3.0966  -2.9794
    -2.7146  -2.6499  -2.4568  -1.9179  -1.8653  -1.7423  -1.5887  -1.2858
    -1.2733  -1.1146  -0.9440  -0.8882  -0.8436  -0.7979  -0.5076  -0.0068
     0.9111   1.0053   1.0358   1.3648   6.4900   6.8606   7.5359   7.7640
     8.0011   8.1806   8.3144   8.8513   8.9466   9.2311

          k = 0.4000-0.4000 0.0000 ( 55464 PWs)   bands (ev):

   -16.3711 -15.7152 -15.4732 -14.8235 -13.9069 -13.4145 -13.0646 -12.5794
   -10.7255 -10.3640 -10.0401  -9.7559  -8.7791  -8.3339  -8.1360  -7.5483
    -6.7370  -6.5049  -6.2556  -5.7764  -5.6853  -5.3752  -5.3317  -5.0307
    -4.8288  -4.8165  -4.4013  -4.1619  -3.9758  -3.9358  -3.5219  -3.2644
    -2.9315  -2.7819  -2.6940  -2.5053  -2.1854  -2.0287  -1.5028  -1.4775
    -1.2710  -1.2052  -1.0198  -0.8342  -0.6952  -0.5492  -0.1614  -0.0375
    -0.0373   0.1332   0.5988   0.9324   6.9030   7.3360   7.4209   7.6568
     7.7877   8.0771   8.1575   8.2450   8.4970   8.7635

          k =-0.2000 0.0000 0.0000 ( 55515 PWs)   bands (ev):

   -17.5534 -15.8633 -14.8656 -13.3061 -12.9959 -12.7876 -12.6856 -11.6746
   -11.3428 -10.6819 -10.4829 -10.1588  -9.3304  -9.1245  -8.9517  -8.5477
    -7.6979  -7.5234  -6.9725  -6.8272  -6.7226  -5.3920  -5.3720  -5.3030
    -5.2136  -5.0476  -4.1662  -3.7772  -3.7024  -3.3276  -2.7171  -2.4895
    -2.4194  -2.2487  -2.0991  -1.7289  -1.7169  -1.6301  -1.6100  -1.5744
    -1.2004  -0.8075  -0.5189  -0.1626  -0.0615   0.0143   0.2255   0.5637
     0.8005   0.8268   0.8584   1.5112   5.6105   6.0858   7.8560   8.0360
     8.1152   8.1565   8.3534   8.7722   9.1513   9.2383

          k =-0.4000 0.0000 0.0000 ( 55420 PWs)   bands (ev):

   -17.0063 -16.1034 -15.3286 -14.4526 -12.4911 -12.2834 -12.1680 -11.6671
   -11.4816 -11.3169 -11.1886 -10.3923  -9.6092  -8.8637  -8.1246  -7.8468
    -7.2731  -6.9375  -6.7118  -6.4318  -5.6130  -5.6090  -5.5676  -5.1927
    -4.6483  -4.5484  -4.4166  -3.9440  -3.8604  -3.7778  -3.3148  -2.7285
    -2.5554  -2.4788  -1.8174  -1.7680  -1.5753  -1.5492  -1.5427  -1.4956
    -1.3396  -1.2256  -1.2072  -0.8658  -0.4572  -0.4270  -0.3854   0.1024
     0.1805   0.7485   0.9527   0.9890   6.1197   6.5223   6.9971   7.1688
     8.4337   8.6733   9.1321   9.2002   9.2079   9.4176

          k =-0.4000 0.2000 0.0000 ( 55466 PWs)   bands (ev):

   -16.8424 -15.9407 -15.3427 -14.4622 -13.5638 -12.7180 -12.6822 -11.8623
   -11.0697 -10.8937 -10.3136 -10.0816  -9.5044  -8.8796  -7.7733  -7.6693
    -7.2574  -6.9333  -6.6487  -6.1155  -5.8183  -5.7235  -5.4230  -5.0508
    -4.7987  -4.6420  -4.2345  -4.0174  -3.6923  -3.6215  -2.9899  -2.9724
    -2.7571  -2.6902  -2.5266  -2.1501  -1.7665  -1.6873  -1.5797  -1.3194
    -1.2734  -1.1936  -0.7840  -0.7792  -0.7307  -0.4749  -0.3591  -0.3078
    -0.0668   0.6172   0.6803   1.0605   6.3237   6.7445   7.1500   7.3862
     8.3554   8.7490   8.8446   8.9063   8.9142   9.2380

     the Fermi energy is     3.3093 ev

!    total energy              =    -451.79663817 Ry
     estimated scf accuracy    <          2.8E-09 Ry
     smearing contrib. (-TS)   =       0.00000000 Ry
     internal energy E=F+TS    =    -451.79663817 Ry

     The total energy is F=E-TS. E is the sum of the following terms:
     one-electron contribution =   -2320.03389738 Ry
     hartree contribution      =    1200.83774514 Ry
     xc contribution           =    -117.68466561 Ry
     ewald contribution        =     933.00259135 Ry
     one-center paw contrib.   =    -147.91841167 Ry

     convergence has been achieved in  14 iterations

     Forces acting on atoms (cartesian axes, Ry/au):

     atom    1 type  1   force =     0.00000000    0.00011262    0.00003314
     atom    2 type  1   force =    -0.00000004    0.00003466   -0.00006258
     atom    3 type  1   force =    -0.00000002    0.00000000    0.00005359
     atom    4 type  1   force =     0.00000000   -0.00000000    0.00002864
     atom    5 type  1   force =     0.00000000   -0.00003459    0.00006278
     atom    6 type  1   force =    -0.00000000   -0.00011243   -0.00003340
     atom    7 type  1   force =     0.00000000   -0.00011262    0.00003314
     atom    8 type  1   force =    -0.00000004   -0.00003466   -0.00006258
     atom    9 type  1   force =    -0.00000005    0.00000000   -0.00002882
     atom   10 type  1   force =     0.00000000    0.00000000   -0.00005363
     atom   11 type  1   force =     0.00000000    0.00003459    0.00006278
     atom   12 type  1   force =    -0.00000000    0.00011243   -0.00003340
     atom   13 type  2   force =     0.00000000    0.00004286   -0.00005888
     atom   14 type  2   force =     0.00000000   -0.00004286   -0.00005888
     atom   15 type  2   force =    -0.00000000   -0.00004292    0.00005901
     atom   16 type  2   force =    -0.00000000    0.00004292    0.00005901
     atom   17 type  1   force =     0.00000000    0.00011260    0.00003316
     atom   18 type  1   force =     0.00000004    0.00003466   -0.00006258
     atom   19 type  1   force =     0.00000002   -0.00000000    0.00005359
     atom   20 type  1   force =     0.00000000   -0.00000000    0.00002864
     atom   21 type  1   force =     0.00000000   -0.00003457    0.00006277
     atom   22 type  1   force =     0.00000000   -0.00011243   -0.00003340
     atom   23 type  1   force =     0.00000000   -0.00011260    0.00003316
     atom   24 type  1   force =     0.00000004   -0.00003466   -0.00006258
     atom   25 type  1   force =     0.00000005    0.00000000   -0.00002882
     atom   26 type  1   force =     0.00000000    0.00000000   -0.00005360
     atom   27 type  1   force =     0.00000000    0.00003457    0.00006277
     atom   28 type  1   force =     0.00000000    0.00011243   -0.00003340
     atom   29 type  2   force =     0.00000000    0.00004285   -0.00005883
     atom   30 type  2   force =     0.00000000   -0.00004285   -0.00005883
     atom   31 type  2   force =     0.00000000   -0.00004292    0.00005901
     atom   32 type  2   force =     0.00000000    0.00004292    0.00005901

     Total force =     0.000457     Total SCF correction =     0.000145
     SCF correction compared to forces is large: reduce conv_thr to get better values


     Computing stress (Cartesian axis) and pressure

          total   stress  (Ry/bohr**3)                   (kbar)     P=      -13.50
   0.00005643   0.00000000   0.00000000            8.30        0.00        0.00
   0.00000000  -0.00033012   0.00000000            0.00      -48.56        0.00
   0.00000000   0.00000000  -0.00000164            0.00        0.00       -0.24


     Writing all to output data dir /tmp/qe/slab.save/ :
     XML data file, charge density, pseudopotentials, collected wavefunctions

     init_run     :      3.59s CPU      3.94s WALL (       1 calls)
     electrons    :     88.36s CPU     90.70s WALL (       1 calls)
     forces       :      1.61s CPU      1.67s WALL (       1 calls)
     stress       :     21.74s CPU     22.00s WALL (       1 calls)

     Called by init_run:
     wfcinit      :      2.72s CPU      2.90s WALL (       1 calls)
     potinit      :      0.32s CPU      0.37s WALL (       1 calls)
     hinit0       :      0.10s CPU      0.16s WALL (       1 calls)

     Called by electrons:
     c_bands      :     68.57s CPU     69.78s WALL (      14 calls)
     sum_band     :     13.30s CPU     13.79s WALL (      14 calls)
     v_of_rho     :      2.68s CPU      2.92s WALL (      15 calls)
     newd         :      1.80s CPU      2.21s WALL (      15 calls)
     PAW_pot      :      1.85s CPU      1.86s WALL (      15 calls)
     mix_rho      :      0.35s CPU      0.37s WALL (      14 calls)

     Called by c_bands:
     init_us_2    :      2.08s CPU      2.10s WALL (     279 calls)
     cegterg      :     65.44s CPU     66.60s WALL (     126 calls)

     Called by *egterg:
     cdiaghg      :      2.15s CPU      2.27s WALL (     702 calls)
     h_psi        :     47.51s CPU     48.24s WALL (     711 calls)
     s_psi        :      4.98s CPU      5.00s WALL (     711 calls)
     g_psi        :      0.32s CPU      0.32s WALL (     576 calls)

     Called by h_psi:
     h_psi:calbec :      4.35s CPU      4.38s WALL (     711 calls)
     vloc_psi     :     37.86s CPU     38.20s WALL (     711 calls)
     add_vuspsi   :      4.99s CPU      5.01s WALL (     711 calls)

     General routines
     calbec       :      6.11s CPU      6.15s WALL (     882 calls)
     fft          :      1.78s CPU      1.95s WALL (     218 calls)
     ffts         :      0.05s CPU      0.06s WALL (      29 calls)
     fftw         :     29.69s CPU     29.94s WALL (   52150 calls)
     interpolate  :      0.13s CPU      0.14s WALL (      15 calls)

     Parallel routines

     PWSCF        :   1m55.62s CPU   1m59.00s WALL


   This run was terminated on:  12:32:55   1Aug2026            

=------------------------------------------------------------------------------=
   JOB DONE.
=------------------------------------------------------------------------------=
Note: The following floating-point exceptions are signalling: IEEE_UNDERFLOW_FLAG IEEE_DENORMAL
Note: The following floating-point exceptions are signalling: IEEE_UNDERFLOW_FLAG IEEE_DENORMAL
Note: The following floating-point exceptions are signalling: IEEE_UNDERFLOW_FLAG IEEE_DENORMAL
Note: The following floating-point exceptions are signalling: IEEE_UNDERFLOW_FLAG IEEE_DENORMAL
Note: The following floating-point exceptions are signalling: IEEE_UNDERFLOW_FLAG IEEE_DENORMAL
Note: The following floating-point exceptions are signalling: IEEE_UNDERFLOW_FLAG IEEE_DENORMAL
Note: The following floating-point exceptions are signalling: IEEE_UNDERFLOW_FLAG IEEE_DENORMAL
Note: The following floating-point exceptions are signalling: IEEE_UNDERFLOW_FLAG IEEE_DENORMAL
