
     Program PWSCF v.7.5 starts on 22Jun2026 at 13:52:20 

     This program is part of the open-source Quantum ESPRESSO suite
     for quantum simulation of materials; please cite
         "P. Giannozzi et al., J. Phys.:Condens. Matter 21 395502 (2009);
         "P. Giannozzi et al., J. Phys.:Condens. Matter 29 465901 (2017);
         "P. Giannozzi et al., J. Chem. Phys. 152 154105 (2020);
          URL http://www.quantum-espresso.org", 
     in publications or presentations arising from this work. More details at
     http://www.quantum-espresso.org/quote

     Serial version
     0 MiB available memory on the printing compute node when the environment starts

     Waiting for input...
     Reading input from standard input

     Current dimensions of program PWSCF are:
     Max number of different atomic species (ntypx) = 10
     Max number of k-points (npk) =  40000
     Max angular momentum in pseudopotentials (lmaxx) =  4
     file C.pbe-n-kjpaw_psl.1.0.0.UPF: wavefunction(s)  2S 2P renormalized
     Message from routine volume:
     axis vectors are left-handed
     Message from routine setup:
     using ibrav=0 with symmetry is DISCOURAGED, use correct ibrav instead


     G-vector sticks info
     --------------------
     sticks:   dense  smooth     PW     G-vecs:    dense   smooth      PW
     Sum        1657     829    239               370101   130939   20559

     Using Slab Decomposition



     bravais-lattice index     =            0
     lattice parameter (alat)  =       4.7752  a.u.
     unit-cell volume          =    1353.3188 (a.u.)^3
     number of atoms/cell      =           14
     number of atomic types    =            2
     number of electrons       =        50.00
     number of Kohn-Sham states=           30
     kinetic-energy cutoff     =      80.0000  Ry
     charge density cutoff     =     640.0000  Ry
     scf convergence threshold =      1.0E-08
     mixing beta               =       0.3000
     number of iterations used =            8  plain     mixing
     Exchange-correlation= PBE
                           (   1   4   3   4   0   0   0)

     celldm(1)=   4.775235  celldm(2)=   0.000000  celldm(3)=   0.000000
     celldm(4)=   0.000000  celldm(5)=   0.000000  celldm(6)=   0.000000

     crystal axes: (cart. coord. in units of alat)
               a(1) = (   1.000000   0.000000   0.000000 )  
               a(2) = (   0.000000  -1.414214   0.000000 )  
               a(3) = (   0.000000   0.000000   8.788216 )  

     reciprocal axes: (cart. coord. in units 2 pi/alat)
               b(1) = (  1.000000 -0.000000 -0.000000 )  
               b(2) = ( -0.000000 -0.707107 -0.000000 )  
               b(3) = ( -0.000000 -0.000000  0.113789 )  


     PseudoPot. # 1 for C  read from file:
     ./C.pbe-n-kjpaw_psl.1.0.0.UPF
     MD5 check sum: 5d2aebdfa2cae82b50a7e79e9516da0f
     Pseudo is Projector augmented-wave + core cor, Zval =  4.0
     Generated using "atomic" code by A. Dal Corso  v.5.1
     Shape of augmentation charge: PSQ
     Using radial grid of 1073 points,  4 beta functions with: 
                l(1) =   0
                l(2) =   0
                l(3) =   1
                l(4) =   1
     Q(r) pseudized with 0 coefficients 


     PseudoPot. # 2 for H  read from file:
     ./H_ONCV_PBE-1.0.oncvpsp.upf
     MD5 check sum: 1790becc920ee074925cf490c71280fe
     Pseudo is Norm-conserving, Zval =  1.0
     Generated using ONCVPSP code by D. R. Hamann
     Using radial grid of 1166 points,  2 beta functions with: 
                l(1) =   0
                l(2) =   0

     atomic species   valence    mass     pseudopotential
     C                 4.00    12.01100     C ( 1.00)
     H                 1.00     1.00800     H ( 1.00)

      4 Sym. Ops. (no inversion) found ( 2 have fractional translation)



   Cartesian axes

     site n.     atom                  positions (alat units)
         1        C      tau(   1) = (  -0.0000000  -0.3611383   5.4554133  )
         2        C      tau(   2) = (   0.5000000  -0.6995219   5.4554133  )
         3        C      tau(   3) = (  -0.0000000   0.0012652   4.9666635  )
         4        C      tau(   4) = (   0.5000000  -1.0619254   4.9666635  )
         5        C      tau(   5) = (  -0.0000000  -0.3539405   4.4654712  )
         6        C      tau(   6) = (   0.5000000  -0.7067197   4.4654712  )
         7        C      tau(   7) = (  -0.0000000   0.0025088   3.9666200  )
         8        C      tau(   8) = (   0.5000000  -1.0631689   3.9666200  )
         9        C      tau(   9) = (   0.0000000  -0.3535534   3.4680099  )
        10        C      tau(  10) = (   0.5000000  -0.7071068   3.4680099  )
        11        C      tau(  11) = (   0.0000000   0.0000000   2.9680099  )
        12        C      tau(  12) = (   0.5000000  -1.0606602   2.9680099  )
        13        H      tau(  13) = (   0.0000000  -0.1241579   5.8198994  )
        14        H      tau(  14) = (   0.5000000  -0.9365023   5.8198994  )

     number of k points=    20  Marzari-Vanderbilt smearing, width (Ry)=  0.0100
                       cart. coord. in units 2pi/alat
        k(    1) = (   0.0000000  -0.0000000   0.0000000), wk =   0.0317460
        k(    2) = (   0.0000000  -0.1010153   0.0000000), wk =   0.0634921
        k(    3) = (   0.0000000  -0.2020305   0.0000000), wk =   0.0634921
        k(    4) = (   0.0000000  -0.3030458   0.0000000), wk =   0.0634921
        k(    5) = (   0.1111111  -0.0000000   0.0000000), wk =   0.0634921
        k(    6) = (   0.1111111  -0.1010153   0.0000000), wk =   0.1269841
        k(    7) = (   0.1111111  -0.2020305   0.0000000), wk =   0.1269841
        k(    8) = (   0.1111111  -0.3030458   0.0000000), wk =   0.1269841
        k(    9) = (   0.2222222  -0.0000000   0.0000000), wk =   0.0634921
        k(   10) = (   0.2222222  -0.1010153   0.0000000), wk =   0.1269841
        k(   11) = (   0.2222222  -0.2020305   0.0000000), wk =   0.1269841
        k(   12) = (   0.2222222  -0.3030458   0.0000000), wk =   0.1269841
        k(   13) = (   0.3333333  -0.0000000   0.0000000), wk =   0.0634921
        k(   14) = (   0.3333333  -0.1010153   0.0000000), wk =   0.1269841
        k(   15) = (   0.3333333  -0.2020305   0.0000000), wk =   0.1269841
        k(   16) = (   0.3333333  -0.3030458   0.0000000), wk =   0.1269841
        k(   17) = (   0.4444444  -0.0000000   0.0000000), wk =   0.0634921
        k(   18) = (   0.4444444  -0.1010153   0.0000000), wk =   0.1269841
        k(   19) = (   0.4444444  -0.2020305   0.0000000), wk =   0.1269841
        k(   20) = (   0.4444444  -0.3030458   0.0000000), wk =   0.1269841

     Dense  grid:   370101 G-vectors     FFT dimensions: (  40,  60, 360)

     Smooth grid:   130939 G-vectors     FFT dimensions: (  30,  40, 240)

     Estimated max dynamical RAM per process >     843.66 MB

     Initial potential from superposition of free atoms

     starting charge      49.9995, renormalised to      50.0000

     negative rho (up, down):  5.840E-05 0.000E+00
     Starting wfcs are   50 randomized atomic wfcs

     total cpu time spent up to now is        4.2 secs

     Self-consistent Calculation

     iteration #  1     ecut=    80.00 Ry     beta= 0.30
     Davidson diagonalization with overlap
     ethr =  1.00E-02,  avg # of iterations =  2.5

     negative rho (up, down):  5.575E-05 0.000E+00

     total cpu time spent up to now is       12.7 secs

     total energy              =    -223.36369109 Ry
     estimated scf accuracy    <       0.90431986 Ry

     iteration #  2     ecut=    80.00 Ry     beta= 0.30
     Davidson diagonalization with overlap
     ethr =  1.81E-03,  avg # of iterations =  4.0

     negative rho (up, down):  6.532E-05 0.000E+00

     total cpu time spent up to now is       19.5 secs

     total energy              =    -223.27983944 Ry
     estimated scf accuracy    <       0.31171394 Ry

     iteration #  3     ecut=    80.00 Ry     beta= 0.30
     Davidson diagonalization with overlap
     ethr =  6.23E-04,  avg # of iterations =  6.0

     negative rho (up, down):  6.799E-05 0.000E+00

     total cpu time spent up to now is       27.5 secs

     total energy              =    -223.29447637 Ry
     estimated scf accuracy    <       0.04393991 Ry

     iteration #  4     ecut=    80.00 Ry     beta= 0.30
     Davidson diagonalization with overlap
     ethr =  8.79E-05,  avg # of iterations =  7.8

     negative rho (up, down):  6.958E-05 0.000E+00

     total cpu time spent up to now is       36.4 secs

     total energy              =    -223.29675151 Ry
     estimated scf accuracy    <       0.00818318 Ry

     iteration #  5     ecut=    80.00 Ry     beta= 0.30
     Davidson diagonalization with overlap
     c_bands:  1 eigenvalues not converged
     ethr =  1.64E-05,  avg # of iterations =  7.7

     negative rho (up, down):  7.020E-05 0.000E+00

     total cpu time spent up to now is       45.6 secs

     total energy              =    -223.29790349 Ry
     estimated scf accuracy    <       0.00089160 Ry

     iteration #  6     ecut=    80.00 Ry     beta= 0.30
     Davidson diagonalization with overlap
     ethr =  1.78E-06,  avg # of iterations =  8.1

     negative rho (up, down):  6.979E-05 0.000E+00

     total cpu time spent up to now is       55.6 secs

     total energy              =    -223.29797764 Ry
     estimated scf accuracy    <       0.00020745 Ry

     iteration #  7     ecut=    80.00 Ry     beta= 0.30
     Davidson diagonalization with overlap
     ethr =  4.15E-07,  avg # of iterations =  2.6

     negative rho (up, down):  6.977E-05 0.000E+00

     total cpu time spent up to now is       63.1 secs

     total energy              =    -223.29801112 Ry
     estimated scf accuracy    <       0.00003134 Ry

     iteration #  8     ecut=    80.00 Ry     beta= 0.30
     Davidson diagonalization with overlap
     ethr =  6.27E-08,  avg # of iterations =  2.5

     negative rho (up, down):  6.931E-05 0.000E+00

     total cpu time spent up to now is       70.4 secs

     total energy              =    -223.29801466 Ry
     estimated scf accuracy    <       0.00000843 Ry

     iteration #  9     ecut=    80.00 Ry     beta= 0.30
     Davidson diagonalization with overlap
     ethr =  1.69E-08,  avg # of iterations =  2.1

     negative rho (up, down):  6.910E-05 0.000E+00

     total cpu time spent up to now is       78.1 secs

     total energy              =    -223.29801672 Ry
     estimated scf accuracy    <       0.00000078 Ry

     iteration # 10     ecut=    80.00 Ry     beta= 0.30
     Davidson diagonalization with overlap
     ethr =  1.55E-09,  avg # of iterations =  3.0

     negative rho (up, down):  6.900E-05 0.000E+00

     total cpu time spent up to now is       85.6 secs

     total energy              =    -223.29801687 Ry
     estimated scf accuracy    <       0.00000015 Ry

     iteration # 11     ecut=    80.00 Ry     beta= 0.30
     Davidson diagonalization with overlap
     ethr =  3.02E-10,  avg # of iterations =  3.0

     negative rho (up, down):  6.893E-05 0.000E+00

     total cpu time spent up to now is       93.7 secs

     total energy              =    -223.29801691 Ry
     estimated scf accuracy    <       0.00000007 Ry

     iteration # 12     ecut=    80.00 Ry     beta= 0.30
     Davidson diagonalization with overlap
     ethr =  1.41E-10,  avg # of iterations =  2.0

     negative rho (up, down):  6.888E-05 0.000E+00

     total cpu time spent up to now is      100.7 secs

     End of self-consistent calculation

          k = 0.0000-0.0000 0.0000 ( 16361 PWs)   bands (ev):

   -19.4757 -18.1580 -16.2099 -13.8792 -11.7266 -10.9718 -10.8479  -9.6592
    -7.8416  -7.8084  -6.7606  -5.9470  -5.4680  -4.6456  -4.4542  -3.4241
    -2.9251  -2.7663  -2.0148  -0.6148  -0.5461   0.0273   0.7066   1.3929
     1.5858   3.8792   4.0312   5.9800   6.6048   6.8209

          k = 0.0000-0.1010 0.0000 ( 16363 PWs)   bands (ev):

   -19.2896 -17.9775 -16.0468 -13.8168 -13.0889 -12.2216 -10.0223  -9.1782
    -8.6632  -7.0187  -6.6524  -5.8267  -4.8742  -4.4468  -4.2794  -3.2774
    -3.0908  -2.3474  -1.9323  -0.6093  -0.5880  -0.1397   0.3739   0.9059
     1.6651   3.5912   4.0907   6.1840   6.6329   7.0507

          k = 0.0000-0.2020 0.0000 ( 16337 PWs)   bands (ev):

   -18.7338 -17.4411 -15.5843 -14.9401 -14.0531 -13.3261 -10.5742  -9.7307
    -8.2150  -7.1872  -5.7763  -5.0661  -4.1648  -3.7628  -3.7338  -2.8520
    -2.5255  -2.1111  -1.7152  -0.8498  -0.7806  -0.6018  -0.2459   0.0907
     1.6074   2.8504   4.6929   6.5912   7.0912   7.5332

          k = 0.0000-0.3030 0.0000 ( 16322 PWs)   bands (ev):

   -17.8172 -16.6553 -16.4506 -15.3856 -14.8357 -13.7673 -10.8865 -10.1932
    -8.3023  -7.4340  -5.4009  -4.4436  -3.3383  -2.9310  -2.5903  -2.2126
    -2.0939  -1.8171  -1.5611  -1.5132  -1.3691  -1.2638  -0.8770  -0.4234
     1.6412   2.2766   5.5917   6.7451   7.1004   7.9043

          k = 0.1111-0.0000 0.0000 ( 16379 PWs)   bands (ev):

   -19.2499 -17.9349 -15.9910 -13.6666 -11.5240 -10.7822 -10.7717  -9.6038
    -7.7689  -7.6461  -6.5782  -5.7753  -5.4711  -5.4515  -4.5119  -4.4012
    -2.9557  -2.8743  -2.7815  -1.4724  -0.7943  -0.2869  -0.0594   0.3452
     1.2019   4.0739   4.0817   6.2370   6.9897   7.4154

          k = 0.1111-0.1010 0.0000 ( 16347 PWs)   bands (ev):

   -19.0643 -17.7550 -15.8289 -13.6069 -12.9060 -12.0319  -9.8773  -9.0565
    -8.6002  -6.9340  -6.5567  -5.7713  -5.1997  -4.8667  -4.3523  -4.1484
    -3.0787  -2.8008  -2.4191  -1.5466  -1.0210  -0.6133  -0.3019   0.0651
     1.5010   3.6788   4.3175   6.4808   7.2973   7.5967

          k = 0.1111-0.2020 0.0000 ( 16326 PWs)   bands (ev):

   -18.5102 -17.2208 -15.3696 -14.7369 -13.8532 -13.1224 -10.3913  -9.5452
    -8.0676  -7.1266  -5.9764  -5.0827  -4.6754  -4.3370  -3.7259  -3.2272
    -2.9394  -2.3789  -2.1261  -2.0766  -1.8657  -1.2503  -0.5419   0.0171
     1.5884   2.9956   4.9531   7.1297   7.7898   7.9783

          k = 0.1111-0.3030 0.0000 ( 16345 PWs)   bands (ev):

   -17.5969 -16.4395 -16.2360 -15.1761 -14.6283 -13.5620 -10.6887  -9.9988
    -8.1312  -7.2679  -5.4364  -4.5535  -4.3008  -3.6822  -3.3916  -2.7579
    -2.7434  -2.5152  -2.1935  -1.9492  -1.7797  -1.1887  -0.9309  -0.7074
     1.7828   2.3514   5.9010   7.2037   7.8805   8.4341

          k = 0.2222-0.0000 0.0000 ( 16354 PWs)   bands (ev):

   -18.5757 -17.2690 -15.3377 -13.0325 -10.9182 -10.8955 -10.1731  -9.7322
    -7.9253  -7.1575  -7.0803  -6.0615  -6.0543  -5.6488  -5.2901  -4.5882
    -4.1695  -3.2102  -3.0247  -2.8711  -2.2202  -1.7397  -1.6551  -0.3652
     0.6050   3.8656   4.7367   6.6070   7.0398   7.2839

          k = 0.2222-0.1010 0.0000 ( 16338 PWs)   bands (ev):

   -18.3919 -17.0912 -15.1787 -12.9818 -12.4229 -11.5000  -9.6524  -9.1296
    -8.5909  -7.2094  -6.6877  -6.2293  -5.7868  -5.3835  -4.8482  -4.1853
    -3.9481  -3.4710  -3.1881  -3.0929  -2.7400  -2.0333  -0.9130  -0.6980
     0.9555   3.5581   4.9924   7.1694   7.3960   7.5421

          k = 0.2222-0.2020 0.0000 ( 16331 PWs)   bands (ev):

   -17.8435 -16.5642 -14.7301 -14.1499 -13.2672 -12.5221  -9.9054  -9.0719
    -8.2588  -7.6004  -6.7252  -6.0065  -5.2991  -4.8327  -4.5181  -4.2882
    -3.8270  -3.4887  -3.3068  -3.1123  -2.6322  -2.0894  -1.1491  -0.5215
     1.4278   2.9654   5.6520   7.9817   8.3861   8.5686

          k = 0.2222-0.3030 0.0000 ( 16334 PWs)   bands (ev):

   -16.9418 -15.7999 -15.6009 -14.5569 -14.0120 -12.9526 -10.1320  -9.4481
    -7.7701  -7.2192  -6.7754  -6.0096  -5.8691  -5.0101  -4.7695  -4.3184
    -3.8963  -3.6131  -2.5341  -2.2239  -2.1630  -1.9918  -1.1896  -1.0008
     1.8488   2.3981   6.5631   7.9525   9.0824   9.2485

          k = 0.3333-0.0000 0.0000 ( 16356 PWs)   bands (ev):

   -17.4649 -16.1726 -14.2627 -12.1351 -11.9882 -10.9382  -9.9160  -9.1824
    -9.1259  -7.4928  -6.9204  -6.4611  -6.2180  -5.3261  -5.1547  -4.7792
    -4.6238  -4.1408  -3.9703  -3.8610  -3.2980  -3.1619  -2.9188  -1.0159
     0.5979   3.2336   5.7221   6.5283   6.7606   8.3776

          k = 0.3333-0.1010 0.0000 ( 16395 PWs)   bands (ev):

   -17.2849 -15.9995 -14.1100 -12.3571 -11.9646 -11.1620 -10.2115  -9.7176
    -9.1410  -7.4338  -7.0018  -6.4988  -6.0671  -5.5615  -5.1422  -4.9885
    -4.6719  -4.3630  -4.0359  -3.7336  -3.0800  -2.9749  -2.2307  -1.2135
     0.8284   3.0858   6.0271   6.9664   7.1834   8.0337

          k = 0.3333-0.2020 0.0000 ( 16384 PWs)   bands (ev):

   -16.7498 -15.4882 -13.6854 -13.3500 -12.4032 -11.5941 -10.2986  -9.7035
    -9.1422  -7.9483  -7.1363  -7.0682  -6.8193  -6.2301  -5.3050  -5.1986
    -4.2075  -3.8186  -3.6521  -3.3950  -2.8527  -2.6864  -1.6737  -1.3906
     1.3451   2.7358   6.6544   7.9286   8.1788   8.8252

          k = 0.3333-0.3030 0.0000 ( 16310 PWs)   bands (ev):

   -15.8776 -14.7773 -14.5858 -13.5782 -13.0118 -11.9715  -9.6241  -9.4924
    -8.8523  -8.5253  -8.3761  -7.4833  -6.6977  -6.4828  -5.9223  -5.5694
    -3.8913  -3.6687  -3.4010  -3.0607  -2.2627  -2.1350  -1.8330  -1.3403
     1.8282   2.3829   7.3190   8.7579   9.0439   9.4065

          k = 0.4444-0.0000 0.0000 ( 16386 PWs)   bands (ev):

   -15.9457 -14.6751 -14.0901 -12.8505 -12.7949 -11.0062 -10.5590  -8.8046
    -8.5317  -7.8131  -6.7972  -6.5325  -6.0933  -5.6967  -5.2456  -5.0279
    -4.8267  -4.7376  -4.4959  -4.4221  -4.0783  -3.5276  -2.9014  -1.9517
     1.2397   2.2503   6.3606   6.9451   7.3089   7.5580

          k = 0.4444-0.1010 0.0000 ( 16392 PWs)   bands (ev):

   -15.7755 -14.5132 -13.9600 -12.7342 -12.6534 -10.9252 -10.4841  -9.3209
    -8.7970  -8.7167  -7.6224  -7.0486  -6.3640  -5.7050  -5.1264  -5.0721
    -4.6594  -4.4426  -4.1999  -3.9573  -3.6719  -3.4395  -2.7433  -1.9743
     1.3771   2.2669   6.8632   6.9987   7.4425   7.7752

          k = 0.4444-0.2020 0.0000 ( 16357 PWs)   bands (ev):

   -15.2778 -14.0440 -13.6661 -12.4892 -12.2563 -10.8038 -10.7539 -10.3341
    -9.5684  -9.2060  -8.9286  -8.0815  -6.7800  -6.2220  -5.6195  -4.9531
    -4.7653  -4.1124  -3.8284  -3.2914  -3.1546  -2.6078  -2.2938  -2.0245
     1.6910   2.2748   7.4723   7.8030   8.2896   8.6006

          k = 0.4444-0.3030 0.0000 ( 16346 PWs)   bands (ev):

   -14.5146 -13.7564 -13.3237 -12.6101 -11.7329 -11.3003 -10.9097 -10.5754
   -10.3236  -9.7028  -9.4933  -8.7031  -6.9975  -6.6093  -5.7726  -5.2432
    -4.8856  -4.3342  -3.5717  -3.1284  -2.5823  -2.3033  -1.9038  -1.7449
     1.9680   2.2282   7.9479   8.5702   9.5051   9.7662

     the Fermi energy is     2.0340 ev

!    total energy              =    -223.29801692 Ry
     estimated scf accuracy    <          6.3E-09 Ry
     smearing contrib. (-TS)   =       0.00051002 Ry
     internal energy E=F+TS    =    -223.29852694 Ry

     The total energy is F=E-TS. E is the sum of the following terms:
     one-electron contribution =   -2781.18360617 Ry
     hartree contribution      =    1407.72085375 Ry
     xc contribution           =     -57.23930648 Ry
     ewald contribution        =    1281.36551278 Ry
     one-center paw contrib.   =     -73.96198082 Ry

     convergence has been achieved in  12 iterations

     negative rho (up, down):  6.888E-05 0.000E+00

     Forces acting on atoms (cartesian axes, Ry/au):

     atom    1 type  1   force =     0.00000000   -0.00002178   -0.00001023
     atom    2 type  1   force =     0.00000000    0.00002178   -0.00001023
     atom    3 type  1   force =     0.00000000    0.00000145   -0.00005181
     atom    4 type  1   force =     0.00000000   -0.00000145   -0.00005181
     atom    5 type  1   force =     0.00000000   -0.00002924    0.00000538
     atom    6 type  1   force =     0.00000000    0.00002924    0.00000538
     atom    7 type  1   force =    -0.00000000    0.00001595    0.00007161
     atom    8 type  1   force =     0.00000000   -0.00001595    0.00007161
     atom    9 type  1   force =    -0.00000000   -0.04631834   -0.04769750
     atom   10 type  1   force =     0.00000000    0.04631834   -0.04769750
     atom   11 type  1   force =     0.00000000    0.17083195    0.04762817
     atom   12 type  1   force =     0.00000000   -0.17083195    0.04762817
     atom   13 type  2   force =     0.00000000    0.00002696    0.00005437
     atom   14 type  2   force =     0.00000000   -0.00002696    0.00005437

     Total force =     0.000163     Total SCF correction =     0.000131
     SCF correction compared to forces is large: reduce conv_thr to get better values


     Computing stress (Cartesian axis) and pressure


     negative rho (up, down):  6.888E-05 0.000E+00
          total   stress  (Ry/bohr**3)                   (kbar)     P=      -14.10
  -0.00015076   0.00000000   0.00000000          -22.18        0.00        0.00
   0.00000000   0.00003455   0.00000000            0.00        5.08        0.00
   0.00000000   0.00000000  -0.00017142            0.00        0.00      -25.22


     Writing all to output data dir ./tmp/slab.save/ :
     XML data file, charge density, pseudopotentials, collected wavefunctions

     init_run     :      3.89s CPU      4.21s WALL (       1 calls)
     electrons    :     87.02s CPU     96.41s WALL (       1 calls)
     forces       :      0.94s CPU      1.09s WALL (       1 calls)
     stress       :      2.79s CPU      3.27s WALL (       1 calls)

     Called by init_run:
     wfcinit      :      3.31s CPU      3.58s WALL (       1 calls)
     potinit      :      0.30s CPU      0.32s WALL (       1 calls)
     hinit0       :      0.14s CPU      0.15s WALL (       1 calls)

     Called by electrons:
     c_bands      :     71.60s CPU     79.64s WALL (      12 calls)
     sum_band     :     11.04s CPU     11.82s WALL (      12 calls)
     v_of_rho     :      1.64s CPU      1.77s WALL (      13 calls)
     newd         :      0.89s CPU      1.22s WALL (      13 calls)
     PAW_pot      :      1.81s CPU      1.91s WALL (      13 calls)
     mix_rho      :      0.22s CPU      0.26s WALL (      12 calls)

     Called by c_bands:
     init_us_2    :      1.02s CPU      1.08s WALL (     540 calls)
     cegterg      :     69.55s CPU     77.55s WALL (     240 calls)

     Called by *egterg:
     cdiaghg      :      0.71s CPU      0.74s WALL (    1268 calls)
     h_psi        :     54.04s CPU     57.40s WALL (    1288 calls)
     s_psi        :      5.26s CPU      6.31s WALL (    1288 calls)
     g_psi        :      0.22s CPU      0.22s WALL (    1028 calls)

     Called by h_psi:
     h_psi:calbec :      4.76s CPU      6.15s WALL (    1288 calls)
     vloc_psi     :     43.03s CPU     43.43s WALL (    1288 calls)
                                        0.00s GPU  (    1288 calls)
     add_vuspsi   :      6.05s CPU      7.49s WALL (    1288 calls)

     General routines
     calbec       :      7.77s CPU      9.89s WALL (    1868 calls)
     fft          :      1.23s CPU      1.24s WALL (     192 calls)
     ffts         :      0.04s CPU      0.04s WALL (      25 calls)
     fftw         :     46.00s CPU     46.31s WALL (   47026 calls)
     interpolate  :      0.12s CPU      0.13s WALL (      13 calls)


     PWSCF        :   1m34.68s CPU   1m45.08s WALL


   This run was terminated on:  13:54: 5  22Jun2026            

=------------------------------------------------------------------------------=
   JOB DONE.
=------------------------------------------------------------------------------=
Note: The following floating-point exceptions are signalling: IEEE_INVALID_FLAG IEEE_DIVIDE_BY_ZERO IEEE_OVERFLOW_FLAG IEEE_UNDERFLOW_FLAG
