
     Program PWSCF v.7.5 starts on 22Jun2026 at 14:33:55 

     This program is part of the open-source Quantum ESPRESSO suite
     for quantum simulation of materials; please cite
         "P. Giannozzi et al., J. Phys.:Condens. Matter 21 395502 (2009);
         "P. Giannozzi et al., J. Phys.:Condens. Matter 29 465901 (2017);
         "P. Giannozzi et al., J. Chem. Phys. 152 154105 (2020);
          URL http://www.quantum-espresso.org", 
     in publications or presentations arising from this work. More details at
     http://www.quantum-espresso.org/quote

     Serial version
     0 MiB available memory on the printing compute node when the environment starts

     Waiting for input...
     Reading input from standard input

     Current dimensions of program PWSCF are:
     Max number of different atomic species (ntypx) = 10
     Max number of k-points (npk) =  40000
     Max angular momentum in pseudopotentials (lmaxx) =  4
     file C.pbe-n-kjpaw_psl.1.0.0.UPF: wavefunction(s)  2S 2P renormalized
     Message from routine setup:
     using ibrav=0 with symmetry is DISCOURAGED, use correct ibrav instead


     G-vector sticks info
     --------------------
     sticks:   dense  smooth     PW     G-vecs:    dense   smooth      PW
     Sum        1027     511    151               215925    76417   12681

     Using Slab Decomposition



     bravais-lattice index     =            0
     lattice parameter (alat)  =       4.8230  a.u.
     unit-cell volume          =     789.2402 (a.u.)^3
     number of atoms/cell      =            7
     number of atomic types    =            2
     number of electrons       =        25.00
     number of Kohn-Sham states=           17
     kinetic-energy cutoff     =      80.0000  Ry
     charge density cutoff     =     640.0000  Ry
     scf convergence threshold =      1.0E-08
     mixing beta               =       0.3000
     number of iterations used =            8  plain     mixing
     Exchange-correlation= PBE
                           (   1   4   3   4   0   0   0)

     celldm(1)=   4.822988  celldm(2)=   0.000000  celldm(3)=   0.000000
     celldm(4)=   0.000000  celldm(5)=   0.000000  celldm(6)=   0.000000

     crystal axes: (cart. coord. in units of alat)
               a(1) = (   1.000000   0.000000   0.000000 )  
               a(2) = (   0.500000   0.866025   0.000000 )  
               a(3) = (   0.000000   0.000000   8.123255 )  

     reciprocal axes: (cart. coord. in units 2 pi/alat)
               b(1) = (  1.000000 -0.577350  0.000000 )  
               b(2) = (  0.000000  1.154701  0.000000 )  
               b(3) = (  0.000000  0.000000  0.123103 )  


     PseudoPot. # 1 for C  read from file:
     ./C.pbe-n-kjpaw_psl.1.0.0.UPF
     MD5 check sum: 5d2aebdfa2cae82b50a7e79e9516da0f
     Pseudo is Projector augmented-wave + core cor, Zval =  4.0
     Generated using "atomic" code by A. Dal Corso  v.5.1
     Shape of augmentation charge: PSQ
     Using radial grid of 1073 points,  4 beta functions with: 
                l(1) =   0
                l(2) =   0
                l(3) =   1
                l(4) =   1
     Q(r) pseudized with 0 coefficients 


     PseudoPot. # 2 for H  read from file:
     ./H_ONCV_PBE-1.0.oncvpsp.upf
     MD5 check sum: 1790becc920ee074925cf490c71280fe
     Pseudo is Norm-conserving, Zval =  1.0
     Generated using ONCVPSP code by D. R. Hamann
     Using radial grid of 1166 points,  2 beta functions with: 
                l(1) =   0
                l(2) =   0

     atomic species   valence    mass     pseudopotential
     C                 4.00    12.01100     C ( 1.00)
     H                 1.00     1.00800     H ( 1.00)

      6 Sym. Ops. (no inversion) found



   Cartesian axes

     site n.     atom                  positions (alat units)
         1        C      tau(   1) = (   0.5000000   0.2886751   4.7592578  )
         2        C      tau(   2) = (   1.0000000   0.5773503   4.5689782  )
         3        C      tau(   3) = (   1.0000000   0.5773503   3.9561319  )
         4        C      tau(   4) = (   0.0000000   0.0000000   3.7611149  )
         5        C      tau(   5) = (   0.0000000   0.0000000   3.1407267  )
         6        C      tau(   6) = (   0.5000000   0.2886751   2.9386236  )
         7        H      tau(   7) = (   0.5000000   0.2886751   5.1933323  )

     number of k points=    12  Marzari-Vanderbilt smearing, width (Ry)=  0.0100
                       cart. coord. in units 2pi/alat
        k(    1) = (   0.0000000   0.0000000   0.0000000), wk =   0.0246914
        k(    2) = (   0.0000000   0.1283001   0.0000000), wk =   0.1481481
        k(    3) = (   0.0000000   0.2566001   0.0000000), wk =   0.1481481
        k(    4) = (   0.0000000   0.3849002   0.0000000), wk =   0.1481481
        k(    5) = (   0.0000000   0.5132002   0.0000000), wk =   0.1481481
        k(    6) = (   0.1111111   0.1924501   0.0000000), wk =   0.1481481
        k(    7) = (   0.1111111   0.3207501   0.0000000), wk =   0.2962963
        k(    8) = (   0.1111111   0.4490502   0.0000000), wk =   0.2962963
        k(    9) = (   0.1111111  -0.5773503   0.0000000), wk =   0.1481481
        k(   10) = (   0.2222222   0.3849002   0.0000000), wk =   0.1481481
        k(   11) = (   0.2222222  -0.6415003   0.0000000), wk =   0.2962963
        k(   12) = (   0.3333333  -0.5773503   0.0000000), wk =   0.0493827

     Dense  grid:   215925 G-vectors     FFT dimensions: (  40,  40, 320)

     Smooth grid:    76417 G-vectors     FFT dimensions: (  27,  27, 225)

     Estimated max dynamical RAM per process >     367.10 MB

     Initial potential from superposition of free atoms

     starting charge      24.9997, renormalised to      25.0000

     negative rho (up, down):  3.456E-05 0.000E+00
     Starting wfcs are   25 randomized atomic wfcs

     total cpu time spent up to now is        0.9 secs

     Self-consistent Calculation

     iteration #  1     ecut=    80.00 Ry     beta= 0.30
     Davidson diagonalization with overlap
     ethr =  1.00E-02,  avg # of iterations =  2.7

     negative rho (up, down):  3.324E-05 0.000E+00

     total cpu time spent up to now is        2.5 secs

     total energy              =    -111.64449547 Ry
     estimated scf accuracy    <       0.42573881 Ry

     iteration #  2     ecut=    80.00 Ry     beta= 0.30
     Davidson diagonalization with overlap
     ethr =  1.70E-03,  avg # of iterations =  4.2

     negative rho (up, down):  4.183E-05 0.000E+00

     total cpu time spent up to now is        3.8 secs

     total energy              =    -111.59960081 Ry
     estimated scf accuracy    <       0.14848173 Ry

     iteration #  3     ecut=    80.00 Ry     beta= 0.30
     Davidson diagonalization with overlap
     ethr =  5.94E-04,  avg # of iterations =  7.3

     negative rho (up, down):  4.014E-05 0.000E+00

     total cpu time spent up to now is        5.5 secs

     total energy              =    -111.60916252 Ry
     estimated scf accuracy    <       0.01945479 Ry

     iteration #  4     ecut=    80.00 Ry     beta= 0.30
     Davidson diagonalization with overlap
     ethr =  7.78E-05,  avg # of iterations =  7.1

     negative rho (up, down):  3.560E-05 0.000E+00

     total cpu time spent up to now is        7.2 secs

     total energy              =    -111.60980298 Ry
     estimated scf accuracy    <       0.01541329 Ry

     iteration #  5     ecut=    80.00 Ry     beta= 0.30
     Davidson diagonalization with overlap
     ethr =  6.17E-05,  avg # of iterations =  2.7

     negative rho (up, down):  3.698E-05 0.000E+00

     total cpu time spent up to now is        8.4 secs

     total energy              =    -111.61157929 Ry
     estimated scf accuracy    <       0.00152348 Ry

     iteration #  6     ecut=    80.00 Ry     beta= 0.30
     Davidson diagonalization with overlap
     ethr =  6.09E-06,  avg # of iterations =  6.2

     negative rho (up, down):  3.573E-05 0.000E+00

     total cpu time spent up to now is        9.9 secs

     total energy              =    -111.61173576 Ry
     estimated scf accuracy    <       0.00022502 Ry

     iteration #  7     ecut=    80.00 Ry     beta= 0.30
     Davidson diagonalization with overlap
     ethr =  9.00E-07,  avg # of iterations =  6.2

     negative rho (up, down):  3.668E-05 0.000E+00

     total cpu time spent up to now is       11.5 secs

     total energy              =    -111.61176223 Ry
     estimated scf accuracy    <       0.00008790 Ry

     iteration #  8     ecut=    80.00 Ry     beta= 0.30
     Davidson diagonalization with overlap
     ethr =  3.52E-07,  avg # of iterations =  3.9

     negative rho (up, down):  3.617E-05 0.000E+00

     total cpu time spent up to now is       12.9 secs

     total energy              =    -111.61177405 Ry
     estimated scf accuracy    <       0.00007093 Ry

     iteration #  9     ecut=    80.00 Ry     beta= 0.30
     Davidson diagonalization with overlap
     ethr =  2.84E-07,  avg # of iterations =  1.6

     negative rho (up, down):  3.608E-05 0.000E+00

     total cpu time spent up to now is       14.1 secs

     total energy              =    -111.61178409 Ry
     estimated scf accuracy    <       0.00000081 Ry

     iteration # 10     ecut=    80.00 Ry     beta= 0.30
     Davidson diagonalization with overlap
     ethr =  3.22E-09,  avg # of iterations =  4.3

     negative rho (up, down):  3.605E-05 0.000E+00

     total cpu time spent up to now is       15.8 secs

     total energy              =    -111.61178464 Ry
     estimated scf accuracy    <       0.00000073 Ry

     iteration # 11     ecut=    80.00 Ry     beta= 0.30
     Davidson diagonalization with overlap
     ethr =  2.93E-09,  avg # of iterations =  1.6

     negative rho (up, down):  3.602E-05 0.000E+00

     total cpu time spent up to now is       17.0 secs

     total energy              =    -111.61178467 Ry
     estimated scf accuracy    <       0.00000009 Ry

     iteration # 12     ecut=    80.00 Ry     beta= 0.30
     Davidson diagonalization with overlap
     ethr =  3.57E-10,  avg # of iterations =  2.6

     negative rho (up, down):  3.599E-05 0.000E+00

     total cpu time spent up to now is       18.5 secs

     total energy              =    -111.61178470 Ry
     estimated scf accuracy    <       0.00000003 Ry

     iteration # 13     ecut=    80.00 Ry     beta= 0.30
     Davidson diagonalization with overlap
     ethr =  1.20E-10,  avg # of iterations =  1.8

     negative rho (up, down):  3.596E-05 0.000E+00

     total cpu time spent up to now is       19.6 secs

     End of self-consistent calculation

          k = 0.0000 0.0000 0.0000 (  9447 PWs)   bands (ev):

   -20.0088 -18.0758 -15.7246 -10.9310  -7.0474  -2.8413  -1.9836  -1.9836
    -0.7787  -0.7787   0.6041   0.6041   1.4447   3.3946   5.1951   6.1128
     6.6281

          k = 0.0000 0.1283 0.0000 (  9458 PWs)   bands (ev):

   -19.7150 -17.7882 -15.4491 -10.6776  -6.8469  -3.3945  -2.7467  -2.5743
    -2.0463  -1.2608  -0.6565   0.1475   1.5771   3.5983   5.5314   6.3294
     6.8613

          k = 0.0000 0.2566 0.0000 (  9534 PWs)   bands (ev):

   -18.8402 -16.9339 -14.6322  -9.9876  -6.5003  -6.0876  -4.6960  -3.7006
    -3.2997  -2.5205  -2.2769  -0.8271   1.5166   4.2797   6.1300   6.6867
     7.3973

          k = 0.0000 0.3849 0.0000 (  9558 PWs)   bands (ev):

   -17.4111 -15.5512 -13.3293  -9.9018  -8.6810  -7.3985  -6.2996  -5.1668
    -4.6636  -3.1904  -2.9063  -1.7166   1.3970   5.2467   6.0356   7.2783
     8.2708

          k = 0.0000 0.5132 0.0000 (  9576 PWs)   bands (ev):

   -15.5414 -13.9706 -12.5589 -11.2203 -10.6946  -8.8276  -6.7619  -5.2804
    -5.1895  -3.6977  -3.3799  -2.2138   1.3736   5.5095   6.4338   7.2242
     8.2311

          k = 0.1111 0.1925 0.0000 (  9497 PWs)   bands (ev):

   -19.1306 -17.2171 -14.9025 -10.2004  -6.5063  -5.0475  -4.2848  -3.0981
    -3.0600  -2.5408  -1.7599  -0.9586   1.6205   4.0819   6.2256   6.9947
     7.0940

          k = 0.1111 0.3208 0.0000 (  9531 PWs)   bands (ev):

   -17.9772 -16.0951 -13.8343  -9.5275  -7.5998  -6.6429  -5.5898  -5.2828
    -4.3979  -3.6664  -2.7426  -2.0048   1.5281   5.0756   6.8164   7.6845
     8.3467

          k = 0.1111 0.4491 0.0000 (  9566 PWs)   bands (ev):

   -16.3063 -14.5126 -12.4366 -10.8039  -9.5466  -7.6019  -7.1711  -5.9144
    -5.1011  -4.4250  -3.4060  -2.6808   1.4334   6.1010   7.0680   8.0686
     8.6308

          k = 0.1111-0.5774 0.0000 (  9566 PWs)   bands (ev):

   -14.6542 -13.8326 -12.3149 -11.5265 -10.2486  -9.5570  -6.4052  -6.2268
    -5.4778  -4.5663  -3.7079  -2.9521   1.3949   6.5402   7.0131   8.3915
     8.4770

          k = 0.2222 0.3849 0.0000 (  9541 PWs)   bands (ev):

   -16.5743 -14.7486 -12.5794  -9.9637  -8.6548  -7.6953  -6.8295  -6.4397
    -5.3714  -4.6223  -4.4789  -2.7521   1.4815   6.2154   7.9593   8.2708
     9.4600

          k = 0.2222-0.6415 0.0000 (  9547 PWs)   bands (ev):

   -14.7577 -13.2382 -11.9923 -10.6113 -10.4363  -8.8947  -7.5968  -7.0189
    -5.8604  -5.3448  -4.5364  -3.4606   1.4135   7.0063   7.9991   9.1225
     9.6970

          k = 0.3333-0.5774 0.0000 (  9573 PWs)   bands (ev):

   -13.4039 -12.8611 -12.1942 -10.3548 -10.2899  -9.8443  -7.8923  -7.8912
    -6.8664  -4.9567  -4.5724  -4.1025   1.3997   7.2964   8.2345   8.6009
    10.3979

     the Fermi energy is     1.4763 ev

!    total energy              =    -111.61178470 Ry
     estimated scf accuracy    <          4.8E-09 Ry
     smearing contrib. (-TS)   =      -0.00185700 Ry
     internal energy E=F+TS    =    -111.60992771 Ry

     The total energy is F=E-TS. E is the sum of the following terms:
     one-electron contribution =   -1195.46270998 Ry
     hartree contribution      =     605.55755465 Ry
     xc contribution           =     -28.47419010 Ry
     ewald contribution        =     543.75206569 Ry
     one-center paw contrib.   =     -36.98264796 Ry

     convergence has been achieved in  13 iterations

     negative rho (up, down):  3.596E-05 0.000E+00

     Forces acting on atoms (cartesian axes, Ry/au):

     atom    1 type  1   force =     0.00000000    0.00000000   -0.00162200
     atom    2 type  1   force =     0.00000000    0.00000000    0.00079765
     atom    3 type  1   force =     0.00000000    0.00000000    0.00002166
     atom    4 type  1   force =     0.00000000    0.00000000   -0.00049444
     atom    5 type  1   force =     0.00000000    0.00000000   -0.16242331
     atom    6 type  1   force =     0.00000000    0.00000000    0.16461050
     atom    7 type  2   force =     0.00000000    0.00000000   -0.00089007

     Total force =     0.002075     Total SCF correction =     0.000067


     Computing stress (Cartesian axis) and pressure


     negative rho (up, down):  3.596E-05 0.000E+00
          total   stress  (Ry/bohr**3)                   (kbar)     P=      -36.55
  -0.00025813   0.00000000   0.00000000          -37.97        0.00        0.00
  -0.00000000  -0.00025813   0.00000000           -0.00      -37.97        0.00
   0.00000000   0.00000000  -0.00022906            0.00        0.00      -33.70


     Writing all to output data dir ./tmp/slab.save/ :
     XML data file, charge density, pseudopotentials, collected wavefunctions

     init_run     :      0.86s CPU      0.91s WALL (       1 calls)
     electrons    :     17.59s CPU     18.68s WALL (       1 calls)
     forces       :      0.26s CPU      0.29s WALL (       1 calls)
     stress       :      0.76s CPU      0.84s WALL (       1 calls)

     Called by init_run:
     wfcinit      :      0.49s CPU      0.52s WALL (       1 calls)
     potinit      :      0.17s CPU      0.17s WALL (       1 calls)
     hinit0       :      0.13s CPU      0.13s WALL (       1 calls)

     Called by electrons:
     c_bands      :     12.60s CPU     13.40s WALL (      13 calls)
     sum_band     :      2.47s CPU      2.61s WALL (      13 calls)
     v_of_rho     :      0.99s CPU      1.03s WALL (      14 calls)
     newd         :      0.52s CPU      0.62s WALL (      14 calls)
     PAW_pot      :      0.96s CPU      0.98s WALL (      14 calls)
     mix_rho      :      0.13s CPU      0.13s WALL (      13 calls)

     Called by c_bands:
     init_us_2    :      0.24s CPU      0.25s WALL (     348 calls)
     cegterg      :     12.19s CPU     12.99s WALL (     156 calls)

     Called by *egterg:
     cdiaghg      :      0.11s CPU      0.12s WALL (     782 calls)
     h_psi        :      9.54s CPU      9.95s WALL (     794 calls)
     s_psi        :      0.52s CPU      0.64s WALL (     794 calls)
     g_psi        :      0.05s CPU      0.05s WALL (     626 calls)

     Called by h_psi:
     h_psi:calbec :      0.82s CPU      1.01s WALL (     794 calls)
     vloc_psi     :      8.04s CPU      8.12s WALL (     794 calls)
                                        0.00s GPU  (     794 calls)
     add_vuspsi   :      0.65s CPU      0.79s WALL (     794 calls)

     General routines
     calbec       :      1.28s CPU      1.57s WALL (    1154 calls)
     fft          :      0.74s CPU      0.74s WALL (     205 calls)
     ffts         :      0.02s CPU      0.02s WALL (      27 calls)
     fftw         :      8.50s CPU      8.53s WALL (   17176 calls)
     interpolate  :      0.07s CPU      0.07s WALL (      14 calls)


     PWSCF        :     19.51s CPU     20.78s WALL


   This run was terminated on:  14:34:15  22Jun2026            

=------------------------------------------------------------------------------=
   JOB DONE.
=------------------------------------------------------------------------------=
Note: The following floating-point exceptions are signalling: IEEE_INVALID_FLAG IEEE_DIVIDE_BY_ZERO IEEE_OVERFLOW_FLAG IEEE_UNDERFLOW_FLAG
