
     Program PWSCF v.7.5 starts on 20Jun2026 at 19:24:22 

     This program is part of the open-source Quantum ESPRESSO suite
     for quantum simulation of materials; please cite
         "P. Giannozzi et al., J. Phys.:Condens. Matter 21 395502 (2009);
         "P. Giannozzi et al., J. Phys.:Condens. Matter 29 465901 (2017);
         "P. Giannozzi et al., J. Chem. Phys. 152 154105 (2020);
          URL http://www.quantum-espresso.org", 
     in publications or presentations arising from this work. More details at
     http://www.quantum-espresso.org/quote

     Serial version
     0 MiB available memory on the printing compute node when the environment starts

     Waiting for input...
     Reading input from standard input

     Current dimensions of program PWSCF are:
     Max number of different atomic species (ntypx) = 10
     Max number of k-points (npk) =  40000
     Max angular momentum in pseudopotentials (lmaxx) =  4
     file C.pbe-n-kjpaw_psl.1.0.0.UPF: wavefunction(s)  2S 2P renormalized
     Found identity + ( -0.5000 -0.5000  0.0000) symmetry
     This is a supercell, fractional translations are disabled
     Message from routine setup:
     using ibrav=0 with symmetry is DISCOURAGED, use correct ibrav instead


     G-vector sticks info
     --------------------
     sticks:   dense  smooth     PW     G-vecs:    dense   smooth      PW
     Sum        2337    1177    349                84823    30047    4945

     Using Slab Decomposition



     bravais-lattice index     =            0
     lattice parameter (alat)  =       6.7744  a.u.
     unit-cell volume          =     310.8881 (a.u.)^3
     number of atoms/cell      =            8
     number of atomic types    =            1
     number of electrons       =        32.00
     number of Kohn-Sham states=           16
     kinetic-energy cutoff     =      80.0000  Ry
     charge density cutoff     =     640.0000  Ry
     scf convergence threshold =      1.0E-10
     mixing beta               =       0.4000
     number of iterations used =            8  plain     mixing
     Exchange-correlation= SLA  PW   PBX  PBC
                           (   1   4   3   4   0   0   0)

     celldm(1)=   6.774356  celldm(2)=   0.000000  celldm(3)=   0.000000
     celldm(4)=   0.000000  celldm(5)=   0.000000  celldm(6)=   0.000000

     crystal axes: (cart. coord. in units of alat)
               a(1) = (   1.000000   0.000000   0.000000 )  
               a(2) = (   0.000000   1.000000   0.000000 )  
               a(3) = (   0.000000   0.000000   1.000000 )  

     reciprocal axes: (cart. coord. in units 2 pi/alat)
               b(1) = (  1.000000  0.000000  0.000000 )  
               b(2) = (  0.000000  1.000000  0.000000 )  
               b(3) = (  0.000000  0.000000  1.000000 )  


     PseudoPot. # 1 for C  read from file:
     ./C.pbe-n-kjpaw_psl.1.0.0.UPF
     MD5 check sum: 5d2aebdfa2cae82b50a7e79e9516da0f
     Pseudo is Projector augmented-wave + core cor, Zval =  4.0
     Generated using "atomic" code by A. Dal Corso  v.5.1
     Shape of augmentation charge: PSQ
     Using radial grid of 1073 points,  4 beta functions with: 
                l(1) =   0
                l(2) =   0
                l(3) =   1
                l(4) =   1
     Q(r) pseudized with 0 coefficients 


     atomic species   valence    mass     pseudopotential
     C                 4.00    12.01100     C ( 1.00)

     24 Sym. Ops. (no inversion) found



   Cartesian axes

     site n.     atom                  positions (alat units)
         1        C      tau(   1) = (   0.0000000   0.0000000   0.0000000  )
         2        C      tau(   2) = (   0.2500000   0.2500000   0.2500000  )
         3        C      tau(   3) = (   0.5000000   0.5000000   0.0000000  )
         4        C      tau(   4) = (   0.7500000   0.7500000   0.2500000  )
         5        C      tau(   5) = (   0.5000000   0.0000000   0.5000000  )
         6        C      tau(   6) = (   0.7500000   0.2500000   0.7500000  )
         7        C      tau(   7) = (   0.0000000   0.5000000   0.5000000  )
         8        C      tau(   8) = (   0.2500000   0.7500000   0.7500000  )

     number of k points=    35
                       cart. coord. in units 2pi/alat
        k(    1) = (   0.0000000   0.0000000   0.0000000), wk =   0.0039062
        k(    2) = (   0.0000000   0.0000000   0.1250000), wk =   0.0234375
        k(    3) = (   0.0000000   0.0000000   0.2500000), wk =   0.0234375
        k(    4) = (   0.0000000   0.0000000   0.3750000), wk =   0.0234375
        k(    5) = (   0.0000000   0.0000000  -0.5000000), wk =   0.0117188
        k(    6) = (   0.0000000   0.1250000   0.1250000), wk =   0.0468750
        k(    7) = (   0.0000000   0.1250000   0.2500000), wk =   0.0937500
        k(    8) = (   0.0000000   0.1250000   0.3750000), wk =   0.0937500
        k(    9) = (   0.0000000   0.1250000  -0.5000000), wk =   0.0468750
        k(   10) = (   0.0000000   0.2500000   0.2500000), wk =   0.0468750
        k(   11) = (   0.0000000   0.2500000   0.3750000), wk =   0.0937500
        k(   12) = (   0.0000000   0.2500000  -0.5000000), wk =   0.0468750
        k(   13) = (   0.0000000   0.3750000   0.3750000), wk =   0.0468750
        k(   14) = (   0.0000000   0.3750000  -0.5000000), wk =   0.0468750
        k(   15) = (   0.0000000  -0.5000000  -0.5000000), wk =   0.0117188
        k(   16) = (   0.1250000   0.1250000   0.1250000), wk =   0.0312500
        k(   17) = (   0.1250000   0.1250000   0.2500000), wk =   0.0937500
        k(   18) = (   0.1250000   0.1250000   0.3750000), wk =   0.0937500
        k(   19) = (   0.1250000   0.1250000  -0.5000000), wk =   0.0468750
        k(   20) = (   0.1250000   0.2500000   0.2500000), wk =   0.0937500
        k(   21) = (   0.1250000   0.2500000   0.3750000), wk =   0.1875000
        k(   22) = (   0.1250000   0.2500000  -0.5000000), wk =   0.0937500
        k(   23) = (   0.1250000   0.3750000   0.3750000), wk =   0.0937500
        k(   24) = (   0.1250000   0.3750000  -0.5000000), wk =   0.0937500
        k(   25) = (   0.1250000  -0.5000000  -0.5000000), wk =   0.0234375
        k(   26) = (   0.2500000   0.2500000   0.2500000), wk =   0.0312500
        k(   27) = (   0.2500000   0.2500000   0.3750000), wk =   0.0937500
        k(   28) = (   0.2500000   0.2500000  -0.5000000), wk =   0.0468750
        k(   29) = (   0.2500000   0.3750000   0.3750000), wk =   0.0937500
        k(   30) = (   0.2500000   0.3750000  -0.5000000), wk =   0.0937500
        k(   31) = (   0.2500000  -0.5000000  -0.5000000), wk =   0.0234375
        k(   32) = (   0.3750000   0.3750000   0.3750000), wk =   0.0312500
        k(   33) = (   0.3750000   0.3750000  -0.5000000), wk =   0.0468750
        k(   34) = (   0.3750000  -0.5000000  -0.5000000), wk =   0.0234375
        k(   35) = (  -0.5000000  -0.5000000  -0.5000000), wk =   0.0039062

     Dense  grid:    84823 G-vectors     FFT dimensions: (  60,  60,  60)

     Smooth grid:    30047 G-vectors     FFT dimensions: (  40,  40,  40)

     Estimated max dynamical RAM per process >     171.74 MB

     Initial potential from superposition of free atoms

     starting charge      31.9997, renormalised to      32.0000
     Starting wfcs are   32 randomized atomic wfcs

     total cpu time spent up to now is        1.0 secs

     Self-consistent Calculation

     iteration #  1     ecut=    80.00 Ry     beta= 0.40
     Davidson diagonalization with overlap
     ethr =  1.00E-02,  avg # of iterations =  2.0

     total cpu time spent up to now is        2.5 secs

     total energy              =    -147.50101839 Ry
     estimated scf accuracy    <       0.42984460 Ry

     iteration #  2     ecut=    80.00 Ry     beta= 0.40
     Davidson diagonalization with overlap
     ethr =  1.34E-03,  avg # of iterations =  1.0

     total cpu time spent up to now is        3.5 secs

     total energy              =    -147.45868957 Ry
     estimated scf accuracy    <       0.12065716 Ry

     iteration #  3     ecut=    80.00 Ry     beta= 0.40
     Davidson diagonalization with overlap
     ethr =  3.77E-04,  avg # of iterations =  2.0

     total cpu time spent up to now is        4.9 secs

     total energy              =    -147.47140766 Ry
     estimated scf accuracy    <       0.00134649 Ry

     iteration #  4     ecut=    80.00 Ry     beta= 0.40
     Davidson diagonalization with overlap
     ethr =  4.21E-06,  avg # of iterations =  3.3

     total cpu time spent up to now is        6.6 secs

     total energy              =    -147.47200006 Ry
     estimated scf accuracy    <       0.00022948 Ry

     iteration #  5     ecut=    80.00 Ry     beta= 0.40
     Davidson diagonalization with overlap
     ethr =  7.17E-07,  avg # of iterations =  2.1

     total cpu time spent up to now is        7.9 secs

     total energy              =    -147.47203416 Ry
     estimated scf accuracy    <       0.00000330 Ry

     iteration #  6     ecut=    80.00 Ry     beta= 0.40
     Davidson diagonalization with overlap
     ethr =  1.03E-08,  avg # of iterations =  5.5

     total cpu time spent up to now is       10.3 secs

     total energy              =    -147.47203442 Ry
     estimated scf accuracy    <       0.00001516 Ry

     iteration #  7     ecut=    80.00 Ry     beta= 0.40
     Davidson diagonalization with overlap
     ethr =  1.03E-08,  avg # of iterations =  2.0

     total cpu time spent up to now is       11.8 secs

     total energy              =    -147.47203538 Ry
     estimated scf accuracy    <       0.00000031 Ry

     iteration #  8     ecut=    80.00 Ry     beta= 0.40
     Davidson diagonalization with overlap
     ethr =  9.61E-10,  avg # of iterations =  2.0

     total cpu time spent up to now is       13.3 secs

     total energy              =    -147.47203546 Ry
     estimated scf accuracy    <          6.9E-09 Ry

     iteration #  9     ecut=    80.00 Ry     beta= 0.40
     Davidson diagonalization with overlap
     ethr =  2.14E-11,  avg # of iterations =  4.3

     total cpu time spent up to now is       15.0 secs

     total energy              =    -147.47203546 Ry
     estimated scf accuracy    <          8.5E-09 Ry

     iteration # 10     ecut=    80.00 Ry     beta= 0.40
     Davidson diagonalization with overlap
     ethr =  2.14E-11,  avg # of iterations =  1.0

     total cpu time spent up to now is       16.3 secs

     total energy              =    -147.47203546 Ry
     estimated scf accuracy    <          2.7E-09 Ry

     iteration # 11     ecut=    80.00 Ry     beta= 0.40
     Davidson diagonalization with overlap
     ethr =  8.32E-12,  avg # of iterations =  2.0

     total cpu time spent up to now is       17.8 secs

     total energy              =    -147.47203546 Ry
     estimated scf accuracy    <          1.5E-10 Ry

     iteration # 12     ecut=    80.00 Ry     beta= 0.40
     Davidson diagonalization with overlap
     ethr =  4.83E-13,  avg # of iterations =  2.6

     total cpu time spent up to now is       19.3 secs

     End of self-consistent calculation

          k = 0.0000 0.0000 0.0000 (  3743 PWs)   bands (ev):

    -8.1978   0.4174   0.4174   0.4174   0.4174   0.4174   0.4174   6.8662
     6.8662   6.8662   6.8662   6.8662   6.8662  13.0780  13.0780  13.0780

          k = 0.0000 0.0000 0.1250 (  3783 PWs)   bands (ev):

    -8.0551  -1.4840   0.5062   0.5062   0.5062   0.5062   2.4522   6.5650
     6.5650   6.5650   6.5650   7.0052   7.0052  12.5346  12.5346  12.7260

          k = 0.0000 0.0000 0.2500 (  3771 PWs)   bands (ev):

    -7.6281  -3.1996   0.7464   0.7464   0.7464   0.7464   4.5498   5.8682
     5.8682   5.8682   5.8682   7.4188   7.4188  11.3813  11.3813  11.7528

          k = 0.0000 0.0000 0.3750 (  3764 PWs)   bands (ev):

    -6.9203  -4.6926   1.0392   1.0392   1.0392   1.0392   5.1783   5.1783
     5.1783   5.1783   6.6232   8.0964   8.0964  10.1395  10.1395  10.3234

          k = 0.0000 0.0000-0.5000 (  3764 PWs)   bands (ev):

    -5.9383  -5.9383   1.1843   1.1843   1.1843   1.1843   4.8820   4.8820
     4.8820   4.8820   8.5788   8.5788   9.0167   9.0167   9.0167   9.0167

          k = 0.0000 0.1250 0.1250 (  3777 PWs)   bands (ev):

    -7.9126  -1.3700  -1.3700   0.4933   0.6741   2.4874   2.4874   5.6209
     6.6643   6.6643   6.7726   6.7726   7.1030  11.6701  12.0248  12.8997

          k = 0.0000 0.1250 0.2500 (  3765 PWs)   bands (ev):

    -7.4864  -3.0727  -1.0396   0.5402   1.0170   2.5336   4.4611   4.6783
     5.8584   6.2859   7.0392   7.0509   7.3237  10.4109  10.9169  12.3142

          k = 0.0000 0.1250 0.3750 (  3761 PWs)   bands (ev):

    -6.7800  -4.5586  -0.5372   0.4375   1.5027   2.4202   4.1549   4.9658
     5.9781   6.2509   6.5844   7.7068   8.2912   9.0826   9.7062  11.1257

          k = 0.0000 0.1250-0.5000 (  3744 PWs)   bands (ev):

    -5.8003  -5.8003   0.0271   0.0271   2.0321   2.0321   4.2998   4.2998
     6.1196   6.1196   7.7409   7.7409   8.6066   8.6066   9.6622   9.6622

          k = 0.0000 0.2500 0.2500 (  3748 PWs)   bands (ev):

    -7.0624  -2.6979  -2.6979   0.1878   1.4410   3.9023   4.1254   4.1254
     6.1806   6.1806   7.2248   7.2248   7.7885   9.1301   9.8754  12.3300

          k = 0.0000 0.2500 0.3750 (  3755 PWs)   bands (ev):

    -6.3605  -4.1603  -2.0966  -0.4828   2.0318   3.5063   3.8250   5.1875
     5.4326   6.7914   7.3619   7.8445   7.9356   8.6509   8.7138  11.5630

          k = 0.0000 0.2500-0.5000 (  3760 PWs)   bands (ev):

    -5.3887  -5.3886  -1.3192  -1.3192   2.7523   2.7523   4.3338   4.3338
     6.6212   6.6212   7.6531   7.6531   7.6822   7.6822  10.2260  10.2260

          k = 0.0000 0.3750 0.3750 (  3738 PWs)   bands (ev):

    -5.6673  -3.5093  -3.5093  -1.5817   2.7071   4.1101   4.4737   4.4737
     5.7415   5.7415   6.6251   7.5909   8.8415   8.9870   8.9870  11.3540

          k = 0.0000 0.3750-0.5000 (  3754 PWs)   bands (ev):

    -4.7107  -4.7107  -2.6313  -2.6313   3.5349   3.5349   4.7987   4.7987
     5.4950   5.4950   6.5642   6.5642   9.1355   9.1355  10.4341  10.4341

          k = 0.0000-0.5000-0.5000 (  3724 PWs)   bands (ev):

    -3.7818  -3.7818  -3.7818  -3.7818   4.4501   4.4501   4.4501   4.4501
     5.5724   5.5724   5.5724   5.5724  10.1076  10.1076  10.1076  10.1076

          k = 0.1250 0.1250 0.1250 (  3767 PWs)   bands (ev):

    -7.7704  -1.2614  -1.2614  -1.2614   2.4840   2.4840   2.4840   5.8403
     5.8403   5.8403   7.2381   7.2381   7.2381  10.6909  12.4362  12.4362

          k = 0.1250 0.1250 0.2500 (  3751 PWs)   bands (ev):

    -7.3449  -2.9478  -0.9552  -0.9552   2.3712   2.3712   4.2347   5.0699
     5.0699   6.5750   7.1921   7.1921   7.6397   9.3632  11.4023  12.1276

          k = 0.1250 0.1250 0.3750 (  3757 PWs)   bands (ev):

    -6.6399  -4.4256  -0.5398  -0.5398   2.0038   2.0038   4.7780   4.7780
     5.6222   6.8223   6.8223   7.9171   8.0428   8.2951  10.2463  11.0639

          k = 0.1250 0.1250-0.5000 (  3748 PWs)   bands (ev):

    -5.6628  -5.6628  -0.2989  -0.2989   1.7343   1.7343   4.7805   4.7805
     6.6013   6.6013   6.8112   6.8112   9.1795   9.1795   9.5551   9.5551

          k = 0.1250 0.2500 0.2500 (  3755 PWs)   bands (ev):

    -6.9218  -2.5811  -2.5811  -0.7669   1.8500   3.5345   3.5345   4.7143
     6.2168   6.2168   7.6834   7.6834   7.9102   7.9967  10.7696  12.0540

          k = 0.1250 0.2500 0.3750 (  3763 PWs)   bands (ev):

    -6.2216  -4.0307  -2.0035  -0.7793   1.4486   2.6017   4.4860   4.9395
     5.9148   6.6835   7.5626   7.6609   8.0643   8.6808   9.7196  11.3885

          k = 0.1250 0.2500-0.5000 (  3762 PWs)   bands (ev):

    -5.2530  -5.2530  -1.3075  -1.3075   1.7845   1.7845   5.4297   5.4297
     5.5078   5.5078   7.8578   7.8578   8.6552   8.6552  10.1217  10.1217

          k = 0.1250 0.3750 0.3750 (  3754 PWs)   bands (ev):

    -5.5308  -3.3884  -3.3884  -1.5661   1.6137   3.3293   3.3293   5.3933
     5.4257   6.8714   6.8714   8.7673   8.9332   9.0529   9.0529  11.2631

          k = 0.1250 0.3750-0.5000 (  3756 PWs)   bands (ev):

    -4.5791  -4.5791  -2.5345  -2.5345   2.3264   2.3264   4.2613   4.2613
     6.1069   6.1069   7.7903   7.7903   9.2136   9.2136  10.4133  10.4133

          k = 0.1250-0.5000-0.5000 (  3740 PWs)   bands (ev):

    -3.6596  -3.6596  -3.6596  -3.6596   3.1781   3.1781   3.1781   3.1781
     6.9036   6.9036   6.9036   6.9036  10.1367  10.1367  10.1367  10.1367

          k = 0.2500 0.2500 0.2500 (  3749 PWs)   bands (ev):

    -6.5016  -2.2483  -2.2483  -2.2483   2.3972   2.3972   2.3972   6.4152
     6.4152   6.4152   6.5564   8.2694   8.2694   8.2695  11.3571  11.3571

          k = 0.2500 0.2500 0.3750 (  3748 PWs)   bands (ev):

    -5.8072  -3.6487  -1.7856  -1.7856   1.3451   1.3451   3.1152   5.2171
     6.6888   6.6888   8.2648   8.4670   8.4670   8.8469  10.4795  11.0492

          k = 0.2500 0.2500-0.5000 (  3758 PWs)   bands (ev):

    -4.8494  -4.8494  -1.5073  -1.5073   0.8578   0.8578   4.0577   4.0577
     6.8313   6.8313   8.4585   8.4585   9.6054   9.6054   9.9130   9.9130

          k = 0.2500 0.3750 0.3750 (  3749 PWs)   bands (ev):

    -5.1248  -3.0425  -3.0425  -1.7558   0.6226   1.8655   1.8655   3.8752
     7.2730   8.2085   8.2085   9.1976   9.2499   9.2499  10.0100  10.9965

          k = 0.2500 0.3750-0.5000 (  3756 PWs)   bands (ev):

    -4.1907  -4.1907  -2.3037  -2.3037   0.9188   0.9188   2.7390   2.7390
     7.8040   7.8040   9.2101   9.2101   9.4416   9.4416  10.3335  10.3335

          k = 0.2500-0.5000-0.5000 (  3752 PWs)   bands (ev):

    -3.3096  -3.3096  -3.3096  -3.3096   1.6532   1.6532   1.6532   1.6532
     8.5502   8.5502   8.5502   8.5502  10.2085  10.2085  10.2085  10.2085

          k = 0.3750 0.3750 0.3750 (  3752 PWs)   bands (ev):

    -4.4613  -2.5557  -2.5557  -2.5557   0.6672   0.6672   0.6672   2.5184
     8.9737   8.9738   8.9738   9.6023   9.6023   9.6023  10.5837  10.5837

          k = 0.3750 0.3750-0.5000 (  3736 PWs)   bands (ev):

    -3.5724  -3.5724  -2.2568  -2.2568   0.1262   0.1262   1.4108   1.4108
     9.1530   9.1530   9.8264   9.8264  10.0905  10.0905  10.1965  10.1965

          k = 0.3750-0.5000-0.5000 (  3768 PWs)   bands (ev):

    -2.8152  -2.8152  -2.8152  -2.8152   0.4223   0.4223   0.4223   0.4223
     9.8201   9.8201   9.8201   9.8201  10.2827  10.2827  10.2827  10.2827

          k =-0.5000-0.5000-0.5000 (  3840 PWs)   bands (ev):

    -2.5094  -2.5094  -2.5094  -2.5094  -0.1329  -0.1329  -0.1329  -0.1329
    10.3142  10.3142  10.3142  10.3142  10.3142  10.3142  10.3142  10.3142

     highest occupied level (ev):    13.0780

!    total energy              =    -147.47203546 Ry
     total all-electron energy =      -609.584818 Ry
     estimated scf accuracy    <          6.4E-11 Ry

     The total energy is the sum of the following terms:
     one-electron contribution =      33.19083319 Ry
     hartree contribution      =       7.82494402 Ry
     xc contribution           =     -37.40438018 Ry
     ewald contribution        =    -101.78238549 Ry
     one-center paw contrib.   =     -49.30104699 Ry

     convergence has been achieved in  12 iterations

     Forces acting on atoms (cartesian axes, Ry/au):

     atom    1 type  1   force =     0.00000000    0.00000000    0.00000000
     atom    2 type  1   force =     0.00000023    0.00000023    0.00000023
     atom    3 type  1   force =     0.00000000    0.00000000    0.00000000
     atom    4 type  1   force =    -0.00000023   -0.00000023    0.00000023
     atom    5 type  1   force =     0.00000000    0.00000000    0.00000000
     atom    6 type  1   force =    -0.00000023    0.00000023   -0.00000023
     atom    7 type  1   force =     0.00000000    0.00000000    0.00000000
     atom    8 type  1   force =     0.00000023   -0.00000023   -0.00000023

     Total force =     0.000001     Total SCF correction =     0.000003
     SCF correction compared to forces is large: reduce conv_thr to get better values


     Computing stress (Cartesian axis) and pressure

          total   stress  (Ry/bohr**3)                   (kbar)     P=      -42.84
  -0.00029120   0.00000000   0.00000000          -42.84        0.00        0.00
   0.00000000  -0.00029120   0.00000000            0.00      -42.84        0.00
   0.00000000   0.00000000  -0.00029120            0.00        0.00      -42.84


     Writing all to output data dir ./tmp/diamond.save/ :
     XML data file, charge density, pseudopotentials, collected wavefunctions

     init_run     :      0.94s CPU      0.99s WALL (       1 calls)
     electrons    :     16.67s CPU     18.30s WALL (       1 calls)
     forces       :      0.17s CPU      0.20s WALL (       1 calls)
     stress       :      0.59s CPU      0.65s WALL (       1 calls)

     Called by init_run:
     wfcinit      :      0.68s CPU      0.71s WALL (       1 calls)
     potinit      :      0.13s CPU      0.14s WALL (       1 calls)
     hinit0       :      0.09s CPU      0.09s WALL (       1 calls)

     Called by electrons:
     c_bands      :     12.87s CPU     14.19s WALL (      12 calls)
     sum_band     :      2.05s CPU      2.19s WALL (      12 calls)
     v_of_rho     :      0.39s CPU      0.42s WALL (      13 calls)
     newd         :      0.19s CPU      0.23s WALL (      13 calls)
     PAW_pot      :      1.21s CPU      1.33s WALL (      13 calls)
     mix_rho      :      0.04s CPU      0.05s WALL (      12 calls)

     Called by c_bands:
     init_us_2    :      0.29s CPU      0.33s WALL (     945 calls)
     cegterg      :     12.33s CPU     13.62s WALL (     420 calls)

     Called by *egterg:
     cdiaghg      :      0.17s CPU      0.17s WALL (    1469 calls)
     h_psi        :     10.33s CPU     10.87s WALL (    1504 calls)
     s_psi        :      0.69s CPU      0.88s WALL (    1504 calls)
     g_psi        :      0.05s CPU      0.06s WALL (    1049 calls)

     Called by h_psi:
     h_psi:calbec :      0.75s CPU      0.95s WALL (    1504 calls)
     vloc_psi     :      8.83s CPU      8.97s WALL (    1504 calls)
                                        0.00s GPU  (    1504 calls)
     add_vuspsi   :      0.71s CPU      0.89s WALL (    1504 calls)

     General routines
     calbec       :      1.29s CPU      1.61s WALL (    2519 calls)
     fft          :      0.24s CPU      0.24s WALL (     192 calls)
     ffts         :      0.01s CPU      0.01s WALL (      25 calls)
     fftw         :      9.20s CPU      9.29s WALL (   48080 calls)
     interpolate  :      0.02s CPU      0.03s WALL (      13 calls)


     PWSCF        :     18.40s CPU     20.21s WALL


   This run was terminated on:  19:24:42  20Jun2026            

=------------------------------------------------------------------------------=
   JOB DONE.
=------------------------------------------------------------------------------=
Note: The following floating-point exceptions are signalling: IEEE_INVALID_FLAG IEEE_DIVIDE_BY_ZERO IEEE_OVERFLOW_FLAG IEEE_UNDERFLOW_FLAG
