
     Program PWSCF v.7.3.1 starts on  1Aug2026 at 12:41:25 

     This program is part of the open-source Quantum ESPRESSO suite
     for quantum simulation of materials; please cite
         "P. Giannozzi et al., J. Phys.:Condens. Matter 21 395502 (2009);
         "P. Giannozzi et al., J. Phys.:Condens. Matter 29 465901 (2017);
         "P. Giannozzi et al., J. Chem. Phys. 152 154105 (2020);
          URL http://www.quantum-espresso.org", 
     in publications or presentations arising from this work. More details at
     http://www.quantum-espresso.org/quote

     Parallel version (MPI), running on     8 processors

     MPI processes distributed on     1 nodes
     187588 MiB available memory on the printing compute node when the environment starts

     Reading input from pw.in

     Current dimensions of program PWSCF are:
     Max number of different atomic species (ntypx) = 10
     Max number of k-points (npk) =  40000
     Max angular momentum in pseudopotentials (lmaxx) =  4
     file C.pbe-n-kjpaw_psl.1.0.0.UPF: wavefunction(s)  2S 2P renormalized
     Message from routine volume:
     axis vectors are left-handed
     Found identity + (  0.5000  0.0000  0.0000) symmetry
     This is a supercell, fractional translations are disabled
     Message from routine setup:
     using ibrav=0 with symmetry is DISCOURAGED, use correct ibrav instead

     R & G space division:  proc/nbgrp/npool/nimage =       8
     Subspace diagonalization in iterative solution of the eigenvalue problem:
     a serial algorithm will be used


     Parallelization info
     --------------------
     sticks:   dense  smooth     PW     G-vecs:    dense   smooth      PW
     Min         651     325     89               101891    36013    5191
     Max         652     326     90               101904    36021    5200
     Sum        5209    2601    717               815155   288125   41579

     Using Slab Decomposition



     bravais-lattice index     =            0
     lattice parameter (alat)  =       9.5505  a.u.
     unit-cell volume          =    2499.5129 (a.u.)^3
     number of atoms/cell      =           32
     number of atomic types    =            2
     number of electrons       =       104.00
     number of Kohn-Sham states=           62
     kinetic-energy cutoff     =      90.0000  Ry
     charge density cutoff     =     720.0000  Ry
     scf convergence threshold =      1.0E-08
     mixing beta               =       0.3000
     number of iterations used =            8  plain     mixing
     Exchange-correlation= PBE
                           (   1   4   3   4   0   0   0)

     celldm(1)=   9.550471  celldm(2)=   0.000000  celldm(3)=   0.000000
     celldm(4)=   0.000000  celldm(5)=   0.000000  celldm(6)=   0.000000

     crystal axes: (cart. coord. in units of alat)
               a(1) = (   1.000000   0.000000   0.000000 )  
               a(2) = (   0.000000  -1.000000   0.000000 )  
               a(3) = (   0.000000   0.000000   2.869333 )  

     reciprocal axes: (cart. coord. in units 2 pi/alat)
               b(1) = (  1.000000 -0.000000 -0.000000 )  
               b(2) = ( -0.000000 -1.000000 -0.000000 )  
               b(3) = ( -0.000000 -0.000000  0.348513 )  


     PseudoPot. # 1 for C  read from file:
     ./C.pbe-n-kjpaw_psl.1.0.0.UPF
     MD5 check sum: 5d2aebdfa2cae82b50a7e79e9516da0f
     Pseudo is Projector augmented-wave + core cor, Zval =  4.0
     Generated using "atomic" code by A. Dal Corso  v.5.1
     Shape of augmentation charge: PSQ
     Using radial grid of 1073 points,  4 beta functions with: 
                l(1) =   0
                l(2) =   0
                l(3) =   1
                l(4) =   1
     Q(r) pseudized with 0 coefficients 


     PseudoPot. # 2 for H  read from file:
     ./H_ONCV_PBE-1.0.oncvpsp.upf
     MD5 check sum: 1790becc920ee074925cf490c71280fe
     Pseudo is Norm-conserving, Zval =  1.0
     Generated using ONCVPSP code by D. R. Hamann
     Using radial grid of 1166 points,  2 beta functions with: 
                l(1) =   0
                l(2) =   0

     atomic species   valence    mass     pseudopotential
     C                 4.00    12.01100     C ( 1.00)
     H                 1.00     1.00800     H ( 1.00)

      4 Sym. Ops. (no inversion) found



   Cartesian axes

     site n.     atom                  positions (alat units)
         1        C      tau(   1) = (   0.0000000  -0.1582087   1.8592812  )
         2        C      tau(   2) = (   0.2500000  -0.2299149   1.6998931  )
         3        C      tau(   3) = (   0.2500000   0.0000000   1.4936626  )
         4        C      tau(   4) = (   0.0000000   0.0000000   1.3178300  )
         5        C      tau(   5) = (   0.0000000  -0.2700851   1.1694404  )
         6        C      tau(   6) = (   0.2500000  -0.3417913   1.0100523  )
         7        C      tau(   7) = (   0.0000000  -0.8417913   1.8592812  )
         8        C      tau(   8) = (   0.2500000  -0.7700851   1.6998931  )
         9        C      tau(   9) = (   0.2500000  -0.5000000   1.5515034  )
        10        C      tau(  10) = (   0.0000000  -0.5000000   1.3756708  )
        11        C      tau(  11) = (   0.0000000  -0.7299149   1.1694404  )
        12        C      tau(  12) = (   0.2500000  -0.6582087   1.0100523  )
        13        H      tau(  13) = (   0.0000000  -0.2449080   2.0590044  )
        14        H      tau(  14) = (   0.0000000  -0.7550920   2.0590044  )
        15        H      tau(  15) = (   0.2500000  -0.2550919   0.8103291  )
        16        H      tau(  16) = (   0.2500000  -0.7449081   0.8103291  )
        17        C      tau(  17) = (   0.5000000  -0.1582087   1.8592812  )
        18        C      tau(  18) = (   0.7500000  -0.2299149   1.6998931  )
        19        C      tau(  19) = (   0.7500000   0.0000000   1.4936626  )
        20        C      tau(  20) = (   0.5000000   0.0000000   1.3178300  )
        21        C      tau(  21) = (   0.5000000  -0.2700851   1.1694404  )
        22        C      tau(  22) = (   0.7500000  -0.3417913   1.0100523  )
        23        C      tau(  23) = (   0.5000000  -0.8417913   1.8592812  )
        24        C      tau(  24) = (   0.7500000  -0.7700851   1.6998931  )
        25        C      tau(  25) = (   0.7500000  -0.5000000   1.5515034  )
        26        C      tau(  26) = (   0.5000000  -0.5000000   1.3756708  )
        27        C      tau(  27) = (   0.5000000  -0.7299149   1.1694404  )
        28        C      tau(  28) = (   0.7500000  -0.6582087   1.0100523  )
        29        H      tau(  29) = (   0.5000000  -0.2449080   2.0590044  )
        30        H      tau(  30) = (   0.5000000  -0.7550920   2.0590044  )
        31        H      tau(  31) = (   0.7500000  -0.2550919   0.8103291  )
        32        H      tau(  32) = (   0.7500000  -0.7449081   0.8103291  )

     number of k points=    36  Marzari-Vanderbilt smearing, width (Ry)=  0.0100
                       cart. coord. in units 2pi/alat
        k(    1) = (   0.0000000  -0.0000000   0.0000000), wk =   0.0200000
        k(    2) = (   0.0000000  -0.1000000   0.0000000), wk =   0.0400000
        k(    3) = (   0.0000000  -0.2000000   0.0000000), wk =   0.0400000
        k(    4) = (   0.0000000  -0.3000000   0.0000000), wk =   0.0400000
        k(    5) = (   0.0000000  -0.4000000   0.0000000), wk =   0.0400000
        k(    6) = (   0.0000000   0.5000000   0.0000000), wk =   0.0200000
        k(    7) = (   0.1000000  -0.1000000   0.0000000), wk =   0.0800000
        k(    8) = (   0.1000000  -0.2000000   0.0000000), wk =   0.0800000
        k(    9) = (   0.1000000  -0.3000000   0.0000000), wk =   0.0800000
        k(   10) = (   0.1000000  -0.4000000   0.0000000), wk =   0.0800000
        k(   11) = (   0.1000000   0.5000000   0.0000000), wk =   0.0400000
        k(   12) = (   0.2000000  -0.2000000   0.0000000), wk =   0.0800000
        k(   13) = (   0.2000000  -0.3000000   0.0000000), wk =   0.0800000
        k(   14) = (   0.2000000  -0.4000000   0.0000000), wk =   0.0800000
        k(   15) = (   0.2000000   0.5000000   0.0000000), wk =   0.0400000
        k(   16) = (   0.3000000  -0.3000000   0.0000000), wk =   0.0800000
        k(   17) = (   0.3000000  -0.4000000   0.0000000), wk =   0.0800000
        k(   18) = (   0.3000000   0.5000000   0.0000000), wk =   0.0400000
        k(   19) = (   0.4000000  -0.4000000   0.0000000), wk =   0.0800000
        k(   20) = (   0.4000000   0.5000000   0.0000000), wk =   0.0400000
        k(   21) = (  -0.5000000   0.5000000   0.0000000), wk =   0.0200000
        k(   22) = (  -0.1000000   0.0000000   0.0000000), wk =   0.0400000
        k(   23) = (  -0.2000000   0.0000000   0.0000000), wk =   0.0400000
        k(   24) = (  -0.3000000   0.0000000   0.0000000), wk =   0.0400000
        k(   25) = (  -0.4000000   0.0000000   0.0000000), wk =   0.0400000
        k(   26) = (   0.5000000  -0.0000000   0.0000000), wk =   0.0200000
        k(   27) = (  -0.2000000   0.1000000   0.0000000), wk =   0.0800000
        k(   28) = (  -0.3000000   0.1000000   0.0000000), wk =   0.0800000
        k(   29) = (  -0.4000000   0.1000000   0.0000000), wk =   0.0800000
        k(   30) = (   0.5000000   0.1000000   0.0000000), wk =   0.0400000
        k(   31) = (  -0.3000000   0.2000000   0.0000000), wk =   0.0800000
        k(   32) = (  -0.4000000   0.2000000   0.0000000), wk =   0.0800000
        k(   33) = (   0.5000000   0.2000000   0.0000000), wk =   0.0400000
        k(   34) = (  -0.4000000   0.3000000   0.0000000), wk =   0.0800000
        k(   35) = (   0.5000000   0.3000000   0.0000000), wk =   0.0400000
        k(   36) = (   0.5000000   0.4000000   0.0000000), wk =   0.0400000

     Dense  grid:   815155 G-vectors     FFT dimensions: (  81,  81, 240)

     Smooth grid:   288125 G-vectors     FFT dimensions: (  60,  60, 180)

     Estimated max dynamical RAM per process >     408.17 MB

     Estimated total dynamical RAM >       3.19 GB

     Initial potential from superposition of free atoms

     starting charge     103.9989, renormalised to     104.0000
     Starting wfcs are  104 randomized atomic wfcs
     Checking if some PAW data can be deallocated... 

     total cpu time spent up to now is        7.7 secs

     Self-consistent Calculation

     iteration #  1     ecut=    90.00 Ry     beta= 0.30
     Davidson diagonalization with overlap
     ethr =  1.00E-02,  avg # of iterations =  3.0

     negative rho (up, down):  1.835E-07 0.000E+00

     total cpu time spent up to now is       23.5 secs

     total energy              =    -451.91443620 Ry
     estimated scf accuracy    <       2.44578424 Ry

     iteration #  2     ecut=    90.00 Ry     beta= 0.30
     Davidson diagonalization with overlap
     ethr =  2.35E-03,  avg # of iterations =  4.5

     negative rho (up, down):  2.814E-06 0.000E+00

     total cpu time spent up to now is       36.8 secs

     total energy              =    -451.75772329 Ry
     estimated scf accuracy    <       0.72250700 Ry

     iteration #  3     ecut=    90.00 Ry     beta= 0.30
     Davidson diagonalization with overlap
     ethr =  6.95E-04,  avg # of iterations =  6.9

     negative rho (up, down):  3.966E-06 0.000E+00

     total cpu time spent up to now is       53.1 secs

     total energy              =    -451.78429983 Ry
     estimated scf accuracy    <       0.10765464 Ry

     iteration #  4     ecut=    90.00 Ry     beta= 0.30
     Davidson diagonalization with overlap
     ethr =  1.04E-04,  avg # of iterations =  4.8

     negative rho (up, down):  7.990E-06 0.000E+00

     total cpu time spent up to now is       67.5 secs

     total energy              =    -451.79355928 Ry
     estimated scf accuracy    <       0.01063431 Ry

     iteration #  5     ecut=    90.00 Ry     beta= 0.30
     Davidson diagonalization with overlap
     c_bands:  1 eigenvalues not converged
     ethr =  1.02E-05,  avg # of iterations =  8.7

     negative rho (up, down):  6.095E-06 0.000E+00

     total cpu time spent up to now is       86.4 secs

     total energy              =    -451.79546524 Ry
     estimated scf accuracy    <       0.00289408 Ry

     iteration #  6     ecut=    90.00 Ry     beta= 0.30
     Davidson diagonalization with overlap
     c_bands:  1 eigenvalues not converged
     ethr =  2.78E-06,  avg # of iterations =  7.1

     negative rho (up, down):  6.668E-06 0.000E+00

     total cpu time spent up to now is      102.4 secs

     total energy              =    -451.79580696 Ry
     estimated scf accuracy    <       0.00034173 Ry

     iteration #  7     ecut=    90.00 Ry     beta= 0.30
     Davidson diagonalization with overlap
     ethr =  3.29E-07,  avg # of iterations =  2.7

     negative rho (up, down):  6.715E-06 0.000E+00

     total cpu time spent up to now is      116.3 secs

     total energy              =    -451.79585614 Ry
     estimated scf accuracy    <       0.00004759 Ry

     iteration #  8     ecut=    90.00 Ry     beta= 0.30
     Davidson diagonalization with overlap
     ethr =  4.58E-08,  avg # of iterations =  3.0

     negative rho (up, down):  6.654E-06 0.000E+00

     total cpu time spent up to now is      130.3 secs

     total energy              =    -451.79586640 Ry
     estimated scf accuracy    <       0.00001743 Ry

     iteration #  9     ecut=    90.00 Ry     beta= 0.30
     Davidson diagonalization with overlap
     ethr =  1.68E-08,  avg # of iterations =  2.1

     negative rho (up, down):  6.693E-06 0.000E+00

     total cpu time spent up to now is      143.9 secs

     total energy              =    -451.79586976 Ry
     estimated scf accuracy    <       0.00000240 Ry

     iteration # 10     ecut=    90.00 Ry     beta= 0.30
     Davidson diagonalization with overlap
     ethr =  2.31E-09,  avg # of iterations =  3.6

     negative rho (up, down):  6.672E-06 0.000E+00

     total cpu time spent up to now is      159.3 secs

     total energy              =    -451.79586993 Ry
     estimated scf accuracy    <       0.00000139 Ry

     iteration # 11     ecut=    90.00 Ry     beta= 0.30
     Davidson diagonalization with overlap
     ethr =  1.33E-09,  avg # of iterations =  2.9

     negative rho (up, down):  6.704E-06 0.000E+00

     total cpu time spent up to now is      173.4 secs

     total energy              =    -451.79587031 Ry
     estimated scf accuracy    <       0.00000009 Ry

     iteration # 12     ecut=    90.00 Ry     beta= 0.30
     Davidson diagonalization with overlap
     ethr =  8.20E-11,  avg # of iterations =  2.0

     negative rho (up, down):  6.728E-06 0.000E+00

     total cpu time spent up to now is      185.8 secs

     total energy              =    -451.79587029 Ry
     estimated scf accuracy    <       0.00000003 Ry

     iteration # 13     ecut=    90.00 Ry     beta= 0.30
     Davidson diagonalization with overlap
     ethr =  3.02E-11,  avg # of iterations =  4.7

     negative rho (up, down):  6.744E-06 0.000E+00

     total cpu time spent up to now is      203.3 secs

     total energy              =    -451.79587029 Ry
     estimated scf accuracy    <       0.00000006 Ry

     iteration # 14     ecut=    90.00 Ry     beta= 0.30
     Davidson diagonalization with overlap
     ethr =  3.02E-11,  avg # of iterations =  3.0

     negative rho (up, down):  6.795E-06 0.000E+00

     total cpu time spent up to now is      217.6 secs

     End of self-consistent calculation

          k = 0.0000-0.0000 0.0000 ( 36075 PWs)   bands (ev):

   -17.7364 -16.0425 -13.3844 -13.3844 -13.1652 -12.9578 -12.8591 -11.8375
   -11.5618 -11.5618  -9.2935  -9.2935  -9.0374  -8.8362  -8.8362  -8.7016
    -8.1487  -8.1487  -7.8478  -7.7725  -7.7724  -5.4174  -5.3763  -5.1806
    -4.8116  -4.8116  -3.9141  -3.9141  -3.4817  -3.4817  -2.6859  -2.2175
    -2.2143  -2.2143  -2.1213  -2.1213  -1.9101  -1.7693  -1.6572  -1.2008
    -1.1739  -1.1739   0.2225   0.4049   0.4049   0.4339   0.5393   0.8083
     0.8622   0.9921   1.3435   1.6795   5.4377   5.8929   7.4676   7.7476
     7.7859   8.3922   8.6201   8.9959   8.9959   9.1663

          k = 0.0000-0.1000 0.0000 ( 36087 PWs)   bands (ev):

   -17.6949 -16.0401 -13.7132 -13.3449 -13.3449 -13.0707 -12.2526 -11.8084
   -11.5602 -11.5602  -9.7733  -9.7733  -9.0747  -8.5475  -8.3970  -8.3970
    -8.1928  -8.1928  -7.8390  -7.6723  -7.6723  -5.6517  -5.1940  -5.0600
    -4.8481  -4.8481  -3.8933  -3.8933  -3.4278  -3.4278  -2.6508  -2.5875
    -2.2115  -2.2115  -2.0858  -2.0858  -1.8168  -1.6874  -1.6565  -1.1994
    -1.1694  -1.1694   0.0439   0.0950   0.2086   0.2086   0.4920   0.8485
     1.0147   1.0365   1.4575   1.5930   5.4975   5.9455   7.6814   7.8139
     7.8831   8.4829   8.5481   9.0021   9.0021   9.1763

          k = 0.0000-0.2000 0.0000 ( 36055 PWs)   bands (ev):

   -17.5715 -16.0587 -14.2558 -13.3605 -13.2277 -13.2277 -11.7163 -11.5793
   -11.5793 -11.5552 -10.3250 -10.3250  -9.1346  -8.5597  -8.5597  -8.1740
    -7.7716  -7.6267  -7.6267  -7.4642  -7.4642  -5.9218  -5.0481  -4.9218
    -4.9218  -4.7792  -3.8349  -3.8349  -3.2788  -3.2788  -3.2187  -2.5466
    -2.3049  -2.3049  -1.9237  -1.8788  -1.8788  -1.8492  -1.3322  -1.2214
    -1.1956  -1.1956  -0.3782  -0.3053  -0.3053  -0.2296   0.3862   0.5936
     1.2242   1.3222   1.3435   1.6252   5.6714   6.0957   7.7888   8.1293
     8.2555   8.5324   8.6129   8.8252   8.9133   8.9133

          k = 0.0000-0.3000 0.0000 ( 36043 PWs)   bands (ev):

   -17.3696 -16.1751 -14.5709 -13.7309 -13.0383 -13.0383 -11.7004 -11.7004
   -11.5616 -11.0786 -10.6942 -10.6942  -9.0309  -8.8101  -8.8101  -7.8212
    -7.5904  -7.3347  -7.3347  -7.0235  -7.0235  -6.1194  -4.9985  -4.8941
    -4.8941  -4.5228  -3.8119  -3.7349  -3.7349  -3.1952  -3.1952  -2.4080
    -2.3770  -2.2676  -2.2676  -1.8800  -1.6856  -1.6856  -1.3450  -1.3450
    -1.3431  -1.1046  -0.9141  -0.9141  -0.5851  -0.3752   0.2881   0.3212
     1.0090   1.3107   1.5696   1.7562   5.9497   6.3377   7.7831   7.9390
     8.4187   8.4254   8.6785   8.7484   8.7485   9.0913

          k = 0.0000-0.4000 0.0000 ( 36013 PWs)   bands (ev):

   -17.0973 -16.4369 -14.5989 -14.1009 -12.7961 -12.7961 -11.9652 -11.9652
   -11.3588 -10.9879 -10.8307 -10.8307  -9.0013  -9.0013  -8.6172  -7.7910
    -7.2633  -7.1373  -7.1373  -6.8014  -6.8014  -6.3061  -5.0008  -4.6067
    -4.6067  -4.4749  -3.9876  -3.6906  -3.6906  -3.2285  -3.2285  -3.1341
    -2.1493  -2.0386  -2.0386  -1.9340  -1.9340  -1.6849  -1.5878  -1.4126
    -1.4126  -1.2827  -1.2827  -1.1189  -0.4953  -0.3332   0.0594   0.1048
     0.8718   1.2421   1.7410   1.8279   6.3211   6.6642   7.3706   7.5915
     8.2326   8.5969   8.6120   8.6120   8.8741   8.9549

          k = 0.0000 0.5000 0.0000 ( 35968 PWs)   bands (ev):

   -16.7725 -16.7725 -14.4112 -14.4112 -12.6246 -12.6246 -12.1629 -12.1629
   -11.1410 -11.1410 -10.8520 -10.8520  -9.0736  -9.0736  -8.1133  -8.1133
    -7.0256  -7.0256  -6.7995  -6.7995  -6.7780  -6.7780  -4.7098  -4.7098
    -4.3101  -4.3101  -3.8227  -3.8227  -3.7303  -3.7303  -3.1662  -3.1662
    -2.3110  -2.3110  -1.8769  -1.8769  -1.6562  -1.6562  -1.6246  -1.6246
    -1.3663  -1.3663  -1.3262  -1.3262  -0.2303  -0.2303  -0.1691  -0.1691
     1.0464   1.0464   1.8262   1.8262   6.7478   6.7479   7.1799   7.1799
     8.4059   8.4059   8.5532   8.5532   8.9555   8.9556

          k = 0.1000-0.1000 0.0000 ( 36075 PWs)   bands (ev):

   -17.6491 -15.9952 -14.0994 -13.6699 -13.0280 -12.8714 -12.2102 -11.9236
   -11.7675 -10.9147 -10.3577  -9.6069  -9.0503  -8.9509  -8.5317  -8.5092
    -8.2547  -7.8018  -7.6918  -7.3693  -7.0810  -5.6335  -5.1773  -5.1568
    -5.0268  -4.9155  -4.0630  -3.8654  -3.2973  -3.0267  -2.9537  -2.5646
    -2.3905  -2.3836  -1.9325  -1.8567  -1.8072  -1.8067  -1.6406  -1.3026
    -1.2446  -1.0118  -0.1886  -0.0494   0.0612   0.4435   0.4558   0.6294
     0.8551   0.9441   1.3224   1.5685   5.5407   5.9998   7.8395   7.8793
     8.0754   8.5750   8.5917   8.6919   8.7147   9.2876

          k = 0.1000-0.2000 0.0000 ( 36055 PWs)   bands (ev):

   -17.5257 -16.0137 -14.2123 -13.9799 -13.3177 -12.8039 -11.9240 -11.6753
   -11.5137 -10.9098 -10.8615 -10.1689  -9.1078  -8.5444  -8.3569  -8.2132
    -8.1378  -7.8880  -7.7356  -6.8622  -6.7999  -5.9005  -5.2735  -5.0310
    -4.8723  -4.7501  -4.1323  -3.7235  -3.1897  -3.1776  -2.9346  -2.8508
    -2.4277  -2.3047  -1.9253  -1.9121  -1.8025  -1.6748  -1.6578  -1.3372
    -1.1354  -1.0416  -0.4805  -0.4568  -0.3795  -0.0978   0.3406   0.3824
     1.1134   1.1487   1.3398   1.5063   5.7146   6.1503   7.8770   8.3204
     8.4004   8.5535   8.5810   8.7336   8.8441   9.0814

          k = 0.1000-0.3000 0.0000 ( 36039 PWs)   bands (ev):

   -17.3239 -16.1299 -14.5273 -13.7847 -13.6879 -12.7693 -11.9594 -11.5208
   -11.1229 -11.0381 -10.9470 -10.6860  -9.0025  -8.7331  -8.3675  -7.9832
    -7.7899  -7.6492  -7.5548  -6.6177  -6.2874  -6.0915  -5.2909  -4.9776
    -4.7684  -4.4980  -4.0659  -3.7857  -3.5785  -3.3353  -2.7845  -2.7076
    -2.3477  -2.3323  -2.1824  -1.8552  -1.7411  -1.7406  -1.7169  -1.4436
    -1.1547  -0.9827  -0.8162  -0.8056  -0.6408  -0.5749   0.0554   0.2794
     1.0193   1.2709   1.3733   1.6132   5.9929   6.3928   7.8478   7.9825
     8.4039   8.5242   8.6953   8.7274   8.8060   9.0889

          k = 0.1000-0.4000 0.0000 ( 36043 PWs)   bands (ev):

   -17.0517 -16.3917 -14.5553 -14.0577 -13.5221 -12.9162 -11.8890 -11.3184
   -11.2428 -11.1339 -10.9480 -10.9262  -8.8166  -8.5961  -8.5896  -7.7652
    -7.7588  -7.4795  -7.2263  -6.3749  -6.2692  -6.0922  -5.0095  -4.9742
    -4.4984  -4.4508  -3.9703  -3.9267  -3.7632  -3.2264  -3.1284  -2.9533
    -2.4367  -2.2190  -2.0727  -1.9211  -1.8740  -1.7150  -1.6457  -1.4950
    -1.3754  -1.2234  -1.0350  -1.0242  -0.6102  -0.4925  -0.2081   0.0885
     0.9106   1.2474   1.5436   1.6510   6.3642   6.7173   7.4148   7.6366
     8.3123   8.3246   8.5738   8.8246   8.9418   9.0350

          k = 0.1000 0.5000 0.0000 ( 36044 PWs)   bands (ev):

   -16.7270 -16.7270 -14.3677 -14.3677 -13.2129 -13.2129 -11.6239 -11.6239
   -11.1010 -11.1010 -11.0375 -11.0375  -8.7646  -8.7646  -8.0882  -8.0882
    -7.5629  -7.5629  -6.7390  -6.7390  -6.1790  -6.1790  -4.6827  -4.6827
    -4.5495  -4.5495  -3.8586  -3.8586  -3.7172  -3.7172  -3.1215  -3.1215
    -2.2400  -2.2400  -2.1884  -2.1884  -1.7869  -1.7869  -1.4633  -1.4633
    -1.3060  -1.3060  -1.1913  -1.1913  -0.4574  -0.4574  -0.2230  -0.2230
     1.0781   1.0781   1.6330   1.6330   6.7908   6.7909   7.2303   7.2303
     8.3883   8.3883   8.4825   8.4825   9.0614   9.1388

          k = 0.2000-0.2000 0.0000 ( 36050 PWs)   bands (ev):

   -17.3886 -15.8789 -14.7047 -14.0818 -13.2928 -13.1896 -11.6733 -11.5528
   -11.3892 -11.0675 -10.8773  -9.9542  -9.0337  -8.9605  -8.6512  -8.0320
    -7.9382  -7.6299  -7.2679  -6.2659  -6.1417  -5.8438  -5.6033  -5.0701
    -4.9886  -4.6747  -4.3511  -3.6578  -3.5484  -3.1086  -3.0202  -2.6764
    -2.3765  -2.3404  -2.3122  -1.9168  -1.7545  -1.7494  -1.5150  -1.2973
    -1.1690  -1.0186  -0.9165  -0.5209  -0.4938  -0.1698   0.1359   0.3125
     0.5687   0.6962   1.2581   1.3765   5.8388   6.2913   8.0221   8.1664
     8.2780   8.6042   8.6724   8.8244   8.8512   8.9925

          k = 0.2000-0.3000 0.0000 ( 36021 PWs)   bands (ev):

   -17.1870 -15.9947 -14.5079 -14.3966 -13.5591 -13.3726 -11.9686 -11.3988
   -11.1654 -10.9534 -10.9168 -10.1826  -8.9227  -8.5367  -8.5246  -8.0278
    -7.7004  -7.4508  -7.4138  -6.0121  -5.9954  -5.6825  -5.5574  -4.9962
    -4.9232  -4.4394  -4.3100  -3.7114  -3.6637  -3.3804  -3.1845  -2.4985
    -2.4559  -2.3431  -2.2895  -2.1693  -1.9215  -1.8067  -1.5682  -1.2838
    -1.1922  -1.1769  -0.8939  -0.6786  -0.6633  -0.5013  -0.4460   0.2030
     0.7812   0.8854   1.0422   1.4446   6.1162   6.5369   7.9776   8.1028
     8.1116   8.3177   8.5207   8.7605   8.8973   9.3028

          k = 0.2000-0.4000 0.0000 ( 36048 PWs)   bands (ev):

   -16.9151 -16.2559 -14.4248 -14.2427 -13.9282 -13.6061 -11.9998 -11.5085
   -11.1975 -10.8288 -10.7726 -10.3683  -8.5270  -8.5124  -8.4284  -7.8956
    -7.6939  -7.5083  -7.1176  -6.1605  -5.7654  -5.4034  -5.3973  -4.9006
    -4.6894  -4.3911  -4.2027  -3.9993  -3.9267  -3.2475  -3.0967  -2.9794
    -2.7146  -2.6499  -2.4568  -1.9180  -1.8653  -1.7423  -1.5887  -1.2858
    -1.2733  -1.1146  -0.9440  -0.8882  -0.8436  -0.7979  -0.5076  -0.0068
     0.9110   1.0053   1.0358   1.3647   6.4868   6.8601   7.5333   7.7633
     8.0011   8.1804   8.3136   8.8502   8.9465   9.2244

          k = 0.2000 0.5000 0.0000 ( 36040 PWs)   bands (ev):

   -16.5908 -16.5908 -14.2376 -14.2376 -13.9272 -13.9272 -11.8127 -11.8127
   -10.9814 -10.9814 -10.5672 -10.5672  -8.4874  -8.4874  -8.0189  -8.0189
    -7.6833  -7.6833  -6.6235  -6.6235  -5.5632  -5.5632  -4.8356  -4.8356
    -4.6088  -4.6088  -4.1476  -4.1476  -3.6900  -3.6900  -2.9549  -2.9549
    -2.8954  -2.8954  -2.3093  -2.3093  -1.7528  -1.7528  -1.2345  -1.2345
    -1.1160  -1.1159  -1.0806  -1.0806  -0.9835  -0.9835  -0.2937  -0.2937
     1.0282   1.0282   1.1749   1.1749   6.9148   6.9149   7.3615   7.3615
     8.0277   8.0277   8.4814   8.4814   9.0960   9.0960

          k = 0.3000-0.3000 0.0000 ( 36006 PWs)   bands (ev):

   -16.9593 -15.7698 -15.1641 -14.1796 -14.0042 -13.3454 -12.5071 -11.7061
   -11.1973 -10.7158 -10.1626  -9.9114  -9.0427  -8.8134  -8.4689  -7.5702
    -7.2887  -7.2225  -6.9004  -5.8998  -5.8295  -5.6803  -5.3682  -4.9304
    -4.8703  -4.5458  -4.1019  -4.0361  -3.7443  -3.6079  -3.3513  -3.0654
    -2.6973  -2.4456  -2.3980  -2.0744  -1.8645  -1.7495  -1.7063  -1.3279
    -1.2993  -1.2524  -0.8557  -0.7657  -0.7486  -0.5290  -0.0991  -0.0339
     0.1779   0.2732   0.8798   1.2870   6.3096   6.7444   7.7785   7.8683
     8.0985   8.2592   8.4266   8.4578   8.9930   9.1214

          k = 0.3000-0.4000 0.0000 ( 36031 PWs)   bands (ev):

   -16.6880 -16.0301 -14.8971 -14.2522 -14.2081 -13.7132 -12.5412 -12.0600
   -10.9982 -10.6323 -10.0235  -9.8871  -8.8037  -8.6011  -8.4075  -7.6005
    -7.1209  -6.9462  -6.8327  -5.9873  -5.8037  -5.3965  -5.2690  -4.8083
    -4.5937  -4.4192  -4.1934  -4.0329  -3.9276  -3.8918  -3.5433  -3.0682
    -3.0268  -2.7571  -2.6111  -2.0624  -1.9213  -1.6650  -1.6574  -1.5950
    -1.5135  -0.9972  -0.8891  -0.7447  -0.7377  -0.5709  -0.3581  -0.3100
     0.4012   0.4311   0.8257   1.1908   6.6732   7.0720   7.6855   7.7623
     7.7718   7.9584   8.1778   8.5655   8.7631   8.9822

          k = 0.3000 0.5000 0.0000 ( 36042 PWs)   bands (ev):

   -16.3643 -16.3643 -14.5789 -14.5789 -14.0216 -14.0216 -12.3602 -12.3602
   -10.7845 -10.7845  -9.9182  -9.9182  -8.7101  -8.7101  -7.9290  -7.9290
    -6.9450  -6.9450  -6.4376  -6.4376  -5.5328  -5.5328  -4.8862  -4.8861
    -4.5335  -4.5335  -4.1161  -4.1161  -3.8040  -3.8040  -3.6346  -3.6346
    -2.9386  -2.9386  -2.4299  -2.4299  -1.9040  -1.9040  -1.5234  -1.5234
    -1.1702  -1.1702  -0.7951  -0.7951  -0.5719  -0.5718  -0.5598  -0.5598
     0.4947   0.4947   0.9833   0.9834   7.1031   7.1032   7.5391   7.5391
     7.7157   7.7157   8.3666   8.3666   8.8531   8.8532

          k = 0.4000-0.4000 0.0000 ( 36016 PWs)   bands (ev):

   -16.3710 -15.7151 -15.4731 -14.8234 -13.9069 -13.4144 -13.0645 -12.5794
   -10.7254 -10.3639 -10.0401  -9.7559  -8.7791  -8.3339  -8.1359  -7.5482
    -6.7369  -6.5048  -6.2555  -5.7763  -5.6853  -5.3752  -5.3317  -5.0307
    -4.8288  -4.8165  -4.4013  -4.1619  -3.9758  -3.9357  -3.5219  -3.2644
    -2.9315  -2.7819  -2.6940  -2.5053  -2.1854  -2.0287  -1.5028  -1.4776
    -1.2710  -1.2053  -1.0198  -0.8342  -0.6952  -0.5492  -0.1614  -0.0375
    -0.0373   0.1332   0.5987   0.9324   6.9009   7.3356   7.4203   7.6567
     7.7866   8.0763   8.1572   8.2437   8.4957   8.7614

          k = 0.4000 0.5000 0.0000 ( 36002 PWs)   bands (ev):

   -16.0483 -16.0482 -15.1530 -15.1530 -13.7214 -13.7214 -12.8820 -12.8820
   -10.5160 -10.5160  -9.8770  -9.8770  -8.4359  -8.4359  -7.8815  -7.8815
    -6.1998  -6.1998  -6.1727  -6.1727  -5.6086  -5.6086  -5.1208  -5.1208
    -4.8154  -4.8154  -4.3432  -4.3432  -3.7735  -3.7735  -3.7642  -3.7642
    -2.8214  -2.8214  -2.5032  -2.5032  -2.4594  -2.4594  -1.2689  -1.2689
    -1.1567  -1.1567  -1.1290  -1.1290  -0.5886  -0.5886  -0.0631  -0.0631
     0.0291   0.0292   0.7401   0.7401   7.3043   7.3043   7.5192   7.5192
     7.7264   7.7264   8.3588   8.3589   8.3883   8.3884

          k =-0.5000 0.5000 0.0000 ( 36040 PWs)   bands (ev):

   -15.6439 -15.6439 -15.6439 -15.6439 -13.3397 -13.3397 -13.3397 -13.3397
   -10.1916 -10.1916 -10.1916 -10.1916  -8.0175  -8.0175  -8.0175  -8.0175
    -5.9902  -5.9902  -5.9902  -5.9902  -5.3618  -5.3618  -5.3618  -5.3618
    -4.8356  -4.8356  -4.8356  -4.8356  -3.7841  -3.7841  -3.7841  -3.7841
    -2.6972  -2.6972  -2.6972  -2.6972  -1.9385  -1.9385  -1.9385  -1.9385
    -1.1424  -1.1424  -1.1424  -1.1424  -0.3107  -0.3107  -0.3107  -0.3107
     0.3854   0.3855   0.3855   0.3855   7.4204   7.4204   7.4205   7.4205
     7.9905   7.9905   7.9906   7.9906   8.5981   8.5981

          k =-0.1000 0.0000 0.0000 ( 36087 PWs)   bands (ev):

   -17.6906 -15.9977 -14.1395 -13.1228 -12.9152 -12.8988 -12.8156 -11.9303
   -11.7967 -10.9196  -9.8696  -9.4889  -9.2190  -9.0142  -8.7891  -8.6627
    -8.0708  -7.8100  -7.6929  -7.5386  -7.2155  -5.4029  -5.3567  -5.1459
    -5.1049  -4.9382  -3.9398  -3.9146  -3.5309  -2.9891  -2.9560  -2.4521
    -2.3444  -2.1873  -2.0110  -1.9560  -1.8961  -1.7583  -1.6114  -1.3621
    -1.2382  -1.0111   0.0143   0.1242   0.3449   0.4182   0.6457   0.7431
     0.7689   0.8386   1.1629   1.6495   5.4810   5.9474   7.6085   7.8636
     7.9294   8.5526   8.6250   8.6389   8.6585   9.2652

          k =-0.2000 0.0000 0.0000 ( 36055 PWs)   bands (ev):

   -17.5533 -15.8632 -14.8655 -13.3060 -12.9958 -12.7875 -12.6855 -11.6745
   -11.3427 -10.6819 -10.4828 -10.1588  -9.3304  -9.1245  -8.9516  -8.5477
    -7.6979  -7.5233  -6.9724  -6.8271  -6.7226  -5.3919  -5.3720  -5.3029
    -5.2136  -5.0476  -4.1662  -3.7772  -3.7024  -3.3276  -2.7171  -2.4895
    -2.4194  -2.2487  -2.0991  -1.7289  -1.7169  -1.6301  -1.6100  -1.5745
    -1.2004  -0.8075  -0.5189  -0.1626  -0.0615   0.0142   0.2255   0.5637
     0.8004   0.8268   0.8584   1.5111   5.6070   6.0854   7.8538   8.0359
     8.1142   8.1522   8.3532   8.7722   9.1506   9.2380

          k =-0.3000 0.0000 0.0000 ( 36043 PWs)   bands (ev):

   -17.3250 -15.6398 -15.5239 -13.9006 -12.7848 -12.5761 -12.4693 -11.4714
   -11.1666 -11.0198 -10.7732 -10.3871  -9.8881  -8.8775  -8.4516  -8.3630
    -7.5158  -7.1667  -6.5566  -6.4577  -6.2201  -5.3819  -5.2336  -5.1800
    -5.1440  -4.9653  -4.5078  -3.9517  -3.7735  -3.5566  -3.2684  -2.8087
    -1.9750  -1.9609  -1.8469  -1.8412  -1.8048  -1.6965  -1.5998  -1.2737
    -1.0675  -1.0145  -0.8014  -0.6012  -0.5523  -0.4986  -0.3923   0.3637
     0.4837   0.9043   0.9399   1.2098   5.8163   6.2784   7.5447   7.5740
     8.1075   8.4615   8.8048   8.9574   9.3262   9.3689

          k =-0.4000 0.0000 0.0000 ( 36013 PWs)   bands (ev):

   -17.0063 -16.1033 -15.3285 -14.4526 -12.4911 -12.2834 -12.1679 -11.6670
   -11.4816 -11.3168 -11.1885 -10.3922  -9.6091  -8.8637  -8.1246  -7.8467
    -7.2730  -6.9375  -6.7118  -6.4318  -5.6129  -5.6089  -5.5676  -5.1927
    -4.6483  -4.5484  -4.4166  -3.9440  -3.8604  -3.7778  -3.3148  -2.7285
    -2.5553  -2.4788  -1.8174  -1.7680  -1.5753  -1.5492  -1.5428  -1.4956
    -1.3396  -1.2256  -1.2072  -0.8658  -0.4572  -0.4269  -0.3854   0.1023
     0.1805   0.7484   0.9527   0.9890   6.1168   6.5219   6.9951   7.1685
     8.4300   8.6695   9.1320   9.2001   9.2079   9.4097

          k = 0.5000-0.0000 0.0000 ( 35968 PWs)   bands (ev):

   -16.5984 -16.5984 -14.9315 -14.9315 -12.1168 -12.1168 -11.9146 -11.9146
   -11.7829 -11.7829 -10.8277 -10.8277  -9.0621  -9.0621  -7.8795  -7.8795
    -6.9895  -6.9895  -6.2512  -6.2512  -6.1915  -6.1915  -5.2736  -5.2736
    -4.2865  -4.2865  -4.2600  -4.2600  -3.3702  -3.3702  -3.3666  -3.3666
    -2.4793  -2.4793  -2.3247  -2.3247  -1.5913  -1.5913  -1.5222  -1.5222
    -1.2192  -1.2192  -1.1342  -1.1342  -0.2003  -0.2003  -0.1238  -0.1238
     0.1705   0.1705   0.9872   0.9872   6.5121   6.5121   6.8180   6.8180
     8.8051   8.8051   8.9461   8.9461   9.5233   9.5233

          k =-0.2000 0.1000 0.0000 ( 36055 PWs)   bands (ev):

   -17.5119 -15.8607 -14.8251 -13.5404 -13.2969 -12.9003 -12.0831 -11.6451
   -11.3763 -10.9234 -10.7232  -9.6242  -9.6081  -8.9841  -8.8831  -8.3962
    -7.6974  -7.6917  -7.0375  -6.6950  -6.5164  -5.5877  -5.4529  -5.1605
    -5.1357  -4.9348  -4.2682  -3.7446  -3.6629  -3.1015  -2.8038  -2.5761
    -2.3724  -2.3043  -2.3034  -1.7869  -1.7474  -1.6280  -1.5335  -1.3979
    -1.2347  -0.8260  -0.7524  -0.2908  -0.1953   0.1559   0.2620   0.5084
     0.5261   0.6345   1.1706   1.4452   5.6660   6.1382   7.9732   8.0800
     8.1644   8.2918   8.5041   8.7203   9.1251   9.2729

          k =-0.3000 0.1000 0.0000 ( 36039 PWs)   bands (ev):

   -17.2836 -15.6371 -15.4832 -13.8954 -13.3253 -12.6886 -11.8719 -11.6601
   -11.4419 -11.1103 -10.3858 -10.2017  -9.9124  -8.9027  -8.4235  -8.2155
    -7.5145  -7.1598  -6.7354  -6.2692  -6.1733  -5.5546  -5.2647  -5.1033
    -5.0599  -4.8896  -4.4363  -4.0798  -3.7458  -3.3096  -3.2632  -2.8523
    -2.3353  -1.9208  -1.9114  -1.9032  -1.7213  -1.6974  -1.6156  -1.3195
    -1.2206  -0.9670  -0.8066  -0.6487  -0.5218  -0.4521  -0.2326   0.1480
     0.3077   0.7751   1.0780   1.1665   5.8729   6.3331   7.5849   7.6271
     8.1785   8.6303   8.8851   8.9085   9.2707   9.3079

          k =-0.4000 0.1000 0.0000 ( 36043 PWs)   bands (ev):

   -16.9650 -16.0624 -15.3256 -14.4487 -13.0257 -12.3952 -12.1845 -11.5868
   -11.5774 -11.1597 -10.7457 -10.3763  -9.5878  -8.8758  -7.9852  -7.8001
    -7.2834  -6.8610  -6.8209  -6.3140  -5.6878  -5.6830  -5.5308  -5.1497
    -4.6183  -4.5279  -4.4483  -3.9557  -3.8152  -3.7259  -3.2133  -2.7345
    -2.6639  -2.5390  -2.0279  -1.7748  -1.7349  -1.6013  -1.5853  -1.4270
    -1.3953  -1.2160  -1.0118  -0.7504  -0.4737  -0.4543  -0.4050  -0.0398
     0.0480   0.7337   0.8711   1.0016   6.1684   6.5790   7.0357   7.2258
     8.4693   8.7882   9.1273   9.2026   9.2043   9.3265

          k = 0.5000 0.1000 0.0000 ( 36044 PWs)   bands (ev):

   -16.5573 -16.5573 -14.9282 -14.9282 -12.6441 -12.6440 -12.0247 -12.0247
   -11.2011 -11.2011 -10.8018 -10.8018  -9.0554  -9.0554  -7.7619  -7.7619
    -7.0304  -7.0304  -6.2420  -6.2420  -6.1360  -6.1360  -5.3097  -5.3097
    -4.2949  -4.2949  -4.2335  -4.2335  -3.4090  -3.4090  -3.3660  -3.3660
    -2.4581  -2.4581  -2.2730  -2.2730  -1.8617  -1.8617  -1.5669  -1.5669
    -1.0949  -1.0949  -1.0523  -1.0523  -0.2657  -0.2657  -0.2472  -0.2472
     0.1888   0.1888   0.9387   0.9387   6.5576   6.5576   6.8764   6.8764
     8.8485   8.8485   8.9802   8.9802   9.3462   9.3462

          k =-0.3000 0.2000 0.0000 ( 36021 PWs)   bands (ev):

   -17.1605 -15.6549 -15.3621 -13.9041 -13.8652 -12.9771 -12.1894 -11.3622
   -11.3500 -11.1822 -10.2889  -9.9323  -9.5473  -8.9361  -8.4019  -7.8664
    -7.4631  -7.2038  -6.8936  -6.0359  -5.8776  -5.7821  -5.4906  -4.9591
    -4.9479  -4.7250  -4.2409  -4.1482  -3.6811  -3.2746  -2.9633  -2.9528
    -2.9331  -2.1034  -2.0872  -1.9088  -1.8814  -1.7349  -1.5578  -1.5313
    -1.0591  -1.0567  -0.8516  -0.8409  -0.5125  -0.4050  -0.1929   0.0451
     0.1739   0.3785   1.0397   1.2427   6.0395   6.4920   7.6870   7.7654
     8.1710   8.7174   8.7680   8.8062   8.9570   9.2322

          k =-0.4000 0.2000 0.0000 ( 36048 PWs)   bands (ev):

   -16.8423 -15.9406 -15.3426 -14.4621 -13.5637 -12.7179 -12.6822 -11.8623
   -11.0697 -10.8936 -10.3135 -10.0816  -9.5043  -8.8796  -7.7732  -7.6692
    -7.2574  -6.9333  -6.6486  -6.1155  -5.8182  -5.7234  -5.4230  -5.0508
    -4.7986  -4.6419  -4.2345  -4.0174  -3.6922  -3.6215  -2.9899  -2.9724
    -2.7571  -2.6901  -2.5265  -2.1501  -1.7665  -1.6873  -1.5797  -1.3194
    -1.2734  -1.1936  -0.7840  -0.7792  -0.7307  -0.4749  -0.3591  -0.3078
    -0.0668   0.6172   0.6803   1.0604   6.3211   6.7441   7.1483   7.3859
     8.3521   8.7489   8.8438   8.9047   8.9138   9.2342

          k = 0.5000 0.2000 0.0000 ( 36040 PWs)   bands (ev):

   -16.4350 -16.4350 -14.9439 -14.9439 -13.1798 -13.1798 -12.3082 -12.3082
   -10.7183 -10.7183 -10.5251 -10.5251  -9.0139  -9.0139  -7.5368  -7.5368
    -7.0649  -7.0649  -6.1731  -6.1731  -5.9964  -5.9964  -5.3407  -5.3407
    -4.4216  -4.4216  -4.2097  -4.2097  -3.4175  -3.4175  -3.3993  -3.3993
    -2.5014  -2.5014  -2.3967  -2.3967  -2.0018  -2.0018  -1.6504  -1.6504
    -0.9775  -0.9775  -0.9500  -0.9500  -0.6101  -0.6101  -0.3216  -0.3216
     0.2129   0.2129   0.8462   0.8463   6.6901   6.6901   7.0435   7.0436
     8.5947   8.5947   8.8554   8.8554   9.0609   9.0609

          k =-0.4000 0.3000 0.0000 ( 36031 PWs)   bands (ev):

   -16.6416 -15.7416 -15.4562 -14.5696 -13.8779 -13.0485 -13.0330 -12.2196
   -10.9203 -10.4375 -10.1962  -9.7501  -9.1971  -8.7336  -7.8931  -7.4501
    -7.0964  -6.8546  -6.4311  -5.8908  -5.8151  -5.5052  -5.2510  -5.1153
    -4.9307  -4.7666  -4.1882  -4.1008  -3.6689  -3.5581  -3.5432  -2.9235
    -2.8940  -2.8033  -2.7380  -2.4162  -1.8172  -1.6949  -1.6671  -1.3847
    -1.2824  -1.1798  -1.0542  -0.8969  -0.7151  -0.4941  -0.2247  -0.2000
    -0.1208   0.3669   0.6048   1.0483   6.5688   7.0026   7.2981   7.6002
     8.1759   8.2765   8.3439   8.5792   8.5989   9.2561

          k = 0.5000 0.3000 0.0000 ( 36042 PWs)   bands (ev):

   -16.2351 -16.2351 -15.0553 -15.0553 -13.4940 -13.4940 -12.6713 -12.6713
   -10.5770 -10.5770 -10.0905 -10.0905  -8.8245  -8.8245  -7.4861  -7.4861
    -6.9398  -6.9398  -5.9360  -5.9360  -5.8023  -5.8023  -5.2557  -5.2557
    -4.6661  -4.6661  -4.3781  -4.3781  -3.6164  -3.6164  -3.3293  -3.3293
    -2.9247  -2.9247  -2.3343  -2.3343  -1.8384  -1.8384  -1.6480  -1.6480
    -1.4294  -1.4294  -0.9243  -0.9243  -0.5405  -0.5405  -0.3559  -0.3559
     0.2222   0.2222   0.7345   0.7345   6.8958   6.8958   7.2970   7.2970
     8.2975   8.2975   8.3199   8.3200   8.8642   8.8642

          k = 0.5000 0.4000 0.0000 ( 36002 PWs)   bands (ev):

   -15.9654 -15.9654 -15.3122 -15.3122 -13.5238 -13.5238 -13.0347 -13.0347
   -10.3916 -10.3916 -10.0403 -10.0403  -8.4287  -8.4287  -7.6840  -7.6840
    -6.5595  -6.5595  -5.6967  -5.6967  -5.5732  -5.5732  -5.1688  -5.1688
    -4.9073  -4.9073  -4.6325  -4.6325  -3.9791  -3.9791  -3.4107  -3.4107
    -2.9131  -2.9130  -2.3987  -2.3987  -1.9218  -1.9218  -1.8347  -1.8347
    -1.4474  -1.4474  -0.9318  -0.9318  -0.3769  -0.3769  -0.3486  -0.3486
     0.2601   0.2601   0.5739   0.5739   7.1465   7.1465   7.5756   7.5757
     7.8602   7.8602   8.1805   8.1805   8.5797   8.5797

     the Fermi energy is     3.3886 ev

!    total energy              =    -451.79587030 Ry
     estimated scf accuracy    <          1.1E-09 Ry
     smearing contrib. (-TS)   =       0.00000000 Ry
     internal energy E=F+TS    =    -451.79587030 Ry

     The total energy is F=E-TS. E is the sum of the following terms:
     one-electron contribution =   -2320.03401577 Ry
     hartree contribution      =    1200.83692864 Ry
     xc contribution           =    -117.68291954 Ry
     ewald contribution        =     933.00259135 Ry
     one-center paw contrib.   =    -147.91845497 Ry

     convergence has been achieved in  14 iterations

     negative rho (up, down):  6.795E-06 0.000E+00

     Forces acting on atoms (cartesian axes, Ry/au):

     atom    1 type  1   force =     0.00000000    0.00010615    0.00003469
     atom    2 type  1   force =    -0.00000362    0.00003437   -0.00007316
     atom    3 type  1   force =    -0.00000373    0.00000000    0.00005585
     atom    4 type  1   force =     0.00000000   -0.00000000    0.00001982
     atom    5 type  1   force =     0.00000000   -0.00003729    0.00007346
     atom    6 type  1   force =    -0.00000378   -0.00010963   -0.00003447
     atom    7 type  1   force =     0.00000000   -0.00010615    0.00003469
     atom    8 type  1   force =    -0.00000362   -0.00003437   -0.00007316
     atom    9 type  1   force =    -0.00000389    0.00000000   -0.00001965
     atom   10 type  1   force =     0.00000000    0.00000000   -0.00005695
     atom   11 type  1   force =     0.00000000    0.00003729    0.00007346
     atom   12 type  1   force =    -0.00000378    0.00010963   -0.00003447
     atom   13 type  2   force =     0.00000000    0.00004273   -0.00006038
     atom   14 type  2   force =     0.00000000   -0.00004273   -0.00006038
     atom   15 type  2   force =     0.00000000   -0.00004274    0.00006049
     atom   16 type  2   force =     0.00000000    0.00004274    0.00006049
     atom   17 type  1   force =     0.00000000    0.00010592    0.00003382
     atom   18 type  1   force =     0.00000362    0.00003437   -0.00007316
     atom   19 type  1   force =     0.00000373   -0.00000000    0.00005585
     atom   20 type  1   force =     0.00000000   -0.00000000    0.00002105
     atom   21 type  1   force =     0.00000000   -0.00003766    0.00007263
     atom   22 type  1   force =     0.00000378   -0.00010963   -0.00003447
     atom   23 type  1   force =     0.00000000   -0.00010592    0.00003382
     atom   24 type  1   force =     0.00000362   -0.00003437   -0.00007316
     atom   25 type  1   force =     0.00000389    0.00000000   -0.00001965
     atom   26 type  1   force =     0.00000000    0.00000000   -0.00005563
     atom   27 type  1   force =     0.00000000    0.00003766    0.00007263
     atom   28 type  1   force =     0.00000378    0.00010963   -0.00003447
     atom   29 type  2   force =     0.00000000    0.00004266   -0.00006029
     atom   30 type  2   force =     0.00000000   -0.00004266   -0.00006029
     atom   31 type  2   force =    -0.00000000   -0.00004274    0.00006049
     atom   32 type  2   force =    -0.00000000    0.00004274    0.00006049

     Total force =     0.000462     Total SCF correction =     0.000078
     SCF correction compared to forces is large: reduce conv_thr to get better values


     Computing stress (Cartesian axis) and pressure


     negative rho (up, down):  6.795E-06 0.000E+00
          total   stress  (Ry/bohr**3)                   (kbar)     P=      -13.55
   0.00005607   0.00000000   0.00000000            8.25        0.00        0.00
   0.00000000  -0.00033044   0.00000000            0.00      -48.61        0.00
   0.00000000   0.00000000  -0.00000190            0.00        0.00       -0.28


     Writing all to output data dir /tmp/qe/slab.save/ :
     XML data file, charge density, pseudopotentials, collected wavefunctions

     init_run     :      7.33s CPU      7.66s WALL (       1 calls)
     electrons    :    204.60s CPU    209.93s WALL (       1 calls)
     forces       :      2.11s CPU      2.18s WALL (       1 calls)
     stress       :     52.89s CPU     53.47s WALL (       1 calls)

     Called by init_run:
     wfcinit      :      6.73s CPU      6.98s WALL (       1 calls)
     potinit      :      0.25s CPU      0.27s WALL (       1 calls)
     hinit0       :      0.08s CPU      0.10s WALL (       1 calls)

     Called by electrons:
     c_bands      :    172.03s CPU    176.27s WALL (      14 calls)
     sum_band     :     27.94s CPU     28.58s WALL (      14 calls)
     v_of_rho     :      1.59s CPU      1.73s WALL (      15 calls)
     newd         :      1.15s CPU      1.43s WALL (      15 calls)
     PAW_pot      :      1.85s CPU      1.88s WALL (      15 calls)
     mix_rho      :      0.19s CPU      0.21s WALL (      14 calls)

     Called by c_bands:
     init_us_2    :      5.26s CPU      5.33s WALL (    1116 calls)
     cegterg      :    163.94s CPU    167.87s WALL (     504 calls)

     Called by *egterg:
     cdiaghg      :      7.92s CPU      8.00s WALL (    2629 calls)
     h_psi        :    116.31s CPU    118.82s WALL (    2665 calls)
     s_psi        :     12.37s CPU     12.48s WALL (    2665 calls)
     g_psi        :      0.83s CPU      0.84s WALL (    2125 calls)

     Called by h_psi:
     h_psi:calbec :     11.17s CPU     11.29s WALL (    2665 calls)
     vloc_psi     :     91.63s CPU     93.09s WALL (    2665 calls)
     add_vuspsi   :     12.63s CPU     12.69s WALL (    2665 calls)

     General routines
     calbec       :     16.00s CPU     16.15s WALL (    3349 calls)
     fft          :      0.93s CPU      1.05s WALL (     218 calls)
     ffts         :      0.03s CPU      0.04s WALL (      29 calls)
     fftw         :     76.48s CPU     77.69s WALL (  208178 calls)
     interpolate  :      0.07s CPU      0.08s WALL (      15 calls)

     Parallel routines

     PWSCF        :   4m27.55s CPU   4m34.36s WALL


   This run was terminated on:  12:46: 0   1Aug2026            

=------------------------------------------------------------------------------=
   JOB DONE.
=------------------------------------------------------------------------------=
Note: The following floating-point exceptions are signalling: IEEE_UNDERFLOW_FLAG IEEE_DENORMAL
Note: The following floating-point exceptions are signalling: IEEE_UNDERFLOW_FLAG IEEE_DENORMAL
Note: The following floating-point exceptions are signalling: IEEE_UNDERFLOW_FLAG IEEE_DENORMAL
Note: The following floating-point exceptions are signalling: IEEE_UNDERFLOW_FLAG IEEE_DENORMAL
Note: The following floating-point exceptions are signalling: IEEE_UNDERFLOW_FLAG IEEE_DENORMAL
Note: The following floating-point exceptions are signalling: IEEE_UNDERFLOW_FLAG IEEE_DENORMAL
Note: The following floating-point exceptions are signalling: IEEE_UNDERFLOW_FLAG IEEE_DENORMAL
Note: The following floating-point exceptions are signalling: IEEE_UNDERFLOW_FLAG IEEE_DENORMAL
