
     Program PWSCF v.7.3.1 starts on  1Aug2026 at 18:41:15 

     This program is part of the open-source Quantum ESPRESSO suite
     for quantum simulation of materials; please cite
         "P. Giannozzi et al., J. Phys.:Condens. Matter 21 395502 (2009);
         "P. Giannozzi et al., J. Phys.:Condens. Matter 29 465901 (2017);
         "P. Giannozzi et al., J. Chem. Phys. 152 154105 (2020);
          URL http://www.quantum-espresso.org", 
     in publications or presentations arising from this work. More details at
     http://www.quantum-espresso.org/quote

     Parallel version (MPI), running on     8 processors

     MPI processes distributed on     1 nodes
     187572 MiB available memory on the printing compute node when the environment starts

     Reading input from pw.in

     Current dimensions of program PWSCF are:
     Max number of different atomic species (ntypx) = 10
     Max number of k-points (npk) =  40000
     Max angular momentum in pseudopotentials (lmaxx) =  4
     file C.pbe-n-kjpaw_psl.1.0.0.UPF: wavefunction(s)  2S 2P renormalized
     Message from routine volume:
     axis vectors are left-handed
     Message from routine setup:
     using ibrav=0 with symmetry is DISCOURAGED, use correct ibrav instead

     R & G space division:  proc/nbgrp/npool/nimage =       8
     Subspace diagonalization in iterative solution of the eigenvalue problem:
     a serial algorithm will be used


     Parallelization info
     --------------------
     sticks:   dense  smooth     PW     G-vecs:    dense   smooth      PW
     Min         230     115     32                40002    14149    2184
     Max         231     116     33                40021    14166    2203
     Sum        1845     921    263               320103   113231   17569

     Using Slab Decomposition



     bravais-lattice index     =            0
     lattice parameter (alat)  =       4.7752  a.u.
     unit-cell volume          =     980.9734 (a.u.)^3
     number of atoms/cell      =           16
     number of atomic types    =            2
     number of electrons       =        52.00
     number of Kohn-Sham states=           31
     kinetic-energy cutoff     =      90.0000  Ry
     charge density cutoff     =     720.0000  Ry
     scf convergence threshold =      1.0E-08
     mixing beta               =       0.3000
     number of iterations used =            8  plain     mixing
     Exchange-correlation= PBE
                           (   1   4   3   4   0   0   0)

     celldm(1)=   4.775235  celldm(2)=   0.000000  celldm(3)=   0.000000
     celldm(4)=   0.000000  celldm(5)=   0.000000  celldm(6)=   0.000000

     crystal axes: (cart. coord. in units of alat)
               a(1) = (   1.000000   0.000000   0.000000 )  
               a(2) = (   0.000000  -1.414214   0.000000 )  
               a(3) = (   0.000000   0.000000   6.370270 )  

     reciprocal axes: (cart. coord. in units 2 pi/alat)
               b(1) = (  1.000000 -0.000000 -0.000000 )  
               b(2) = ( -0.000000 -0.707107 -0.000000 )  
               b(3) = ( -0.000000 -0.000000  0.156979 )  


     PseudoPot. # 1 for C  read from file:
     ./C.pbe-n-kjpaw_psl.1.0.0.UPF
     MD5 check sum: 5d2aebdfa2cae82b50a7e79e9516da0f
     Pseudo is Projector augmented-wave + core cor, Zval =  4.0
     Generated using "atomic" code by A. Dal Corso  v.5.1
     Shape of augmentation charge: PSQ
     Using radial grid of 1073 points,  4 beta functions with: 
                l(1) =   0
                l(2) =   0
                l(3) =   1
                l(4) =   1
     Q(r) pseudized with 0 coefficients 


     PseudoPot. # 2 for H  read from file:
     ./H_ONCV_PBE-1.0.oncvpsp.upf
     MD5 check sum: 1790becc920ee074925cf490c71280fe
     Pseudo is Norm-conserving, Zval =  1.0
     Generated using ONCVPSP code by D. R. Hamann
     Using radial grid of 1166 points,  2 beta functions with: 
                l(1) =   0
                l(2) =   0

     atomic species   valence    mass     pseudopotential
     C                 4.00    12.01100     C ( 1.00)
     H                 1.00     1.00800     H ( 1.00)

      8 Sym. Ops., with inversion, found ( 6 have fractional translation)



   Cartesian axes

     site n.     atom                  positions (alat units)
         1        C      tau(   1) = (   0.0000000  -0.3611496   4.4247758  )
         2        C      tau(   2) = (   0.5000000  -0.6995105   4.4247758  )
         3        C      tau(   3) = (   0.5000000  -1.0618116   3.9360633  )
         4        C      tau(   4) = (   0.0000000   0.0011514   3.9360633  )
         5        C      tau(   5) = (   0.0000000  -0.3532985   3.4350188  )
         6        C      tau(   6) = (   0.5000000  -0.7073617   3.4350188  )
         7        C      tau(   7) = (   0.0000000  -0.0002549   2.9352513  )
         8        C      tau(   8) = (   0.5000000  -1.0604052   2.9352513  )
         9        C      tau(   9) = (   0.0000000  -0.3547048   2.4342067  )
        10        C      tau(  10) = (   0.5000000  -0.7059554   2.4342067  )
        11        C      tau(  11) = (   0.0000000   0.0075963   1.9454942  )
        12        C      tau(  12) = (   0.5000000  -1.0682564   1.9454942  )
        13        H      tau(  13) = (   0.0000000  -0.1238958   4.7893637  )
        14        H      tau(  14) = (   0.5000000  -0.9367643   4.7893637  )
        15        H      tau(  15) = (   0.0000000  -0.2296576   1.5809064  )
        16        H      tau(  16) = (   0.5000000  -0.8310026   1.5809064  )

     number of k points=    20  Marzari-Vanderbilt smearing, width (Ry)=  0.0100
                       cart. coord. in units 2pi/alat
        k(    1) = (   0.0000000  -0.0000000   0.0000000), wk =   0.0317460
        k(    2) = (   0.0000000  -0.1010153   0.0000000), wk =   0.0634921
        k(    3) = (   0.0000000  -0.2020305   0.0000000), wk =   0.0634921
        k(    4) = (   0.0000000  -0.3030458   0.0000000), wk =   0.0634921
        k(    5) = (   0.1111111  -0.0000000   0.0000000), wk =   0.0634921
        k(    6) = (   0.1111111  -0.1010153   0.0000000), wk =   0.1269841
        k(    7) = (   0.1111111  -0.2020305   0.0000000), wk =   0.1269841
        k(    8) = (   0.1111111  -0.3030458   0.0000000), wk =   0.1269841
        k(    9) = (   0.2222222  -0.0000000   0.0000000), wk =   0.0634921
        k(   10) = (   0.2222222  -0.1010153   0.0000000), wk =   0.1269841
        k(   11) = (   0.2222222  -0.2020305   0.0000000), wk =   0.1269841
        k(   12) = (   0.2222222  -0.3030458   0.0000000), wk =   0.1269841
        k(   13) = (   0.3333333  -0.0000000   0.0000000), wk =   0.0634921
        k(   14) = (   0.3333333  -0.1010153   0.0000000), wk =   0.1269841
        k(   15) = (   0.3333333  -0.2020305   0.0000000), wk =   0.1269841
        k(   16) = (   0.3333333  -0.3030458   0.0000000), wk =   0.1269841
        k(   17) = (   0.4444444  -0.0000000   0.0000000), wk =   0.0634921
        k(   18) = (   0.4444444  -0.1010153   0.0000000), wk =   0.1269841
        k(   19) = (   0.4444444  -0.2020305   0.0000000), wk =   0.1269841
        k(   20) = (   0.4444444  -0.3030458   0.0000000), wk =   0.1269841

     Dense  grid:   320103 G-vectors     FFT dimensions: (  48,  60, 270)

     Smooth grid:   113231 G-vectors     FFT dimensions: (  30,  48, 192)

     Estimated max dynamical RAM per process >      93.32 MB

     Estimated total dynamical RAM >     746.59 MB

     Initial potential from superposition of free atoms

     starting charge      51.9995, renormalised to      52.0000
     Starting wfcs are   52 randomized atomic wfcs
     Checking if some PAW data can be deallocated... 

     total cpu time spent up to now is        1.2 secs

     Self-consistent Calculation

     iteration #  1     ecut=    90.00 Ry     beta= 0.30
     Davidson diagonalization with overlap
     ethr =  1.00E-02,  avg # of iterations =  2.8

     total cpu time spent up to now is        3.1 secs

     total energy              =    -226.01405532 Ry
     estimated scf accuracy    <       1.19550204 Ry

     iteration #  2     ecut=    90.00 Ry     beta= 0.30
     Davidson diagonalization with overlap
     ethr =  2.30E-03,  avg # of iterations =  3.9

     negative rho (up, down):  1.771E-07 0.000E+00

     total cpu time spent up to now is        4.7 secs

     total energy              =    -225.92613187 Ry
     estimated scf accuracy    <       0.37491547 Ry

     iteration #  3     ecut=    90.00 Ry     beta= 0.30
     Davidson diagonalization with overlap
     ethr =  7.21E-04,  avg # of iterations =  5.5

     negative rho (up, down):  9.275E-07 0.000E+00

     total cpu time spent up to now is        6.4 secs

     total energy              =    -225.93949247 Ry
     estimated scf accuracy    <       0.05182361 Ry

     iteration #  4     ecut=    90.00 Ry     beta= 0.30
     Davidson diagonalization with overlap
     ethr =  9.97E-05,  avg # of iterations =  5.0

     negative rho (up, down):  1.831E-06 0.000E+00

     total cpu time spent up to now is        8.1 secs

     total energy              =    -225.94258015 Ry
     estimated scf accuracy    <       0.00516444 Ry

     iteration #  5     ecut=    90.00 Ry     beta= 0.30
     Davidson diagonalization with overlap
     c_bands:  1 eigenvalues not converged
     ethr =  9.93E-06,  avg # of iterations =  7.4

     negative rho (up, down):  1.872E-06 0.000E+00

     total cpu time spent up to now is       10.1 secs

     total energy              =    -225.94316009 Ry
     estimated scf accuracy    <       0.00054568 Ry

     iteration #  6     ecut=    90.00 Ry     beta= 0.30
     Davidson diagonalization with overlap
     ethr =  1.05E-06,  avg # of iterations =  4.5

     negative rho (up, down):  2.054E-06 0.000E+00

     total cpu time spent up to now is       12.0 secs

     total energy              =    -225.94326834 Ry
     estimated scf accuracy    <       0.00007645 Ry

     iteration #  7     ecut=    90.00 Ry     beta= 0.30
     Davidson diagonalization with overlap
     ethr =  1.47E-07,  avg # of iterations =  2.5

     negative rho (up, down):  2.027E-06 0.000E+00

     total cpu time spent up to now is       13.5 secs

     total energy              =    -225.94327444 Ry
     estimated scf accuracy    <       0.00002175 Ry

     iteration #  8     ecut=    90.00 Ry     beta= 0.30
     Davidson diagonalization with overlap
     ethr =  4.18E-08,  avg # of iterations =  2.0

     negative rho (up, down):  2.057E-06 0.000E+00

     total cpu time spent up to now is       15.2 secs

     total energy              =    -225.94327773 Ry
     estimated scf accuracy    <       0.00000288 Ry

     iteration #  9     ecut=    90.00 Ry     beta= 0.30
     Davidson diagonalization with overlap
     ethr =  5.53E-09,  avg # of iterations =  2.8

     negative rho (up, down):  2.058E-06 0.000E+00

     total cpu time spent up to now is       16.9 secs

     total energy              =    -225.94327844 Ry
     estimated scf accuracy    <       0.00000253 Ry

     iteration # 10     ecut=    90.00 Ry     beta= 0.30
     Davidson diagonalization with overlap
     ethr =  4.86E-09,  avg # of iterations =  2.0

     negative rho (up, down):  2.074E-06 0.000E+00

     total cpu time spent up to now is       18.4 secs

     total energy              =    -225.94327862 Ry
     estimated scf accuracy    <       0.00000028 Ry

     iteration # 11     ecut=    90.00 Ry     beta= 0.30
     Davidson diagonalization with overlap
     ethr =  5.38E-10,  avg # of iterations =  3.4

     negative rho (up, down):  2.089E-06 0.000E+00

     total cpu time spent up to now is       20.2 secs

     total energy              =    -225.94327874 Ry
     estimated scf accuracy    <       0.00000013 Ry

     iteration # 12     ecut=    90.00 Ry     beta= 0.30
     Davidson diagonalization with overlap
     ethr =  2.51E-10,  avg # of iterations =  2.1

     negative rho (up, down):  2.098E-06 0.000E+00

     total cpu time spent up to now is       21.7 secs

     total energy              =    -225.94327873 Ry
     estimated scf accuracy    <       0.00000005 Ry

     iteration # 13     ecut=    90.00 Ry     beta= 0.30
     Davidson diagonalization with overlap
     ethr =  9.07E-11,  avg # of iterations =  3.0

     negative rho (up, down):  2.125E-06 0.000E+00

     total cpu time spent up to now is       23.5 secs

     End of self-consistent calculation

          k = 0.0000-0.0000 0.0000 ( 14193 PWs)   bands (ev):

   -15.9417 -14.8708 -13.1189 -10.9239  -8.7407  -7.6347  -7.3161  -6.3827
    -4.7990  -4.4585  -4.0238  -2.9548  -2.7233  -2.1145  -0.8926  -0.7103
    -0.4007  -0.0886   1.2017   1.7489   2.1413   2.6993   3.9664   3.9798
     4.3053   4.8222   6.9591   7.2303   9.7302  10.1508  10.8752

          k = 0.0000-0.1010 0.0000 ( 14153 PWs)   bands (ev):

   -15.7556 -14.6905 -12.9559 -10.8388  -9.5168  -9.2543  -6.8309  -5.9968
    -5.5529  -4.0529  -3.5746  -3.0059  -1.8738  -1.8544  -1.0268  -0.7168
     0.0613   0.2218   1.2899   1.5208   2.3489   2.6520   3.6960   3.7468
     4.1127   4.2602   7.1639   7.4678   9.9216  10.1235  11.0262

          k = 0.0000-0.2020 0.0000 ( 14130 PWs)   bands (ev):

   -15.1999 -14.1552 -12.4903 -11.4307 -10.6415 -10.5762  -7.3382  -6.7445
    -5.4375  -4.4061  -3.0412  -1.7311  -1.7300  -0.7600  -0.1970  -0.1633
     0.4374   0.4980   1.5313   2.0437   2.0485   2.4928   2.9799   3.0652
     3.3152   3.6021   7.8118   8.0543  10.2706  10.3876  10.8890

          k = 0.0000-0.3030 0.0000 ( 14124 PWs)   bands (ev):

   -14.2840 -13.3239 -12.9601 -12.1865 -11.5661 -10.9244  -7.7250  -7.0772
    -5.6666  -4.7118  -2.9639  -1.9373  -0.3881   0.1705   0.6412   0.7773
     1.1710   1.1994   1.7608   1.8110   2.0178   2.1462   2.1901   2.2646
     2.6449   2.7351   8.8585   8.9030   9.9262  10.3329  10.7380

          k = 0.1111-0.0000 0.0000 ( 14169 PWs)   bands (ev):

   -15.7156 -14.6474 -12.8995 -10.7098  -8.5348  -7.4339  -7.2498  -6.3243
    -4.7554  -4.2658  -3.8159  -2.8016  -2.7034  -1.9159  -1.9132  -1.0726
    -0.6380  -0.4167   0.2617   1.6432   1.7614   2.0895   3.0015   3.4878
     3.7413   4.1988   7.1732   7.4627   9.7751  10.9718  10.9954

          k = 0.1111-0.1010 0.0000 ( 14133 PWs)   bands (ev):

   -15.5301 -14.4677 -12.7374 -10.6268  -9.3343  -9.0602  -6.6784  -5.8633
    -5.4741  -3.9512  -3.4620  -2.9865  -1.8414  -1.7080  -1.6371  -1.0173
    -0.8112   0.1770   0.4205   1.4812   1.7404   2.0751   2.7461   2.7641
     3.7047   4.1342   7.4052   7.7005  10.0945  11.1951  11.4604

          k = 0.1111-0.2020 0.0000 ( 14132 PWs)   bands (ev):

   -14.9760 -13.9345 -12.2749 -11.2269 -10.4360 -10.3776  -7.1551  -6.5525
    -5.2837  -4.2695  -3.0211  -2.0908  -1.7513  -1.1261  -0.6421  -0.1705
    -0.0652   0.1600   1.0152   1.4591   1.5835   1.6520   1.8145   2.1320
     3.2982   3.9162   8.0686   8.3228  10.7177  11.2342  11.5025

          k = 0.1111-0.3030 0.0000 ( 14139 PWs)   bands (ev):

   -14.0635 -13.1070 -12.7458 -11.9757 -11.3580 -10.7211  -7.5248  -6.8824
    -5.4883  -4.5400  -2.8585  -1.8336  -1.0920  -0.3685  -0.2563   0.1969
     0.5417   0.6262   0.9485   1.1707   1.2300   1.6650   1.9617   2.3246
     2.7905   2.9072   9.1197   9.2361  10.4187  10.6103  11.5626

          k = 0.2222-0.0000 0.0000 ( 14152 PWs)   bands (ev):

   -15.0409 -13.9805 -12.2449 -10.0716  -7.9202  -7.3605  -6.8331  -6.4435
    -4.8941  -3.7076  -3.6056  -3.2089  -2.8760  -2.7332  -2.3754  -1.3811
    -1.3357  -0.6343  -0.4938   0.0734   1.1112   1.1962   1.5869   1.8024
     2.1432   3.7897   7.8872   8.1195  10.1069  10.2054  10.7508

          k = 0.2222-0.1010 0.0000 ( 14114 PWs)   bands (ev):

   -14.8570 -13.8029 -12.0859  -9.9954  -8.8551  -8.5042  -6.3946  -5.7374
    -5.5869  -3.9344  -3.5524  -3.4152  -2.4153  -2.3472  -1.8115  -1.2221
    -1.0769  -0.5611  -0.4163   0.3057   0.4639   0.6143   1.4097   1.6156
     2.9729   3.4183   8.1345   8.3703  10.6160  10.7590  10.9463

          k = 0.2222-0.2020 0.0000 ( 14117 PWs)   bands (ev):

   -14.3087 -13.2767 -11.6333 -10.6376  -9.8256  -9.8007  -6.6669  -6.0485
    -4.9229  -4.7603  -3.3479  -3.2959  -2.4770  -1.8253  -1.1688  -0.9306
    -0.6009  -0.4479  -0.3404   0.1632   0.2673   0.5928   1.0901   1.8514
     2.7141   3.3405   8.8087   9.0204  11.3401  11.8874  11.9828

          k = 0.2222-0.3030 0.0000 ( 14151 PWs)   bands (ev):

   -13.4077 -12.4629 -12.1130 -11.3516 -10.7412 -10.1178  -6.9603  -6.3326
    -5.0335  -4.0992  -3.7468  -2.7086  -2.4292  -2.1711  -1.5029  -1.3196
    -1.1344  -0.8356   0.2237   1.0506   1.1824   1.1854   1.3957   1.6845
     2.4039   2.7748   9.8066   9.9223  11.2000  11.2926  12.5593

          k = 0.3333-0.0000 0.0000 ( 14106 PWs)   bands (ev):

   -13.9291 -12.8825 -11.1682  -9.0221  -8.5965  -7.6423  -6.9064  -6.0535
    -5.8380  -4.0198  -3.9437  -3.1372  -2.8522  -2.2604  -1.9375  -1.8835
    -1.7886  -0.7922  -0.6675  -0.4991  -0.4174  -0.1108   0.2451   0.3613
     1.1740   3.0206   9.0527   9.0803   9.9316  10.2621  11.3460

          k = 0.3333-0.1010 0.0000 ( 14126 PWs)   bands (ev):

   -13.7491 -12.7096 -11.0154  -8.9824  -8.7803  -8.0069  -6.7302  -6.5861
    -6.1072  -4.2745  -3.9898  -3.1293  -3.0650  -2.2975  -1.9072  -1.6921
    -1.6432  -1.1658  -0.6667  -0.6136  -0.3413  -0.2007   0.5358   0.9660
     1.3680   2.8332   9.2980   9.4050  10.4022  10.6324  11.2912

          k = 0.3333-0.2020 0.0000 ( 14157 PWs)   bands (ev):

   -13.2139 -12.1988 -10.5829  -9.8329  -8.9875  -8.8403  -6.7509  -6.3102
    -6.2374  -4.8858  -4.1315  -3.7080  -3.4936  -3.1965  -2.4527  -2.1013
    -1.4852  -0.4504  -0.2518  -0.1587   0.0627   0.4190   0.5488   0.8701
     2.2323   2.3416   9.9292  10.0259  11.3828  11.6027  12.0339

          k = 0.3333-0.3030 0.0000 ( 14183 PWs)   bands (ev):

   -12.3423 -11.4200 -11.1146 -10.3577  -9.7508  -9.1448  -6.3084  -6.0200
    -5.6697  -5.4732  -4.8978  -4.4731  -3.6966  -3.3396  -2.8156  -2.7025
    -1.3894  -0.7258  -0.1975  -0.0433   0.6122   0.9675   1.2741   1.4977
     1.7753   2.3368  10.6670  10.7440  12.0664  12.1569  12.4420

          k = 0.4444-0.0000 0.0000 ( 14102 PWs)   bands (ev):

   -12.4087 -11.3828 -10.5518  -9.6996  -9.5556  -7.9143  -7.5905  -5.8472
    -5.5140  -4.4601  -3.7883  -2.9773  -2.7221  -2.3246  -1.8479  -1.4794
    -1.4438  -1.3256  -1.0795  -0.9641  -0.9507  -0.8567  -0.8228   0.1629
     0.7223   1.9386   9.7144  10.3234  10.4945  10.7473  10.8980

          k = 0.4444-0.1010 0.0000 ( 14146 PWs)   bands (ev):

   -12.2384 -11.2209 -10.4216  -9.5628  -9.4341  -7.8528  -7.4825  -5.8266
    -5.8206  -5.7023  -4.1559  -3.9958  -3.0960  -2.4183  -1.9544  -1.7233
    -1.4087  -1.1417  -0.8282  -0.7263  -0.6355  -0.3817  -0.1753   0.3070
     0.8405   1.9221  10.3278  10.3294  10.4645  10.9669  11.3469

          k = 0.4444-0.2020 0.0000 ( 14173 PWs)   bands (ev):

   -11.7406 -10.7515 -10.1280  -9.2429  -9.1052  -7.7994  -7.2972  -7.0184
    -6.6080  -5.9026  -5.5618  -5.1355  -3.3644  -3.3028  -2.2791  -2.0935
    -1.5648  -1.3212  -0.7856  -0.1693   0.0659   0.1460   0.5946   1.0387
     1.2756   1.8499  10.8638  11.0086  11.3072  11.4609  12.0015

          k = 0.4444-0.3030 0.0000 ( 14184 PWs)   bands (ev):

   -10.9776 -10.2354 -10.0129  -9.3338  -8.5517  -8.0177  -7.7645  -7.0670
    -6.8903  -6.6389  -6.1782  -6.0491  -3.7002  -3.3677  -2.7491  -2.4027
    -1.7411  -1.4614  -0.6559  -0.3162   0.2299   0.3354   1.3831   1.5083
     1.7312   1.8030  11.4178  11.4214  12.0275  12.1477  13.1115

     the Fermi energy is     5.5356 ev

!    total energy              =    -225.94327875 Ry
     estimated scf accuracy    <          3.8E-09 Ry
     smearing contrib. (-TS)   =       0.00000000 Ry
     internal energy E=F+TS    =    -225.94327875 Ry

     The total energy is F=E-TS. E is the sum of the following terms:
     one-electron contribution =   -1231.88126964 Ry
     hartree contribution      =     640.02212399 Ry
     xc contribution           =     -59.13948880 Ry
     ewald contribution        =     499.01239596 Ry
     one-center paw contrib.   =     -73.95704025 Ry

     convergence has been achieved in  13 iterations

     negative rho (up, down):  2.125E-06 0.000E+00

     Forces acting on atoms (cartesian axes, Ry/au):

     atom    1 type  1   force =     0.00000000    0.00007273    0.00003495
     atom    2 type  1   force =     0.00000000   -0.00007273    0.00003495
     atom    3 type  1   force =     0.00000000   -0.00005702   -0.00000853
     atom    4 type  1   force =     0.00000000    0.00005702   -0.00000853
     atom    5 type  1   force =     0.00000000   -0.00006728   -0.00001435
     atom    6 type  1   force =     0.00000000    0.00006728   -0.00001435
     atom    7 type  1   force =     0.00000000    0.00006728    0.00001435
     atom    8 type  1   force =     0.00000000   -0.00006728    0.00001435
     atom    9 type  1   force =     0.00000000   -0.00005702    0.00000853
     atom   10 type  1   force =     0.00000000    0.00005702    0.00000853
     atom   11 type  1   force =     0.00000000   -0.00007273   -0.00003495
     atom   12 type  1   force =     0.00000000    0.00007273   -0.00003495
     atom   13 type  2   force =     0.00000000   -0.00000832   -0.00006258
     atom   14 type  2   force =     0.00000000    0.00000832   -0.00006258
     atom   15 type  2   force =     0.00000000    0.00000832    0.00006258
     atom   16 type  2   force =     0.00000000   -0.00000832    0.00006258

     Total force =     0.000272     Total SCF correction =     0.000154
     SCF correction compared to forces is large: reduce conv_thr to get better values


     Computing stress (Cartesian axis) and pressure


     negative rho (up, down):  2.125E-06 0.000E+00
          total   stress  (Ry/bohr**3)                   (kbar)     P=       26.21
   0.00017293   0.00000000   0.00000000           25.44        0.00        0.00
   0.00000000   0.00036402   0.00000000            0.00       53.55        0.00
   0.00000000   0.00000000  -0.00000253            0.00        0.00       -0.37


     Writing all to output data dir /tmp/qe/slab.save/ :
     XML data file, charge density, pseudopotentials, collected wavefunctions

     init_run     :      1.06s CPU      1.12s WALL (       1 calls)
     electrons    :     21.95s CPU     22.29s WALL (       1 calls)
     forces       :      0.30s CPU      0.31s WALL (       1 calls)
     stress       :      3.33s CPU      3.35s WALL (       1 calls)

     Called by init_run:
     wfcinit      :      0.79s CPU      0.82s WALL (       1 calls)
     potinit      :      0.12s CPU      0.14s WALL (       1 calls)
     hinit0       :      0.06s CPU      0.06s WALL (       1 calls)

     Called by electrons:
     c_bands      :     16.68s CPU     16.89s WALL (      13 calls)
     sum_band     :      3.38s CPU      3.46s WALL (      13 calls)
     v_of_rho     :      0.67s CPU      0.69s WALL (      14 calls)
     newd         :      0.38s CPU      0.40s WALL (      14 calls)
     PAW_pot      :      0.86s CPU      0.87s WALL (      14 calls)
     mix_rho      :      0.06s CPU      0.07s WALL (      13 calls)

     Called by c_bands:
     init_us_2    :      0.50s CPU      0.51s WALL (     580 calls)
     cegterg      :     15.88s CPU     16.07s WALL (     260 calls)

     Called by *egterg:
     cdiaghg      :      1.04s CPU      1.05s WALL (    1197 calls)
     h_psi        :     12.50s CPU     12.68s WALL (    1217 calls)
     s_psi        :      0.68s CPU      0.69s WALL (    1217 calls)
     g_psi        :      0.08s CPU      0.08s WALL (     937 calls)

     Called by h_psi:
     h_psi:calbec :      0.74s CPU      0.75s WALL (    1217 calls)
     vloc_psi     :     10.86s CPU     11.01s WALL (    1217 calls)
     add_vuspsi   :      0.82s CPU      0.83s WALL (    1217 calls)

     General routines
     calbec       :      1.12s CPU      1.15s WALL (    1577 calls)
     fft          :      0.32s CPU      0.35s WALL (     205 calls)
     ffts         :      0.01s CPU      0.02s WALL (      27 calls)
     fftw         :      9.60s CPU      9.72s WALL (   52478 calls)
     interpolate  :      0.03s CPU      0.03s WALL (      14 calls)

     Parallel routines

     PWSCF        :     26.79s CPU     27.30s WALL


   This run was terminated on:  18:41:42   1Aug2026            

=------------------------------------------------------------------------------=
   JOB DONE.
=------------------------------------------------------------------------------=
Note: The following floating-point exceptions are signalling: IEEE_UNDERFLOW_FLAG IEEE_DENORMAL
Note: The following floating-point exceptions are signalling: IEEE_UNDERFLOW_FLAG IEEE_DENORMAL
Note: The following floating-point exceptions are signalling: IEEE_UNDERFLOW_FLAG IEEE_DENORMAL
Note: The following floating-point exceptions are signalling: IEEE_UNDERFLOW_FLAG IEEE_DENORMAL
Note: The following floating-point exceptions are signalling: IEEE_UNDERFLOW_FLAG IEEE_DENORMAL
Note: The following floating-point exceptions are signalling: IEEE_UNDERFLOW_FLAG IEEE_DENORMAL
Note: The following floating-point exceptions are signalling: IEEE_UNDERFLOW_FLAG IEEE_DENORMAL
Note: The following floating-point exceptions are signalling: IEEE_UNDERFLOW_FLAG IEEE_DENORMAL
