
     Program PWSCF v.7.5 starts on 20Jun2026 at 11:40:58 

     This program is part of the open-source Quantum ESPRESSO suite
     for quantum simulation of materials; please cite
         "P. Giannozzi et al., J. Phys.:Condens. Matter 21 395502 (2009);
         "P. Giannozzi et al., J. Phys.:Condens. Matter 29 465901 (2017);
         "P. Giannozzi et al., J. Chem. Phys. 152 154105 (2020);
          URL http://www.quantum-espresso.org", 
     in publications or presentations arising from this work. More details at
     http://www.quantum-espresso.org/quote

     Serial version
     0 MiB available memory on the printing compute node when the environment starts

     Waiting for input...
     Reading input from standard input

     Current dimensions of program PWSCF are:
     Max number of different atomic species (ntypx) = 10
     Max number of k-points (npk) =  40000
     Max angular momentum in pseudopotentials (lmaxx) =  4
     file C.pbe-n-kjpaw_psl.1.0.0.UPF: wavefunction(s)  2S 2P renormalized
     Found identity + ( -0.5000 -0.5000  0.0000) symmetry
     This is a supercell, fractional translations are disabled
     Message from routine setup:
     using ibrav=0 with symmetry is DISCOURAGED, use correct ibrav instead


     G-vector sticks info
     --------------------
     sticks:   dense  smooth     PW     G-vecs:    dense   smooth      PW
     Sum        2313    1153    349                83647    29423    4801

     Using Slab Decomposition



     bravais-lattice index     =            0
     lattice parameter (alat)  =       6.7407  a.u.
     unit-cell volume          =     306.2710 (a.u.)^3
     number of atoms/cell      =            8
     number of atomic types    =            1
     number of electrons       =        32.00
     number of Kohn-Sham states=           16
     kinetic-energy cutoff     =      80.0000  Ry
     charge density cutoff     =     640.0000  Ry
     scf convergence threshold =      1.0E-10
     mixing beta               =       0.4000
     number of iterations used =            8  plain     mixing
     Exchange-correlation= SLA  PW   PBX  PBC
                           (   1   4   3   4   0   0   0)

     celldm(1)=   6.740653  celldm(2)=   0.000000  celldm(3)=   0.000000
     celldm(4)=   0.000000  celldm(5)=   0.000000  celldm(6)=   0.000000

     crystal axes: (cart. coord. in units of alat)
               a(1) = (   1.000000   0.000000   0.000000 )  
               a(2) = (   0.000000   1.000000   0.000000 )  
               a(3) = (   0.000000   0.000000   1.000000 )  

     reciprocal axes: (cart. coord. in units 2 pi/alat)
               b(1) = (  1.000000  0.000000  0.000000 )  
               b(2) = (  0.000000  1.000000  0.000000 )  
               b(3) = (  0.000000  0.000000  1.000000 )  


     PseudoPot. # 1 for C  read from file:
     ./C.pbe-n-kjpaw_psl.1.0.0.UPF
     MD5 check sum: 5d2aebdfa2cae82b50a7e79e9516da0f
     Pseudo is Projector augmented-wave + core cor, Zval =  4.0
     Generated using "atomic" code by A. Dal Corso  v.5.1
     Shape of augmentation charge: PSQ
     Using radial grid of 1073 points,  4 beta functions with: 
                l(1) =   0
                l(2) =   0
                l(3) =   1
                l(4) =   1
     Q(r) pseudized with 0 coefficients 


     atomic species   valence    mass     pseudopotential
     C                 4.00    12.01100     C ( 1.00)

     24 Sym. Ops. (no inversion) found



   Cartesian axes

     site n.     atom                  positions (alat units)
         1        C      tau(   1) = (   0.0000000   0.0000000   0.0000000  )
         2        C      tau(   2) = (   0.2500000   0.2500000   0.2500000  )
         3        C      tau(   3) = (   0.5000000   0.5000000   0.0000000  )
         4        C      tau(   4) = (   0.7500000   0.7500000   0.2500000  )
         5        C      tau(   5) = (   0.5000000   0.0000000   0.5000000  )
         6        C      tau(   6) = (   0.7500000   0.2500000   0.7500000  )
         7        C      tau(   7) = (   0.0000000   0.5000000   0.5000000  )
         8        C      tau(   8) = (   0.2500000   0.7500000   0.7500000  )

     number of k points=    35
                       cart. coord. in units 2pi/alat
        k(    1) = (   0.0000000   0.0000000   0.0000000), wk =   0.0039062
        k(    2) = (   0.0000000   0.0000000   0.1250000), wk =   0.0234375
        k(    3) = (   0.0000000   0.0000000   0.2500000), wk =   0.0234375
        k(    4) = (   0.0000000   0.0000000   0.3750000), wk =   0.0234375
        k(    5) = (   0.0000000   0.0000000  -0.5000000), wk =   0.0117188
        k(    6) = (   0.0000000   0.1250000   0.1250000), wk =   0.0468750
        k(    7) = (   0.0000000   0.1250000   0.2500000), wk =   0.0937500
        k(    8) = (   0.0000000   0.1250000   0.3750000), wk =   0.0937500
        k(    9) = (   0.0000000   0.1250000  -0.5000000), wk =   0.0468750
        k(   10) = (   0.0000000   0.2500000   0.2500000), wk =   0.0468750
        k(   11) = (   0.0000000   0.2500000   0.3750000), wk =   0.0937500
        k(   12) = (   0.0000000   0.2500000  -0.5000000), wk =   0.0468750
        k(   13) = (   0.0000000   0.3750000   0.3750000), wk =   0.0468750
        k(   14) = (   0.0000000   0.3750000  -0.5000000), wk =   0.0468750
        k(   15) = (   0.0000000  -0.5000000  -0.5000000), wk =   0.0117188
        k(   16) = (   0.1250000   0.1250000   0.1250000), wk =   0.0312500
        k(   17) = (   0.1250000   0.1250000   0.2500000), wk =   0.0937500
        k(   18) = (   0.1250000   0.1250000   0.3750000), wk =   0.0937500
        k(   19) = (   0.1250000   0.1250000  -0.5000000), wk =   0.0468750
        k(   20) = (   0.1250000   0.2500000   0.2500000), wk =   0.0937500
        k(   21) = (   0.1250000   0.2500000   0.3750000), wk =   0.1875000
        k(   22) = (   0.1250000   0.2500000  -0.5000000), wk =   0.0937500
        k(   23) = (   0.1250000   0.3750000   0.3750000), wk =   0.0937500
        k(   24) = (   0.1250000   0.3750000  -0.5000000), wk =   0.0937500
        k(   25) = (   0.1250000  -0.5000000  -0.5000000), wk =   0.0234375
        k(   26) = (   0.2500000   0.2500000   0.2500000), wk =   0.0312500
        k(   27) = (   0.2500000   0.2500000   0.3750000), wk =   0.0937500
        k(   28) = (   0.2500000   0.2500000  -0.5000000), wk =   0.0468750
        k(   29) = (   0.2500000   0.3750000   0.3750000), wk =   0.0937500
        k(   30) = (   0.2500000   0.3750000  -0.5000000), wk =   0.0937500
        k(   31) = (   0.2500000  -0.5000000  -0.5000000), wk =   0.0234375
        k(   32) = (   0.3750000   0.3750000   0.3750000), wk =   0.0312500
        k(   33) = (   0.3750000   0.3750000  -0.5000000), wk =   0.0468750
        k(   34) = (   0.3750000  -0.5000000  -0.5000000), wk =   0.0234375
        k(   35) = (  -0.5000000  -0.5000000  -0.5000000), wk =   0.0039062

     Dense  grid:    83647 G-vectors     FFT dimensions: (  60,  60,  60)

     Smooth grid:    29423 G-vectors     FFT dimensions: (  40,  40,  40)

     Estimated max dynamical RAM per process >     169.53 MB

     Initial potential from superposition of free atoms

     starting charge      31.9997, renormalised to      32.0000
     Starting wfcs are   32 randomized atomic wfcs

     total cpu time spent up to now is        1.0 secs

     Self-consistent Calculation

     iteration #  1     ecut=    80.00 Ry     beta= 0.40
     Davidson diagonalization with overlap
     ethr =  1.00E-02,  avg # of iterations =  2.0

     total cpu time spent up to now is        2.5 secs

     total energy              =    -147.50291100 Ry
     estimated scf accuracy    <       0.44527480 Ry

     iteration #  2     ecut=    80.00 Ry     beta= 0.40
     Davidson diagonalization with overlap
     ethr =  1.39E-03,  avg # of iterations =  1.0

     total cpu time spent up to now is        3.6 secs

     total energy              =    -147.45853117 Ry
     estimated scf accuracy    <       0.12456801 Ry

     iteration #  3     ecut=    80.00 Ry     beta= 0.40
     Davidson diagonalization with overlap
     ethr =  3.89E-04,  avg # of iterations =  2.0

     total cpu time spent up to now is        4.9 secs

     total energy              =    -147.47173330 Ry
     estimated scf accuracy    <       0.00134086 Ry

     iteration #  4     ecut=    80.00 Ry     beta= 0.40
     Davidson diagonalization with overlap
     ethr =  4.19E-06,  avg # of iterations =  3.3

     total cpu time spent up to now is        6.5 secs

     total energy              =    -147.47233038 Ry
     estimated scf accuracy    <       0.00021910 Ry

     iteration #  5     ecut=    80.00 Ry     beta= 0.40
     Davidson diagonalization with overlap
     ethr =  6.85E-07,  avg # of iterations =  2.3

     total cpu time spent up to now is        7.8 secs

     total energy              =    -147.47236482 Ry
     estimated scf accuracy    <       0.00000260 Ry

     iteration #  6     ecut=    80.00 Ry     beta= 0.40
     Davidson diagonalization with overlap
     ethr =  8.12E-09,  avg # of iterations =  5.5

     total cpu time spent up to now is       10.2 secs

     total energy              =    -147.47236292 Ry
     estimated scf accuracy    <       0.00002119 Ry

     iteration #  7     ecut=    80.00 Ry     beta= 0.40
     Davidson diagonalization with overlap
     ethr =  8.12E-09,  avg # of iterations =  2.0

     total cpu time spent up to now is       11.7 secs

     total energy              =    -147.47236432 Ry
     estimated scf accuracy    <       0.00000035 Ry

     iteration #  8     ecut=    80.00 Ry     beta= 0.40
     Davidson diagonalization with overlap
     ethr =  1.10E-09,  avg # of iterations =  2.0

     total cpu time spent up to now is       13.2 secs

     total energy              =    -147.47236441 Ry
     estimated scf accuracy    <       0.00000001 Ry

     iteration #  9     ecut=    80.00 Ry     beta= 0.40
     Davidson diagonalization with overlap
     ethr =  4.40E-11,  avg # of iterations =  3.6

     total cpu time spent up to now is       14.8 secs

     total energy              =    -147.47236441 Ry
     estimated scf accuracy    <          8.7E-09 Ry

     iteration # 10     ecut=    80.00 Ry     beta= 0.40
     Davidson diagonalization with overlap
     ethr =  2.72E-11,  avg # of iterations =  1.0

     total cpu time spent up to now is       15.9 secs

     total energy              =    -147.47236441 Ry
     estimated scf accuracy    <          2.5E-09 Ry

     iteration # 11     ecut=    80.00 Ry     beta= 0.40
     Davidson diagonalization with overlap
     ethr =  7.90E-12,  avg # of iterations =  2.0

     total cpu time spent up to now is       17.3 secs

     total energy              =    -147.47236441 Ry
     estimated scf accuracy    <          1.8E-10 Ry

     iteration # 12     ecut=    80.00 Ry     beta= 0.40
     Davidson diagonalization with overlap
     ethr =  5.71E-13,  avg # of iterations =  3.1

     total cpu time spent up to now is       19.0 secs

     total energy              =    -147.47236441 Ry
     estimated scf accuracy    <          1.5E-10 Ry

     iteration # 13     ecut=    80.00 Ry     beta= 0.40
     Davidson diagonalization with overlap
     ethr =  4.68E-13,  avg # of iterations =  1.6

     total cpu time spent up to now is       20.3 secs

     End of self-consistent calculation

          k = 0.0000 0.0000 0.0000 (  3743 PWs)   bands (ev):

    -8.1289   0.5813   0.5813   0.5813   0.5813   0.5813   0.5813   7.0451
     7.0451   7.0451   7.0451   7.0451   7.0451  13.3473  13.3473  13.3473

          k = 0.0000 0.0000 0.1250 (  3755 PWs)   bands (ev):

    -7.9847  -1.3421   0.6723   0.6723   0.6723   0.6723   2.6399   6.7391
     6.7391   6.7391   6.7391   7.1858   7.1858  12.7939  12.7939  12.9959

          k = 0.0000 0.0000 0.2500 (  3719 PWs)   bands (ev):

    -7.5532  -3.0769   0.9190   0.9190   0.9190   0.9190   4.7616   6.0304
     6.0304   6.0304   6.0304   7.6048   7.6048  11.6219  11.6219  12.0221

          k = 0.0000 0.0000 0.3750 (  3699 PWs)   bands (ev):

    -6.8380  -4.5864   1.2213   1.2213   1.2213   1.2213   5.3262   5.3262
     5.3262   5.3262   6.8573   8.2912   8.2912  10.3620  10.3620  10.5874

          k = 0.0000 0.0000-0.5000 (  3668 PWs)   bands (ev):

    -5.8456  -5.8456   1.3722   1.3722   1.3722   1.3722   5.0225   5.0225
     5.0225   5.0225   8.8310   8.8310   9.2238   9.2238   9.2238   9.2238

          k = 0.0000 0.1250 0.1250 (  3731 PWs)   bands (ev):

    -7.8407  -1.2261  -1.2261   0.6641   0.8400   2.6772   2.6772   5.7796
     6.8405   6.8405   6.9483   6.9483   7.2852  11.9249  12.2757  13.1668

          k = 0.0000 0.1250 0.2500 (  3697 PWs)   bands (ev):

    -7.4100  -2.9483  -0.8897   0.7191   1.1870   2.7285   4.6731   4.8190
     6.0236   6.4506   7.2200   7.2327   7.5066  10.6537  11.1510  12.5766

          k = 0.0000 0.1250 0.3750 (  3696 PWs)   bands (ev):

    -6.6961  -4.4508  -0.3770   0.6203   1.6808   2.6167   4.2847   5.1165
     6.1358   6.4759   6.7570   7.8974   8.4921   9.3148   9.9235  11.3765

          k = 0.0000 0.1250-0.5000 (  3694 PWs)   bands (ev):

    -5.7060  -5.7060   0.2008   0.2008   2.2209   2.2209   4.4359   4.4359
     6.2819   6.2819   7.9680   7.9680   8.8090   8.8090   9.8913   9.8913

          k = 0.0000 0.2500 0.2500 (  3708 PWs)   bands (ev):

    -6.9815  -2.5681  -2.5681   0.3690   1.6129   4.0286   4.3340   4.3340
     6.3519   6.3519   7.4045   7.4045   7.9804   9.3627  10.0957  12.5896

          k = 0.0000 0.2500 0.3750 (  3698 PWs)   bands (ev):

    -6.2721  -4.0475  -1.9574  -0.3134   2.2095   3.7050   3.9551   5.3454
     5.6443   6.9715   7.5448   8.0668   8.1294   8.8579   8.9190  11.8135

          k = 0.0000 0.2500-0.5000 (  3712 PWs)   bands (ev):

    -5.2896  -5.2896  -1.1666  -1.1666   2.9394   2.9394   4.4773   4.4773
     6.8362   6.8362   7.8447   7.8447   7.8714   7.8714  10.4589  10.4589

          k = 0.0000 0.3750 0.3750 (  3690 PWs)   bands (ev):

    -5.5712  -3.3879  -3.3879  -1.4315   2.8888   4.2511   4.6732   4.6732
     5.9088   5.9088   6.8373   7.7825   9.0487   9.1977   9.1977  11.5991

          k = 0.0000 0.3750-0.5000 (  3688 PWs)   bands (ev):

    -4.6037  -4.6037  -2.4976  -2.4976   3.7241   3.7241   4.9527   4.9527
     5.6991   5.6991   6.7429   6.7429   9.3472   9.3472  10.6663  10.6663

          k = 0.0000-0.5000-0.5000 (  3676 PWs)   bands (ev):

    -3.6633  -3.6633  -3.6633  -3.6633   4.6453   4.6453   4.6453   4.6453
     5.7382   5.7383   5.7383   5.7383  10.3337  10.3337  10.3337  10.3337

          k = 0.1250 0.1250 0.1250 (  3725 PWs)   bands (ev):

    -7.6970  -1.1153  -1.1153  -1.1153   2.6752   2.6752   2.6752   6.0018
     6.0018   6.0018   7.4221   7.4221   7.4221  10.9327  12.6949  12.6949

          k = 0.1250 0.1250 0.2500 (  3700 PWs)   bands (ev):

    -7.2670  -2.8215  -0.8024  -0.8024   2.5609   2.5609   4.4414   5.2201
     5.2202   6.7506   7.3745   7.3745   7.8289   9.5914  11.6442  12.3868

          k = 0.1250 0.1250 0.3750 (  3689 PWs)   bands (ev):

    -6.5546  -4.3161  -0.3753  -0.3753   2.1775   2.1775   4.9334   4.9334
     5.8288   6.9967   6.9967   8.1238   8.2587   8.4930  10.4711  11.3160

          k = 0.1250 0.1250-0.5000 (  3710 PWs)   bands (ev):

    -5.5670  -5.5670  -0.1250  -0.1250   1.8942   1.8942   4.9431   4.9431
     6.7699   6.7699   7.0190   7.0190   9.3893   9.3894   9.7901   9.7901

          k = 0.1250 0.2500 0.2500 (  3705 PWs)   bands (ev):

    -6.8394  -2.4491  -2.4491  -0.6050   2.0164   3.7231   3.7231   4.8684
     6.3976   6.3976   7.8717   7.8717   8.1038   8.2110  11.0055  12.3089

          k = 0.1250 0.2500 0.3750 (  3709 PWs)   bands (ev):

    -6.1317  -3.9160  -1.8614  -0.6097   1.5923   2.7694   4.6728   5.1064
     6.0996   6.8851   7.7660   7.8474   8.2595   8.8875   9.9428  11.6369

          k = 0.1250 0.2500-0.5000 (  3692 PWs)   bands (ev):

    -5.1523  -5.1523  -1.1505  -1.1504   1.9346   1.9346   5.6079   5.6079
     5.6997   5.6997   8.0487   8.0487   8.8672   8.8672  10.3544  10.3544

          k = 0.1250 0.3750 0.3750 (  3710 PWs)   bands (ev):

    -5.4331  -3.2648  -3.2648  -1.4115   1.7576   3.4994   3.4994   5.5818
     5.6025   7.0671   7.0671   8.9813   9.1417   9.2644   9.2644  11.5070

          k = 0.1250 0.3750-0.5000 (  3696 PWs)   bands (ev):

    -4.4702  -4.4702  -2.3977  -2.3977   2.4821   2.4821   4.4389   4.4389
     6.2933   6.2933   7.9944   7.9944   9.4265   9.4265  10.6456  10.6456

          k = 0.1250-0.5000-0.5000 (  3688 PWs)   bands (ev):

    -3.5389  -3.5388  -3.5388  -3.5388   3.3435   3.3435   3.3435   3.3436
     7.0985   7.0985   7.0985   7.0985  10.3634  10.3634  10.3634  10.3634

          k = 0.2500 0.2500 0.2500 (  3683 PWs)   bands (ev):

    -6.4146  -2.1093  -2.1093  -2.1093   2.5590   2.5590   2.5590   6.6055
     6.6055   6.6055   6.7551   8.4679   8.4679   8.4679  11.6007  11.6007

          k = 0.2500 0.2500 0.3750 (  3703 PWs)   bands (ev):

    -5.7125  -3.5283  -1.6339  -1.6339   1.4832   1.4832   3.2805   5.4019
     6.8863   6.8863   8.4823   8.6674   8.6674   9.0534  10.7096  11.2935

          k = 0.2500 0.2500-0.5000 (  3708 PWs)   bands (ev):

    -4.7436  -4.7436  -1.3444  -1.3444   0.9813   0.9813   4.2311   4.2311
     7.0324   7.0324   8.6575   8.6575   9.8227   9.8227  10.1489  10.1489

          k = 0.2500 0.3750 0.3750 (  3686 PWs)   bands (ev):

    -5.0219  -2.9117  -2.9117  -1.5951   0.7409   2.0120   2.0120   4.0453
     7.4760   8.4229   8.4229   9.4101   9.4636   9.4636  10.2375  11.2365

          k = 0.2500 0.3750-0.5000 (  3704 PWs)   bands (ev):

    -4.0760  -4.0760  -2.1570  -2.1570   1.0471   1.0471   2.8963   2.8963
     8.0128   8.0128   9.4300   9.4300   9.6578   9.6578  10.5655  10.5655

          k = 0.2500-0.5000-0.5000 (  3700 PWs)   bands (ev):

    -3.1816  -3.1816  -3.1816  -3.1816   1.7956   1.7957   1.7957   1.7957
     8.7646   8.7646   8.7646   8.7646  10.4368  10.4368  10.4368  10.4368

          k = 0.3750 0.3750 0.3750 (  3701 PWs)   bands (ev):

    -4.3495  -2.4116  -2.4116  -2.4116   0.7912   0.7912   0.7912   2.6722
     9.1958   9.1958   9.1958   9.8210   9.8210   9.8210  10.8176  10.8176

          k = 0.3750 0.3750-0.5000 (  3696 PWs)   bands (ev):

    -3.4473  -3.4473  -2.1003  -2.1003   0.2349   0.2349   1.5496   1.5496
     9.3757   9.3757  10.0486  10.0486  10.3168  10.3168  10.4292  10.4292

          k = 0.3750-0.5000-0.5000 (  3688 PWs)   bands (ev):

    -2.6736  -2.6736  -2.6736  -2.6736   0.5422   0.5422   0.5422   0.5422
    10.0467  10.0467  10.0467  10.0467  10.5127  10.5127  10.5127  10.5127

          k =-0.5000-0.5000-0.5000 (  3648 PWs)   bands (ev):

    -2.3550  -2.3550  -2.3550  -2.3550  -0.0287  -0.0287  -0.0287  -0.0287
    10.5449  10.5449  10.5449  10.5449  10.5449  10.5449  10.5449  10.5449

     highest occupied level (ev):    13.3473

!    total energy              =    -147.47236441 Ry
     total all-electron energy =      -609.585147 Ry
     estimated scf accuracy    <          8.4E-12 Ry

     The total energy is the sum of the following terms:
     one-electron contribution =      33.86496190 Ry
     hartree contribution      =       7.76279850 Ry
     xc contribution           =     -37.50538580 Ry
     ewald contribution        =    -102.29129742 Ry
     one-center paw contrib.   =     -49.30344160 Ry

     convergence has been achieved in  13 iterations

     Forces acting on atoms (cartesian axes, Ry/au):

     atom    1 type  1   force =     0.00000000    0.00000000    0.00000000
     atom    2 type  1   force =    -0.00000017   -0.00000017   -0.00000017
     atom    3 type  1   force =     0.00000000    0.00000000    0.00000000
     atom    4 type  1   force =     0.00000017    0.00000017   -0.00000017
     atom    5 type  1   force =     0.00000000    0.00000000    0.00000000
     atom    6 type  1   force =     0.00000017   -0.00000017    0.00000017
     atom    7 type  1   force =     0.00000000    0.00000000    0.00000000
     atom    8 type  1   force =    -0.00000017    0.00000017    0.00000017

     Total force =     0.000001     Total SCF correction =     0.000004
     SCF correction compared to forces is large: reduce conv_thr to get better values


     Computing stress (Cartesian axis) and pressure

          total   stress  (Ry/bohr**3)                   (kbar)     P=       21.55
   0.00014648   0.00000000   0.00000000           21.55        0.00        0.00
   0.00000000   0.00014648   0.00000000            0.00       21.55        0.00
   0.00000000   0.00000000   0.00014648            0.00        0.00       21.55


     Writing all to output data dir ./tmp/diamond.save/ :
     XML data file, charge density, pseudopotentials, collected wavefunctions

     init_run     :      0.94s CPU      0.99s WALL (       1 calls)
     electrons    :     17.68s CPU     19.22s WALL (       1 calls)
     forces       :      0.17s CPU      0.21s WALL (       1 calls)
     stress       :      0.58s CPU      0.71s WALL (       1 calls)

     Called by init_run:
     wfcinit      :      0.68s CPU      0.72s WALL (       1 calls)
     potinit      :      0.13s CPU      0.14s WALL (       1 calls)
     hinit0       :      0.09s CPU      0.09s WALL (       1 calls)

     Called by electrons:
     c_bands      :     13.62s CPU     14.91s WALL (      13 calls)
     sum_band     :      2.18s CPU      2.30s WALL (      13 calls)
     v_of_rho     :      0.42s CPU      0.45s WALL (      14 calls)
     newd         :      0.21s CPU      0.25s WALL (      14 calls)
     PAW_pot      :      1.30s CPU      1.36s WALL (      14 calls)
     mix_rho      :      0.05s CPU      0.06s WALL (      13 calls)

     Called by c_bands:
     init_us_2    :      0.31s CPU      0.35s WALL (    1015 calls)
     cegterg      :     13.05s CPU     14.31s WALL (     455 calls)

     Called by *egterg:
     cdiaghg      :      0.17s CPU      0.18s WALL (    1556 calls)
     h_psi        :     10.88s CPU     11.44s WALL (    1591 calls)
     s_psi        :      0.73s CPU      0.94s WALL (    1591 calls)
     g_psi        :      0.06s CPU      0.06s WALL (    1101 calls)

     Called by h_psi:
     h_psi:calbec :      0.78s CPU      0.99s WALL (    1591 calls)
     vloc_psi     :      9.31s CPU      9.44s WALL (    1591 calls)
                                        0.00s GPU  (    1591 calls)
     add_vuspsi   :      0.75s CPU      0.95s WALL (    1591 calls)

     General routines
     calbec       :      1.31s CPU      1.70s WALL (    2641 calls)
     fft          :      0.25s CPU      0.25s WALL (     205 calls)
     ffts         :      0.01s CPU      0.01s WALL (      27 calls)
     fftw         :      9.72s CPU      9.78s WALL (   50894 calls)
     interpolate  :      0.02s CPU      0.02s WALL (      14 calls)


     PWSCF        :     19.42s CPU     21.22s WALL


   This run was terminated on:  11:41:19  20Jun2026            

=------------------------------------------------------------------------------=
   JOB DONE.
=------------------------------------------------------------------------------=
