
     Program PWSCF v.7.3.1 starts on  1Aug2026 at 12:41:25 

     This program is part of the open-source Quantum ESPRESSO suite
     for quantum simulation of materials; please cite
         "P. Giannozzi et al., J. Phys.:Condens. Matter 21 395502 (2009);
         "P. Giannozzi et al., J. Phys.:Condens. Matter 29 465901 (2017);
         "P. Giannozzi et al., J. Chem. Phys. 152 154105 (2020);
          URL http://www.quantum-espresso.org", 
     in publications or presentations arising from this work. More details at
     http://www.quantum-espresso.org/quote

     Parallel version (MPI), running on     8 processors

     MPI processes distributed on     1 nodes
     187291 MiB available memory on the printing compute node when the environment starts

     Reading input from pw.in

     Current dimensions of program PWSCF are:
     Max number of different atomic species (ntypx) = 10
     Max number of k-points (npk) =  40000
     Max angular momentum in pseudopotentials (lmaxx) =  4
     file C.pbe-n-kjpaw_psl.1.0.0.UPF: wavefunction(s)  2S 2P renormalized
     Message from routine volume:
     axis vectors are left-handed
     Found identity + (  0.5000  0.0000  0.0000) symmetry
     This is a supercell, fractional translations are disabled
     Message from routine setup:
     using ibrav=0 with symmetry is DISCOURAGED, use correct ibrav instead

     R & G space division:  proc/nbgrp/npool/nimage =       8
     Subspace diagonalization in iterative solution of the eigenvalue problem:
     a serial algorithm will be used


     Parallelization info
     --------------------
     sticks:   dense  smooth     PW     G-vecs:    dense   smooth      PW
     Min         651     325     89               101891    36013    5191
     Max         652     326     90               101904    36021    5200
     Sum        5209    2601    717               815155   288125   41579

     Using Slab Decomposition



     bravais-lattice index     =            0
     lattice parameter (alat)  =       9.5505  a.u.
     unit-cell volume          =    2499.5129 (a.u.)^3
     number of atoms/cell      =           32
     number of atomic types    =            2
     number of electrons       =       104.00
     number of Kohn-Sham states=           62
     kinetic-energy cutoff     =      90.0000  Ry
     charge density cutoff     =     720.0000  Ry
     scf convergence threshold =      1.0E-08
     mixing beta               =       0.3000
     number of iterations used =            8  plain     mixing
     Exchange-correlation= PBE
                           (   1   4   3   4   0   0   0)

     celldm(1)=   9.550471  celldm(2)=   0.000000  celldm(3)=   0.000000
     celldm(4)=   0.000000  celldm(5)=   0.000000  celldm(6)=   0.000000

     crystal axes: (cart. coord. in units of alat)
               a(1) = (   1.000000   0.000000   0.000000 )  
               a(2) = (   0.000000  -1.000000   0.000000 )  
               a(3) = (   0.000000   0.000000   2.869333 )  

     reciprocal axes: (cart. coord. in units 2 pi/alat)
               b(1) = (  1.000000 -0.000000 -0.000000 )  
               b(2) = ( -0.000000 -1.000000 -0.000000 )  
               b(3) = ( -0.000000 -0.000000  0.348513 )  


     PseudoPot. # 1 for C  read from file:
     ./C.pbe-n-kjpaw_psl.1.0.0.UPF
     MD5 check sum: 5d2aebdfa2cae82b50a7e79e9516da0f
     Pseudo is Projector augmented-wave + core cor, Zval =  4.0
     Generated using "atomic" code by A. Dal Corso  v.5.1
     Shape of augmentation charge: PSQ
     Using radial grid of 1073 points,  4 beta functions with: 
                l(1) =   0
                l(2) =   0
                l(3) =   1
                l(4) =   1
     Q(r) pseudized with 0 coefficients 


     PseudoPot. # 2 for H  read from file:
     ./H_ONCV_PBE-1.0.oncvpsp.upf
     MD5 check sum: 1790becc920ee074925cf490c71280fe
     Pseudo is Norm-conserving, Zval =  1.0
     Generated using ONCVPSP code by D. R. Hamann
     Using radial grid of 1166 points,  2 beta functions with: 
                l(1) =   0
                l(2) =   0

     atomic species   valence    mass     pseudopotential
     C                 4.00    12.01100     C ( 1.00)
     H                 1.00     1.00800     H ( 1.00)

      4 Sym. Ops. (no inversion) found



   Cartesian axes

     site n.     atom                  positions (alat units)
         1        C      tau(   1) = (   0.0000000  -0.1582087   1.8592812  )
         2        C      tau(   2) = (   0.2500000  -0.2299149   1.6998931  )
         3        C      tau(   3) = (   0.2500000   0.0000000   1.4936626  )
         4        C      tau(   4) = (   0.0000000   0.0000000   1.3178300  )
         5        C      tau(   5) = (   0.0000000  -0.2700851   1.1694404  )
         6        C      tau(   6) = (   0.2500000  -0.3417913   1.0100523  )
         7        C      tau(   7) = (   0.0000000  -0.8417913   1.8592812  )
         8        C      tau(   8) = (   0.2500000  -0.7700851   1.6998931  )
         9        C      tau(   9) = (   0.2500000  -0.5000000   1.5515034  )
        10        C      tau(  10) = (   0.0000000  -0.5000000   1.3756708  )
        11        C      tau(  11) = (   0.0000000  -0.7299149   1.1694404  )
        12        C      tau(  12) = (   0.2500000  -0.6582087   1.0100523  )
        13        H      tau(  13) = (   0.0000000  -0.2449080   2.0590044  )
        14        H      tau(  14) = (   0.0000000  -0.7550920   2.0590044  )
        15        H      tau(  15) = (   0.2500000  -0.2550919   0.8103291  )
        16        H      tau(  16) = (   0.2500000  -0.7449081   0.8103291  )
        17        C      tau(  17) = (   0.5000000  -0.1582087   1.8592812  )
        18        C      tau(  18) = (   0.7500000  -0.2299149   1.6998931  )
        19        C      tau(  19) = (   0.7500000   0.0000000   1.4936626  )
        20        C      tau(  20) = (   0.5000000   0.0000000   1.3178300  )
        21        C      tau(  21) = (   0.5000000  -0.2700851   1.1694404  )
        22        C      tau(  22) = (   0.7500000  -0.3417913   1.0100523  )
        23        C      tau(  23) = (   0.5000000  -0.8417913   1.8592812  )
        24        C      tau(  24) = (   0.7500000  -0.7700851   1.6998931  )
        25        C      tau(  25) = (   0.7500000  -0.5000000   1.5515034  )
        26        C      tau(  26) = (   0.5000000  -0.5000000   1.3756708  )
        27        C      tau(  27) = (   0.5000000  -0.7299149   1.1694404  )
        28        C      tau(  28) = (   0.7500000  -0.6582087   1.0100523  )
        29        H      tau(  29) = (   0.5000000  -0.2449080   2.0590044  )
        30        H      tau(  30) = (   0.5000000  -0.7550920   2.0590044  )
        31        H      tau(  31) = (   0.7500000  -0.2550919   0.8103291  )
        32        H      tau(  32) = (   0.7500000  -0.7449081   0.8103291  )

     number of k points=    25  Marzari-Vanderbilt smearing, width (Ry)=  0.0100
                       cart. coord. in units 2pi/alat
        k(    1) = (   0.0000000  -0.0000000   0.0000000), wk =   0.0312500
        k(    2) = (   0.0000000  -0.1250000   0.0000000), wk =   0.0625000
        k(    3) = (   0.0000000  -0.2500000   0.0000000), wk =   0.0625000
        k(    4) = (   0.0000000  -0.3750000   0.0000000), wk =   0.0625000
        k(    5) = (   0.0000000   0.5000000   0.0000000), wk =   0.0312500
        k(    6) = (   0.1250000  -0.1250000   0.0000000), wk =   0.1250000
        k(    7) = (   0.1250000  -0.2500000   0.0000000), wk =   0.1250000
        k(    8) = (   0.1250000  -0.3750000   0.0000000), wk =   0.1250000
        k(    9) = (   0.1250000   0.5000000   0.0000000), wk =   0.0625000
        k(   10) = (   0.2500000  -0.2500000   0.0000000), wk =   0.1250000
        k(   11) = (   0.2500000  -0.3750000   0.0000000), wk =   0.1250000
        k(   12) = (   0.2500000   0.5000000   0.0000000), wk =   0.0625000
        k(   13) = (   0.3750000  -0.3750000   0.0000000), wk =   0.1250000
        k(   14) = (   0.3750000   0.5000000   0.0000000), wk =   0.0625000
        k(   15) = (  -0.5000000   0.5000000   0.0000000), wk =   0.0312500
        k(   16) = (  -0.1250000   0.0000000   0.0000000), wk =   0.0625000
        k(   17) = (  -0.2500000   0.0000000   0.0000000), wk =   0.0625000
        k(   18) = (  -0.3750000   0.0000000   0.0000000), wk =   0.0625000
        k(   19) = (   0.5000000  -0.0000000   0.0000000), wk =   0.0312500
        k(   20) = (  -0.2500000   0.1250000   0.0000000), wk =   0.1250000
        k(   21) = (  -0.3750000   0.1250000   0.0000000), wk =   0.1250000
        k(   22) = (   0.5000000   0.1250000   0.0000000), wk =   0.0625000
        k(   23) = (  -0.3750000   0.2500000   0.0000000), wk =   0.1250000
        k(   24) = (   0.5000000   0.2500000   0.0000000), wk =   0.0625000
        k(   25) = (   0.5000000   0.3750000   0.0000000), wk =   0.0625000

     Dense  grid:   815155 G-vectors     FFT dimensions: (  81,  81, 240)

     Smooth grid:   288125 G-vectors     FFT dimensions: (  60,  60, 180)

     Estimated max dynamical RAM per process >     361.29 MB

     Estimated total dynamical RAM >       2.82 GB

     Initial potential from superposition of free atoms

     starting charge     103.9989, renormalised to     104.0000
     Starting wfcs are  104 randomized atomic wfcs
     Checking if some PAW data can be deallocated... 

     total cpu time spent up to now is        5.6 secs

     Self-consistent Calculation

     iteration #  1     ecut=    90.00 Ry     beta= 0.30
     Davidson diagonalization with overlap
     ethr =  1.00E-02,  avg # of iterations =  3.0

     negative rho (up, down):  1.852E-07 0.000E+00

     total cpu time spent up to now is       16.8 secs

     total energy              =    -451.91453060 Ry
     estimated scf accuracy    <       2.44543451 Ry

     iteration #  2     ecut=    90.00 Ry     beta= 0.30
     Davidson diagonalization with overlap
     ethr =  2.35E-03,  avg # of iterations =  4.4

     negative rho (up, down):  2.697E-06 0.000E+00

     total cpu time spent up to now is       25.9 secs

     total energy              =    -451.75757259 Ry
     estimated scf accuracy    <       0.72268843 Ry

     iteration #  3     ecut=    90.00 Ry     beta= 0.30
     Davidson diagonalization with overlap
     ethr =  6.95E-04,  avg # of iterations =  6.8

     negative rho (up, down):  3.925E-06 0.000E+00

     total cpu time spent up to now is       37.8 secs

     total energy              =    -451.78417979 Ry
     estimated scf accuracy    <       0.10797921 Ry

     iteration #  4     ecut=    90.00 Ry     beta= 0.30
     Davidson diagonalization with overlap
     ethr =  1.04E-04,  avg # of iterations =  3.9

     negative rho (up, down):  7.811E-06 0.000E+00

     total cpu time spent up to now is       47.7 secs

     total energy              =    -451.79346729 Ry
     estimated scf accuracy    <       0.01092061 Ry

     iteration #  5     ecut=    90.00 Ry     beta= 0.30
     Davidson diagonalization with overlap
     ethr =  1.05E-05,  avg # of iterations =  8.9

     negative rho (up, down):  5.971E-06 0.000E+00

     total cpu time spent up to now is       61.2 secs

     total energy              =    -451.79544661 Ry
     estimated scf accuracy    <       0.00303603 Ry

     iteration #  6     ecut=    90.00 Ry     beta= 0.30
     Davidson diagonalization with overlap
     ethr =  2.92E-06,  avg # of iterations =  6.9

     negative rho (up, down):  6.616E-06 0.000E+00

     total cpu time spent up to now is       72.3 secs

     total energy              =    -451.79580612 Ry
     estimated scf accuracy    <       0.00034715 Ry

     iteration #  7     ecut=    90.00 Ry     beta= 0.30
     Davidson diagonalization with overlap
     ethr =  3.34E-07,  avg # of iterations =  2.7

     negative rho (up, down):  6.677E-06 0.000E+00

     total cpu time spent up to now is       82.2 secs

     total energy              =    -451.79585595 Ry
     estimated scf accuracy    <       0.00004801 Ry

     iteration #  8     ecut=    90.00 Ry     beta= 0.30
     Davidson diagonalization with overlap
     ethr =  4.62E-08,  avg # of iterations =  2.9

     negative rho (up, down):  6.640E-06 0.000E+00

     total cpu time spent up to now is       91.9 secs

     total energy              =    -451.79586662 Ry
     estimated scf accuracy    <       0.00001647 Ry

     iteration #  9     ecut=    90.00 Ry     beta= 0.30
     Davidson diagonalization with overlap
     ethr =  1.58E-08,  avg # of iterations =  2.0

     negative rho (up, down):  6.687E-06 0.000E+00

     total cpu time spent up to now is      101.5 secs

     total energy              =    -451.79586975 Ry
     estimated scf accuracy    <       0.00000248 Ry

     iteration # 10     ecut=    90.00 Ry     beta= 0.30
     Davidson diagonalization with overlap
     ethr =  2.38E-09,  avg # of iterations =  3.5

     negative rho (up, down):  6.669E-06 0.000E+00

     total cpu time spent up to now is      112.1 secs

     total energy              =    -451.79586998 Ry
     estimated scf accuracy    <       0.00000135 Ry

     iteration # 11     ecut=    90.00 Ry     beta= 0.30
     Davidson diagonalization with overlap
     ethr =  1.30E-09,  avg # of iterations =  2.8

     negative rho (up, down):  6.702E-06 0.000E+00

     total cpu time spent up to now is      122.0 secs

     total energy              =    -451.79587034 Ry
     estimated scf accuracy    <       0.00000007 Ry

     iteration # 12     ecut=    90.00 Ry     beta= 0.30
     Davidson diagonalization with overlap
     ethr =  6.34E-11,  avg # of iterations =  2.6

     negative rho (up, down):  6.728E-06 0.000E+00

     total cpu time spent up to now is      131.2 secs

     total energy              =    -451.79587032 Ry
     estimated scf accuracy    <       0.00000003 Ry

     iteration # 13     ecut=    90.00 Ry     beta= 0.30
     Davidson diagonalization with overlap
     ethr =  2.66E-11,  avg # of iterations =  4.7

     negative rho (up, down):  6.743E-06 0.000E+00

     total cpu time spent up to now is      143.5 secs

     total energy              =    -451.79587032 Ry
     estimated scf accuracy    <       0.00000006 Ry

     iteration # 14     ecut=    90.00 Ry     beta= 0.30
     Davidson diagonalization with overlap
     ethr =  2.66E-11,  avg # of iterations =  2.8

     negative rho (up, down):  6.795E-06 0.000E+00

     total cpu time spent up to now is      153.4 secs

     End of self-consistent calculation

          k = 0.0000-0.0000 0.0000 ( 36075 PWs)   bands (ev):

   -17.7364 -16.0425 -13.3844 -13.3844 -13.1652 -12.9578 -12.8591 -11.8375
   -11.5618 -11.5618  -9.2935  -9.2935  -9.0374  -8.8362  -8.8362  -8.7016
    -8.1487  -8.1487  -7.8478  -7.7724  -7.7724  -5.4174  -5.3763  -5.1806
    -4.8116  -4.8116  -3.9141  -3.9141  -3.4817  -3.4817  -2.6859  -2.2175
    -2.2143  -2.2143  -2.1213  -2.1213  -1.9101  -1.7693  -1.6572  -1.2008
    -1.1739  -1.1739   0.2225   0.4049   0.4049   0.4339   0.5392   0.8083
     0.8622   0.9921   1.3435   1.6795   5.4378   5.8929   7.4676   7.7476
     7.7859   8.3922   8.6201   8.9959   8.9961   9.1664

          k = 0.0000-0.1250 0.0000 ( 36101 PWs)   bands (ev):

   -17.6717 -16.0405 -13.8637 -13.3228 -13.3228 -13.1302 -12.0706 -11.7915
   -11.5609 -11.5609  -9.9212  -9.9212  -9.0923  -8.4676  -8.3937  -8.3936
    -8.0812  -8.0812  -7.8304  -7.6295  -7.6295  -5.7202  -5.1521  -4.9986
    -4.8664  -4.8664  -3.8824  -3.8824  -3.3967  -3.3967  -2.7325  -2.6311
    -2.2331  -2.2331  -2.0434  -2.0434  -1.8392  -1.7108  -1.5737  -1.2004
    -1.1702  -1.1702  -0.0307  -0.0274   0.1039   0.1039   0.4683   0.7889
     1.0758   1.1072   1.5006   1.5447   5.5306   5.9743   7.7520   7.8664
     7.9455   8.5283   8.5382   8.9946   8.9947   9.0820

          k = 0.0000-0.2500 0.0000 ( 36049 PWs)   bands (ev):

   -17.4800 -16.0990 -14.4486 -13.5414 -13.1414 -13.1414 -11.6462 -11.6205
   -11.6205 -11.2734 -10.5398 -10.5398  -9.1191  -8.6879  -8.6879  -7.9747
    -7.6975  -7.4464  -7.4464  -7.2497  -7.2497  -6.0357  -5.0056  -4.9335
    -4.9335  -4.6350  -3.7888  -3.7888  -3.5440  -3.2143  -3.2143  -2.4697
    -2.3174  -2.3174  -2.1066  -1.8993  -1.7663  -1.7663  -1.2649  -1.2482
    -1.2482  -1.1961  -0.6202  -0.6202  -0.5266  -0.3265   0.3344   0.4575
     1.1758   1.2856   1.4540   1.6970   5.7981   6.2052   7.7906   8.1684
     8.3872   8.4613   8.5944   8.8309   8.8310   9.0287

          k = 0.0000-0.3750 0.0000 ( 36009 PWs)   bands (ev):

   -17.1712 -16.3605 -14.6164 -14.0119 -12.8589 -12.8589 -11.8919 -11.8919
   -11.4127 -10.9784 -10.8132 -10.8131  -8.9627  -8.9627  -8.7424  -7.7602
    -7.3604  -7.1837  -7.1837  -6.8265  -6.8265  -6.2365  -5.0213  -4.7011
    -4.7011  -4.4606  -3.9915  -3.6811  -3.6811  -3.2276  -3.2276  -2.9517
    -2.2111  -2.0848  -2.0848  -1.8433  -1.8433  -1.7515  -1.5191  -1.4202
    -1.4202  -1.2144  -1.2144  -1.0894  -0.5377  -0.3582   0.1226   0.1722
     0.8680   1.2737   1.7061   1.8163   6.2204   6.5769   7.5068   7.6751
     8.2401   8.5654   8.6414   8.6414   8.8862   8.9452

          k = 0.0000 0.5000 0.0000 ( 35968 PWs)   bands (ev):

   -16.7725 -16.7725 -14.4112 -14.4112 -12.6246 -12.6246 -12.1629 -12.1629
   -11.1410 -11.1410 -10.8520 -10.8520  -9.0736  -9.0736  -8.1133  -8.1133
    -7.0256  -7.0256  -6.7995  -6.7995  -6.7780  -6.7780  -4.7098  -4.7098
    -4.3101  -4.3101  -3.8227  -3.8227  -3.7303  -3.7303  -3.1662  -3.1662
    -2.3111  -2.3111  -1.8769  -1.8769  -1.6562  -1.6562  -1.6246  -1.6246
    -1.3663  -1.3663  -1.3262  -1.3262  -0.2304  -0.2304  -0.1691  -0.1691
     1.0464   1.0464   1.8262   1.8262   6.7478   6.7479   7.1799   7.1799
     8.4058   8.4059   8.5532   8.5532   8.9555   8.9556

          k = 0.1250-0.1250 0.0000 ( 36039 PWs)   bands (ev):

   -17.6001 -15.9704 -14.2634 -13.7960 -13.0635 -12.9079 -12.0046 -11.8352
   -11.7276 -10.7935 -10.6538  -9.7634  -9.0538  -8.9508  -8.5684  -8.4085
    -8.2206  -7.7728  -7.5814  -7.0619  -6.8710  -5.6915  -5.2746  -5.1266
    -4.9682  -4.9485  -4.1676  -3.8032  -3.1125  -3.0845  -2.9727  -2.6945
    -2.4224  -2.4088  -1.8947  -1.8776  -1.8250  -1.7392  -1.6502  -1.2862
    -1.2620  -0.9706  -0.3867  -0.1969  -0.0741   0.3879   0.4248   0.4525
     0.8165   0.9253   1.3301   1.5068   5.5977   6.0569   7.9035   8.0585
     8.2414   8.4608   8.5983   8.6040   8.8748   9.2192

          k = 0.1250-0.2500 0.0000 ( 36066 PWs)   bands (ev):

   -17.4086 -16.0286 -14.3805 -14.0776 -13.4744 -12.8706 -11.8469 -11.5823
   -11.2093 -11.1436 -10.8105 -10.4366  -9.0760  -8.5323  -8.3087  -8.2362
    -7.9216  -7.7872  -7.6420  -6.5732  -6.3347  -5.9986  -5.4113  -4.9775
    -4.8754  -4.5940  -4.1926  -3.6188  -3.4992  -3.2378  -2.9272  -2.6815
    -2.3991  -2.3132  -2.0626  -1.8614  -1.8307  -1.8202  -1.5886  -1.4476
    -1.0586  -1.0191  -0.7165  -0.6465  -0.5223  -0.3855   0.0674   0.3234
     1.0975   1.1592   1.2157   1.5258   5.8651   6.2890   7.9024   8.2785
     8.4013   8.6394   8.7114   8.7469   8.7624   8.9689

          k = 0.1250-0.3750 0.0000 ( 36077 PWs)   bands (ev):

   -17.1000 -16.2898 -14.5483 -13.9444 -13.7786 -13.0229 -11.8389 -11.3493
   -11.1837 -11.0727 -10.9160 -10.8653  -8.6989  -8.6890  -8.4256  -7.9429
    -7.7187  -7.5972  -7.3036  -6.2578  -6.1819  -5.9191  -5.2207  -4.9818
    -4.6061  -4.4242  -4.0462  -3.9619  -3.7339  -3.2405  -2.9659  -2.8144
    -2.6137  -2.2054  -2.1083  -2.0176  -1.9440  -1.7038  -1.5815  -1.4713
    -1.3359  -1.0888  -0.9730  -0.9170  -0.7702  -0.5370  -0.2774   0.1412
     0.9122   1.2445   1.4033   1.5697   6.2873   6.6596   7.5740   7.7464
     8.2468   8.3426   8.5511   8.9710   8.9914   9.0372

          k = 0.1250 0.5000 0.0000 ( 36026 PWs)   bands (ev):

   -16.7015 -16.7015 -14.3433 -14.3433 -13.3954 -13.3954 -11.5543 -11.5543
   -11.0785 -11.0785 -11.0265 -11.0265  -8.6385  -8.6385  -8.0745  -8.0745
    -7.6820  -7.6820  -6.7171  -6.7171  -6.0024  -6.0024  -4.6680  -4.6680
    -4.6379  -4.6379  -3.9171  -3.9171  -3.7106  -3.7106  -3.0786  -3.0786
    -2.3394  -2.3394  -2.2374  -2.2374  -1.8023  -1.8023  -1.3889  -1.3889
    -1.2862  -1.2862  -1.1389  -1.1389  -0.5970  -0.5970  -0.2305  -0.2305
     1.0842   1.0842   1.5313   1.5313   6.8146   6.8147   7.2568   7.2569
     8.3035   8.3035   8.4993   8.4993   9.0570   9.0570

          k = 0.2500-0.2500 0.0000 ( 36022 PWs)   bands (ev):

   -17.1946 -15.8179 -14.9533 -14.1766 -13.6311 -13.2740 -12.1050 -11.3916
   -11.2631 -11.0174 -10.6391  -9.9069  -8.9912  -8.9621  -8.6033  -7.7711
    -7.6242  -7.4824  -7.0770  -5.9548  -5.9033  -5.7349  -5.6365  -5.0624
    -4.9170  -4.5266  -4.3082  -3.8554  -3.6593  -3.3753  -3.0737  -2.8369
    -2.6460  -2.2465  -2.1148  -2.0675  -1.7896  -1.7478  -1.6095  -1.5610
    -1.0303  -1.0176  -0.9432  -0.8638  -0.5628  -0.5115  -0.0027   0.1970
     0.3238   0.4814   1.0654   1.3632   6.0545   6.4983   8.0056   8.0259
     8.0716   8.4717   8.6041   8.6568   8.9034   9.2666

          k = 0.2500-0.3750 0.0000 ( 36005 PWs)   bands (ev):

   -16.8866 -16.0780 -14.6515 -14.3445 -13.8651 -13.7426 -12.2819 -11.6992
   -11.1606 -10.7300 -10.4315 -10.0248  -8.6368  -8.6135  -8.5829  -7.6095
    -7.5810  -7.1542  -7.1396  -6.0244  -5.7740  -5.5245  -5.1906  -4.8811
    -4.8145  -4.3638  -4.2178  -4.0156  -3.8928  -3.6292  -3.0749  -3.0321
    -2.8662  -2.6571  -2.5170  -1.8563  -1.8169  -1.6850  -1.6532  -1.6364
    -1.2128  -1.2000  -0.9348  -0.8749  -0.6639  -0.6202  -0.5276  -0.0538
     0.6411   0.6954   0.8968   1.3200   6.4731   6.8728   7.7451   7.8969
     7.9367   7.9943   8.2590   8.7108   8.9333   9.2348

          k = 0.2500 0.5000 0.0000 ( 36042 PWs)   bands (ev):

   -16.4888 -16.4888 -14.2622 -14.2622 -14.1403 -14.1403 -12.0844 -12.0844
   -10.8924 -10.8924 -10.2028 -10.2028  -8.6163  -8.6163  -7.9740  -7.9740
    -7.3535  -7.3535  -6.5387  -6.5387  -5.4751  -5.4751  -4.8423  -4.8423
    -4.5642  -4.5642  -4.2302  -4.2302  -3.6883  -3.6883  -3.3127  -3.3127
    -2.9290  -2.9290  -2.3745  -2.3745  -1.6544  -1.6543  -1.5132  -1.5132
    -1.1986  -1.1986  -0.8876  -0.8876  -0.8318  -0.8318  -0.3916  -0.3916
     0.7858   0.7858   1.0658   1.0658   7.0027   7.0028   7.4470   7.4470
     7.8589   7.8589   8.4264   8.4264   9.0450   9.0450

          k = 0.3750-0.3750 0.0000 ( 36010 PWs)   bands (ev):

   -16.5322 -15.7263 -15.4096 -14.6136 -14.0072 -13.4087 -12.9553 -12.3684
   -10.8521 -10.4258 -10.0019  -9.7324  -8.9410  -8.4602  -8.2122  -7.5018
    -6.8979  -6.6179  -6.5041  -5.7963  -5.7311  -5.4352  -5.3476  -4.9052
    -4.8236  -4.7695  -4.1628  -4.0977  -3.9442  -3.8669  -3.6301  -3.0636
    -2.9721  -2.7957  -2.5954  -2.5670  -2.0040  -1.8561  -1.5854  -1.5540
    -1.3228  -1.1266  -0.8821  -0.8224  -0.7025  -0.5722  -0.2857   0.0208
     0.0284   0.0748   0.6565   1.0447   6.7481   7.1780   7.4829   7.7031
     7.9050   8.1108   8.2174   8.2372   8.6051   8.8710

          k = 0.3750 0.5000 0.0000 ( 36026 PWs)   bands (ev):

   -16.1356 -16.1356 -15.0172 -15.0172 -13.8042 -13.8042 -12.7568 -12.7568
   -10.5893 -10.5893  -9.8279  -9.8279  -8.5516  -8.5516  -7.8833  -7.8833
    -6.3366  -6.3366  -6.2620  -6.2620  -5.6190  -5.6190  -5.0751  -5.0751
    -4.6735  -4.6735  -4.2576  -4.2576  -3.8160  -3.8160  -3.7393  -3.7393
    -2.8821  -2.8821  -2.4758  -2.4758  -2.3909  -2.3909  -1.3237  -1.3237
    -1.1369  -1.1369  -0.9778  -0.9778  -0.6460  -0.6460  -0.1864  -0.1863
     0.1288   0.1288   0.8116   0.8116   7.2586   7.2587   7.5572   7.5572
     7.6782   7.6782   8.3383   8.3383   8.5018   8.5019

          k =-0.5000 0.5000 0.0000 ( 36040 PWs)   bands (ev):

   -15.6439 -15.6439 -15.6439 -15.6439 -13.3397 -13.3397 -13.3397 -13.3397
   -10.1916 -10.1916 -10.1916 -10.1916  -8.0175  -8.0175  -8.0175  -8.0175
    -5.9903  -5.9903  -5.9903  -5.9903  -5.3618  -5.3618  -5.3618  -5.3618
    -4.8356  -4.8356  -4.8356  -4.8356  -3.7841  -3.7841  -3.7841  -3.7841
    -2.6972  -2.6972  -2.6972  -2.6972  -1.9385  -1.9385  -1.9385  -1.9385
    -1.1424  -1.1424  -1.1424  -1.1424  -0.3107  -0.3107  -0.3107  -0.3107
     0.3854   0.3854   0.3854   0.3855   7.4204   7.4204   7.4205   7.4205
     7.9905   7.9906   7.9906   7.9906   8.5981   8.5981

          k =-0.1250 0.0000 0.0000 ( 36101 PWs)   bands (ev):

   -17.6649 -15.9724 -14.3262 -13.0990 -12.9382 -12.8912 -12.7912 -11.8503
   -11.7738 -10.7956 -10.0281  -9.6598  -9.2526  -9.0016  -8.9104  -8.6409
    -7.9406  -7.7889  -7.5313  -7.3561  -7.0740  -5.3956  -5.3460  -5.1930
    -5.1267  -5.0173  -4.0263  -3.8726  -3.4367  -3.1405  -2.8391  -2.4886
    -2.3800  -2.1705  -2.0861  -1.8853  -1.8460  -1.7523  -1.5996  -1.4258
    -1.2365  -0.9618  -0.0958   0.0514   0.2890   0.3348   0.6677   0.6962
     0.6971   0.8356   1.0762   1.6281   5.5049   5.9757   7.6715   7.9144
     8.0218   8.4192   8.5071   8.6800   8.7682   9.2186

          k =-0.2500 0.0000 0.0000 ( 36049 PWs)   bands (ev):

   -17.4505 -15.7626 -15.2041 -13.6044 -12.9008 -12.6921 -12.5881 -11.5830
   -11.0360 -10.8135 -10.6650 -10.4742  -9.6142  -8.9130  -8.8259  -8.4634
    -7.6152  -7.3021  -6.5899  -6.5885  -6.5687  -5.3829  -5.3648  -5.2683
    -5.2424  -4.9859  -4.1241  -4.1221  -3.7606  -3.4131  -2.8659  -2.7688
    -2.2209  -2.0353  -2.0218  -1.7112  -1.6824  -1.6696  -1.6503  -1.4282
    -1.1485  -0.8256  -0.7040  -0.4128  -0.2910  -0.2414  -0.1447   0.4704
     0.6356   0.8801   0.8918   1.3819   5.7008   6.1757   7.7978   7.8313
     7.9740   8.3251   8.5844   8.8562   9.1960   9.4243

          k =-0.3750 0.0000 0.0000 ( 36009 PWs)   bands (ev):

   -17.0944 -15.9662 -15.4145 -14.3209 -12.5722 -12.3640 -12.2511 -11.5442
   -11.3663 -11.2666 -11.1880 -10.2722  -9.7921  -8.8547  -8.1876  -7.9433
    -7.3386  -7.0291  -6.6544  -6.4422  -5.7397  -5.5183  -5.3752  -5.1963
    -4.7895  -4.6214  -4.5983  -3.8073  -3.7945  -3.7932  -3.5012  -2.7755
    -2.3504  -2.2838  -1.8419  -1.7150  -1.6073  -1.5827  -1.5522  -1.3984
    -1.2136  -1.2110  -1.1720  -0.7926  -0.6112  -0.4458  -0.4422   0.1734
     0.2575   0.8769   0.9412   0.9821   6.0328   6.4562   7.1276   7.2647
     8.3423   8.6174   9.1070   9.1397   9.2036   9.5452

          k = 0.5000-0.0000 0.0000 ( 35968 PWs)   bands (ev):

   -16.5984 -16.5984 -14.9315 -14.9315 -12.1168 -12.1168 -11.9146 -11.9146
   -11.7829 -11.7829 -10.8277 -10.8277  -9.0621  -9.0621  -7.8795  -7.8795
    -6.9895  -6.9895  -6.2512  -6.2512  -6.1915  -6.1915  -5.2737  -5.2736
    -4.2866  -4.2865  -4.2600  -4.2600  -3.3702  -3.3702  -3.3666  -3.3666
    -2.4793  -2.4793  -2.3247  -2.3247  -1.5913  -1.5913  -1.5222  -1.5222
    -1.2192  -1.2192  -1.1342  -1.1342  -0.2003  -0.2003  -0.1239  -0.1238
     0.1704   0.1704   0.9872   0.9872   6.5121   6.5121   6.8180   6.8180
     8.8050   8.8051   8.9461   8.9461   9.5233   9.5233

          k =-0.2500 0.1250 0.0000 ( 36066 PWs)   bands (ev):

   -17.3859 -15.7603 -15.1408 -13.5957 -13.5933 -12.8642 -11.8072 -11.5376
   -11.5365 -10.9279 -10.7688  -9.7489  -9.7468  -8.9561  -8.7154  -8.2363
    -7.6046  -7.4371  -6.8748  -6.3182  -6.2728  -5.6281  -5.4938  -5.1458
    -5.0738  -4.8293  -4.2625  -4.0523  -3.7184  -3.0935  -2.8695  -2.8630
    -2.4967  -2.1413  -2.1354  -1.8325  -1.6822  -1.6766  -1.4444  -1.3807
    -1.1664  -1.1019  -0.7565  -0.5518  -0.4260  -0.0766   0.0657   0.2044
     0.3887   0.6159   1.1820   1.2954   5.7913   6.2590   7.8733   7.8975
     8.0865   8.5986   8.7681   8.7861   9.1160   9.1366

          k =-0.3750 0.1250 0.0000 ( 36077 PWs)   bands (ev):

   -17.0299 -15.9024 -15.4119 -14.3161 -13.2575 -12.5351 -12.2052 -11.5244
   -11.4795 -11.2207 -10.4446 -10.2535  -9.7553  -8.8776  -7.9732  -7.9067
    -7.3440  -6.9036  -6.8236  -6.2548  -5.8250  -5.6650  -5.3190  -5.0993
    -4.7818  -4.7145  -4.4423  -3.8275  -3.8189  -3.7257  -3.2561  -2.8013
    -2.5729  -2.3761  -2.1406  -1.8176  -1.7275  -1.6515  -1.4427  -1.3983
    -1.3352  -1.2795  -0.8740  -0.6000  -0.5668  -0.5292  -0.4784  -0.0997
     0.0908   0.7849   0.8412   1.0467   6.1155   6.5440   7.1891   7.3522
     8.3840   8.8128   9.0471   9.1288   9.1602   9.2314

          k = 0.5000 0.1250 0.0000 ( 36026 PWs)   bands (ev):

   -16.5343 -16.5343 -14.9282 -14.9282 -12.7921 -12.7921 -12.0828 -12.0828
   -11.0238 -11.0238 -10.7866 -10.7866  -9.0505  -9.0505  -7.7055  -7.7055
    -7.0458  -7.0458  -6.2342  -6.2342  -6.1074  -6.1074  -5.3233  -5.3232
    -4.3164  -4.3164  -4.2145  -4.2145  -3.4218  -3.4218  -3.3689  -3.3689
    -2.4461  -2.4461  -2.2587  -2.2587  -1.9636  -1.9636  -1.5878  -1.5878
    -1.0578  -1.0578  -1.0144  -1.0144  -0.3443  -0.3443  -0.2676  -0.2676
     0.1961   0.1961   0.9169   0.9169   6.5829   6.5829   6.9086   6.9087
     8.8037   8.8038   9.0261   9.0261   9.2446   9.2446

          k =-0.3750 0.2500 0.0000 ( 36005 PWs)   bands (ev):

   -16.8393 -15.7136 -15.4681 -14.3648 -13.8389 -12.9427 -12.7833 -11.9139
   -11.0784 -10.6994 -10.1633  -9.7942  -9.4998  -8.8466  -7.9624  -7.5648
    -7.2483  -6.9067  -6.6815  -5.9835  -5.8331  -5.6727  -5.1555  -5.1502
    -4.9471  -4.7363  -4.1619  -3.9134  -3.7366  -3.6284  -3.2367  -2.9003
    -2.8912  -2.6112  -2.5507  -2.3158  -1.7366  -1.7316  -1.5626  -1.3961
    -1.1825  -1.0477  -1.0082  -0.8808  -0.6203  -0.5152  -0.3754  -0.2037
    -0.0471   0.4084   0.7317   1.1261   6.3585   6.7944   7.3448   7.5785
     8.2225   8.4838   8.6331   8.6985   8.8192   9.2337

          k = 0.5000 0.2500 0.0000 ( 36042 PWs)   bands (ev):

   -16.3444 -16.3444 -14.9819 -14.9819 -13.3715 -13.3715 -12.4854 -12.4854
   -10.6543 -10.6543 -10.2603 -10.2603  -8.9486  -8.9486  -7.4761  -7.4761
    -7.0306  -7.0306  -6.0773  -6.0773  -5.9051  -5.9051  -5.3162  -5.3162
    -4.5294  -4.5294  -4.2730  -4.2730  -3.4640  -3.4640  -3.3729  -3.3729
    -2.7618  -2.7618  -2.3605  -2.3605  -1.9096  -1.9096  -1.6700  -1.6700
    -1.1297  -1.1297  -0.9475  -0.9475  -0.6229  -0.6229  -0.3431  -0.3431
     0.2179   0.2179   0.7948   0.7948   6.7852   6.7853   7.1614   7.1615
     8.4451   8.4451   8.5713   8.5713   8.9894   8.9894

          k = 0.5000 0.3750 0.0000 ( 36026 PWs)   bands (ev):

   -16.0387 -16.0387 -15.2368 -15.2368 -13.5407 -13.5407 -12.9472 -12.9472
   -10.4408 -10.4408 -10.0250 -10.0249  -8.5366  -8.5366  -7.6179  -7.6179
    -6.6790  -6.6790  -5.7297  -5.7297  -5.6320  -5.6320  -5.1505  -5.1505
    -4.8813  -4.8813  -4.5687  -4.5687  -3.9220  -3.9220  -3.3598  -3.3598
    -2.9426  -2.9426  -2.3553  -2.3553  -1.8413  -1.8413  -1.8195  -1.8195
    -1.5143  -1.5143  -0.9141  -0.9141  -0.4115  -0.4115  -0.3571  -0.3571
     0.2442   0.2442   0.6191   0.6191   7.0814   7.0814   7.5150   7.5150
     7.9452   7.9452   8.2045   8.2045   8.6425   8.6425

     the Fermi energy is     3.4051 ev

!    total energy              =    -451.79587033 Ry
     estimated scf accuracy    <          1.7E-09 Ry
     smearing contrib. (-TS)   =       0.00000000 Ry
     internal energy E=F+TS    =    -451.79587033 Ry

     The total energy is F=E-TS. E is the sum of the following terms:
     one-electron contribution =   -2320.03420316 Ry
     hartree contribution      =    1200.83711610 Ry
     xc contribution           =    -117.68291981 Ry
     ewald contribution        =     933.00259135 Ry
     one-center paw contrib.   =    -147.91845480 Ry

     convergence has been achieved in  14 iterations

     negative rho (up, down):  6.795E-06 0.000E+00

     Forces acting on atoms (cartesian axes, Ry/au):

     atom    1 type  1   force =     0.00000000    0.00010622    0.00003467
     atom    2 type  1   force =    -0.00000357    0.00003456   -0.00007311
     atom    3 type  1   force =    -0.00000365    0.00000000    0.00005619
     atom    4 type  1   force =     0.00000000   -0.00000000    0.00002001
     atom    5 type  1   force =     0.00000000   -0.00003753    0.00007334
     atom    6 type  1   force =    -0.00000380   -0.00010975   -0.00003450
     atom    7 type  1   force =     0.00000000   -0.00010622    0.00003467
     atom    8 type  1   force =    -0.00000357   -0.00003456   -0.00007311
     atom    9 type  1   force =    -0.00000384    0.00000000   -0.00001981
     atom   10 type  1   force =     0.00000000    0.00000000   -0.00005723
     atom   11 type  1   force =     0.00000000    0.00003753    0.00007334
     atom   12 type  1   force =    -0.00000380    0.00010975   -0.00003450
     atom   13 type  2   force =     0.00000000    0.00004257   -0.00006011
     atom   14 type  2   force =     0.00000000   -0.00004257   -0.00006011
     atom   15 type  2   force =    -0.00000001   -0.00004263    0.00006029
     atom   16 type  2   force =    -0.00000001    0.00004263    0.00006029
     atom   17 type  1   force =     0.00000000    0.00010599    0.00003381
     atom   18 type  1   force =     0.00000357    0.00003456   -0.00007311
     atom   19 type  1   force =     0.00000365   -0.00000000    0.00005619
     atom   20 type  1   force =     0.00000000   -0.00000000    0.00002128
     atom   21 type  1   force =     0.00000000   -0.00003789    0.00007252
     atom   22 type  1   force =     0.00000380   -0.00010975   -0.00003450
     atom   23 type  1   force =     0.00000000   -0.00010599    0.00003381
     atom   24 type  1   force =     0.00000357   -0.00003456   -0.00007311
     atom   25 type  1   force =     0.00000384    0.00000000   -0.00001981
     atom   26 type  1   force =     0.00000000    0.00000000   -0.00005586
     atom   27 type  1   force =     0.00000000    0.00003789    0.00007252
     atom   28 type  1   force =     0.00000380    0.00010975   -0.00003450
     atom   29 type  2   force =     0.00000000    0.00004252   -0.00006006
     atom   30 type  2   force =     0.00000000   -0.00004252   -0.00006006
     atom   31 type  2   force =     0.00000001   -0.00004263    0.00006029
     atom   32 type  2   force =     0.00000001    0.00004263    0.00006029

     Total force =     0.000462     Total SCF correction =     0.000103
     SCF correction compared to forces is large: reduce conv_thr to get better values


     Computing stress (Cartesian axis) and pressure


     negative rho (up, down):  6.795E-06 0.000E+00
          total   stress  (Ry/bohr**3)                   (kbar)     P=      -13.55
   0.00005607   0.00000000   0.00000000            8.25        0.00        0.00
   0.00000000  -0.00033044   0.00000000            0.00      -48.61        0.00
   0.00000000   0.00000000  -0.00000190            0.00        0.00       -0.28


     Writing all to output data dir /tmp/qe/slab.save/ :
     XML data file, charge density, pseudopotentials, collected wavefunctions

     init_run     :      5.30s CPU      5.56s WALL (       1 calls)
     electrons    :    143.91s CPU    147.83s WALL (       1 calls)
     forces       :      1.71s CPU      1.78s WALL (       1 calls)
     stress       :     37.00s CPU     37.42s WALL (       1 calls)

     Called by init_run:
     wfcinit      :      4.71s CPU      4.88s WALL (       1 calls)
     potinit      :      0.25s CPU      0.27s WALL (       1 calls)
     hinit0       :      0.07s CPU      0.10s WALL (       1 calls)

     Called by electrons:
     c_bands      :    119.68s CPU    122.60s WALL (      14 calls)
     sum_band     :     19.60s CPU     20.14s WALL (      14 calls)
     v_of_rho     :      1.59s CPU      1.72s WALL (      15 calls)
     newd         :      1.15s CPU      1.43s WALL (      15 calls)
     PAW_pot      :      1.86s CPU      1.87s WALL (      15 calls)
     mix_rho      :      0.20s CPU      0.21s WALL (      14 calls)

     Called by c_bands:
     init_us_2    :      3.64s CPU      3.69s WALL (     775 calls)
     cegterg      :    114.05s CPU    116.74s WALL (     350 calls)

     Called by *egterg:
     cdiaghg      :      5.33s CPU      5.38s WALL (    1796 calls)
     h_psi        :     81.33s CPU     83.03s WALL (    1821 calls)
     s_psi        :      8.55s CPU      8.63s WALL (    1821 calls)
     g_psi        :      0.58s CPU      0.59s WALL (    1446 calls)

     Called by h_psi:
     h_psi:calbec :      7.81s CPU      7.90s WALL (    1821 calls)
     vloc_psi     :     64.19s CPU     65.17s WALL (    1821 calls)
     add_vuspsi   :      8.73s CPU      8.78s WALL (    1821 calls)

     General routines
     calbec       :     11.21s CPU     11.33s WALL (    2296 calls)
     fft          :      0.93s CPU      1.06s WALL (     218 calls)
     ffts         :      0.03s CPU      0.04s WALL (      29 calls)
     fftw         :     53.42s CPU     54.21s WALL (  144716 calls)
     interpolate  :      0.07s CPU      0.08s WALL (      15 calls)

     Parallel routines

     PWSCF        :   3m 8.40s CPU   3m13.43s WALL


   This run was terminated on:  12:44:39   1Aug2026            

=------------------------------------------------------------------------------=
   JOB DONE.
=------------------------------------------------------------------------------=
Note: The following floating-point exceptions are signalling: IEEE_UNDERFLOW_FLAG IEEE_DENORMAL
Note: The following floating-point exceptions are signalling: IEEE_UNDERFLOW_FLAG IEEE_DENORMAL
Note: The following floating-point exceptions are signalling: IEEE_UNDERFLOW_FLAG IEEE_DENORMAL
Note: The following floating-point exceptions are signalling: IEEE_UNDERFLOW_FLAG IEEE_DENORMAL
Note: The following floating-point exceptions are signalling: IEEE_UNDERFLOW_FLAG IEEE_DENORMAL
Note: The following floating-point exceptions are signalling: IEEE_UNDERFLOW_FLAG IEEE_DENORMAL
Note: The following floating-point exceptions are signalling: IEEE_UNDERFLOW_FLAG IEEE_DENORMAL
Note: The following floating-point exceptions are signalling: IEEE_UNDERFLOW_FLAG IEEE_DENORMAL
