
     Program PWSCF v.7.5 starts on 23Jun2026 at 11:50:49 

     This program is part of the open-source Quantum ESPRESSO suite
     for quantum simulation of materials; please cite
         "P. Giannozzi et al., J. Phys.:Condens. Matter 21 395502 (2009);
         "P. Giannozzi et al., J. Phys.:Condens. Matter 29 465901 (2017);
         "P. Giannozzi et al., J. Chem. Phys. 152 154105 (2020);
          URL http://www.quantum-espresso.org", 
     in publications or presentations arising from this work. More details at
     http://www.quantum-espresso.org/quote

     Serial version
     0 MiB available memory on the printing compute node when the environment starts

     Waiting for input...
     Reading input from standard input

     Current dimensions of program PWSCF are:
     Max number of different atomic species (ntypx) = 10
     Max number of k-points (npk) =  40000
     Max angular momentum in pseudopotentials (lmaxx) =  4
     file C.pbe-n-kjpaw_psl.1.0.0.UPF: wavefunction(s)  2S 2P renormalized
     Message from routine volume:
     axis vectors are left-handed
     Message from routine setup:
     using ibrav=0 with symmetry is DISCOURAGED, use correct ibrav instead


     G-vector sticks info
     --------------------
     sticks:   dense  smooth     PW     G-vecs:    dense   smooth      PW
     Sum        1633     817    235               366117   129643   20359

     Using Slab Decomposition



     bravais-lattice index     =            0
     lattice parameter (alat)  =       4.7514  a.u.
     unit-cell volume          =    1339.8194 (a.u.)^3
     number of atoms/cell      =           14
     number of atomic types    =            2
     number of electrons       =        50.00
     number of Kohn-Sham states=           30
     kinetic-energy cutoff     =      80.0000  Ry
     charge density cutoff     =     640.0000  Ry
     scf convergence threshold =      1.0E-08
     mixing beta               =       0.3000
     number of iterations used =            8  plain     mixing
     Exchange-correlation= PBE
                           (   1   4   3   4   0   0   0)

     celldm(1)=   4.751359  celldm(2)=   0.000000  celldm(3)=   0.000000
     celldm(4)=   0.000000  celldm(5)=   0.000000  celldm(6)=   0.000000

     crystal axes: (cart. coord. in units of alat)
               a(1) = (   1.000000   0.000000   0.000000 )  
               a(2) = (   0.000000  -1.414214   0.000000 )  
               a(3) = (   0.000000   0.000000   8.832378 )  

     reciprocal axes: (cart. coord. in units 2 pi/alat)
               b(1) = (  1.000000 -0.000000 -0.000000 )  
               b(2) = ( -0.000000 -0.707107 -0.000000 )  
               b(3) = ( -0.000000 -0.000000  0.113220 )  


     PseudoPot. # 1 for C  read from file:
     ./C.pbe-n-kjpaw_psl.1.0.0.UPF
     MD5 check sum: 5d2aebdfa2cae82b50a7e79e9516da0f
     Pseudo is Projector augmented-wave + core cor, Zval =  4.0
     Generated using "atomic" code by A. Dal Corso  v.5.1
     Shape of augmentation charge: PSQ
     Using radial grid of 1073 points,  4 beta functions with: 
                l(1) =   0
                l(2) =   0
                l(3) =   1
                l(4) =   1
     Q(r) pseudized with 0 coefficients 


     PseudoPot. # 2 for H  read from file:
     ./H_ONCV_PBE-1.0.oncvpsp.upf
     MD5 check sum: 1790becc920ee074925cf490c71280fe
     Pseudo is Norm-conserving, Zval =  1.0
     Generated using ONCVPSP code by D. R. Hamann
     Using radial grid of 1166 points,  2 beta functions with: 
                l(1) =   0
                l(2) =   0

     atomic species   valence    mass     pseudopotential
     C                 4.00    12.01100     C ( 1.00)
     H                 1.00     1.00800     H ( 1.00)

      4 Sym. Ops. (no inversion) found ( 2 have fractional translation)



   Cartesian axes

     site n.     atom                  positions (alat units)
         1        C      tau(   1) = (   0.0000000  -0.3611383   5.4828275  )
         2        C      tau(   2) = (   0.5000000  -0.6995219   5.4828275  )
         3        C      tau(   3) = (   0.0000000   0.0012652   4.9916216  )
         4        C      tau(   4) = (   0.5000000  -1.0619254   4.9916216  )
         5        C      tau(   5) = (   0.0000000  -0.3539405   4.4879108  )
         6        C      tau(   6) = (   0.5000000  -0.7067197   4.4879108  )
         7        C      tau(   7) = (   0.0000000   0.0025088   3.9865528  )
         8        C      tau(   8) = (   0.5000000  -1.0631689   3.9865528  )
         9        C      tau(   9) = (   0.0000000  -0.3535534   3.4854370  )
        10        C      tau(  10) = (   0.5000000  -0.7071068   3.4854370  )
        11        C      tau(  11) = (   0.0000000   0.0000000   2.9829245  )
        12        C      tau(  12) = (   0.5000000  -1.0606602   2.9829245  )
        13        H      tau(  13) = (   0.0000000  -0.1241579   5.8491451  )
        14        H      tau(  14) = (   0.5000000  -0.9365023   5.8491451  )

     number of k points=    20  Marzari-Vanderbilt smearing, width (Ry)=  0.0100
                       cart. coord. in units 2pi/alat
        k(    1) = (   0.0000000  -0.0000000   0.0000000), wk =   0.0317460
        k(    2) = (   0.0000000  -0.1010153   0.0000000), wk =   0.0634921
        k(    3) = (   0.0000000  -0.2020305   0.0000000), wk =   0.0634921
        k(    4) = (   0.0000000  -0.3030458   0.0000000), wk =   0.0634921
        k(    5) = (   0.1111111  -0.0000000   0.0000000), wk =   0.0634921
        k(    6) = (   0.1111111  -0.1010153   0.0000000), wk =   0.1269841
        k(    7) = (   0.1111111  -0.2020305   0.0000000), wk =   0.1269841
        k(    8) = (   0.1111111  -0.3030458   0.0000000), wk =   0.1269841
        k(    9) = (   0.2222222  -0.0000000   0.0000000), wk =   0.0634921
        k(   10) = (   0.2222222  -0.1010153   0.0000000), wk =   0.1269841
        k(   11) = (   0.2222222  -0.2020305   0.0000000), wk =   0.1269841
        k(   12) = (   0.2222222  -0.3030458   0.0000000), wk =   0.1269841
        k(   13) = (   0.3333333  -0.0000000   0.0000000), wk =   0.0634921
        k(   14) = (   0.3333333  -0.1010153   0.0000000), wk =   0.1269841
        k(   15) = (   0.3333333  -0.2020305   0.0000000), wk =   0.1269841
        k(   16) = (   0.3333333  -0.3030458   0.0000000), wk =   0.1269841
        k(   17) = (   0.4444444  -0.0000000   0.0000000), wk =   0.0634921
        k(   18) = (   0.4444444  -0.1010153   0.0000000), wk =   0.1269841
        k(   19) = (   0.4444444  -0.2020305   0.0000000), wk =   0.1269841
        k(   20) = (   0.4444444  -0.3030458   0.0000000), wk =   0.1269841

     Dense  grid:   366117 G-vectors     FFT dimensions: (  40,  60, 360)

     Smooth grid:   129643 G-vectors     FFT dimensions: (  30,  40, 240)

     Estimated max dynamical RAM per process >     835.38 MB

     Initial potential from superposition of free atoms

     starting charge      49.9995, renormalised to      50.0000

     negative rho (up, down):  6.182E-05 0.000E+00
     Starting wfcs are   50 randomized atomic wfcs

     total cpu time spent up to now is        4.0 secs

     Self-consistent Calculation

     iteration #  1     ecut=    80.00 Ry     beta= 0.30
     Davidson diagonalization with overlap
     ethr =  1.00E-02,  avg # of iterations =  2.6

     negative rho (up, down):  5.950E-05 0.000E+00

     total cpu time spent up to now is       12.2 secs

     total energy              =    -223.36500728 Ry
     estimated scf accuracy    <       0.92639186 Ry

     iteration #  2     ecut=    80.00 Ry     beta= 0.30
     Davidson diagonalization with overlap
     ethr =  1.85E-03,  avg # of iterations =  3.7

     negative rho (up, down):  6.870E-05 0.000E+00

     total cpu time spent up to now is       18.9 secs

     total energy              =    -223.27998717 Ry
     estimated scf accuracy    <       0.31806239 Ry

     iteration #  3     ecut=    80.00 Ry     beta= 0.30
     Davidson diagonalization with overlap
     ethr =  6.36E-04,  avg # of iterations =  7.2

     negative rho (up, down):  7.096E-05 0.000E+00

     total cpu time spent up to now is       27.3 secs

     total energy              =    -223.29412707 Ry
     estimated scf accuracy    <       0.04591768 Ry

     iteration #  4     ecut=    80.00 Ry     beta= 0.30
     Davidson diagonalization with overlap
     ethr =  9.18E-05,  avg # of iterations =  8.0

     negative rho (up, down):  7.296E-05 0.000E+00

     total cpu time spent up to now is       36.0 secs

     total energy              =    -223.29655088 Ry
     estimated scf accuracy    <       0.00840969 Ry

     iteration #  5     ecut=    80.00 Ry     beta= 0.30
     Davidson diagonalization with overlap
     ethr =  1.68E-05,  avg # of iterations =  8.7

     negative rho (up, down):  7.403E-05 0.000E+00

     total cpu time spent up to now is       45.0 secs

     total energy              =    -223.29773762 Ry
     estimated scf accuracy    <       0.00091593 Ry

     iteration #  6     ecut=    80.00 Ry     beta= 0.30
     Davidson diagonalization with overlap
     ethr =  1.83E-06,  avg # of iterations =  7.2

     negative rho (up, down):  7.383E-05 0.000E+00

     total cpu time spent up to now is       54.5 secs

     total energy              =    -223.29781702 Ry
     estimated scf accuracy    <       0.00021157 Ry

     iteration #  7     ecut=    80.00 Ry     beta= 0.30
     Davidson diagonalization with overlap
     ethr =  4.23E-07,  avg # of iterations =  3.1

     negative rho (up, down):  7.397E-05 0.000E+00

     total cpu time spent up to now is       61.8 secs

     total energy              =    -223.29785187 Ry
     estimated scf accuracy    <       0.00003366 Ry

     iteration #  8     ecut=    80.00 Ry     beta= 0.30
     Davidson diagonalization with overlap
     ethr =  6.73E-08,  avg # of iterations =  2.4

     negative rho (up, down):  7.360E-05 0.000E+00

     total cpu time spent up to now is       68.8 secs

     total energy              =    -223.29785559 Ry
     estimated scf accuracy    <       0.00000967 Ry

     iteration #  9     ecut=    80.00 Ry     beta= 0.30
     Davidson diagonalization with overlap
     ethr =  1.93E-08,  avg # of iterations =  2.1

     negative rho (up, down):  7.343E-05 0.000E+00

     total cpu time spent up to now is       75.9 secs

     total energy              =    -223.29785785 Ry
     estimated scf accuracy    <       0.00000076 Ry

     iteration # 10     ecut=    80.00 Ry     beta= 0.30
     Davidson diagonalization with overlap
     ethr =  1.52E-09,  avg # of iterations =  3.3

     negative rho (up, down):  7.336E-05 0.000E+00

     total cpu time spent up to now is       83.4 secs

     total energy              =    -223.29785799 Ry
     estimated scf accuracy    <       0.00000018 Ry

     iteration # 11     ecut=    80.00 Ry     beta= 0.30
     Davidson diagonalization with overlap
     ethr =  3.52E-10,  avg # of iterations =  2.9

     negative rho (up, down):  7.329E-05 0.000E+00

     total cpu time spent up to now is       91.1 secs

     total energy              =    -223.29785803 Ry
     estimated scf accuracy    <       0.00000008 Ry

     iteration # 12     ecut=    80.00 Ry     beta= 0.30
     Davidson diagonalization with overlap
     ethr =  1.66E-10,  avg # of iterations =  2.0

     negative rho (up, down):  7.326E-05 0.000E+00

     total cpu time spent up to now is       97.7 secs

     End of self-consistent calculation

          k = 0.0000-0.0000 0.0000 ( 16261 PWs)   bands (ev):

   -19.5213 -18.2045 -16.2545 -13.9182 -11.7454 -10.9697 -10.7753  -9.5884
    -7.8401  -7.7376  -6.7643  -5.9544  -5.3958  -4.6434  -4.4008  -3.3732
    -2.9012  -2.6924  -1.9639  -0.5634  -0.4917   0.1051   0.7702   1.4592
     1.6558   3.9164   4.1144   6.0185   6.7736   6.8671

          k = 0.0000-0.1010 0.0000 ( 16221 PWs)   bands (ev):

   -19.3332 -18.0219 -16.0893 -13.8512 -13.0712 -12.2272 -10.0076  -9.1508
    -8.6160  -6.9853  -6.6297  -5.8100  -4.8307  -4.4245  -4.2247  -3.2252
    -3.0466  -2.2891  -1.8805  -0.5537  -0.5332  -0.0535   0.4422   0.9712
     1.7416   3.6662   4.1309   6.2302   6.7677   7.0999

          k = 0.0000-0.2020 0.0000 ( 16197 PWs)   bands (ev):

   -18.7716 -17.4797 -15.6199 -14.9393 -14.0645 -13.3499 -10.5724  -9.7438
    -8.2050  -7.1765  -5.7244  -5.0496  -4.0999  -3.7041  -3.7002  -2.7966
    -2.4504  -2.0639  -1.6609  -0.7905  -0.6962  -0.5268  -0.1335   0.1473
     1.6727   2.9299   4.7397   6.6797   7.1707   7.6168

          k = 0.0000-0.3030 0.0000 ( 16151 PWs)   bands (ev):

   -17.8453 -16.6781 -16.4717 -15.4029 -14.8618 -13.7939 -10.8994 -10.2051
    -8.3105  -7.4397  -5.3879  -4.4390  -3.2627  -2.8664  -2.5518  -2.1524
    -2.0033  -1.7465  -1.4558  -1.4523  -1.3103  -1.1513  -0.7622  -0.3735
     1.6882   2.3725   5.6506   6.8205   7.2028   7.9985

          k = 0.1111-0.0000 0.0000 ( 16221 PWs)   bands (ev):

   -19.2930 -17.9789 -16.0332 -13.7035 -11.5411 -10.7684 -10.7038  -9.5277
    -7.6933  -7.6420  -6.5786  -5.7804  -5.4346  -5.3757  -4.5067  -4.3663
    -2.9184  -2.8468  -2.7068  -1.4292  -0.7337  -0.2298   0.0155   0.4086
     1.2699   4.1217   4.1636   6.2809   7.0584   7.5058

          k = 0.1111-0.1010 0.0000 ( 16197 PWs)   bands (ev):

   -19.1055 -17.7970 -15.8690 -13.6391 -12.8848 -12.0346  -9.8569  -9.0224
    -8.5497  -6.8961  -6.5302  -5.7536  -5.1634  -4.8185  -4.3310  -4.1118
    -3.0329  -2.7597  -2.3616  -1.5004  -0.9381  -0.5589  -0.2404   0.1296
     1.5700   3.7604   4.3598   6.5256   7.3539   7.6538

          k = 0.1111-0.2020 0.0000 ( 16186 PWs)   bands (ev):

   -18.5455 -17.2570 -15.4029 -14.7333 -13.8621 -13.1440 -10.3853  -9.5542
    -8.0525  -7.1013  -5.9270  -5.0601  -4.6194  -4.3038  -3.6836  -3.1742
    -2.8871  -2.3217  -2.0562  -2.0044  -1.8136  -1.1957  -0.4786   0.1030
     1.6503   3.0752   5.0026   7.1840   7.8774   8.0453

          k = 0.1111-0.3030 0.0000 ( 16176 PWs)   bands (ev):

   -17.6225 -16.4598 -16.2547 -15.1908 -14.6522 -13.5865 -10.6977 -10.0073
    -8.1350  -7.2697  -5.3992  -4.5168  -4.2692  -3.6239  -3.3207  -2.7164
    -2.6828  -2.4593  -2.1487  -1.8797  -1.6913  -1.1127  -0.8480  -0.6250
     1.8407   2.4360   5.9630   7.2787   7.9722   8.5255

          k = 0.2222-0.0000 0.0000 ( 16187 PWs)   bands (ev):

   -18.6115 -17.3057 -15.3729 -13.0628 -10.9302 -10.8067 -10.1665  -9.6467
    -7.8419  -7.1516  -7.0681  -6.0519  -6.0485  -5.5675  -5.2879  -4.5786
    -4.1559  -3.1819  -2.9531  -2.8331  -2.1742  -1.6951  -1.5747  -0.2915
     0.6557   3.9587   4.7887   6.7323   7.1134   7.4039

          k = 0.2222-0.1010 0.0000 ( 16185 PWs)   bands (ev):

   -18.4257 -17.1260 -15.2118 -13.0072 -12.3874 -11.4912  -9.6127  -9.0832
    -8.5425  -7.1895  -6.6665  -6.1939  -5.7662  -5.3621  -4.8203  -4.1626
    -3.9125  -3.4361  -3.1332  -3.0300  -2.6918  -1.9950  -0.8463  -0.6361
     1.0118   3.6442   5.0455   7.2659   7.4945   7.6825

          k = 0.2222-0.2020 0.0000 ( 16169 PWs)   bands (ev):

   -17.8714 -16.5930 -14.7563 -14.1365 -13.2678 -12.5367  -9.8846  -9.0645
    -8.2115  -7.5690  -6.7039  -6.0020  -5.2605  -4.7985  -4.4664  -4.2490
    -3.7889  -3.4478  -3.2525  -3.0815  -2.5626  -2.0510  -1.0914  -0.4530
     1.4848   3.0417   5.7115   8.0458   8.5319   8.7278

          k = 0.2222-0.3030 0.0000 ( 16161 PWs)   bands (ev):

   -16.9597 -15.8119 -15.6118 -14.5638 -14.0291 -12.9704 -10.1280  -9.4451
    -7.7504  -7.1763  -6.7578  -5.9585  -5.8298  -4.9719  -4.7374  -4.3081
    -3.8636  -3.6019  -2.4863  -2.1488  -2.0918  -1.9426  -1.1262  -0.9291
     1.9137   2.4664   6.6365   8.0349   9.1579   9.3830

          k = 0.3333-0.0000 0.0000 ( 16192 PWs)   bands (ev):

   -17.4883 -16.1971 -14.2859 -12.0763 -12.0075 -10.8816  -9.9199  -9.1704
    -9.0712  -7.4742  -6.8703  -6.4442  -6.1928  -5.3010  -5.1343  -4.7393
    -4.6069  -4.1024  -3.9292  -3.8275  -3.2326  -3.1111  -2.8665  -0.9559
     0.6396   3.3180   5.8073   6.6584   6.8674   8.4600

          k = 0.3333-0.1010 0.0000 ( 16214 PWs)   bands (ev):

   -17.3062 -16.0219 -14.1311 -12.2963 -11.9761 -11.1165 -10.2109  -9.7178
    -9.0908  -7.4244  -6.9576  -6.4928  -6.0479  -5.5106  -5.1048  -4.9531
    -4.6549  -4.3300  -3.9867  -3.6915  -3.0375  -2.9391  -2.1702  -1.1573
     0.8733   3.1667   6.1065   7.0998   7.3104   8.1599

          k = 0.3333-0.2020 0.0000 ( 16193 PWs)   bands (ev):

   -16.7646 -15.5042 -13.6985 -13.3139 -12.3825 -11.5961 -10.2918  -9.6706
    -9.1189  -7.9238  -7.1133  -7.0281  -6.8255  -6.1978  -5.3015  -5.1865
    -4.1686  -3.7628  -3.5978  -3.3470  -2.8235  -2.6467  -1.6270  -1.3381
     1.3964   2.8088   6.7348   8.0699   8.3148   8.9594

          k = 0.3333-0.3030 0.0000 ( 16162 PWs)   bands (ev):

   -15.8814 -14.7723 -14.5832 -13.5694 -13.0167 -11.9766  -9.6002  -9.4637
    -8.8269  -8.4950  -8.3512  -7.4597  -6.6905  -6.4778  -5.9105  -5.5646
    -3.8670  -3.6190  -3.3544  -3.0404  -2.2001  -2.0878  -1.7970  -1.2880
     1.8875   2.4468   7.4089   8.8537   9.1881   9.5577

          k = 0.4444-0.0000 0.0000 ( 16248 PWs)   bands (ev):

   -15.9508 -14.6814 -14.0693 -12.8310 -12.8007 -10.9873 -10.5627  -8.7865
    -8.5243  -7.7933  -6.7754  -6.4879  -6.0631  -5.6574  -5.2043  -4.9645
    -4.7876  -4.6964  -4.4387  -4.3717  -4.0477  -3.4839  -2.8811  -1.9123
     1.2885   2.3166   6.4871   7.0717   7.4413   7.6595

          k = 0.4444-0.1010 0.0000 ( 16234 PWs)   bands (ev):

   -15.7780 -14.5170 -13.9347 -12.7110 -12.6564 -10.9032 -10.4857  -9.3067
    -8.7763  -8.7154  -7.5891  -7.0287  -6.3387  -5.6808  -5.0868  -5.0245
    -4.6162  -4.3989  -4.1553  -3.9145  -3.6277  -3.3911  -2.7194  -1.9347
     1.4278   2.3331   6.9931   7.1275   7.5656   7.9080

          k = 0.4444-0.2020 0.0000 ( 16201 PWs)   bands (ev):

   -15.2722 -14.0398 -13.6266 -12.4528 -12.2522 -10.7772 -10.7620 -10.3313
    -9.5809  -9.1840  -8.9057  -8.0675  -6.7676  -6.2109  -5.5807  -4.9160
    -4.7443  -4.0818  -3.7968  -3.2481  -3.1087  -2.5695  -2.2542  -1.9852
     1.7453   2.3396   7.5893   7.9389   8.4247   8.7398

          k = 0.4444-0.3030 0.0000 ( 16187 PWs)   bands (ev):

   -14.4932 -13.7122 -13.3041 -12.5705 -11.7181 -11.3198 -10.8829 -10.5750
   -10.3324  -9.6964  -9.4914  -8.6881  -6.9927  -6.5983  -5.7424  -5.2094
    -4.8699  -4.3085  -3.5464  -3.0982  -2.5541  -2.2615  -1.8672  -1.7009
     2.0249   2.2898   8.0467   8.6813   9.6373   9.9029

     the Fermi energy is     2.0915 ev

!    total energy              =    -223.29785804 Ry
     estimated scf accuracy    <          7.1E-09 Ry
     smearing contrib. (-TS)   =       0.00051674 Ry
     internal energy E=F+TS    =    -223.29837478 Ry

     The total energy is F=E-TS. E is the sum of the following terms:
     one-electron contribution =   -2809.06319058 Ry
     hartree contribution      =    1421.77661646 Ry
     xc contribution           =     -57.34096761 Ry
     ewald contribution        =    1295.29362549 Ry
     one-center paw contrib.   =     -73.96445855 Ry

     convergence has been achieved in  12 iterations

     negative rho (up, down):  7.326E-05 0.000E+00

     Forces acting on atoms (cartesian axes, Ry/au):

     atom    1 type  1   force =     0.00000000    0.00251622    0.00010897
     atom    2 type  1   force =     0.00000000   -0.00251622    0.00010897
     atom    3 type  1   force =     0.00000000   -0.00099340   -0.00026911
     atom    4 type  1   force =     0.00000000    0.00099340   -0.00026911
     atom    5 type  1   force =    -0.00000000    0.00090438    0.00013474
     atom    6 type  1   force =     0.00000000   -0.00090438    0.00013474
     atom    7 type  1   force =     0.00000000   -0.00156538    0.00047229
     atom    8 type  1   force =     0.00000000    0.00156538    0.00047229
     atom    9 type  1   force =     0.00000000   -0.04485599   -0.04651672
     atom   10 type  1   force =     0.00000000    0.04485599   -0.04651672
     atom   11 type  1   force =     0.00000000    0.16673345    0.04498121
     atom   12 type  1   force =     0.00000000   -0.16673345    0.04498121
     atom   13 type  2   force =     0.00000000    0.00199073    0.00108862
     atom   14 type  2   force =    -0.00000000   -0.00199073    0.00108862

     Total force =     0.005667     Total SCF correction =     0.000150


     Computing stress (Cartesian axis) and pressure


     negative rho (up, down):  7.326E-05 0.000E+00
          total   stress  (Ry/bohr**3)                   (kbar)     P=        0.73
   0.00000291   0.00000000   0.00000000            0.43        0.00        0.00
   0.00000000   0.00015656   0.00000000            0.00       23.03        0.00
   0.00000000   0.00000000  -0.00014466            0.00        0.00      -21.28


     Writing all to output data dir ./tmp/slab.save/ :
     XML data file, charge density, pseudopotentials, collected wavefunctions

     init_run     :      3.78s CPU      4.01s WALL (       1 calls)
     electrons    :     85.45s CPU     93.71s WALL (       1 calls)
     forces       :      0.93s CPU      1.07s WALL (       1 calls)
     stress       :      2.75s CPU      3.26s WALL (       1 calls)

     Called by init_run:
     wfcinit      :      3.21s CPU      3.39s WALL (       1 calls)
     potinit      :      0.30s CPU      0.32s WALL (       1 calls)
     hinit0       :      0.14s CPU      0.15s WALL (       1 calls)

     Called by electrons:
     c_bands      :     70.32s CPU     77.48s WALL (      12 calls)
     sum_band     :     10.82s CPU     11.39s WALL (      12 calls)
     v_of_rho     :      1.61s CPU      1.73s WALL (      13 calls)
     newd         :      0.85s CPU      1.07s WALL (      13 calls)
     PAW_pot      :      1.81s CPU      2.00s WALL (      13 calls)
     mix_rho      :      0.21s CPU      0.25s WALL (      12 calls)

     Called by c_bands:
     init_us_2    :      1.01s CPU      1.19s WALL (     540 calls)
     cegterg      :     68.35s CPU     75.40s WALL (     240 calls)

     Called by *egterg:
     cdiaghg      :      0.73s CPU      0.73s WALL (    1302 calls)
     h_psi        :     53.44s CPU     56.64s WALL (    1322 calls)
     s_psi        :      4.95s CPU      5.77s WALL (    1322 calls)
     g_psi        :      0.22s CPU      0.22s WALL (    1062 calls)

     Called by h_psi:
     h_psi:calbec :      4.73s CPU      5.90s WALL (    1322 calls)
     vloc_psi     :     42.73s CPU     43.49s WALL (    1322 calls)
                                        0.00s GPU  (    1322 calls)
     add_vuspsi   :      5.80s CPU      6.94s WALL (    1322 calls)

     General routines
     calbec       :      7.69s CPU      9.49s WALL (    1902 calls)
     fft          :      1.19s CPU      1.20s WALL (     192 calls)
     ffts         :      0.04s CPU      0.04s WALL (      25 calls)
     fftw         :     45.56s CPU     45.69s WALL (   47076 calls)
     interpolate  :      0.12s CPU      0.13s WALL (      13 calls)


     PWSCF        :   1m32.96s CPU   1m42.13s WALL


   This run was terminated on:  11:52:31  23Jun2026            

=------------------------------------------------------------------------------=
   JOB DONE.
=------------------------------------------------------------------------------=
Note: The following floating-point exceptions are signalling: IEEE_INVALID_FLAG IEEE_DIVIDE_BY_ZERO IEEE_OVERFLOW_FLAG IEEE_UNDERFLOW_FLAG
