
     Program PWSCF v.7.5 starts on  7Jul2026 at 14:46:23 

     This program is part of the open-source Quantum ESPRESSO suite
     for quantum simulation of materials; please cite
         "P. Giannozzi et al., J. Phys.:Condens. Matter 21 395502 (2009);
         "P. Giannozzi et al., J. Phys.:Condens. Matter 29 465901 (2017);
         "P. Giannozzi et al., J. Chem. Phys. 152 154105 (2020);
          URL http://www.quantum-espresso.org", 
     in publications or presentations arising from this work. More details at
     http://www.quantum-espresso.org/quote

     Serial version
     0 MiB available memory on the printing compute node when the environment starts

     Waiting for input...
     Reading input from standard input

     Current dimensions of program PWSCF are:
     Max number of different atomic species (ntypx) = 10
     Max number of k-points (npk) =  40000
     Max angular momentum in pseudopotentials (lmaxx) =  4
     file C.pbe-n-kjpaw_psl.1.0.0.UPF: wavefunction(s)  2S 2P renormalized
     Message from routine volume:
     axis vectors are left-handed
     Found identity + (  0.5000  0.0000  0.0000) symmetry
     This is a supercell, fractional translations are disabled
     Message from routine setup:
     using ibrav=0 with symmetry is DISCOURAGED, use correct ibrav instead


     G-vector sticks info
     --------------------
     sticks:   dense  smooth     PW     G-vecs:    dense   smooth      PW
     Sum        3447    1729    481               439265   155427   22407

     Using Slab Decomposition



     bravais-lattice index     =            0
     lattice parameter (alat)  =       9.5505  a.u.
     unit-cell volume          =    2474.5178 (a.u.)^3
     number of atoms/cell      =           32
     number of atomic types    =            2
     number of electrons       =       104.00
     number of Kohn-Sham states=           62
     kinetic-energy cutoff     =      60.0000  Ry
     charge density cutoff     =     480.0000  Ry
     scf convergence threshold =      1.0E-08
     mixing beta               =       0.3000
     number of iterations used =            8  plain     mixing
     Exchange-correlation= PBE
                           (   1   4   3   4   0   0   0)

     celldm(1)=   9.550471  celldm(2)=   0.000000  celldm(3)=   0.000000
     celldm(4)=   0.000000  celldm(5)=   0.000000  celldm(6)=   0.000000

     crystal axes: (cart. coord. in units of alat)
               a(1) = (   1.000000   0.000000   0.000000 )  
               a(2) = (   0.000000  -0.990000   0.000000 )  
               a(3) = (   0.000000   0.000000   2.869333 )  

     reciprocal axes: (cart. coord. in units 2 pi/alat)
               b(1) = (  1.000000 -0.000000 -0.000000 )  
               b(2) = ( -0.000000 -1.010101 -0.000000 )  
               b(3) = ( -0.000000 -0.000000  0.348513 )  


     PseudoPot. # 1 for C  read from file:
     ./C.pbe-n-kjpaw_psl.1.0.0.UPF
     MD5 check sum: 5d2aebdfa2cae82b50a7e79e9516da0f
     Pseudo is Projector augmented-wave + core cor, Zval =  4.0
     Generated using "atomic" code by A. Dal Corso  v.5.1
     Shape of augmentation charge: PSQ
     Using radial grid of 1073 points,  4 beta functions with: 
                l(1) =   0
                l(2) =   0
                l(3) =   1
                l(4) =   1
     Q(r) pseudized with 0 coefficients 


     PseudoPot. # 2 for H  read from file:
     ./H_ONCV_PBE-1.0.oncvpsp.upf
     MD5 check sum: 1790becc920ee074925cf490c71280fe
     Pseudo is Norm-conserving, Zval =  1.0
     Generated using ONCVPSP code by D. R. Hamann
     Using radial grid of 1166 points,  2 beta functions with: 
                l(1) =   0
                l(2) =   0

     atomic species   valence    mass     pseudopotential
     C                 4.00    12.01100     C ( 1.00)
     H                 1.00     1.00800     H ( 1.00)

      4 Sym. Ops. (no inversion) found



   Cartesian axes

     site n.     atom                  positions (alat units)
         1        C      tau(   1) = (   0.0000000  -0.1566267   1.8592812  )
         2        C      tau(   2) = (   0.2500000  -0.2276157   1.6998931  )
         3        C      tau(   3) = (   0.2500000   0.0000000   1.4936626  )
         4        C      tau(   4) = (   0.0000000   0.0000000   1.3178300  )
         5        C      tau(   5) = (   0.0000000  -0.2673843   1.1694404  )
         6        C      tau(   6) = (   0.2500000  -0.3383733   1.0100523  )
         7        C      tau(   7) = (   0.0000000  -0.8333733   1.8592812  )
         8        C      tau(   8) = (   0.2500000  -0.7623843   1.6998931  )
         9        C      tau(   9) = (   0.2500000  -0.4950000   1.5515034  )
        10        C      tau(  10) = (   0.0000000  -0.4950000   1.3756708  )
        11        C      tau(  11) = (   0.0000000  -0.7226157   1.1694404  )
        12        C      tau(  12) = (   0.2500000  -0.6516266   1.0100523  )
        13        H      tau(  13) = (   0.0000000  -0.2424590   2.0590044  )
        14        H      tau(  14) = (   0.0000000  -0.7475410   2.0590044  )
        15        H      tau(  15) = (   0.2500000  -0.2525410   0.8103291  )
        16        H      tau(  16) = (   0.2500000  -0.7374590   0.8103291  )
        17        C      tau(  17) = (   0.5000000  -0.1566267   1.8592812  )
        18        C      tau(  18) = (   0.7500000  -0.2276157   1.6998931  )
        19        C      tau(  19) = (   0.7500000   0.0000000   1.4936626  )
        20        C      tau(  20) = (   0.5000000   0.0000000   1.3178300  )
        21        C      tau(  21) = (   0.5000000  -0.2673843   1.1694404  )
        22        C      tau(  22) = (   0.7500000  -0.3383733   1.0100523  )
        23        C      tau(  23) = (   0.5000000  -0.8333733   1.8592812  )
        24        C      tau(  24) = (   0.7500000  -0.7623843   1.6998931  )
        25        C      tau(  25) = (   0.7500000  -0.4950000   1.5515034  )
        26        C      tau(  26) = (   0.5000000  -0.4950000   1.3756708  )
        27        C      tau(  27) = (   0.5000000  -0.7226157   1.1694404  )
        28        C      tau(  28) = (   0.7500000  -0.6516266   1.0100523  )
        29        H      tau(  29) = (   0.5000000  -0.2424590   2.0590044  )
        30        H      tau(  30) = (   0.5000000  -0.7475410   2.0590044  )
        31        H      tau(  31) = (   0.7500000  -0.2525410   0.8103291  )
        32        H      tau(  32) = (   0.7500000  -0.7374590   0.8103291  )

     number of k points=     9  Marzari-Vanderbilt smearing, width (Ry)=  0.0100
                       cart. coord. in units 2pi/alat
        k(    1) = (   0.0000000  -0.0000000   0.0000000), wk =   0.0800000
        k(    2) = (   0.0000000  -0.2020202   0.0000000), wk =   0.1600000
        k(    3) = (   0.0000000  -0.4040404   0.0000000), wk =   0.1600000
        k(    4) = (   0.2000000  -0.0000000   0.0000000), wk =   0.1600000
        k(    5) = (   0.2000000  -0.2020202   0.0000000), wk =   0.3200000
        k(    6) = (   0.2000000  -0.4040404   0.0000000), wk =   0.3200000
        k(    7) = (   0.4000000  -0.0000000   0.0000000), wk =   0.1600000
        k(    8) = (   0.4000000  -0.2020202   0.0000000), wk =   0.3200000
        k(    9) = (   0.4000000  -0.4040404   0.0000000), wk =   0.3200000

     Dense  grid:   439265 G-vectors     FFT dimensions: (  72,  72, 192)

     Smooth grid:   155427 G-vectors     FFT dimensions: (  48,  48, 135)

     Estimated max dynamical RAM per process >       1.24 GB

     Check: negative core charge=   -0.000002

     Initial potential from superposition of free atoms

     starting charge     103.9989, renormalised to     104.0000

     negative rho (up, down):  4.672E-06 0.000E+00
     Starting wfcs are  104 randomized atomic wfcs

     total cpu time spent up to now is        4.7 secs

     Self-consistent Calculation

     iteration #  1     ecut=    60.00 Ry     beta= 0.30
     Davidson diagonalization with overlap
     ethr =  1.00E-02,  avg # of iterations =  3.0

     negative rho (up, down):  1.449E-05 0.000E+00

     total cpu time spent up to now is       14.7 secs

     total energy              =    -451.91029551 Ry
     estimated scf accuracy    <       2.51007662 Ry

     iteration #  2     ecut=    60.00 Ry     beta= 0.30
     Davidson diagonalization with overlap
     ethr =  2.41E-03,  avg # of iterations =  3.8

     negative rho (up, down):  4.711E-05 0.000E+00

     total cpu time spent up to now is       23.1 secs

     total energy              =    -451.75546394 Ry
     estimated scf accuracy    <       0.73074783 Ry

     iteration #  3     ecut=    60.00 Ry     beta= 0.30
     Davidson diagonalization with overlap
     ethr =  7.03E-04,  avg # of iterations =  7.3

     negative rho (up, down):  6.658E-05 0.000E+00

     total cpu time spent up to now is       34.3 secs

     total energy              =    -451.77994287 Ry
     estimated scf accuracy    <       0.10970548 Ry

     iteration #  4     ecut=    60.00 Ry     beta= 0.30
     Davidson diagonalization with overlap
     ethr =  1.05E-04,  avg # of iterations =  4.4

     negative rho (up, down):  8.484E-05 0.000E+00

     total cpu time spent up to now is       43.2 secs

     total energy              =    -451.78866663 Ry
     estimated scf accuracy    <       0.01059930 Ry

     iteration #  5     ecut=    60.00 Ry     beta= 0.30
     Davidson diagonalization with overlap
     ethr =  1.02E-05,  avg # of iterations =  6.9

     negative rho (up, down):  7.112E-05 0.000E+00

     total cpu time spent up to now is       54.8 secs

     total energy              =    -451.79034625 Ry
     estimated scf accuracy    <       0.00260044 Ry

     iteration #  6     ecut=    60.00 Ry     beta= 0.30
     Davidson diagonalization with overlap
     ethr =  2.50E-06,  avg # of iterations =  9.2

     negative rho (up, down):  7.226E-05 0.000E+00

     total cpu time spent up to now is       67.3 secs

     total energy              =    -451.79076864 Ry
     estimated scf accuracy    <       0.00029885 Ry

     iteration #  7     ecut=    60.00 Ry     beta= 0.30
     Davidson diagonalization with overlap
     ethr =  2.87E-07,  avg # of iterations =  2.4

     negative rho (up, down):  7.126E-05 0.000E+00

     total cpu time spent up to now is       75.8 secs

     total energy              =    -451.79080799 Ry
     estimated scf accuracy    <       0.00003048 Ry

     iteration #  8     ecut=    60.00 Ry     beta= 0.30
     Davidson diagonalization with overlap
     ethr =  2.93E-08,  avg # of iterations =  3.4

     negative rho (up, down):  7.070E-05 0.000E+00

     total cpu time spent up to now is       84.9 secs

     total energy              =    -451.79081177 Ry
     estimated scf accuracy    <       0.00001648 Ry

     iteration #  9     ecut=    60.00 Ry     beta= 0.30
     Davidson diagonalization with overlap
     ethr =  1.58E-08,  avg # of iterations =  2.0

     negative rho (up, down):  7.063E-05 0.000E+00

     total cpu time spent up to now is       93.2 secs

     total energy              =    -451.79081563 Ry
     estimated scf accuracy    <       0.00000178 Ry

     iteration # 10     ecut=    60.00 Ry     beta= 0.30
     Davidson diagonalization with overlap
     ethr =  1.71E-09,  avg # of iterations =  3.4

     negative rho (up, down):  7.056E-05 0.000E+00

     total cpu time spent up to now is      102.9 secs

     total energy              =    -451.79081569 Ry
     estimated scf accuracy    <       0.00000092 Ry

     iteration # 11     ecut=    60.00 Ry     beta= 0.30
     Davidson diagonalization with overlap
     ethr =  8.81E-10,  avg # of iterations =  2.9

     negative rho (up, down):  7.066E-05 0.000E+00

     total cpu time spent up to now is      112.0 secs

     total energy              =    -451.79081596 Ry
     estimated scf accuracy    <       0.00000005 Ry

     iteration # 12     ecut=    60.00 Ry     beta= 0.30
     Davidson diagonalization with overlap
     ethr =  5.20E-11,  avg # of iterations =  2.0

     negative rho (up, down):  7.077E-05 0.000E+00

     total cpu time spent up to now is      119.9 secs

     total energy              =    -451.79081595 Ry
     estimated scf accuracy    <       0.00000002 Ry

     iteration # 13     ecut=    60.00 Ry     beta= 0.30
     Davidson diagonalization with overlap
     ethr =  1.86E-11,  avg # of iterations =  4.8

     negative rho (up, down):  7.085E-05 0.000E+00

     total cpu time spent up to now is      131.8 secs

     total energy              =    -451.79081596 Ry
     estimated scf accuracy    <       0.00000007 Ry

     iteration # 14     ecut=    60.00 Ry     beta= 0.30
     Davidson diagonalization with overlap
     ethr =  1.86E-11,  avg # of iterations =  3.3

     negative rho (up, down):  7.112E-05 0.000E+00

     total cpu time spent up to now is      142.0 secs

     End of self-consistent calculation

          k = 0.0000-0.0000 0.0000 ( 19443 PWs)   bands (ev):

   -17.7671 -16.0696 -13.4213 -13.4213 -13.0882 -12.9680 -12.7862 -11.7301
   -11.5880 -11.5880  -9.2439  -9.2439  -9.0744  -8.7796  -8.7796  -8.7008
    -8.1282  -8.1282  -7.7942  -7.6633  -7.6633  -5.4022  -5.3187  -5.1547
    -4.8073  -4.8073  -3.9126  -3.9126  -3.4242  -3.4242  -2.6936  -2.2035
    -2.2035  -2.0345  -2.0345  -2.0245  -1.8921  -1.6682  -1.6480  -1.1985
    -1.1187  -1.1187   0.3139   0.4470   0.5669   0.5669   0.5930   0.9587
     0.9744   1.0905   1.4024   1.7249   5.4798   5.9359   7.6883   7.8740
     7.8796   8.4859   8.9164   9.0683   9.0683   9.2025

          k = 0.0000-0.2020 0.0000 ( 19435 PWs)   bands (ev):

   -17.5987 -16.0787 -14.2241 -13.3545 -13.2612 -13.2612 -11.6496 -11.5991
   -11.5991 -11.4329 -10.3106 -10.3106  -9.1712  -8.5193  -8.5193  -8.1417
    -7.7364  -7.5418  -7.5418  -7.3722  -7.3722  -5.8872  -4.9994  -4.9247
    -4.9247  -4.7313  -3.8227  -3.8227  -3.2390  -3.2390  -3.0772  -2.5500
    -2.2265  -2.2265  -1.8760  -1.8469  -1.8469  -1.7560  -1.2853  -1.2107
    -1.1181  -1.1181  -0.3217  -0.1692  -0.1692  -0.1681   0.4230   0.6600
     1.2858   1.4016   1.4363   1.7142   5.7187   6.1456   7.8845   8.1940
     8.4844   8.6878   8.7310   8.9876   9.0043   9.0045

          k = 0.0000-0.4040 0.0000 ( 19390 PWs)   bands (ev):

   -17.1150 -16.4458 -14.5977 -14.0973 -12.8203 -12.8203 -11.9747 -11.9747
   -11.3063 -10.8965 -10.8484 -10.8484  -8.9607  -8.9607  -8.6081  -7.7576
    -7.2087  -7.0695  -7.0695  -6.6980  -6.6980  -6.2108  -4.9088  -4.5829
    -4.5829  -4.4044  -3.9496  -3.6498  -3.6498  -3.2059  -3.2059  -3.0496
    -2.1408  -1.9627  -1.9627  -1.8495  -1.8495  -1.6092  -1.5663  -1.3397
    -1.3397  -1.2086  -1.2086  -1.0555  -0.4883  -0.2985   0.1039   0.1264
     0.9243   1.2846   1.8598   1.9358   6.3864   6.7418   7.4543   7.7070
     8.3328   8.6492   8.7164   8.7164   9.0330   9.0618

          k = 0.2000-0.0000 0.0000 ( 19453 PWs)   bands (ev):

   -17.5841 -15.8904 -14.8984 -13.3383 -12.9190 -12.7978 -12.6128 -11.5675
   -11.3718 -10.7078 -10.4135 -10.0911  -9.2364  -9.1210  -8.9899  -8.5474
    -7.6447  -7.4897  -6.9007  -6.8267  -6.6448  -5.3966  -5.3589  -5.2471
    -5.1662  -5.0233  -4.0834  -3.7746  -3.7095  -3.3126  -2.6472  -2.4949
    -2.4172  -2.1708  -1.9098  -1.6316  -1.6290  -1.6222  -1.6008  -1.5469
    -1.1560  -0.7445  -0.4268   0.0054   0.0204   0.0238   0.3258   0.6333
     0.8665   0.9822   1.0229   1.5531   5.6499   6.1294   8.0413   8.0750
     8.1591   8.3034   8.5356   9.0607   9.1805   9.3259

          k = 0.2000-0.2020 0.0000 ( 19412 PWs)   bands (ev):

   -17.4159 -15.8990 -14.7342 -14.0502 -13.3179 -13.1837 -11.6603 -11.4864
   -11.2672 -11.0825 -10.8876  -9.9443  -9.0719  -8.8458  -8.5908  -8.0006
    -7.9008  -7.5945  -7.2366  -6.2214  -6.0651  -5.8116  -5.6097  -5.0185
    -4.9426  -4.6314  -4.3122  -3.6357  -3.5481  -2.9814  -2.9734  -2.6169
    -2.3628  -2.2855  -2.2747  -1.8731  -1.6913  -1.6620  -1.4375  -1.2437
    -1.1138  -0.9649  -0.8350  -0.4610  -0.4165  -0.0883   0.2695   0.3572
     0.6799   0.7765   1.3162   1.4615   5.8868   6.3430   8.1506   8.2160
     8.3354   8.7280   8.8405   8.9202   9.0134   9.1233

          k = 0.2000-0.4040 0.0000 ( 19417 PWs)   bands (ev):

   -16.9329 -16.2648 -14.4237 -14.2627 -13.9247 -13.6178 -12.0074 -11.5125
   -11.1454 -10.7939 -10.7384 -10.3862  -8.5047  -8.4540  -8.3417  -7.8708
    -7.6622  -7.4544  -7.0625  -6.0665  -5.7256  -5.3652  -5.3247  -4.8128
    -4.6186  -4.3278  -4.1546  -3.9345  -3.8863  -3.2075  -3.0743  -2.9272
    -2.6730  -2.6331  -2.3826  -1.8660  -1.7956  -1.6609  -1.5090  -1.2430
    -1.2331  -1.0415  -0.8728  -0.8522  -0.7492  -0.7315  -0.5007   0.0099
     0.9745   1.0924   1.1537   1.4432   6.5530   6.9395   7.6179   7.8773
     8.0970   8.2890   8.4405   9.0047   9.0479   9.3025

          k = 0.4000-0.0000 0.0000 ( 19406 PWs)   bands (ev):

   -17.0373 -16.1349 -15.3560 -14.4810 -12.4153 -12.2940 -12.0957 -11.5944
   -11.4943 -11.2459 -11.0829 -10.2897  -9.6476  -8.9062  -8.1259  -7.8509
    -7.2211  -6.9492  -6.6590  -6.4393  -5.6162  -5.5736  -5.5565  -5.1422
    -4.5785  -4.5226  -4.4040  -3.9352  -3.8442  -3.7467  -3.2083  -2.6303
    -2.4842  -2.4739  -1.6694  -1.6660  -1.5002  -1.4533  -1.4464  -1.4336
    -1.2413  -1.1746  -1.1708  -0.8571  -0.4425  -0.3155  -0.3030   0.1712
     0.2434   0.7749   1.1126   1.1442   6.1607   6.5663   7.0403   7.2103
     8.5577   8.8602   9.3366   9.3760   9.4583   9.4680

          k = 0.4000-0.2020 0.0000 ( 19427 PWs)   bands (ev):

   -16.8699 -15.9688 -15.3631 -14.4835 -13.5327 -12.6885 -12.6767 -11.8588
   -11.0050 -10.7726 -10.2557  -9.9647  -9.5419  -8.9231  -7.7566  -7.6409
    -7.2220  -6.9117  -6.6424  -6.1012  -5.8023  -5.6853  -5.4244  -5.0169
    -4.7800  -4.5808  -4.1901  -3.9969  -3.6578  -3.5596  -2.9104  -2.8644
    -2.6711  -2.6664  -2.4286  -2.0213  -1.6861  -1.6168  -1.5169  -1.2562
    -1.2341  -1.1636  -0.7082  -0.6839  -0.6279  -0.3920  -0.3073  -0.2672
    -0.0184   0.7282   0.7325   1.1577   6.3715   6.7957   7.2044   7.4334
     8.4819   8.8507   8.9585   9.0334   9.0371   9.3837

          k = 0.4000-0.4040 0.0000 ( 19422 PWs)   bands (ev):

   -16.3891 -15.7244 -15.4918 -14.8333 -13.9064 -13.4116 -13.0657 -12.5781
   -10.6761 -10.2789 -10.0071  -9.7206  -8.7342  -8.3298  -8.1092  -7.5233
    -6.6801  -6.4553  -6.2351  -5.6902  -5.6611  -5.3340  -5.3176  -5.0194
    -4.7596  -4.7582  -4.3827  -4.1224  -3.8634  -3.8585  -3.4467  -3.1908
    -2.9004  -2.7239  -2.6604  -2.4281  -2.1246  -1.9513  -1.4329  -1.4039
    -1.2333  -1.1660  -0.9474  -0.7761  -0.6440  -0.4767  -0.1009   0.0358
     0.0389   0.2148   0.6617   1.0042   6.9724   7.4071   7.5124   7.7350
     7.8851   8.1680   8.2550   8.3788   8.5862   8.8757

     the Fermi energy is     3.3395 ev

!    total energy              =    -451.79081596 Ry
     estimated scf accuracy    <          1.3E-09 Ry
     smearing contrib. (-TS)   =       0.00000000 Ry
     internal energy E=F+TS    =    -451.79081596 Ry

     The total energy is F=E-TS. E is the sum of the following terms:
     one-electron contribution =   -2342.66649199 Ry
     hartree contribution      =    1212.45611953 Ry
     xc contribution           =    -117.88336044 Ry
     ewald contribution        =     944.22445997 Ry
     one-center paw contrib.   =    -147.92154302 Ry

     convergence has been achieved in  14 iterations

     negative rho (up, down):  7.112E-05 0.000E+00

     Forces acting on atoms (cartesian axes, Ry/au):

     atom    1 type  1   force =     0.00000000   -0.00566267    0.00007521
     atom    2 type  1   force =    -0.00000002   -0.00557655    0.00071147
     atom    3 type  1   force =    -0.00000006    0.00000000    0.00125320
     atom    4 type  1   force =     0.00000000   -0.00000000    0.00279766
     atom    5 type  1   force =     0.00000000    0.00557666   -0.00071124
     atom    6 type  1   force =     0.00000001    0.00566282   -0.00007550
     atom    7 type  1   force =     0.00000000    0.00566267    0.00007521
     atom    8 type  1   force =    -0.00000002    0.00557655    0.00071147
     atom    9 type  1   force =    -0.00000003    0.00000000   -0.00279784
     atom   10 type  1   force =     0.00000000    0.00000000   -0.00125322
     atom   11 type  1   force =     0.00000000   -0.00557666   -0.00071124
     atom   12 type  1   force =     0.00000001   -0.00566282   -0.00007550
     atom   13 type  2   force =     0.00000000   -0.00227368    0.00113784
     atom   14 type  2   force =     0.00000000    0.00227368    0.00113784
     atom   15 type  2   force =    -0.00000000    0.00227361   -0.00113767
     atom   16 type  2   force =    -0.00000000   -0.00227361   -0.00113767
     atom   17 type  1   force =     0.00000000   -0.00566265    0.00007524
     atom   18 type  1   force =     0.00000002   -0.00557655    0.00071147
     atom   19 type  1   force =     0.00000006   -0.00000000    0.00125320
     atom   20 type  1   force =     0.00000000   -0.00000000    0.00279762
     atom   21 type  1   force =     0.00000000    0.00557664   -0.00071126
     atom   22 type  1   force =    -0.00000001    0.00566282   -0.00007550
     atom   23 type  1   force =     0.00000000    0.00566265    0.00007524
     atom   24 type  1   force =     0.00000002    0.00557655    0.00071147
     atom   25 type  1   force =     0.00000003    0.00000000   -0.00279784
     atom   26 type  1   force =     0.00000000    0.00000000   -0.00125327
     atom   27 type  1   force =     0.00000000   -0.00557664   -0.00071126
     atom   28 type  1   force =    -0.00000001   -0.00566282   -0.00007550
     atom   29 type  2   force =     0.00000000   -0.00227368    0.00113785
     atom   30 type  2   force =     0.00000000    0.00227368    0.00113785
     atom   31 type  2   force =     0.00000000    0.00227361   -0.00113767
     atom   32 type  2   force =     0.00000000   -0.00227361   -0.00113767

     Total force =     0.024469     Total SCF correction =     0.000089


     Computing stress (Cartesian axis) and pressure


     negative rho (up, down):  7.112E-05 0.000E+00
          total   stress  (Ry/bohr**3)                   (kbar)     P=        0.10
   0.00004992   0.00000000   0.00000000            7.34        0.00        0.00
   0.00000000  -0.00005794   0.00000000            0.00       -8.52        0.00
   0.00000000   0.00000000   0.00000997            0.00        0.00        1.47


     Writing all to output data dir ./tmp/slab.save/ :
     XML data file, charge density, pseudopotentials, collected wavefunctions

     init_run     :      4.42s CPU      4.70s WALL (       1 calls)
     electrons    :    123.76s CPU    137.26s WALL (       1 calls)
     forces       :      1.54s CPU      1.80s WALL (       1 calls)
     stress       :      3.77s CPU      4.45s WALL (       1 calls)

     Called by init_run:
     wfcinit      :      3.65s CPU      3.87s WALL (       1 calls)
     potinit      :      0.46s CPU      0.49s WALL (       1 calls)
     hinit0       :      0.15s CPU      0.15s WALL (       1 calls)

     Called by electrons:
     c_bands      :    102.03s CPU    113.30s WALL (      14 calls)
     sum_band     :     14.00s CPU     15.04s WALL (      14 calls)
     v_of_rho     :      2.20s CPU      2.38s WALL (      15 calls)
     newd         :      1.32s CPU      1.81s WALL (      15 calls)
     PAW_pot      :      4.24s CPU      4.74s WALL (      15 calls)
     mix_rho      :      0.28s CPU      0.34s WALL (      14 calls)

     Called by c_bands:
     init_us_2    :      1.11s CPU      1.25s WALL (     279 calls)
     cegterg      :     99.54s CPU    110.72s WALL (     126 calls)

     Called by *egterg:
     cdiaghg      :      1.75s CPU      1.85s WALL (     657 calls)
     h_psi        :     71.50s CPU     76.10s WALL (     666 calls)
     s_psi        :      8.35s CPU     10.03s WALL (     666 calls)
     g_psi        :      0.30s CPU      0.30s WALL (     531 calls)

     Called by h_psi:
     h_psi:calbec :      7.46s CPU      9.38s WALL (     666 calls)
     vloc_psi     :     54.93s CPU     55.52s WALL (     666 calls)
                                        0.00s GPU  (     666 calls)
     add_vuspsi   :      8.86s CPU     10.74s WALL (     666 calls)

     General routines
     calbec       :     11.66s CPU     14.63s WALL (     945 calls)
     fft          :      1.40s CPU      1.41s WALL (     218 calls)
     ffts         :      0.07s CPU      0.07s WALL (      29 calls)
     fftw         :     58.67s CPU     58.90s WALL (   52232 calls)
     interpolate  :      0.15s CPU      0.17s WALL (      15 calls)


     PWSCF        :   2m13.54s CPU   2m28.31s WALL


   This run was terminated on:  14:48:52   7Jul2026            

=------------------------------------------------------------------------------=
   JOB DONE.
=------------------------------------------------------------------------------=
Note: The following floating-point exceptions are signalling: IEEE_INVALID_FLAG IEEE_DIVIDE_BY_ZERO IEEE_OVERFLOW_FLAG IEEE_UNDERFLOW_FLAG
