
     Program PWSCF v.7.3.1 starts on  2Aug2026 at 16:10:51 

     This program is part of the open-source Quantum ESPRESSO suite
     for quantum simulation of materials; please cite
         "P. Giannozzi et al., J. Phys.:Condens. Matter 21 395502 (2009);
         "P. Giannozzi et al., J. Phys.:Condens. Matter 29 465901 (2017);
         "P. Giannozzi et al., J. Chem. Phys. 152 154105 (2020);
          URL http://www.quantum-espresso.org", 
     in publications or presentations arising from this work. More details at
     http://www.quantum-espresso.org/quote

     Parallel version (MPI), running on     8 processors

     MPI processes distributed on     1 nodes
     183943 MiB available memory on the printing compute node when the environment starts

     Reading input from pw.in

     Current dimensions of program PWSCF are:
     Max number of different atomic species (ntypx) = 10
     Max number of k-points (npk) =  40000
     Max angular momentum in pseudopotentials (lmaxx) =  4
     file C.pbe-n-kjpaw_psl.1.0.0.UPF: wavefunction(s)  2S 2P renormalized
     Message from routine volume:
     axis vectors are left-handed
     Message from routine setup:
     using ibrav=0 with symmetry is DISCOURAGED, use correct ibrav instead

     R & G space division:  proc/nbgrp/npool/nimage =       8
     Subspace diagonalization in iterative solution of the eigenvalue problem:
     a serial algorithm will be used


     Parallelization info
     --------------------
     sticks:   dense  smooth     PW     G-vecs:    dense   smooth      PW
     Min         230     115     32                46254    16341    2524
     Max         231     116     33                46277    16364    2543
     Sum        1845     921    263               370137   130789   20293

     Using Slab Decomposition



     bravais-lattice index     =            0
     lattice parameter (alat)  =       4.7744  a.u.
     unit-cell volume          =    1134.4597 (a.u.)^3
     number of atoms/cell      =           20
     number of atomic types    =            2
     number of electrons       =        68.00
     number of Kohn-Sham states=           41
     kinetic-energy cutoff     =      90.0000  Ry
     charge density cutoff     =     720.0000  Ry
     scf convergence threshold =      1.0E-08
     mixing beta               =       0.3000
     number of iterations used =            8  plain     mixing
     Exchange-correlation= PBE
                           (   1   4   3   4   0   0   0)

     celldm(1)=   4.774375  celldm(2)=   0.000000  celldm(3)=   0.000000
     celldm(4)=   0.000000  celldm(5)=   0.000000  celldm(6)=   0.000000

     crystal axes: (cart. coord. in units of alat)
               a(1) = (   1.000000   0.000000   0.000000 )  
               a(2) = (   0.000000  -1.414214   0.000000 )  
               a(3) = (   0.000000   0.000000   7.370968 )  

     reciprocal axes: (cart. coord. in units 2 pi/alat)
               b(1) = (  1.000000 -0.000000 -0.000000 )  
               b(2) = ( -0.000000 -0.707107 -0.000000 )  
               b(3) = ( -0.000000 -0.000000  0.135667 )  


     PseudoPot. # 1 for C  read from file:
     ./C.pbe-n-kjpaw_psl.1.0.0.UPF
     MD5 check sum: 5d2aebdfa2cae82b50a7e79e9516da0f
     Pseudo is Projector augmented-wave + core cor, Zval =  4.0
     Generated using "atomic" code by A. Dal Corso  v.5.1
     Shape of augmentation charge: PSQ
     Using radial grid of 1073 points,  4 beta functions with: 
                l(1) =   0
                l(2) =   0
                l(3) =   1
                l(4) =   1
     Q(r) pseudized with 0 coefficients 


     PseudoPot. # 2 for H  read from file:
     ./H_ONCV_PBE-1.0.oncvpsp.upf
     MD5 check sum: 1790becc920ee074925cf490c71280fe
     Pseudo is Norm-conserving, Zval =  1.0
     Generated using ONCVPSP code by D. R. Hamann
     Using radial grid of 1166 points,  2 beta functions with: 
                l(1) =   0
                l(2) =   0

     atomic species   valence    mass     pseudopotential
     C                 4.00    12.01100     C ( 1.00)
     H                 1.00     1.00800     H ( 1.00)

      8 Sym. Ops., with inversion, found ( 6 have fractional translation)



   Cartesian axes

     site n.     atom                  positions (alat units)
         1        C      tau(   1) = (   0.0000000  -0.3611176   5.4253677  )
         2        C      tau(   2) = (   0.5000000  -0.6995425   5.4253677  )
         3        C      tau(   3) = (   0.5000000  -1.0618014   4.9365355  )
         4        C      tau(   4) = (  -0.0000000   0.0011412   4.9365355  )
         5        C      tau(   5) = (  -0.0000000  -0.3533131   4.4353881  )
         6        C      tau(   6) = (   0.5000000  -0.7073471   4.4353881  )
         7        C      tau(   7) = (   0.5000000  -1.0606573   3.9354771  )
         8        C      tau(   8) = (   0.0000000  -0.0000029   3.9354771  )
         9        C      tau(   9) = (   0.5000000  -0.7071096   3.4354905  )
        10        C      tau(  10) = (   0.0000000  -0.3535505   3.4354905  )
        11        C      tau(  11) = (  -0.0000000  -0.0002403   2.9355795  )
        12        C      tau(  12) = (   0.5000000  -1.0604199   2.9355795  )
        13        C      tau(  13) = (   0.5000000  -0.7059656   2.4344321  )
        14        C      tau(  14) = (   0.0000000  -0.3546946   2.4344321  )
        15        C      tau(  15) = (   0.0000000   0.0075643   1.9455999  )
        16        C      tau(  16) = (   0.5000000  -1.0682244   1.9455999  )
        17        H      tau(  17) = (   0.0000000  -0.1237739   5.7899376  )
        18        H      tau(  18) = (   0.5000000  -0.9368862   5.7899376  )
        19        H      tau(  19) = (   0.0000000  -0.2297795   1.5810300  )
        20        H      tau(  20) = (   0.5000000  -0.8308807   1.5810300  )

     number of k points=    20  Marzari-Vanderbilt smearing, width (Ry)=  0.0100
                       cart. coord. in units 2pi/alat
        k(    1) = (   0.0000000  -0.0000000   0.0000000), wk =   0.0317460
        k(    2) = (   0.0000000  -0.1010153   0.0000000), wk =   0.0634921
        k(    3) = (   0.0000000  -0.2020305   0.0000000), wk =   0.0634921
        k(    4) = (   0.0000000  -0.3030458   0.0000000), wk =   0.0634921
        k(    5) = (   0.1111111  -0.0000000   0.0000000), wk =   0.0634921
        k(    6) = (   0.1111111  -0.1010153   0.0000000), wk =   0.1269841
        k(    7) = (   0.1111111  -0.2020305   0.0000000), wk =   0.1269841
        k(    8) = (   0.1111111  -0.3030458   0.0000000), wk =   0.1269841
        k(    9) = (   0.2222222  -0.0000000   0.0000000), wk =   0.0634921
        k(   10) = (   0.2222222  -0.1010153   0.0000000), wk =   0.1269841
        k(   11) = (   0.2222222  -0.2020305   0.0000000), wk =   0.1269841
        k(   12) = (   0.2222222  -0.3030458   0.0000000), wk =   0.1269841
        k(   13) = (   0.3333333  -0.0000000   0.0000000), wk =   0.0634921
        k(   14) = (   0.3333333  -0.1010153   0.0000000), wk =   0.1269841
        k(   15) = (   0.3333333  -0.2020305   0.0000000), wk =   0.1269841
        k(   16) = (   0.3333333  -0.3030458   0.0000000), wk =   0.1269841
        k(   17) = (   0.4444444  -0.0000000   0.0000000), wk =   0.0634921
        k(   18) = (   0.4444444  -0.1010153   0.0000000), wk =   0.1269841
        k(   19) = (   0.4444444  -0.2020305   0.0000000), wk =   0.1269841
        k(   20) = (   0.4444444  -0.3030458   0.0000000), wk =   0.1269841

     Dense  grid:   370137 G-vectors     FFT dimensions: (  48,  60, 320)

     Smooth grid:   130789 G-vectors     FFT dimensions: (  30,  48, 216)

     Estimated max dynamical RAM per process >     123.84 MB

     Estimated total dynamical RAM >     990.68 MB

     Check: negative core charge=   -0.000001

     Initial potential from superposition of free atoms

     starting charge      67.9993, renormalised to      68.0000
     Starting wfcs are   68 randomized atomic wfcs
     Checking if some PAW data can be deallocated... 

     total cpu time spent up to now is        1.7 secs

     Self-consistent Calculation

     iteration #  1     ecut=    90.00 Ry     beta= 0.30
     Davidson diagonalization with overlap
     ethr =  1.00E-02,  avg # of iterations =  2.6

     total cpu time spent up to now is        4.5 secs

     total energy              =    -299.77993664 Ry
     estimated scf accuracy    <       1.41502599 Ry

     iteration #  2     ecut=    90.00 Ry     beta= 0.30
     Davidson diagonalization with overlap
     ethr =  2.08E-03,  avg # of iterations =  4.3

     negative rho (up, down):  2.249E-07 0.000E+00

     total cpu time spent up to now is        7.0 secs

     total energy              =    -299.65631982 Ry
     estimated scf accuracy    <       0.46916924 Ry

     iteration #  3     ecut=    90.00 Ry     beta= 0.30
     Davidson diagonalization with overlap
     ethr =  6.90E-04,  avg # of iterations =  5.5

     negative rho (up, down):  1.174E-06 0.000E+00

     total cpu time spent up to now is        9.5 secs

     total energy              =    -299.67473785 Ry
     estimated scf accuracy    <       0.05784529 Ry

     iteration #  4     ecut=    90.00 Ry     beta= 0.30
     Davidson diagonalization with overlap
     ethr =  8.51E-05,  avg # of iterations =  7.0

     negative rho (up, down):  2.045E-06 0.000E+00

     total cpu time spent up to now is       12.4 secs

     total energy              =    -299.67872265 Ry
     estimated scf accuracy    <       0.00608985 Ry

     iteration #  5     ecut=    90.00 Ry     beta= 0.30
     Davidson diagonalization with overlap
     c_bands:  1 eigenvalues not converged
     ethr =  8.96E-06,  avg # of iterations =  6.8

     negative rho (up, down):  2.442E-06 0.000E+00

     total cpu time spent up to now is       15.4 secs

     total energy              =    -299.67936477 Ry
     estimated scf accuracy    <       0.00083518 Ry

     iteration #  6     ecut=    90.00 Ry     beta= 0.30
     Davidson diagonalization with overlap
     ethr =  1.23E-06,  avg # of iterations =  5.7

     negative rho (up, down):  2.456E-06 0.000E+00

     total cpu time spent up to now is       18.2 secs

     total energy              =    -299.67944882 Ry
     estimated scf accuracy    <       0.00017093 Ry

     iteration #  7     ecut=    90.00 Ry     beta= 0.30
     Davidson diagonalization with overlap
     ethr =  2.51E-07,  avg # of iterations =  2.5

     negative rho (up, down):  2.591E-06 0.000E+00

     total cpu time spent up to now is       20.8 secs

     total energy              =    -299.67947168 Ry
     estimated scf accuracy    <       0.00006933 Ry

     iteration #  8     ecut=    90.00 Ry     beta= 0.30
     Davidson diagonalization with overlap
     ethr =  1.02E-07,  avg # of iterations =  2.1

     negative rho (up, down):  2.554E-06 0.000E+00

     total cpu time spent up to now is       23.2 secs

     total energy              =    -299.67948725 Ry
     estimated scf accuracy    <       0.00000567 Ry

     iteration #  9     ecut=    90.00 Ry     beta= 0.30
     Davidson diagonalization with overlap
     ethr =  8.34E-09,  avg # of iterations =  2.6

     negative rho (up, down):  2.596E-06 0.000E+00

     total cpu time spent up to now is       25.8 secs

     total energy              =    -299.67948859 Ry
     estimated scf accuracy    <       0.00000262 Ry

     iteration # 10     ecut=    90.00 Ry     beta= 0.30
     Davidson diagonalization with overlap
     ethr =  3.85E-09,  avg # of iterations =  2.1

     negative rho (up, down):  2.610E-06 0.000E+00

     total cpu time spent up to now is       28.2 secs

     total energy              =    -299.67948915 Ry
     estimated scf accuracy    <       0.00000012 Ry

     iteration # 11     ecut=    90.00 Ry     beta= 0.30
     Davidson diagonalization with overlap
     ethr =  1.77E-10,  avg # of iterations =  3.6

     negative rho (up, down):  2.623E-06 0.000E+00

     total cpu time spent up to now is       31.0 secs

     total energy              =    -299.67948914 Ry
     estimated scf accuracy    <       0.00000013 Ry

     iteration # 12     ecut=    90.00 Ry     beta= 0.30
     Davidson diagonalization with overlap
     ethr =  1.77E-10,  avg # of iterations =  2.0

     negative rho (up, down):  2.668E-06 0.000E+00

     total cpu time spent up to now is       33.4 secs

     End of self-consistent calculation

          k = 0.0000-0.0000 0.0000 ( 16373 PWs)   bands (ev):

   -14.9771 -14.3210 -13.2353 -11.7550 -10.0116  -8.2174  -6.8257  -6.4809
    -6.3271  -5.7534  -4.7914  -3.4393  -3.3876  -3.0602  -2.2231  -1.7944
    -1.7433  -0.7296  -0.0150   0.0279   0.1119   0.6163   1.4342   1.9107
     2.0210   2.5106   3.6789   3.8206   4.0517   4.7341   5.4483   5.5495
     5.6354   6.0496   8.0268   8.4042  10.7473  11.1522  11.6552  11.9080
    12.0571

          k = 0.0000-0.1010 0.0000 ( 16387 PWs)   bands (ev):

   -14.7903 -14.1369 -13.0575 -11.5930  -9.9036  -8.5610  -8.3323  -8.1089
    -5.7188  -5.1076  -4.7126  -4.2391  -3.1457  -2.4590  -1.9916  -1.4401
    -1.1738  -0.4923  -0.1701   0.2907   0.7217   0.7809   1.5694   1.5807
     2.5606   2.5891   3.5068   3.6529   4.2194   4.5397   5.1077   5.1375
     5.4369   5.4804   8.2384   8.6288  10.9395  11.0510  11.7987  12.2041
    12.4940

          k = 0.0000-0.2020 0.0000 ( 16364 PWs)   bands (ev):

   -14.2320 -13.5881 -12.5316 -11.1366 -10.4108  -9.9600  -9.5402  -9.1916
    -6.1743  -6.1245  -4.6756  -4.4438  -2.7490  -2.5365  -1.0705  -0.5219
    -0.2941   0.2320   0.6664   0.8202   1.2649   1.3736   1.9383   1.9594
     2.7713   2.8001   3.5028   3.5530   3.9362   4.0082   4.1736   4.1812
     4.6981   4.7653   8.8874   9.2076  11.1136  11.3712  11.7940  12.3156
    12.5221

          k = 0.0000-0.3030 0.0000 ( 16320 PWs)   bands (ev):

   -13.3100 -12.6918 -12.0282 -11.7448 -11.3506 -10.6639 -10.1892  -9.6890
    -6.7571  -6.2220  -5.3061  -4.4330  -3.2249  -2.2821  -1.0582  -0.0461
     0.9279   1.2182   1.6778   1.9928   2.0300   2.0327   2.5406   2.5591
     2.8097   3.0503   3.0713   3.1488   3.2121   3.3579   3.4114   3.6212
     3.7561   3.8499   9.9182  10.0469  11.0047  11.3142  11.5420  12.1264
    12.3676

          k = 0.1111-0.0000 0.0000 ( 16377 PWs)   bands (ev):

   -14.7506 -14.0961 -13.0128 -11.5360  -9.7970  -8.0090  -6.6249  -6.2793
    -6.2597  -5.6912  -4.7381  -3.3993  -3.1834  -2.8756  -2.0186  -1.7729
    -1.5939  -0.9147  -0.5337  -0.3875   0.0243   0.0745   0.4635   1.5725
     1.8887   1.9814   2.7583   3.5889   3.7611   3.9909   4.5273   4.8615
     4.9521   5.5244   8.2489   8.6210  10.8611  11.7321  11.9243  12.1323
    12.3334

          k = 0.1111-0.1010 0.0000 ( 16343 PWs)   bands (ev):

   -14.5643 -13.9125 -12.8357 -11.3749  -9.6908  -8.3742  -8.1345  -7.9250
    -5.5703  -4.9665  -4.5800  -4.1977  -3.0304  -2.4068  -1.8734  -1.4323
    -1.1112  -0.6308  -0.3494  -0.2145  -0.0618   0.6896   0.7334   1.5426
     1.7138   2.4612   2.7417   3.3320   3.6158   3.6558   3.9167   4.4021
     5.0746   5.4722   8.4830   8.8559  11.1570  12.0062  12.3481  12.3994
    12.8484

          k = 0.1111-0.2020 0.0000 ( 16354 PWs)   bands (ev):

   -14.0076 -13.3656 -12.3122 -10.9218 -10.2065  -9.7565  -9.3358  -8.9936
    -5.9911  -5.9307  -4.5124  -4.2683  -2.6236  -2.5197  -1.2597  -0.8414
    -0.3985   0.1218   0.1375   0.3905   0.9301   1.1061   1.5442   1.7402
     2.2348   2.4845   2.5813   2.6525   2.7714   2.8665   3.5622   3.8353
     4.8236   5.1247   9.1469   9.4752  11.7634  12.0167  12.4761  12.9293
    13.3327

          k = 0.1111-0.3030 0.0000 ( 16343 PWs)   bands (ev):

   -13.0889 -12.4729 -11.8131 -11.5298 -11.1386 -10.4547  -9.9827  -9.4863
    -6.5551  -6.0241  -5.1192  -4.2504  -3.0679  -2.1283  -1.0497  -0.0421
     0.0209   0.4767   0.9802   1.0912   1.3144   1.5100   1.8698   2.0093
     2.1300   2.1980   2.4309   2.6145   2.8876   3.0505   3.3629   3.7211
     3.9684   4.0861  10.1883  10.3877  11.5473  11.6479  12.3166  12.7147
    12.9283

          k = 0.2222-0.0000 0.0000 ( 16358 PWs)   bands (ev):

   -14.0745 -13.4246 -12.3490 -10.8825  -9.1569  -7.3871  -6.3695  -6.0245
    -5.8072  -5.6764  -4.8653  -3.5448  -2.6135  -2.5890  -2.3439  -2.0653
    -1.9437  -1.4212  -1.1894  -1.1809  -0.1813  -0.0711   0.0385   0.2788
     1.0617   1.7097   1.7371   1.9624   2.5161   2.7595   2.7857   3.3429
     3.6609   5.1052   8.9714   9.2616  11.1332  11.1726  11.4538  12.2710
    12.7244

          k = 0.2222-0.1010 0.0000 ( 16336 PWs)   bands (ev):

   -13.8898 -13.2429 -12.1742 -10.7247  -9.0564  -7.8811  -7.5546  -7.4280
    -5.2848  -4.8116  -4.5991  -4.3203  -2.8428  -2.7787  -2.2079  -2.0371
    -1.2215  -1.0925  -1.0818  -0.6187  -0.2041   0.2409   0.3792   0.6461
     1.0529   1.4262   1.5036   1.6532   1.8402   2.0934   3.2152   3.3984
     4.2841   4.7333   9.2157   9.5182  11.6310  11.8128  11.8692  12.3644
    12.9100

          k = 0.2222-0.2020 0.0000 ( 16329 PWs)   bands (ev):

   -13.3387 -12.7023 -11.6585 -10.2824  -9.6167  -9.1642  -8.7315  -8.4143
    -5.4986  -5.4086  -4.0940  -3.9588  -3.6750  -2.6856  -2.0673  -1.8474
    -1.3475  -0.6271  -0.3981  -0.0272   0.3496   0.3862   0.6198   0.7935
     0.8805   1.1443   1.4173   1.6945   1.9285   1.9420   2.9681   3.4464
     4.1806   4.6187   9.8884  10.1695  12.4300  12.9011  12.9667  13.0739
    13.2934

          k = 0.2222-0.3030 0.0000 ( 16349 PWs)   bands (ev):

   -12.4313 -11.8221 -11.1776 -10.8911 -10.5123  -9.8348  -9.3712  -8.8843
    -5.9832  -5.4618  -4.6101  -3.7502  -2.8575  -2.6886  -1.8750  -1.6897
    -1.4613  -1.0264  -0.7810  -0.2467  -0.1577  -0.0364   0.4068   0.7045
     1.5003   2.0909   2.2332   2.2991   2.5743   2.7005   2.7011   3.1048
     3.8230   3.9417  10.8857  11.0660  12.3494  12.3588  13.5590  13.6255
    13.8518

          k = 0.3333-0.0000 0.0000 ( 16332 PWs)   bands (ev):

   -12.9604 -12.3186 -11.2563  -9.8076  -8.1044  -7.6120  -7.0265  -6.3629
    -6.0519  -5.0304  -4.7031  -4.6780  -3.0898  -2.9443  -2.4352  -1.6656
    -1.6383  -1.5422  -1.3704  -0.6669  -0.6239  -0.4847   0.0885   0.2295
     0.4012   0.5009   0.8249   0.9315   1.1418   1.4370   1.4567   1.4672
     2.9657   4.3349  10.0592  10.3101  10.8872  10.8937  11.9921  12.3089
    12.6754

          k = 0.3333-0.1010 0.0000 ( 16340 PWs)   bands (ev):

   -12.7795 -12.1411 -11.0866  -9.6564  -8.0174  -7.8246  -7.2670  -6.7309
    -5.7652  -5.5158  -5.3461  -4.7839  -3.2756  -2.7890  -2.6546  -1.8665
    -1.7239  -1.6022  -0.8213  -0.7823  -0.6442  -0.5175  -0.1824   0.1350
     0.3390   0.4640   0.7280   1.1184   1.1315   1.2219   2.0680   2.5654
     2.7803   4.1455  10.3708  10.5611  11.3646  11.4639  12.0068  12.3114
    12.7585

          k = 0.3333-0.2020 0.0000 ( 16365 PWs)   bands (ev):

   -12.2412 -11.6147 -10.5876  -9.2384  -8.8152  -8.3303  -7.7674  -7.5629
    -5.7452  -5.3016  -5.1623  -5.0849  -3.9044  -3.1538  -2.6603  -2.4586
    -2.3958  -2.1515  -2.0552  -1.1466  -0.7002  -0.5736   0.3659   0.6740
     0.8349   1.0495   1.0967   1.3683   1.3902   1.7112   2.2546   2.6264
     3.5443   3.6589  11.0068  11.1745  12.3789  12.5197  12.8991  13.1145
    13.2857

          k = 0.3333-0.3030 0.0000 ( 16409 PWs)   bands (ev):

   -11.3627 -10.7656 -10.1770  -9.8588  -9.5235  -8.8421  -8.3916  -7.9099
    -5.2722  -5.0605  -4.7402  -4.5586  -4.3613  -3.9211  -3.4717  -3.4444
    -2.7928  -2.1105  -2.0562  -1.5973  -1.3695  -0.7186   0.4416   0.6470
     0.8451   1.1392   1.7596   1.8412   2.0931   2.6092   2.6532   2.6710
     3.1866   3.6095  11.7791  11.8493  13.1780  13.2514  13.5339  13.6776
    14.0211

          k = 0.4444-0.0000 0.0000 ( 16312 PWs)   bands (ev):

   -11.4364 -10.8068  -9.7647  -9.5745  -8.9629  -8.3418  -7.9491  -6.6687
    -6.5600  -4.9600  -4.9207  -3.6555  -3.2963  -3.2334  -1.9614  -1.9256
    -1.5551  -1.5394  -0.9276  -0.6345  -0.5516  -0.3971  -0.2909  -0.1552
    -0.1417   0.1162   0.2021   0.2141   0.2402   0.5925   0.6931   1.9171
     2.0650   3.2639  10.7570  11.0539  11.4269  11.7235  11.7806  11.9590
    12.5296

          k = 0.4444-0.1010 0.0000 ( 16370 PWs)   bands (ev):

   -11.2651 -10.6398  -9.6068  -9.4427  -8.8377  -8.2043  -7.8364  -6.6379
    -6.4061  -5.0661  -4.8808  -4.6459  -4.4537  -3.3985  -2.9314  -2.7781
    -1.9512  -1.5122  -1.2100  -0.6524  -0.5987  -0.3045  -0.1427  -0.0391
     0.2524   0.3069   0.4090   0.6695   0.8976   0.9341   1.1592   1.9312
     2.1724   3.2462  11.3462  11.4202  11.4370  11.7337  11.9951  12.3866
    12.5309

          k = 0.4444-0.2020 0.0000 ( 16377 PWs)   bands (ev):

   -10.7637 -10.1528  -9.1513  -9.1448  -8.5605  -7.8311  -7.5911  -6.5876
    -6.1932  -6.0607  -5.6599  -5.3979  -4.8639  -4.6305  -4.1701  -3.9587
    -2.5050  -2.1901  -1.3643  -1.2128  -1.1251  -0.6535  -0.0296   0.0297
     0.5066   0.6062   1.0543   1.4466   1.6649   1.7680   1.8826   2.3846
     2.5147   3.1689  11.9857  12.0761  12.3526  12.5211  12.7832  12.9754
    13.0597

          k = 0.4444-0.3030 0.0000 ( 16385 PWs)   bands (ev):

    -9.9934  -9.4163  -9.2158  -8.6929  -8.4264  -7.7838  -7.2232  -6.7588
    -6.7410  -6.2539  -6.0068  -5.6272  -5.4530  -5.4231  -4.9388  -4.8205
    -2.5878  -2.4339  -1.9838  -1.7648  -0.8866  -0.7880  -0.4411  -0.2297
     0.5911   0.7350   1.2839   1.5644   2.0495   2.0804   2.7474   2.8284
     3.0115   3.1149  12.5103  12.5493  13.1727  13.2120  13.9340  14.1427
    14.4396

     the Fermi energy is     6.7614 ev

!    total energy              =    -299.67948916 Ry
     estimated scf accuracy    <          4.9E-09 Ry
     smearing contrib. (-TS)   =       0.00000000 Ry
     internal energy E=F+TS    =    -299.67948916 Ry

     The total energy is F=E-TS. E is the sum of the following terms:
     one-electron contribution =   -1828.71020621 Ry
     hartree contribution      =     948.71561593 Ry
     xc contribution           =     -77.87874318 Ry
     ewald contribution        =     756.80226994 Ry
     one-center paw contrib.   =     -98.60842563 Ry

     convergence has been achieved in  12 iterations

     negative rho (up, down):  2.668E-06 0.000E+00

     Forces acting on atoms (cartesian axes, Ry/au):

     atom    1 type  1   force =     0.00000000   -0.00005405   -0.00004724
     atom    2 type  1   force =     0.00000000    0.00005405   -0.00004724
     atom    3 type  1   force =    -0.00000000   -0.00002061   -0.00005495
     atom    4 type  1   force =     0.00000000    0.00002061   -0.00005495
     atom    5 type  1   force =     0.00000000   -0.00002980    0.00003600
     atom    6 type  1   force =     0.00000000    0.00002980    0.00003600
     atom    7 type  1   force =     0.00000000   -0.00000066    0.00004631
     atom    8 type  1   force =    -0.00000000    0.00000066    0.00004631
     atom    9 type  1   force =    -0.00000000    0.00000066   -0.00004631
     atom   10 type  1   force =    -0.00000000   -0.00000066   -0.00004631
     atom   11 type  1   force =    -0.00000000    0.00002980   -0.00003600
     atom   12 type  1   force =     0.00000000   -0.00002980   -0.00003600
     atom   13 type  1   force =    -0.00000000    0.00002061    0.00005495
     atom   14 type  1   force =     0.00000000   -0.00002061    0.00005495
     atom   15 type  1   force =    -0.00000000    0.00005405    0.00004724
     atom   16 type  1   force =    -0.00000000   -0.00005405    0.00004724
     atom   17 type  2   force =     0.00000000    0.00003383    0.00005639
     atom   18 type  2   force =     0.00000000   -0.00003383    0.00005639
     atom   19 type  2   force =     0.00000000   -0.00003383   -0.00005639
     atom   20 type  2   force =     0.00000000    0.00003383   -0.00005639

     Total force =     0.000263     Total SCF correction =     0.000156
     SCF correction compared to forces is large: reduce conv_thr to get better values


     Computing stress (Cartesian axis) and pressure


     negative rho (up, down):  2.668E-06 0.000E+00
          total   stress  (Ry/bohr**3)                   (kbar)     P=       23.28
   0.00015588   0.00000000   0.00000000           22.93        0.00        0.00
   0.00000000   0.00031967   0.00000000            0.00       47.03        0.00
   0.00000000   0.00000000  -0.00000084            0.00        0.00       -0.12


     Writing all to output data dir /tmp/qe/slab.save/ :
     XML data file, charge density, pseudopotentials, collected wavefunctions

     init_run     :      1.53s CPU      1.60s WALL (       1 calls)
     electrons    :     31.38s CPU     31.74s WALL (       1 calls)
     forces       :      0.43s CPU      0.44s WALL (       1 calls)
     stress       :      6.24s CPU      6.26s WALL (       1 calls)

     Called by init_run:
     wfcinit      :      1.19s CPU      1.22s WALL (       1 calls)
     potinit      :      0.17s CPU      0.18s WALL (       1 calls)
     hinit0       :      0.05s CPU      0.06s WALL (       1 calls)

     Called by electrons:
     c_bands      :     24.38s CPU     24.63s WALL (      12 calls)
     sum_band     :      4.69s CPU      4.75s WALL (      12 calls)
     v_of_rho     :      0.73s CPU      0.76s WALL (      13 calls)
     newd         :      0.43s CPU      0.45s WALL (      13 calls)
     PAW_pot      :      1.20s CPU      1.21s WALL (      13 calls)
     mix_rho      :      0.07s CPU      0.07s WALL (      12 calls)

     Called by c_bands:
     init_us_2    :      0.76s CPU      0.78s WALL (     540 calls)
     cegterg      :     23.21s CPU     23.44s WALL (     240 calls)

     Called by *egterg:
     cdiaghg      :      1.71s CPU      1.72s WALL (    1180 calls)
     h_psi        :     17.67s CPU     17.89s WALL (    1200 calls)
     s_psi        :      1.17s CPU      1.18s WALL (    1200 calls)
     g_psi        :      0.12s CPU      0.12s WALL (     940 calls)

     Called by h_psi:
     h_psi:calbec :      1.24s CPU      1.26s WALL (    1200 calls)
     vloc_psi     :     14.98s CPU     15.16s WALL (    1200 calls)
     add_vuspsi   :      1.32s CPU      1.34s WALL (    1200 calls)

     General routines
     calbec       :      1.81s CPU      1.83s WALL (    1540 calls)
     fft          :      0.34s CPU      0.38s WALL (     192 calls)
     ffts         :      0.01s CPU      0.02s WALL (      25 calls)
     fftw         :     13.07s CPU     13.22s WALL (   64136 calls)
     interpolate  :      0.03s CPU      0.04s WALL (      13 calls)

     Parallel routines

     PWSCF        :     39.74s CPU     40.32s WALL


   This run was terminated on:  16:11:32   2Aug2026            

=------------------------------------------------------------------------------=
   JOB DONE.
=------------------------------------------------------------------------------=
Note: The following floating-point exceptions are signalling: IEEE_UNDERFLOW_FLAG IEEE_DENORMAL
Note: The following floating-point exceptions are signalling: IEEE_UNDERFLOW_FLAG IEEE_DENORMAL
Note: The following floating-point exceptions are signalling: IEEE_UNDERFLOW_FLAG IEEE_DENORMAL
Note: The following floating-point exceptions are signalling: IEEE_UNDERFLOW_FLAG IEEE_DENORMAL
Note: The following floating-point exceptions are signalling: IEEE_UNDERFLOW_FLAG IEEE_DENORMAL
Note: The following floating-point exceptions are signalling: IEEE_UNDERFLOW_FLAG IEEE_DENORMAL
Note: The following floating-point exceptions are signalling: IEEE_UNDERFLOW_FLAG IEEE_DENORMAL
Note: The following floating-point exceptions are signalling: IEEE_UNDERFLOW_FLAG IEEE_DENORMAL
