
     Program PWSCF v.7.5 starts on  7Jul2026 at 14:39:24 

     This program is part of the open-source Quantum ESPRESSO suite
     for quantum simulation of materials; please cite
         "P. Giannozzi et al., J. Phys.:Condens. Matter 21 395502 (2009);
         "P. Giannozzi et al., J. Phys.:Condens. Matter 29 465901 (2017);
         "P. Giannozzi et al., J. Chem. Phys. 152 154105 (2020);
          URL http://www.quantum-espresso.org", 
     in publications or presentations arising from this work. More details at
     http://www.quantum-espresso.org/quote

     Serial version
     0 MiB available memory on the printing compute node when the environment starts

     Waiting for input...
     Reading input from standard input

     Current dimensions of program PWSCF are:
     Max number of different atomic species (ntypx) = 10
     Max number of k-points (npk) =  40000
     Max angular momentum in pseudopotentials (lmaxx) =  4
     file C.pbe-n-kjpaw_psl.1.0.0.UPF: wavefunction(s)  2S 2P renormalized
     Message from routine volume:
     axis vectors are left-handed
     Message from routine setup:
     using ibrav=0 with symmetry is DISCOURAGED, use correct ibrav instead


     G-vector sticks info
     --------------------
     sticks:   dense  smooth     PW     G-vecs:    dense   smooth      PW
     Sum        1235     623    187               175859    62181   10099

     Using Slab Decomposition



     bravais-lattice index     =            0
     lattice parameter (alat)  =       4.8230  a.u.
     unit-cell volume          =     990.7831 (a.u.)^3
     number of atoms/cell      =           16
     number of atomic types    =            2
     number of electrons       =        52.00
     number of Kohn-Sham states=           31
     kinetic-energy cutoff     =      60.0000  Ry
     charge density cutoff     =     480.0000  Ry
     scf convergence threshold =      1.0E-08
     mixing beta               =       0.3000
     number of iterations used =            8  plain     mixing
     Exchange-correlation= PBE
                           (   1   4   3   4   0   0   0)

     celldm(1)=   4.822988  celldm(2)=   0.000000  celldm(3)=   0.000000
     celldm(4)=   0.000000  celldm(5)=   0.000000  celldm(6)=   0.000000

     crystal axes: (cart. coord. in units of alat)
               a(1) = (   1.000000   0.000000   0.000000 )  
               a(2) = (   0.000000  -1.400211   0.000000 )  
               a(3) = (   0.000000   0.000000   6.307198 )  

     reciprocal axes: (cart. coord. in units 2 pi/alat)
               b(1) = (  1.000000 -0.000000 -0.000000 )  
               b(2) = ( -0.000000 -0.714178 -0.000000 )  
               b(3) = ( -0.000000 -0.000000  0.158549 )  


     PseudoPot. # 1 for C  read from file:
     ./C.pbe-n-kjpaw_psl.1.0.0.UPF
     MD5 check sum: 5d2aebdfa2cae82b50a7e79e9516da0f
     Pseudo is Projector augmented-wave + core cor, Zval =  4.0
     Generated using "atomic" code by A. Dal Corso  v.5.1
     Shape of augmentation charge: PSQ
     Using radial grid of 1073 points,  4 beta functions with: 
                l(1) =   0
                l(2) =   0
                l(3) =   1
                l(4) =   1
     Q(r) pseudized with 0 coefficients 


     PseudoPot. # 2 for H  read from file:
     ./H_ONCV_PBE-1.0.oncvpsp.upf
     MD5 check sum: 1790becc920ee074925cf490c71280fe
     Pseudo is Norm-conserving, Zval =  1.0
     Generated using ONCVPSP code by D. R. Hamann
     Using radial grid of 1166 points,  2 beta functions with: 
                l(1) =   0
                l(2) =   0

     atomic species   valence    mass     pseudopotential
     C                 4.00    12.01100     C ( 1.00)
     H                 1.00     1.00800     H ( 1.00)

      8 Sym. Ops., with inversion, found ( 6 have fractional translation)



   Cartesian axes

     site n.     atom                  positions (alat units)
         1        C      tau(   1) = (   0.0000000  -0.3575648   4.3809514  )
         2        C      tau(   2) = (   0.5000000  -0.6925938   4.3809514  )
         3        C      tau(   3) = (   0.0000000   0.0011387   3.8970698  )
         4        C      tau(   4) = (   0.5000000  -1.0512972   3.8970698  )
         5        C      tau(   5) = (   0.0000000  -0.3498033   3.4009967  )
         6        C      tau(   6) = (   0.5000000  -0.7003553   3.4009967  )
         7        C      tau(   7) = (   0.0000000  -0.0002496   2.9062014  )
         8        C      tau(   8) = (   0.5000000  -1.0499090   2.9062014  )
         9        C      tau(   9) = (   0.0000000  -0.3511915   2.4101283  )
        10        C      tau(  10) = (   0.5000000  -0.6989671   2.4101283  )
        11        C      tau(  11) = (   0.0000000   0.0075119   1.9262467  )
        12        C      tau(  12) = (   0.5000000  -1.0576705   1.9262467  )
        13        H      tau(  13) = (   0.0000000  -0.1226595   4.7419430  )
        14        H      tau(  14) = (   0.5000000  -0.9274991   4.7419430  )
        15        H      tau(  15) = (   0.0000000  -0.2273934   1.5652551  )
        16        H      tau(  16) = (   0.5000000  -0.8227652   1.5652551  )

     number of k points=    20  Marzari-Vanderbilt smearing, width (Ry)=  0.0100
                       cart. coord. in units 2pi/alat
        k(    1) = (   0.0000000  -0.0000000   0.0000000), wk =   0.0317460
        k(    2) = (   0.0000000  -0.1020254   0.0000000), wk =   0.0634921
        k(    3) = (   0.0000000  -0.2040508   0.0000000), wk =   0.0634921
        k(    4) = (   0.0000000  -0.3060762   0.0000000), wk =   0.0634921
        k(    5) = (   0.1111111  -0.0000000   0.0000000), wk =   0.0634921
        k(    6) = (   0.1111111  -0.1020254   0.0000000), wk =   0.1269841
        k(    7) = (   0.1111111  -0.2040508   0.0000000), wk =   0.1269841
        k(    8) = (   0.1111111  -0.3060762   0.0000000), wk =   0.1269841
        k(    9) = (   0.2222222  -0.0000000   0.0000000), wk =   0.0634921
        k(   10) = (   0.2222222  -0.1020254   0.0000000), wk =   0.1269841
        k(   11) = (   0.2222222  -0.2040508   0.0000000), wk =   0.1269841
        k(   12) = (   0.2222222  -0.3060762   0.0000000), wk =   0.1269841
        k(   13) = (   0.3333333  -0.0000000   0.0000000), wk =   0.0634921
        k(   14) = (   0.3333333  -0.1020254   0.0000000), wk =   0.1269841
        k(   15) = (   0.3333333  -0.2040508   0.0000000), wk =   0.1269841
        k(   16) = (   0.3333333  -0.3060762   0.0000000), wk =   0.1269841
        k(   17) = (   0.4444444  -0.0000000   0.0000000), wk =   0.0634921
        k(   18) = (   0.4444444  -0.1020254   0.0000000), wk =   0.1269841
        k(   19) = (   0.4444444  -0.2040508   0.0000000), wk =   0.1269841
        k(   20) = (   0.4444444  -0.3060762   0.0000000), wk =   0.1269841

     Dense  grid:   175859 G-vectors     FFT dimensions: (  36,  48, 216)

     Smooth grid:    62181 G-vectors     FFT dimensions: (  24,  36, 160)

     Estimated max dynamical RAM per process >     401.81 MB

     Check: negative core charge=   -0.000002

     Initial potential from superposition of free atoms

     starting charge      51.9995, renormalised to      52.0000

     negative rho (up, down):  6.663E-08 0.000E+00
     Starting wfcs are   52 randomized atomic wfcs

     total cpu time spent up to now is        2.0 secs

     Self-consistent Calculation

     iteration #  1     ecut=    60.00 Ry     beta= 0.30
     Davidson diagonalization with overlap
     ethr =  1.00E-02,  avg # of iterations =  2.7

     negative rho (up, down):  9.754E-07 0.000E+00

     total cpu time spent up to now is        5.7 secs

     total energy              =    -226.00791767 Ry
     estimated scf accuracy    <       1.17607900 Ry

     iteration #  2     ecut=    60.00 Ry     beta= 0.30
     Davidson diagonalization with overlap
     ethr =  2.26E-03,  avg # of iterations =  3.5

     negative rho (up, down):  8.029E-06 0.000E+00

     total cpu time spent up to now is        8.8 secs

     total energy              =    -225.92178571 Ry
     estimated scf accuracy    <       0.36717965 Ry

     iteration #  3     ecut=    60.00 Ry     beta= 0.30
     Davidson diagonalization with overlap
     ethr =  7.06E-04,  avg # of iterations =  5.5

     negative rho (up, down):  1.696E-05 0.000E+00

     total cpu time spent up to now is       12.3 secs

     total energy              =    -225.93494021 Ry
     estimated scf accuracy    <       0.05026839 Ry

     iteration #  4     ecut=    60.00 Ry     beta= 0.30
     Davidson diagonalization with overlap
     ethr =  9.67E-05,  avg # of iterations =  5.0

     negative rho (up, down):  2.228E-05 0.000E+00

     total cpu time spent up to now is       15.6 secs

     total energy              =    -225.93766014 Ry
     estimated scf accuracy    <       0.00501240 Ry

     iteration #  5     ecut=    60.00 Ry     beta= 0.30
     Davidson diagonalization with overlap
     ethr =  9.64E-06,  avg # of iterations =  6.5

     negative rho (up, down):  2.097E-05 0.000E+00

     total cpu time spent up to now is       19.8 secs

     total energy              =    -225.93819288 Ry
     estimated scf accuracy    <       0.00052771 Ry

     iteration #  6     ecut=    60.00 Ry     beta= 0.30
     Davidson diagonalization with overlap
     c_bands:  1 eigenvalues not converged
     c_bands:  1 eigenvalues not converged
     ethr =  1.01E-06,  avg # of iterations =  5.2

     negative rho (up, down):  2.144E-05 0.000E+00

     total cpu time spent up to now is       23.6 secs

     total energy              =    -225.93829338 Ry
     estimated scf accuracy    <       0.00009295 Ry

     iteration #  7     ecut=    60.00 Ry     beta= 0.30
     Davidson diagonalization with overlap
     ethr =  1.79E-07,  avg # of iterations =  3.5

     negative rho (up, down):  2.081E-05 0.000E+00

     total cpu time spent up to now is       26.9 secs

     total energy              =    -225.93830242 Ry
     estimated scf accuracy    <       0.00003556 Ry

     iteration #  8     ecut=    60.00 Ry     beta= 0.30
     Davidson diagonalization with overlap
     ethr =  6.84E-08,  avg # of iterations =  2.1

     negative rho (up, down):  2.073E-05 0.000E+00

     total cpu time spent up to now is       29.8 secs

     total energy              =    -225.93830820 Ry
     estimated scf accuracy    <       0.00000277 Ry

     iteration #  9     ecut=    60.00 Ry     beta= 0.30
     Davidson diagonalization with overlap
     ethr =  5.32E-09,  avg # of iterations =  2.2

     negative rho (up, down):  2.068E-05 0.000E+00

     total cpu time spent up to now is       33.0 secs

     total energy              =    -225.93830879 Ry
     estimated scf accuracy    <       0.00000169 Ry

     iteration # 10     ecut=    60.00 Ry     beta= 0.30
     Davidson diagonalization with overlap
     ethr =  3.24E-09,  avg # of iterations =  2.0

     negative rho (up, down):  2.071E-05 0.000E+00

     total cpu time spent up to now is       36.1 secs

     total energy              =    -225.93830885 Ry
     estimated scf accuracy    <       0.00000053 Ry

     iteration # 11     ecut=    60.00 Ry     beta= 0.30
     Davidson diagonalization with overlap
     ethr =  1.02E-09,  avg # of iterations =  2.4

     negative rho (up, down):  2.076E-05 0.000E+00

     total cpu time spent up to now is       39.2 secs

     total energy              =    -225.93830900 Ry
     estimated scf accuracy    <       0.00000005 Ry

     iteration # 12     ecut=    60.00 Ry     beta= 0.30
     Davidson diagonalization with overlap
     ethr =  9.31E-11,  avg # of iterations =  3.4

     negative rho (up, down):  2.080E-05 0.000E+00

     total cpu time spent up to now is       43.1 secs

     total energy              =    -225.93830897 Ry
     estimated scf accuracy    <       0.00000014 Ry

     iteration # 13     ecut=    60.00 Ry     beta= 0.30
     Davidson diagonalization with overlap
     ethr =  9.31E-11,  avg # of iterations =  3.1

     negative rho (up, down):  2.093E-05 0.000E+00

     total cpu time spent up to now is       46.6 secs

     End of self-consistent calculation

          k = 0.0000-0.0000 0.0000 (  7793 PWs)   bands (ev):

   -15.9175 -14.8465 -13.0929 -10.8936  -8.6969  -7.5669  -7.3634  -6.4332
    -4.8554  -4.4380  -4.0249  -2.9252  -2.7893  -2.1141  -1.0822  -0.6873
    -0.4814  -0.2692   1.0344   1.7531   2.0407   2.5477   3.8413   3.9379
     4.1826   4.6900   6.8958   7.1806   9.6712   9.7578  10.8591

          k = 0.0000-0.1020 0.0000 (  7727 PWs)   bands (ev):

   -15.7314 -14.6661 -12.9297 -10.8076  -9.4971  -9.2183  -6.8527  -6.0212
    -5.5513  -4.0737  -3.5808  -3.0217  -1.8767  -1.8705  -1.0699  -0.9056
    -0.1183   0.2028   1.1238   1.4522   2.3127   2.5005   3.5529   3.6482
     4.0494   4.1155   7.1007   7.4106   9.7827   9.8558  10.6913

          k = 0.0000-0.2041 0.0000 (  7733 PWs)   bands (ev):

   -15.1758 -14.1308 -12.4634 -11.4089 -10.6076 -10.5494  -7.3524  -6.7477
    -5.4504  -4.4038  -3.0574  -1.7603  -1.7369  -0.7912  -0.3831  -0.2019
     0.3217   0.3904   1.3685   1.9781   1.9944   2.3406   2.8267   2.9033
     3.2270   3.5183   7.7474   7.9851   9.9934  10.2826  10.7286

          k = 0.0000-0.3061 0.0000 (  7740 PWs)   bands (ev):

   -14.2602 -13.2993 -12.9372 -12.1609 -11.5380 -10.8910  -7.7339  -7.0812
    -5.6708  -4.7157  -2.9713  -1.9469  -0.4083   0.1300   0.4599   0.7370
     1.0006   1.1286   1.5874   1.6520   1.9335   1.9834   2.1091   2.1190
     2.5543   2.6462   8.7925   8.8136   9.7979  10.2555  10.5244

          k = 0.1111-0.0000 0.0000 (  7760 PWs)   bands (ev):

   -15.6961 -14.6276 -12.8780 -10.6839  -8.4948  -7.3695  -7.3146  -6.3917
    -4.8273  -4.2505  -3.8225  -2.7829  -2.7769  -2.0608  -1.9209  -1.2135
    -0.6210  -0.5075   0.1304   1.6371   1.6426   1.9805   2.8860   3.4391
     3.6237   4.0713   7.1043   7.4058   9.6962  10.8470  10.8566

          k = 0.1111-0.1020 0.0000 (  7769 PWs)   bands (ev):

   -15.5106 -14.4479 -12.7158 -10.5999  -9.3230  -9.0298  -6.7109  -5.8989
    -5.4884  -3.9832  -3.4844  -3.0241  -1.8750  -1.7656  -1.7212  -1.0762
    -0.9334   0.1474   0.3009   1.4051   1.6186   2.0196   2.6234   2.6540
     3.5977   4.0613   7.3369   7.6388  10.0239  10.9633  11.2819

          k = 0.1111-0.2041 0.0000 (  7746 PWs)   bands (ev):

   -14.9567 -13.9147 -12.2525 -11.2111 -10.4064 -10.3565  -7.1774  -6.5627
    -5.3049  -4.2801  -3.0618  -2.1795  -1.8115  -1.1900  -0.7169  -0.2180
    -0.1753   0.0911   0.9377   1.3192   1.4510   1.5289   1.7389   2.0624
     3.2055   3.8485   7.9991   8.2545  10.6405  10.9991  11.3428

          k = 0.1111-0.3061 0.0000 (  7748 PWs)   bands (ev):

   -14.0446 -13.0873 -12.7281 -11.9550 -11.3347 -10.6923  -7.5405  -6.8931
    -5.4995  -4.5507  -2.8802  -1.8559  -1.2341  -0.4885  -0.3295   0.0633
     0.4017   0.5438   0.8593   1.0985   1.1107   1.5959   1.8769   2.2359
     2.7312   2.8250   9.0487   9.1568  10.3139  10.5352  11.3374

          k = 0.2222-0.0000 0.0000 (  7728 PWs)   bands (ev):

   -15.0354 -13.9746 -12.2370 -10.0585  -7.8915  -7.4849  -6.7789  -6.5670
    -5.0166  -3.7074  -3.6506  -3.2317  -2.9985  -2.7769  -2.3649  -1.4238
    -1.3570  -0.7588  -0.4932   0.0270   1.0523   1.1660   1.4967   1.6888
     2.0714   3.6567   7.8050   8.0419   9.9975  10.1257  10.6141

          k = 0.2222-0.1020 0.0000 (  7790 PWs)   bands (ev):

   -14.8517 -13.7972 -12.0779  -9.9815  -8.8791  -8.4957  -6.4677  -5.8076
    -5.6654  -3.9986  -3.5854  -3.4966  -2.4350  -2.4046  -1.8289  -1.3099
    -1.0996  -0.5875  -0.4720   0.2464   0.3801   0.5405   1.3149   1.5629
     2.9087   3.3000   8.0507   8.2928  10.5289  10.6512  10.8165

          k = 0.2222-0.2041 0.0000 (  7781 PWs)   bands (ev):

   -14.3038 -13.2712 -11.6246 -10.6423  -9.8096  -9.7986  -6.7175  -6.0853
    -4.9752  -4.8684  -3.3956  -3.3803  -2.5364  -1.9142  -1.2756  -0.9621
    -0.6312  -0.5252  -0.4133   0.1359   0.2068   0.5466   1.0023   1.7878
     2.6199   3.2941   8.7234   8.9392  11.2490  11.7690  11.8538

          k = 0.2222-0.3061 0.0000 (  7785 PWs)   bands (ev):

   -13.4039 -12.4581 -12.1118 -11.3462 -10.7326 -10.1029  -6.9984  -6.3650
    -5.0714  -4.1361  -3.8677  -2.8176  -2.5490  -2.2219  -1.5894  -1.4229
    -1.1755  -0.9220   0.1788   1.0123   1.0918   1.1028   1.3638   1.6313
     2.3325   2.7465   9.7189   9.8353  11.1047  11.2017  12.4367

          k = 0.3333-0.0000 0.0000 (  7790 PWs)   bands (ev):

   -13.9474 -12.9001 -11.1832  -9.0308  -8.7378  -7.7812  -6.8970  -6.1880
    -5.8006  -4.1475  -3.9356  -3.1301  -2.8750  -2.3086  -1.9956  -1.9313
    -1.7987  -0.8043  -0.7165  -0.5224  -0.4601  -0.1580   0.2004   0.2950
     1.0517   2.8919   8.9442   8.9851   9.8328  10.1710  11.2551

          k = 0.3333-0.1020 0.0000 (  7811 PWs)   bands (ev):

   -13.7677 -12.7274 -11.0304  -9.0188  -8.8720  -8.0994  -6.7593  -6.5771
    -6.2351  -4.3672  -4.0362  -3.1355  -3.0694  -2.3858  -1.9739  -1.7210
    -1.6454  -1.1742  -0.7005  -0.6785  -0.3848  -0.2508   0.5081   0.8446
     1.3315   2.7117   9.1909   9.3044  10.3077  10.5303  11.1884

          k = 0.3333-0.2041 0.0000 (  7779 PWs)   bands (ev):

   -13.2338 -12.2176 -10.5978  -9.8903  -9.0338  -8.8486  -6.8049  -6.4146
    -6.3011  -4.9703  -4.1790  -3.7389  -3.5705  -3.2651  -2.4873  -2.1100
    -1.5522  -0.5209  -0.2854  -0.1853   0.0295   0.3419   0.4879   0.8362
     2.2098   2.2373   9.8205   9.9218  11.2833  11.5048  11.9142

          k = 0.3333-0.3061 0.0000 (  7785 PWs)   bands (ev):

   -12.3653 -11.4422 -11.1455 -10.3821  -9.7690  -9.1559  -6.3921  -6.0947
    -5.7477  -5.5485  -4.9781  -4.5492  -3.7419  -3.3785  -2.8634  -2.7308
    -1.4442  -0.7889  -0.2786  -0.1125   0.5588   0.9228   1.2213   1.4850
     1.7001   2.3248  10.5617  10.6397  11.9549  12.0449  12.3317

          k = 0.4444-0.0000 0.0000 (  7816 PWs)   bands (ev):

   -12.4605 -11.4335 -10.6473  -9.7470  -9.6494  -8.0040  -7.6303  -5.9280
    -5.5320  -4.4460  -3.8440  -2.9904  -2.7372  -2.3366  -1.8947  -1.4938
    -1.4862  -1.3570  -1.1431  -1.0112  -0.9778  -0.9178  -0.8502   0.0544
     0.6442   1.8300   9.6174  10.2385  10.3764  10.6470  10.7904

          k = 0.4444-0.1020 0.0000 (  7829 PWs)   bands (ev):

   -12.2912 -11.2725 -10.5194  -9.6128  -9.5280  -7.9395  -7.5249  -5.9057
    -5.8283  -5.6951  -4.2006  -4.0251  -3.1436  -2.4378  -1.9829  -1.8054
    -1.4493  -1.1574  -0.8603  -0.7539  -0.6821  -0.4369  -0.1990   0.2360
     0.7617   1.8151  10.2230  10.2294  10.3577  10.8700  11.2368

          k = 0.4444-0.2041 0.0000 (  7800 PWs)   bands (ev):

   -11.7972 -10.8066 -10.2328  -9.3265  -9.1726  -7.8745  -7.3192  -7.0380
    -6.6006  -5.9713  -5.6026  -5.1702  -3.3877  -3.3663  -2.3297  -2.1968
    -1.5820  -1.3764  -0.8303  -0.2599   0.0668   0.1126   0.5805   0.9779
     1.2541   1.7475  10.7510  10.8929  11.2071  11.3543  11.9002

          k = 0.4444-0.3061 0.0000 (  7786 PWs)   bands (ev):

   -11.0448 -10.3252 -10.0818  -9.4202  -8.6094  -8.0820  -7.7665  -7.0867
    -6.8997  -6.6904  -6.2117  -6.1180  -3.7308  -3.4096  -2.8313  -2.5013
    -1.7666  -1.4941  -0.7399  -0.4117   0.2261   0.3201   1.3008   1.4762
     1.6719   1.8066  11.3125  11.3157  11.9213  12.0384  12.9919

     the Fermi energy is     5.4564 ev

!    total energy              =    -225.93830900 Ry
     estimated scf accuracy    <          1.6E-09 Ry
     smearing contrib. (-TS)   =       0.00000000 Ry
     internal energy E=F+TS    =    -225.93830900 Ry

     The total energy is F=E-TS. E is the sum of the following terms:
     one-electron contribution =   -1219.87735960 Ry
     hartree contribution      =     633.85850286 Ry
     xc contribution           =     -59.03474803 Ry
     ewald contribution        =     493.06886662 Ry
     one-center paw contrib.   =     -73.95357085 Ry

     convergence has been achieved in  13 iterations

     negative rho (up, down):  2.093E-05 0.000E+00

     Forces acting on atoms (cartesian axes, Ry/au):

     atom    1 type  1   force =     0.00000000   -0.00229170   -0.00018733
     atom    2 type  1   force =     0.00000000    0.00229170   -0.00018733
     atom    3 type  1   force =     0.00000000    0.00102233   -0.00001606
     atom    4 type  1   force =     0.00000000   -0.00102233   -0.00001606
     atom    5 type  1   force =    -0.00000000   -0.00084937   -0.00001805
     atom    6 type  1   force =     0.00000000    0.00084937   -0.00001805
     atom    7 type  1   force =     0.00000000    0.00084937    0.00001805
     atom    8 type  1   force =     0.00000000   -0.00084937    0.00001805
     atom    9 type  1   force =     0.00000000   -0.00102233    0.00001606
     atom   10 type  1   force =     0.00000000    0.00102233    0.00001606
     atom   11 type  1   force =     0.00000000    0.00229170    0.00018733
     atom   12 type  1   force =    -0.00000000   -0.00229170    0.00018733
     atom   13 type  2   force =     0.00000000   -0.00007560   -0.00012884
     atom   14 type  2   force =     0.00000000    0.00007560   -0.00012884
     atom   15 type  2   force =     0.00000000    0.00007560    0.00012884
     atom   16 type  2   force =     0.00000000   -0.00007560    0.00012884

     Total force =     0.005320     Total SCF correction =     0.000091


     Computing stress (Cartesian axis) and pressure


     negative rho (up, down):  2.093E-05 0.000E+00
          total   stress  (Ry/bohr**3)                   (kbar)     P=        2.64
  -0.00021324   0.00000000   0.00000000          -31.37        0.00        0.00
   0.00000000   0.00029444   0.00000000            0.00       43.31        0.00
   0.00000000   0.00000000  -0.00002736            0.00        0.00       -4.02


     Writing all to output data dir ./tmp/slab.save/ :
     XML data file, charge density, pseudopotentials, collected wavefunctions

     init_run     :      1.79s CPU      1.92s WALL (       1 calls)
     electrons    :     40.88s CPU     44.62s WALL (       1 calls)
     forces       :      0.44s CPU      0.51s WALL (       1 calls)
     stress       :      1.30s CPU      1.54s WALL (       1 calls)

     Called by init_run:
     wfcinit      :      1.39s CPU      1.50s WALL (       1 calls)
     potinit      :      0.21s CPU      0.23s WALL (       1 calls)
     hinit0       :      0.12s CPU      0.12s WALL (       1 calls)

     Called by electrons:
     c_bands      :     32.63s CPU     35.80s WALL (      13 calls)
     sum_band     :      5.16s CPU      5.49s WALL (      13 calls)
     v_of_rho     :      0.74s CPU      0.79s WALL (      14 calls)
     newd         :      0.44s CPU      0.53s WALL (      14 calls)
     PAW_pot      :      1.97s CPU      2.09s WALL (      14 calls)
     mix_rho      :      0.10s CPU      0.11s WALL (      13 calls)

     Called by c_bands:
     init_us_2    :      0.55s CPU      0.60s WALL (     580 calls)
     cegterg      :     31.58s CPU     34.71s WALL (     260 calls)

     Called by *egterg:
     cdiaghg      :      0.72s CPU      0.78s WALL (    1202 calls)
     h_psi        :     24.20s CPU     25.89s WALL (    1222 calls)
     s_psi        :      1.99s CPU      2.50s WALL (    1222 calls)
     g_psi        :      0.12s CPU      0.12s WALL (     942 calls)

     Called by h_psi:
     h_psi:calbec :      2.42s CPU      3.16s WALL (    1222 calls)
     vloc_psi     :     19.47s CPU     19.75s WALL (    1222 calls)
                                        0.00s GPU  (    1222 calls)
     add_vuspsi   :      2.22s CPU      2.84s WALL (    1222 calls)

     General routines
     calbec       :      3.86s CPU      4.98s WALL (    1822 calls)
     fft          :      0.46s CPU      0.46s WALL (     205 calls)
     ffts         :      0.02s CPU      0.02s WALL (      27 calls)
     fftw         :     20.47s CPU     20.59s WALL (   53514 calls)
     interpolate  :      0.05s CPU      0.05s WALL (      14 calls)


     PWSCF        :     44.45s CPU     48.66s WALL


   This run was terminated on:  14:40:13   7Jul2026            

=------------------------------------------------------------------------------=
   JOB DONE.
=------------------------------------------------------------------------------=
Note: The following floating-point exceptions are signalling: IEEE_INVALID_FLAG IEEE_DIVIDE_BY_ZERO IEEE_OVERFLOW_FLAG IEEE_UNDERFLOW_FLAG
