
     Program PWSCF v.7.5 starts on  7Jul2026 at 13:20:16 

     This program is part of the open-source Quantum ESPRESSO suite
     for quantum simulation of materials; please cite
         "P. Giannozzi et al., J. Phys.:Condens. Matter 21 395502 (2009);
         "P. Giannozzi et al., J. Phys.:Condens. Matter 29 465901 (2017);
         "P. Giannozzi et al., J. Chem. Phys. 152 154105 (2020);
          URL http://www.quantum-espresso.org", 
     in publications or presentations arising from this work. More details at
     http://www.quantum-espresso.org/quote

     Serial version
     0 MiB available memory on the printing compute node when the environment starts

     Waiting for input...
     Reading input from standard input

     Current dimensions of program PWSCF are:
     Max number of different atomic species (ntypx) = 10
     Max number of k-points (npk) =  40000
     Max angular momentum in pseudopotentials (lmaxx) =  4
     file C.pbe-n-kjpaw_psl.1.0.0.UPF: wavefunction(s)  2S 2P renormalized
     Message from routine volume:
     axis vectors are left-handed
     Found identity + (  0.5000  0.0000  0.0000) symmetry
     This is a supercell, fractional translations are disabled
     Message from routine setup:
     using ibrav=0 with symmetry is DISCOURAGED, use correct ibrav instead


     G-vector sticks info
     --------------------
     sticks:   dense  smooth     PW     G-vecs:    dense   smooth      PW
     Sum        3449    1733    481               439367   155515   22391

     Using Slab Decomposition



     bravais-lattice index     =            0
     lattice parameter (alat)  =       9.5027  a.u.
     unit-cell volume          =    2474.5802 (a.u.)^3
     number of atoms/cell      =           32
     number of atomic types    =            2
     number of electrons       =       104.00
     number of Kohn-Sham states=           62
     kinetic-energy cutoff     =      60.0000  Ry
     charge density cutoff     =     480.0000  Ry
     scf convergence threshold =      1.0E-08
     mixing beta               =       0.3000
     number of iterations used =            8  plain     mixing
     Exchange-correlation= PBE
                           (   1   4   3   4   0   0   0)

     celldm(1)=   9.502719  celldm(2)=   0.000000  celldm(3)=   0.000000
     celldm(4)=   0.000000  celldm(5)=   0.000000  celldm(6)=   0.000000

     crystal axes: (cart. coord. in units of alat)
               a(1) = (   1.000000   0.000000   0.000000 )  
               a(2) = (   0.000000  -1.000000   0.000000 )  
               a(3) = (   0.000000   0.000000   2.883752 )  

     reciprocal axes: (cart. coord. in units 2 pi/alat)
               b(1) = (  1.000000 -0.000000 -0.000000 )  
               b(2) = ( -0.000000 -1.000000 -0.000000 )  
               b(3) = ( -0.000000 -0.000000  0.346770 )  


     PseudoPot. # 1 for C  read from file:
     ./C.pbe-n-kjpaw_psl.1.0.0.UPF
     MD5 check sum: 5d2aebdfa2cae82b50a7e79e9516da0f
     Pseudo is Projector augmented-wave + core cor, Zval =  4.0
     Generated using "atomic" code by A. Dal Corso  v.5.1
     Shape of augmentation charge: PSQ
     Using radial grid of 1073 points,  4 beta functions with: 
                l(1) =   0
                l(2) =   0
                l(3) =   1
                l(4) =   1
     Q(r) pseudized with 0 coefficients 


     PseudoPot. # 2 for H  read from file:
     ./H_ONCV_PBE-1.0.oncvpsp.upf
     MD5 check sum: 1790becc920ee074925cf490c71280fe
     Pseudo is Norm-conserving, Zval =  1.0
     Generated using ONCVPSP code by D. R. Hamann
     Using radial grid of 1166 points,  2 beta functions with: 
                l(1) =   0
                l(2) =   0

     atomic species   valence    mass     pseudopotential
     C                 4.00    12.01100     C ( 1.00)
     H                 1.00     1.00800     H ( 1.00)

      4 Sym. Ops. (no inversion) found



   Cartesian axes

     site n.     atom                  positions (alat units)
         1        C      tau(   1) = (   0.0000000  -0.1582087   1.8686243  )
         2        C      tau(   2) = (   0.2500000  -0.2299149   1.7084352  )
         3        C      tau(   3) = (   0.2500000   0.0000000   1.5011685  )
         4        C      tau(   4) = (   0.0000000   0.0000000   1.3244523  )
         5        C      tau(   5) = (   0.0000000  -0.2700851   1.1753170  )
         6        C      tau(   6) = (   0.2500000  -0.3417913   1.0151279  )
         7        C      tau(   7) = (   0.0000000  -0.8417913   1.8686243  )
         8        C      tau(   8) = (   0.2500000  -0.7700851   1.7084352  )
         9        C      tau(   9) = (   0.2500000  -0.5000000   1.5592999  )
        10        C      tau(  10) = (   0.0000000  -0.5000000   1.3825837  )
        11        C      tau(  11) = (   0.0000000  -0.7299149   1.1753170  )
        12        C      tau(  12) = (   0.2500000  -0.6582087   1.0151279  )
        13        H      tau(  13) = (   0.0000000  -0.2449080   2.0693511  )
        14        H      tau(  14) = (   0.0000000  -0.7550920   2.0693511  )
        15        H      tau(  15) = (   0.2500000  -0.2550919   0.8144011  )
        16        H      tau(  16) = (   0.2500000  -0.7449081   0.8144011  )
        17        C      tau(  17) = (   0.5000000  -0.1582087   1.8686243  )
        18        C      tau(  18) = (   0.7500000  -0.2299149   1.7084352  )
        19        C      tau(  19) = (   0.7500000   0.0000000   1.5011685  )
        20        C      tau(  20) = (   0.5000000   0.0000000   1.3244523  )
        21        C      tau(  21) = (   0.5000000  -0.2700851   1.1753170  )
        22        C      tau(  22) = (   0.7500000  -0.3417913   1.0151279  )
        23        C      tau(  23) = (   0.5000000  -0.8417913   1.8686243  )
        24        C      tau(  24) = (   0.7500000  -0.7700851   1.7084352  )
        25        C      tau(  25) = (   0.7500000  -0.5000000   1.5592999  )
        26        C      tau(  26) = (   0.5000000  -0.5000000   1.3825837  )
        27        C      tau(  27) = (   0.5000000  -0.7299149   1.1753170  )
        28        C      tau(  28) = (   0.7500000  -0.6582087   1.0151279  )
        29        H      tau(  29) = (   0.5000000  -0.2449080   2.0693511  )
        30        H      tau(  30) = (   0.5000000  -0.7550920   2.0693511  )
        31        H      tau(  31) = (   0.7500000  -0.2550919   0.8144011  )
        32        H      tau(  32) = (   0.7500000  -0.7449081   0.8144011  )

     number of k points=     9  Marzari-Vanderbilt smearing, width (Ry)=  0.0100
                       cart. coord. in units 2pi/alat
        k(    1) = (   0.0000000  -0.0000000   0.0000000), wk =   0.0800000
        k(    2) = (   0.0000000  -0.2000000   0.0000000), wk =   0.1600000
        k(    3) = (   0.0000000  -0.4000000   0.0000000), wk =   0.1600000
        k(    4) = (   0.2000000  -0.2000000   0.0000000), wk =   0.3200000
        k(    5) = (   0.2000000  -0.4000000   0.0000000), wk =   0.3200000
        k(    6) = (   0.4000000  -0.4000000   0.0000000), wk =   0.3200000
        k(    7) = (  -0.2000000   0.0000000   0.0000000), wk =   0.1600000
        k(    8) = (  -0.4000000   0.0000000   0.0000000), wk =   0.1600000
        k(    9) = (  -0.4000000   0.2000000   0.0000000), wk =   0.3200000

     Dense  grid:   439367 G-vectors     FFT dimensions: (  72,  72, 192)

     Smooth grid:   155515 G-vectors     FFT dimensions: (  48,  48, 135)

     Estimated max dynamical RAM per process >       1.24 GB

     Check: negative core charge=   -0.000002

     Initial potential from superposition of free atoms

     starting charge     103.9989, renormalised to     104.0000

     negative rho (up, down):  3.904E-06 0.000E+00
     Starting wfcs are  104 randomized atomic wfcs

     total cpu time spent up to now is        5.0 secs

     Self-consistent Calculation

     iteration #  1     ecut=    60.00 Ry     beta= 0.30
     Davidson diagonalization with overlap
     ethr =  1.00E-02,  avg # of iterations =  3.0

     negative rho (up, down):  1.327E-05 0.000E+00

     total cpu time spent up to now is       15.6 secs

     total energy              =    -451.90566074 Ry
     estimated scf accuracy    <       2.51354629 Ry

     iteration #  2     ecut=    60.00 Ry     beta= 0.30
     Davidson diagonalization with overlap
     ethr =  2.42E-03,  avg # of iterations =  4.4

     negative rho (up, down):  4.602E-05 0.000E+00

     total cpu time spent up to now is       25.1 secs

     total energy              =    -451.75298894 Ry
     estimated scf accuracy    <       0.73043560 Ry

     iteration #  3     ecut=    60.00 Ry     beta= 0.30
     Davidson diagonalization with overlap
     ethr =  7.02E-04,  avg # of iterations =  7.9

     negative rho (up, down):  6.650E-05 0.000E+00

     total cpu time spent up to now is       38.0 secs

     total energy              =    -451.77696816 Ry
     estimated scf accuracy    <       0.10995113 Ry

     iteration #  4     ecut=    60.00 Ry     beta= 0.30
     Davidson diagonalization with overlap
     ethr =  1.06E-04,  avg # of iterations =  5.0

     negative rho (up, down):  8.338E-05 0.000E+00

     total cpu time spent up to now is       48.8 secs

     total energy              =    -451.78561521 Ry
     estimated scf accuracy    <       0.01035373 Ry

     iteration #  5     ecut=    60.00 Ry     beta= 0.30
     Davidson diagonalization with overlap
     ethr =  9.96E-06,  avg # of iterations =  7.9

     negative rho (up, down):  6.937E-05 0.000E+00

     total cpu time spent up to now is       62.7 secs

     total energy              =    -451.78724655 Ry
     estimated scf accuracy    <       0.00242851 Ry

     iteration #  6     ecut=    60.00 Ry     beta= 0.30
     Davidson diagonalization with overlap
     ethr =  2.34E-06,  avg # of iterations =  7.1

     negative rho (up, down):  6.982E-05 0.000E+00

     total cpu time spent up to now is       74.0 secs

     total energy              =    -451.78763881 Ry
     estimated scf accuracy    <       0.00030030 Ry

     iteration #  7     ecut=    60.00 Ry     beta= 0.30
     Davidson diagonalization with overlap
     ethr =  2.89E-07,  avg # of iterations =  2.7

     negative rho (up, down):  6.861E-05 0.000E+00

     total cpu time spent up to now is       82.5 secs

     total energy              =    -451.78767852 Ry
     estimated scf accuracy    <       0.00003181 Ry

     iteration #  8     ecut=    60.00 Ry     beta= 0.30
     Davidson diagonalization with overlap
     ethr =  3.06E-08,  avg # of iterations =  3.2

     negative rho (up, down):  6.791E-05 0.000E+00

     total cpu time spent up to now is       91.4 secs

     total energy              =    -451.78768167 Ry
     estimated scf accuracy    <       0.00001812 Ry

     iteration #  9     ecut=    60.00 Ry     beta= 0.30
     Davidson diagonalization with overlap
     ethr =  1.74E-08,  avg # of iterations =  2.1

     negative rho (up, down):  6.780E-05 0.000E+00

     total cpu time spent up to now is       99.7 secs

     total energy              =    -451.78768586 Ry
     estimated scf accuracy    <       0.00000170 Ry

     iteration # 10     ecut=    60.00 Ry     beta= 0.30
     Davidson diagonalization with overlap
     ethr =  1.64E-09,  avg # of iterations =  3.7

     negative rho (up, down):  6.774E-05 0.000E+00

     total cpu time spent up to now is      109.2 secs

     total energy              =    -451.78768585 Ry
     estimated scf accuracy    <       0.00000108 Ry

     iteration # 11     ecut=    60.00 Ry     beta= 0.30
     Davidson diagonalization with overlap
     ethr =  1.04E-09,  avg # of iterations =  3.0

     negative rho (up, down):  6.785E-05 0.000E+00

     total cpu time spent up to now is      118.3 secs

     total energy              =    -451.78768613 Ry
     estimated scf accuracy    <       0.00000005 Ry

     iteration # 12     ecut=    60.00 Ry     beta= 0.30
     Davidson diagonalization with overlap
     ethr =  4.81E-11,  avg # of iterations =  2.3

     negative rho (up, down):  6.798E-05 0.000E+00

     total cpu time spent up to now is      126.5 secs

     total energy              =    -451.78768613 Ry
     estimated scf accuracy    <       0.00000002 Ry

     iteration # 13     ecut=    60.00 Ry     beta= 0.30
     Davidson diagonalization with overlap
     ethr =  1.84E-11,  avg # of iterations =  4.8

     negative rho (up, down):  6.809E-05 0.000E+00

     total cpu time spent up to now is      137.9 secs

     total energy              =    -451.78768614 Ry
     estimated scf accuracy    <       0.00000005 Ry

     iteration # 14     ecut=    60.00 Ry     beta= 0.30
     Davidson diagonalization with overlap
     ethr =  1.84E-11,  avg # of iterations =  3.2

     negative rho (up, down):  6.840E-05 0.000E+00

     total cpu time spent up to now is      147.1 secs

     End of self-consistent calculation

          k = 0.0000-0.0000 0.0000 ( 19463 PWs)   bands (ev):

   -17.7760 -16.0811 -13.3748 -13.3748 -13.1542 -12.9872 -12.8471 -11.8127
   -11.5536 -11.5536  -9.2472  -9.2472  -9.0450  -8.7795  -8.7795  -8.7051
    -8.1392  -8.1392  -7.8316  -7.7090  -7.7090  -5.4163  -5.3329  -5.1827
    -4.7903  -4.7903  -3.9040  -3.9040  -3.4496  -3.4496  -2.6021  -2.1839
    -2.1839  -2.1309  -2.0620  -2.0620  -1.8724  -1.7240  -1.6436  -1.1465
    -1.1465  -1.1168   0.3397   0.4772   0.5220   0.5220   0.5916   0.9096
     0.9810   1.1099   1.4449   1.7191   5.4861   5.9505   7.6559   7.8497
     7.9128   8.5604   8.7466   9.0836   9.0837   9.2389

          k = 0.0000-0.2000 0.0000 ( 19461 PWs)   bands (ev):

   -17.6094 -16.0941 -14.2636 -13.3821 -13.2166 -13.2166 -11.7086 -11.5684
   -11.5684 -11.5245 -10.2865 -10.2865  -9.1449  -8.5414  -8.5414  -8.1634
    -7.7599  -7.5710  -7.5710  -7.4083  -7.4083  -5.9025  -5.0204  -4.9013
    -4.9013  -4.7666  -3.8120  -3.8120  -3.2552  -3.2552  -3.1541  -2.4612
    -2.2514  -2.2514  -1.9012  -1.8428  -1.8428  -1.8043  -1.2816  -1.1562
    -1.1562  -1.1337  -0.3257  -0.2003  -0.2003  -0.1229   0.4309   0.6998
     1.2936   1.3840   1.4459   1.7377   5.7225   6.1548   7.8897   8.2868
     8.4353   8.6169   8.7230   8.9979   9.0043   9.0044

          k = 0.0000-0.4000 0.0000 ( 19402 PWs)   bands (ev):

   -17.1309 -16.4669 -14.6212 -14.1230 -12.7808 -12.7808 -11.9484 -11.9484
   -11.3565 -10.9696 -10.8038 -10.8038  -8.9860  -8.9860  -8.6114  -7.7744
    -7.2410  -7.0961  -7.0961  -6.7485  -6.7485  -6.2693  -4.9547  -4.5697
    -4.5697  -4.4432  -3.9692  -3.6460  -3.6460  -3.2020  -3.2020  -3.0956
    -2.0598  -1.9763  -1.9763  -1.8733  -1.8733  -1.6485  -1.4943  -1.3789
    -1.3789  -1.2231  -1.2231  -1.0684  -0.4695  -0.2374   0.1353   0.1580
     0.9214   1.3048   1.8649   1.9474   6.3803   6.7325   7.4383   7.6758
     8.3525   8.7076   8.7076   8.7783   8.9880   9.0424

          k = 0.2000-0.2000 0.0000 ( 19423 PWs)   bands (ev):

   -17.4247 -15.9125 -14.7118 -14.0877 -13.2955 -13.2092 -11.6485 -11.5432
   -11.3569 -11.0439 -10.8618  -9.9170  -9.0393  -8.9052  -8.6289  -8.0185
    -7.8964  -7.6150  -7.2260  -6.2141  -6.0637  -5.8210  -5.6057  -5.0365
    -4.9566  -4.6581  -4.3297  -3.6383  -3.4808  -3.0420  -2.9977  -2.6464
    -2.3031  -2.2853  -2.2674  -1.8888  -1.7064  -1.6980  -1.4504  -1.2683
    -1.0935  -0.9480  -0.8786  -0.4402  -0.4325  -0.0881   0.2442   0.3650
     0.6791   0.7925   1.3000   1.4585   5.8928   6.3495   8.1144   8.2391
     8.3573   8.7063   8.7584   8.9190   8.9885   9.1447

          k = 0.2000-0.4000 0.0000 ( 19413 PWs)   bands (ev):

   -16.9469 -16.2840 -14.4451 -14.2456 -13.9483 -13.6055 -11.9869 -11.4960
   -11.1932 -10.8088 -10.7434 -10.3328  -8.5025  -8.4880  -8.3817  -7.8773
    -7.6734  -7.4737  -7.0921  -6.1215  -5.7220  -5.3700  -5.3411  -4.8521
    -4.6408  -4.3565  -4.1684  -3.9505  -3.9027  -3.1845  -3.0700  -2.9264
    -2.6708  -2.5716  -2.4049  -1.8671  -1.8319  -1.6836  -1.5496  -1.2286
    -1.1932  -1.0762  -0.8917  -0.8084  -0.7763  -0.7371  -0.4745   0.0282
     0.9704   1.0978   1.1439   1.4490   6.5497   6.9288   7.6048   7.8483
     8.0890   8.2747   8.4121   8.9604   9.0507   9.2834

          k = 0.4000-0.4000 0.0000 ( 19432 PWs)   bands (ev):

   -16.3970 -15.7376 -15.4896 -14.8363 -13.9214 -13.4287 -13.0688 -12.5834
   -10.7150 -10.3388 -10.0167  -9.7207  -8.7314  -8.3070  -8.0862  -7.5121
    -6.7005  -6.4619  -6.2045  -5.7293  -5.6602  -5.3522  -5.3028  -4.9891
    -4.7832  -4.7612  -4.3559  -4.1209  -3.8941  -3.8831  -3.4590  -3.2046
    -2.9052  -2.7421  -2.6553  -2.4561  -2.1397  -1.9838  -1.4591  -1.4382
    -1.2113  -1.1585  -0.9427  -0.7874  -0.6453  -0.4914  -0.1087   0.0240
     0.0251   0.2107   0.6538   1.0091   6.9760   7.4063   7.5084   7.7388
     7.8799   8.1593   8.2519   8.3422   8.5762   8.8549

          k =-0.2000 0.0000 0.0000 ( 19461 PWs)   bands (ev):

   -17.5910 -15.8998 -14.8742 -13.3103 -12.9830 -12.8148 -12.6718 -11.6481
   -11.3193 -10.6642 -10.4446 -10.1183  -9.2800  -9.1174  -8.9540  -8.5483
    -7.6792  -7.4706  -6.8995  -6.8044  -6.6497  -5.3942  -5.3656  -5.2558
    -5.1891  -5.0464  -4.1360  -3.7630  -3.6359  -3.3108  -2.6848  -2.4280
    -2.3790  -2.1849  -2.0118  -1.6812  -1.6575  -1.6079  -1.5896  -1.5208
    -1.1660  -0.7782  -0.4172  -0.0510   0.0344   0.0711   0.3356   0.6322
     0.8745   0.9440   0.9609   1.5502   5.6580   6.1413   7.9789   8.1060
     8.1890   8.2726   8.5124   8.8982   9.2647   9.3881

          k =-0.4000 0.0000 0.0000 ( 19402 PWs)   bands (ev):

   -17.0382 -16.1256 -15.3593 -14.4733 -12.4732 -12.3042 -12.1488 -11.6405
   -11.4902 -11.2888 -11.1575 -10.3533  -9.5677  -8.8454  -8.1154  -7.8120
    -7.2462  -6.9129  -6.6669  -6.4303  -5.5813  -5.5334  -5.5275  -5.1319
    -4.5911  -4.5442  -4.3870  -3.9106  -3.8466  -3.7618  -3.2482  -2.6826
    -2.4750  -2.4334  -1.7341  -1.6958  -1.4903  -1.4874  -1.4758  -1.4580
    -1.2676  -1.1822  -1.1643  -0.8311  -0.4324  -0.3463  -0.3367   0.1687
     0.2337   0.7836   1.0597   1.1019   6.1745   6.5812   7.0617   7.2331
     8.5322   8.7856   9.2685   9.3300   9.3306   9.4768

          k =-0.4000 0.2000 0.0000 ( 19413 PWs)   bands (ev):

   -16.8726 -15.9614 -15.3704 -14.4801 -13.5640 -12.7085 -12.6957 -11.8652
   -11.0545 -10.8567 -10.2876 -10.0366  -9.4638  -8.8659  -7.7277  -7.6446
    -7.2327  -6.9065  -6.6131  -6.0986  -5.7827  -5.6678  -5.3872  -4.9982
    -4.7650  -4.5924  -4.2139  -3.9765  -3.6559  -3.5858  -2.9436  -2.8967
    -2.7065  -2.6380  -2.4655  -2.0789  -1.7052  -1.6406  -1.5328  -1.2374
    -1.2288  -1.1510  -0.7244  -0.7241  -0.6647  -0.4058  -0.3014  -0.2735
    -0.0109   0.7134   0.7204   1.1457   6.3829   6.8061   7.2199   7.4530
     8.4474   8.8497   8.9383   8.9995   9.0201   9.3220

     the Fermi energy is     3.3439 ev

!    total energy              =    -451.78768615 Ry
     estimated scf accuracy    <          2.3E-09 Ry
     smearing contrib. (-TS)   =       0.00000000 Ry
     internal energy E=F+TS    =    -451.78768615 Ry

     The total energy is F=E-TS. E is the sum of the following terms:
     one-electron contribution =   -2342.82796491 Ry
     hartree contribution      =    1212.51151311 Ry
     xc contribution           =    -117.88478117 Ry
     ewald contribution        =     944.33528760 Ry
     one-center paw contrib.   =    -147.92174078 Ry

     convergence has been achieved in  14 iterations

     negative rho (up, down):  6.840E-05 0.000E+00

     Forces acting on atoms (cartesian axes, Ry/au):

     atom    1 type  1   force =     0.00000000   -0.00273479    0.00134801
     atom    2 type  1   force =    -0.00000003   -0.00281022   -0.00023625
     atom    3 type  1   force =    -0.00000006    0.00000000    0.00069184
     atom    4 type  1   force =     0.00000000   -0.00000000    0.00029964
     atom    5 type  1   force =     0.00000000    0.00281037    0.00023647
     atom    6 type  1   force =     0.00000008    0.00273503   -0.00134824
     atom    7 type  1   force =     0.00000000    0.00273479    0.00134801
     atom    8 type  1   force =    -0.00000003    0.00281022   -0.00023625
     atom    9 type  1   force =    -0.00000006    0.00000000   -0.00029978
     atom   10 type  1   force =     0.00000000    0.00000000   -0.00069187
     atom   11 type  1   force =     0.00000000   -0.00281037    0.00023647
     atom   12 type  1   force =     0.00000008   -0.00273503   -0.00134824
     atom   13 type  2   force =     0.00000000   -0.00122638    0.00066036
     atom   14 type  2   force =     0.00000000    0.00122638    0.00066036
     atom   15 type  2   force =     0.00000002    0.00122634   -0.00066023
     atom   16 type  2   force =     0.00000002   -0.00122634   -0.00066023
     atom   17 type  1   force =     0.00000000   -0.00273483    0.00134802
     atom   18 type  1   force =     0.00000003   -0.00281022   -0.00023625
     atom   19 type  1   force =     0.00000006   -0.00000000    0.00069184
     atom   20 type  1   force =     0.00000000   -0.00000000    0.00029959
     atom   21 type  1   force =     0.00000000    0.00281034    0.00023643
     atom   22 type  1   force =    -0.00000008    0.00273503   -0.00134824
     atom   23 type  1   force =     0.00000000    0.00273483    0.00134802
     atom   24 type  1   force =     0.00000003    0.00281022   -0.00023625
     atom   25 type  1   force =     0.00000006    0.00000000   -0.00029978
     atom   26 type  1   force =     0.00000000    0.00000000   -0.00069194
     atom   27 type  1   force =     0.00000000   -0.00281034    0.00023643
     atom   28 type  1   force =    -0.00000008   -0.00273503   -0.00134824
     atom   29 type  2   force =     0.00000000   -0.00122639    0.00066037
     atom   30 type  2   force =     0.00000000    0.00122639    0.00066037
     atom   31 type  2   force =    -0.00000002    0.00122634   -0.00066023
     atom   32 type  2   force =    -0.00000002   -0.00122634   -0.00066023

     Total force =     0.012482     Total SCF correction =     0.000133


     Computing stress (Cartesian axis) and pressure


     negative rho (up, down):  6.840E-05 0.000E+00
          total   stress  (Ry/bohr**3)                   (kbar)     P=        0.44
   0.00019623   0.00000000   0.00000000           28.87        0.00        0.00
   0.00000000  -0.00020095   0.00000000            0.00      -29.56        0.00
   0.00000000   0.00000000   0.00001373            0.00        0.00        2.02


     Writing all to output data dir ./tmp/slab.save/ :
     XML data file, charge density, pseudopotentials, collected wavefunctions

     init_run     :      4.57s CPU      5.00s WALL (       1 calls)
     electrons    :    126.55s CPU    142.08s WALL (       1 calls)
     forces       :      1.46s CPU      1.67s WALL (       1 calls)
     stress       :      3.56s CPU      4.18s WALL (       1 calls)

     Called by init_run:
     wfcinit      :      3.78s CPU      4.07s WALL (       1 calls)
     potinit      :      0.47s CPU      0.55s WALL (       1 calls)
     hinit0       :      0.15s CPU      0.15s WALL (       1 calls)

     Called by electrons:
     c_bands      :    104.38s CPU    117.43s WALL (      14 calls)
     sum_band     :     14.30s CPU     15.46s WALL (      14 calls)
     v_of_rho     :      2.25s CPU      2.46s WALL (      15 calls)
     newd         :      1.37s CPU      1.93s WALL (      15 calls)
     PAW_pot      :      4.31s CPU      4.90s WALL (      15 calls)
     mix_rho      :      0.29s CPU      0.35s WALL (      14 calls)

     Called by c_bands:
     init_us_2    :      1.13s CPU      1.25s WALL (     279 calls)
     cegterg      :    101.83s CPU    114.78s WALL (     126 calls)

     Called by *egterg:
     cdiaghg      :      1.77s CPU      1.92s WALL (     669 calls)
     h_psi        :     73.21s CPU     78.60s WALL (     678 calls)
     s_psi        :      8.40s CPU     10.35s WALL (     678 calls)
     g_psi        :      0.30s CPU      0.30s WALL (     543 calls)

     Called by h_psi:
     h_psi:calbec :      7.54s CPU      9.68s WALL (     678 calls)
     vloc_psi     :     56.45s CPU     57.25s WALL (     678 calls)
                                        0.00s GPU  (     678 calls)
     add_vuspsi   :      8.96s CPU     11.20s WALL (     678 calls)

     General routines
     calbec       :     11.64s CPU     14.82s WALL (     957 calls)
     fft          :      1.42s CPU      1.43s WALL (     218 calls)
     ffts         :      0.08s CPU      0.08s WALL (      29 calls)
     fftw         :     60.24s CPU     60.67s WALL (   52012 calls)
     interpolate  :      0.15s CPU      0.17s WALL (      15 calls)


     PWSCF        :   2m16.20s CPU   2m33.05s WALL


   This run was terminated on:  13:22:49   7Jul2026            

=------------------------------------------------------------------------------=
   JOB DONE.
=------------------------------------------------------------------------------=
Note: The following floating-point exceptions are signalling: IEEE_INVALID_FLAG IEEE_DIVIDE_BY_ZERO IEEE_OVERFLOW_FLAG IEEE_UNDERFLOW_FLAG
