
     Program PWSCF v.7.3.1 starts on  2Aug2026 at 14:21:24 

     This program is part of the open-source Quantum ESPRESSO suite
     for quantum simulation of materials; please cite
         "P. Giannozzi et al., J. Phys.:Condens. Matter 21 395502 (2009);
         "P. Giannozzi et al., J. Phys.:Condens. Matter 29 465901 (2017);
         "P. Giannozzi et al., J. Chem. Phys. 152 154105 (2020);
          URL http://www.quantum-espresso.org", 
     in publications or presentations arising from this work. More details at
     http://www.quantum-espresso.org/quote

     Parallel version (MPI), running on     8 processors

     MPI processes distributed on     1 nodes
     183662 MiB available memory on the printing compute node when the environment starts

     Reading input from pw.in

     Current dimensions of program PWSCF are:
     Max number of different atomic species (ntypx) = 10
     Max number of k-points (npk) =  40000
     Max angular momentum in pseudopotentials (lmaxx) =  4
     file C.pbe-n-kjpaw_psl.1.0.0.UPF: wavefunction(s)  2S 2P renormalized
     Message from routine volume:
     axis vectors are left-handed
     Message from routine setup:
     using ibrav=0 with symmetry is DISCOURAGED, use correct ibrav instead

     R & G space division:  proc/nbgrp/npool/nimage =       8
     Subspace diagonalization in iterative solution of the eigenvalue problem:
     a serial algorithm will be used


     Parallelization info
     --------------------
     sticks:   dense  smooth     PW     G-vecs:    dense   smooth      PW
     Min         230     115     33                52522    18567    2929
     Max         231     116     35                52549    18592    2935
     Sum        1845     921    269               420313   148601   23463

     Using Slab Decomposition



     bravais-lattice index     =            0
     lattice parameter (alat)  =       4.7740  a.u.
     unit-cell volume          =    1288.0971 (a.u.)^3
     number of atoms/cell      =           24
     number of atomic types    =            2
     number of electrons       =        84.00
     number of Kohn-Sham states=           50
     kinetic-energy cutoff     =      90.0000  Ry
     charge density cutoff     =     720.0000  Ry
     scf convergence threshold =      1.0E-09
     mixing beta               =       0.3000
     number of iterations used =            8  plain     mixing
     energy convergence thresh.=      1.0E-05
     force convergence thresh. =      1.0E-04
     press convergence thresh. =      1.0E-01
     Exchange-correlation= PBE
                           (   1   4   3   4   0   0   0)
     nstep                     =           50


     celldm(1)=   4.773978  celldm(2)=   0.000000  celldm(3)=   0.000000
     celldm(4)=   0.000000  celldm(5)=   0.000000  celldm(6)=   0.000000

     crystal axes: (cart. coord. in units of alat)
               a(1) = (   1.000000   0.000000   0.000000 )  
               a(2) = (   0.000000  -1.414214   0.000000 )  
               a(3) = (   0.000000   0.000000   8.371289 )  

     reciprocal axes: (cart. coord. in units 2 pi/alat)
               b(1) = (  1.000000 -0.000000 -0.000000 )  
               b(2) = ( -0.000000 -0.707107 -0.000000 )  
               b(3) = ( -0.000000 -0.000000  0.119456 )  


     PseudoPot. # 1 for C  read from file:
     ./C.pbe-n-kjpaw_psl.1.0.0.UPF
     MD5 check sum: 5d2aebdfa2cae82b50a7e79e9516da0f
     Pseudo is Projector augmented-wave + core cor, Zval =  4.0
     Generated using "atomic" code by A. Dal Corso  v.5.1
     Shape of augmentation charge: PSQ
     Using radial grid of 1073 points,  4 beta functions with: 
                l(1) =   0
                l(2) =   0
                l(3) =   1
                l(4) =   1
     Q(r) pseudized with 0 coefficients 


     PseudoPot. # 2 for H  read from file:
     ./H_ONCV_PBE-1.0.oncvpsp.upf
     MD5 check sum: 1790becc920ee074925cf490c71280fe
     Pseudo is Norm-conserving, Zval =  1.0
     Generated using ONCVPSP code by D. R. Hamann
     Using radial grid of 1166 points,  2 beta functions with: 
                l(1) =   0
                l(2) =   0

     atomic species   valence    mass     pseudopotential
     C                 4.00    12.01100     C ( 1.00)
     H                 1.00     1.00800     H ( 1.00)

      8 Sym. Ops., with inversion, found ( 6 have fractional translation)



   Cartesian axes

     site n.     atom                  positions (alat units)
         1        C      tau(   1) = (   0.5000000  -0.7071068   6.4356447  )
         2        C      tau(   2) = (   0.0000000  -0.3535534   6.4356447  )
         3        C      tau(   3) = (   0.0000000   0.0000000   5.9356447  )
         4        C      tau(   4) = (   0.5000000  -1.0606602   5.9356447  )
         5        C      tau(   5) = (   0.0000000  -0.3535534   5.4356447  )
         6        C      tau(   6) = (   0.5000000  -0.7071068   5.4356447  )
         7        C      tau(   7) = (   0.5000000  -1.0606602   4.9356447  )
         8        C      tau(   8) = (   0.0000000   0.0000000   4.9356447  )
         9        C      tau(   9) = (   0.0000000  -0.3535534   4.4356447  )
        10        C      tau(  10) = (   0.5000000  -0.7071068   4.4356447  )
        11        C      tau(  11) = (   0.0000000   0.0000000   3.9356447  )
        12        C      tau(  12) = (   0.5000000  -1.0606602   3.9356447  )
        13        C      tau(  13) = (   0.0000000  -0.3535534   3.4356447  )
        14        C      tau(  14) = (   0.5000000  -0.7071068   3.4356447  )
        15        C      tau(  15) = (   0.5000000  -1.0606602   2.9356447  )
        16        C      tau(  16) = (   0.0000000   0.0000000   2.9356447  )
        17        C      tau(  17) = (   0.0000000  -0.3535534   2.4356447  )
        18        C      tau(  18) = (   0.5000000  -0.7071068   2.4356447  )
        19        C      tau(  19) = (   0.5000000  -1.0606602   1.9356447  )
        20        C      tau(  20) = (   0.0000000   0.0000000   1.9356447  )
        21        H      tau(  21) = (   0.5000000  -0.9562128   6.7879338  )
        22        H      tau(  22) = (   0.0000000  -0.1044473   6.7879338  )
        23        H      tau(  23) = (   0.5000000  -0.8115541   1.5833556  )
        24        H      tau(  24) = (   0.0000000  -0.2491061   1.5833556  )

     number of k points=    24  Marzari-Vanderbilt smearing, width (Ry)=  0.0100
                       cart. coord. in units 2pi/alat
        k(    1) = (   0.0000000  -0.0000000   0.0000000), wk =   0.0285714
        k(    2) = (   0.0000000  -0.1010153   0.0000000), wk =   0.0571429
        k(    3) = (   0.0000000  -0.2020305   0.0000000), wk =   0.0571429
        k(    4) = (   0.0000000  -0.3030458   0.0000000), wk =   0.0571429
        k(    5) = (   0.1000000  -0.0000000   0.0000000), wk =   0.0571429
        k(    6) = (   0.1000000  -0.1010153   0.0000000), wk =   0.1142857
        k(    7) = (   0.1000000  -0.2020305   0.0000000), wk =   0.1142857
        k(    8) = (   0.1000000  -0.3030458   0.0000000), wk =   0.1142857
        k(    9) = (   0.2000000  -0.0000000   0.0000000), wk =   0.0571429
        k(   10) = (   0.2000000  -0.1010153   0.0000000), wk =   0.1142857
        k(   11) = (   0.2000000  -0.2020305   0.0000000), wk =   0.1142857
        k(   12) = (   0.2000000  -0.3030458   0.0000000), wk =   0.1142857
        k(   13) = (   0.3000000  -0.0000000   0.0000000), wk =   0.0571429
        k(   14) = (   0.3000000  -0.1010153   0.0000000), wk =   0.1142857
        k(   15) = (   0.3000000  -0.2020305   0.0000000), wk =   0.1142857
        k(   16) = (   0.3000000  -0.3030458   0.0000000), wk =   0.1142857
        k(   17) = (   0.4000000  -0.0000000   0.0000000), wk =   0.0571429
        k(   18) = (   0.4000000  -0.1010153   0.0000000), wk =   0.1142857
        k(   19) = (   0.4000000  -0.2020305   0.0000000), wk =   0.1142857
        k(   20) = (   0.4000000  -0.3030458   0.0000000), wk =   0.1142857
        k(   21) = (  -0.5000000   0.0000000   0.0000000), wk =   0.0285714
        k(   22) = (  -0.5000000  -0.1010153   0.0000000), wk =   0.0571429
        k(   23) = (  -0.5000000  -0.2020305   0.0000000), wk =   0.0571429
        k(   24) = (  -0.5000000  -0.3030458   0.0000000), wk =   0.0571429

     Dense  grid:   420313 G-vectors     FFT dimensions: (  48,  60, 360)

     Smooth grid:   148601 G-vectors     FFT dimensions: (  30,  48, 243)

     Estimated max dynamical RAM per process >     166.17 MB

     Estimated total dynamical RAM >       1.30 GB

     Check: negative core charge=   -0.000001

     Initial potential from superposition of free atoms

     starting charge      83.9991, renormalised to      84.0000
     Starting wfcs are   84 randomized atomic wfcs
     Checking if some PAW data can be deallocated... 

     total cpu time spent up to now is        3.0 secs

     Self-consistent Calculation

     iteration #  1     ecut=    90.00 Ry     beta= 0.30
     Davidson diagonalization with overlap
     ethr =  1.00E-02,  avg # of iterations =  2.7

     total cpu time spent up to now is        7.8 secs

     total energy              =    -373.54475454 Ry
     estimated scf accuracy    <       1.59800940 Ry

     iteration #  2     ecut=    90.00 Ry     beta= 0.30
     Davidson diagonalization with overlap
     ethr =  1.90E-03,  avg # of iterations =  4.4

     negative rho (up, down):  3.887E-07 0.000E+00

     total cpu time spent up to now is       11.9 secs

     total energy              =    -373.37616906 Ry
     estimated scf accuracy    <       0.56157425 Ry

     iteration #  3     ecut=    90.00 Ry     beta= 0.30
     Davidson diagonalization with overlap
     ethr =  6.69E-04,  avg # of iterations =  5.6

     negative rho (up, down):  1.624E-06 0.000E+00

     total cpu time spent up to now is       16.2 secs

     total energy              =    -373.40387238 Ry
     estimated scf accuracy    <       0.05541682 Ry

     iteration #  4     ecut=    90.00 Ry     beta= 0.30
     Davidson diagonalization with overlap
     ethr =  6.60E-05,  avg # of iterations =  7.8

     negative rho (up, down):  2.759E-06 0.000E+00

     total cpu time spent up to now is       21.3 secs

     total energy              =    -373.40862794 Ry
     estimated scf accuracy    <       0.00632394 Ry

     iteration #  5     ecut=    90.00 Ry     beta= 0.30
     Davidson diagonalization with overlap
     ethr =  7.53E-06,  avg # of iterations =  6.7

     negative rho (up, down):  3.502E-06 0.000E+00

     total cpu time spent up to now is       26.4 secs

     total energy              =    -373.40935022 Ry
     estimated scf accuracy    <       0.00099220 Ry

     iteration #  6     ecut=    90.00 Ry     beta= 0.30
     Davidson diagonalization with overlap
     ethr =  1.18E-06,  avg # of iterations =  6.3

     negative rho (up, down):  3.891E-06 0.000E+00

     total cpu time spent up to now is       31.0 secs

     total energy              =    -373.40941218 Ry
     estimated scf accuracy    <       0.00023597 Ry

     iteration #  7     ecut=    90.00 Ry     beta= 0.30
     Davidson diagonalization with overlap
     ethr =  2.81E-07,  avg # of iterations =  2.0

     negative rho (up, down):  4.099E-06 0.000E+00

     total cpu time spent up to now is       35.1 secs

     total energy              =    -373.40944210 Ry
     estimated scf accuracy    <       0.00004756 Ry

     iteration #  8     ecut=    90.00 Ry     beta= 0.30
     Davidson diagonalization with overlap
     ethr =  5.66E-08,  avg # of iterations =  2.4

     negative rho (up, down):  4.050E-06 0.000E+00

     total cpu time spent up to now is       39.5 secs

     total energy              =    -373.40945259 Ry
     estimated scf accuracy    <       0.00001748 Ry

     iteration #  9     ecut=    90.00 Ry     beta= 0.30
     Davidson diagonalization with overlap
     ethr =  2.08E-08,  avg # of iterations =  2.0

     negative rho (up, down):  4.084E-06 0.000E+00

     total cpu time spent up to now is       43.6 secs

     total energy              =    -373.40945652 Ry
     estimated scf accuracy    <       0.00000094 Ry

     iteration # 10     ecut=    90.00 Ry     beta= 0.30
     Davidson diagonalization with overlap
     ethr =  1.12E-09,  avg # of iterations =  3.0

     negative rho (up, down):  4.090E-06 0.000E+00

     total cpu time spent up to now is       48.0 secs

     total energy              =    -373.40945669 Ry
     estimated scf accuracy    <       0.00000035 Ry

     iteration # 11     ecut=    90.00 Ry     beta= 0.30
     Davidson diagonalization with overlap
     ethr =  4.11E-10,  avg # of iterations =  2.0

     negative rho (up, down):  4.100E-06 0.000E+00

     total cpu time spent up to now is       51.6 secs

     total energy              =    -373.40945670 Ry
     estimated scf accuracy    <       0.00000008 Ry

     iteration # 12     ecut=    90.00 Ry     beta= 0.30
     Davidson diagonalization with overlap
     ethr =  9.41E-11,  avg # of iterations =  3.3

     negative rho (up, down):  4.112E-06 0.000E+00

     total cpu time spent up to now is       56.1 secs

     total energy              =    -373.40945672 Ry
     estimated scf accuracy    <       0.00000003 Ry

     iteration # 13     ecut=    90.00 Ry     beta= 0.30
     Davidson diagonalization with overlap
     ethr =  3.64E-11,  avg # of iterations =  2.1

     negative rho (up, down):  4.121E-06 0.000E+00

     total cpu time spent up to now is       60.1 secs

     total energy              =    -373.40945672 Ry
     estimated scf accuracy    <          3.7E-09 Ry

     iteration # 14     ecut=    90.00 Ry     beta= 0.30
     Davidson diagonalization with overlap
     ethr =  4.39E-12,  avg # of iterations =  3.9

     negative rho (up, down):  4.128E-06 0.000E+00

     total cpu time spent up to now is       65.0 secs

     total energy              =    -373.40945672 Ry
     estimated scf accuracy    <          5.0E-09 Ry

     iteration # 15     ecut=    90.00 Ry     beta= 0.30
     Davidson diagonalization with overlap
     ethr =  4.39E-12,  avg # of iterations =  2.3

     negative rho (up, down):  4.147E-06 0.000E+00

     total cpu time spent up to now is       69.0 secs

     End of self-consistent calculation

          k = 0.0000-0.0000 0.0000 ( 18619 PWs)   bands (ev):

   -14.1921 -13.7162 -12.9562 -11.9365 -10.6903  -9.2662  -7.7559  -6.3960
    -5.6859  -5.6297  -5.5334  -5.1181  -4.4525  -3.5525  -2.5022  -2.4353
    -2.1484  -1.8919  -1.1179  -0.9161  -0.8412   0.2825   0.3791   0.5007
     0.9220   1.3200   1.9366   2.0206   2.0398   2.7275   3.6321   3.6620
     3.7340   4.5717   5.2309   5.3630   5.4519   6.1791   6.5080   6.5967
     6.6900   6.9711   8.8826   9.3285  11.6179  11.9605  12.3559  12.5218
    12.7902  12.8120

          k = 0.0000-0.1010 0.0000 ( 18587 PWs)   bands (ev):

   -14.0048 -13.5304 -12.7731 -11.7591 -10.5257  -9.1379  -7.7839  -7.7217
    -7.3621  -7.1010  -4.7047  -4.6751  -3.7648  -3.7383  -3.3357  -2.4722
    -1.4516  -1.4049  -0.7891  -0.5456  -0.4184   0.4830   0.6517   0.8484
     1.1023   1.4915   1.9325   2.0910   2.5350   2.8518   3.3800   3.7055
     4.1282   4.5616   4.8824   5.3140   5.4777   5.8693   6.1136   6.1942
     6.3299   6.4603   9.1016   9.5430  11.7785  11.7882  12.4919  12.9145
    13.0314  13.2550

          k = 0.0000-0.2020 0.0000 ( 18570 PWs)   bands (ev):

   -13.4451 -12.9753 -12.2278 -11.2347 -10.0553  -9.6297  -9.2093  -8.8718
    -8.5557  -8.1806  -5.5201  -5.3113  -4.3191  -4.1001  -2.6974  -2.5332
    -1.3225  -0.8195   0.1069   0.3039   0.9824   1.1274   1.2348   1.6370
     1.7232   1.9980   2.5426   2.6008   2.8397   3.2074   3.6046   3.9014
     4.1763   4.5093   4.6315   4.9195   5.0134   5.0952   5.1017   5.1575
     5.6348   5.6734   9.7517  10.1231  11.7781  12.1553  12.4825  13.0371
    13.2217  13.4233

          k = 0.0000-0.3030 0.0000 ( 18524 PWs)   bands (ev):

   -12.5196 -12.0598 -11.3373 -11.2409 -10.7926 -10.4141 -10.0743  -9.4431
    -9.1439  -8.7243  -6.0367  -5.5366  -5.0010  -4.0890  -3.3546  -2.3450
    -1.5406  -0.4897   0.2037   1.2912   1.8429   2.0187   2.5052   2.6941
     2.8131   2.9327   3.1273   3.2539   3.5471   3.6628   3.7400   3.8807
     3.9837   4.0081   4.1479   4.1513   4.3603   4.3766   4.3804   4.4774
     4.6039   4.6465  10.7694  10.9486  11.8575  12.0299  12.2822  12.7245
    12.9917  13.4751

          k = 0.1000-0.0000 0.0000 ( 18585 PWs)   bands (ev):

   -14.0084 -13.5333 -12.7744 -11.7565 -10.5126  -9.0915  -7.5853  -6.2310
    -5.5240  -5.4755  -5.4657  -5.0638  -4.4038  -3.5113  -2.4037  -2.3425
    -1.9845  -1.7451  -1.0981  -0.7670  -0.7059   0.0633   0.3842   0.4399
     0.4735   0.5849   1.1089   1.9218   2.0065   2.0639   2.8481   3.5815
     3.6894   3.7994   4.6728   4.9672   5.2335   5.4078   5.8081   5.9708
     6.0474   6.5074   9.0765   9.5082  11.7382  12.4698  12.6190  12.6984
    12.9994  13.1074

          k = 0.1000-0.1010 0.0000 ( 18588 PWs)   bands (ev):

   -13.8216 -13.3479 -12.5919 -11.5798 -10.3489  -8.9646  -7.6170  -7.5728
    -7.2137  -6.9474  -4.5856  -4.5496  -3.6563  -3.6509  -3.3075  -2.3773
    -1.3812  -1.3513  -0.7356  -0.4430  -0.4190   0.3270   0.5798   0.6344
     0.7717   0.8942   1.3434   1.8943   2.1138   2.5289   2.9625   3.3047
     3.7965   4.0005   4.5203   4.6336   4.8184   4.9930   5.2056   5.6358
     6.1412   6.5044   9.3073   9.7346  11.9994  12.5191  13.1206  13.1290
    13.4203  13.5913

          k = 0.1000-0.2020 0.0000 ( 18563 PWs)   bands (ev):

   -13.2631 -12.7942 -12.0483 -11.0574  -9.8813  -9.4637  -9.0452  -8.7034
    -8.3941  -8.0194  -5.3629  -5.1627  -4.1683  -3.9635  -2.5796  -2.4127
    -1.3943  -0.7427  -0.0356   0.0398   0.6179   1.0765   1.1402   1.2957
     1.3675   1.7117   2.1753   2.3092   2.7389   2.8144   3.3295   3.3715
     3.6813   3.7440   3.7621   3.8978   3.9449   4.2510   4.6364   5.2780
     5.9156   6.0068   9.9672  10.3456  12.5008  12.5410  13.1046  13.5987
    13.7693  14.3761

          k = 0.1000-0.3030 0.0000 ( 18556 PWs)   bands (ev):

   -12.3402 -11.8815 -11.1610 -11.0662 -10.6194 -10.2407  -9.9040  -9.2740
    -8.9778  -8.5602  -5.8722  -5.3752  -4.8450  -3.9376  -3.2118  -2.2079
    -1.4269  -0.3840   0.1522   1.0761   1.1493   1.4817   1.8324   1.9650
     2.3077   2.4740   2.5000   2.8157   2.9029   3.0669   3.2312   3.3149
     3.3246   3.5682   3.6466   3.8566   3.9559   4.1030   4.5840   4.5899
     4.9193   4.9320  10.9972  11.2367  12.3589  12.4364  12.8119  13.2715
    13.4738  14.0629

          k = 0.2000-0.0000 0.0000 ( 18601 PWs)   bands (ev):

   -13.4595 -12.9866 -12.2315 -11.2189  -9.9821  -8.5702  -7.0760  -5.7374
    -5.4934  -5.0879  -5.0394  -4.9753  -4.4376  -3.5576  -2.4653  -1.8760
    -1.5281  -1.5091  -1.3158  -1.1797  -1.1023  -0.4481  -0.4049  -0.2490
     0.2807   0.3850   0.7994   0.9019   1.3187   1.8716   2.0731   2.2486
     3.0523   3.2500   3.5119   3.6318   3.9663   4.1001   4.1320   4.6059
     5.0452   6.1689   9.6772  10.0471  11.8617  12.0247  12.2933  12.5489
    13.0762  13.1736

          k = 0.2000-0.1010 0.0000 ( 18549 PWs)   bands (ev):

   -13.2740 -12.8026 -12.0507 -11.0442  -9.8211  -8.4474  -7.1674  -7.1217
    -6.8036  -6.5076  -4.3145  -4.2758  -3.6208  -3.5740  -3.4075  -2.1717
    -1.5839  -1.5277  -1.0268  -0.8072  -0.6774  -0.2245  -0.0304   0.2443
     0.4417   0.8587   1.0200   1.1427   1.5651   1.7601   2.3539   2.4124
     2.8389   2.8506   2.9067   3.0419   3.2359   3.8297   4.5625   4.8935
     5.5414   5.7714   9.9164  10.2894  12.3996  12.6676  12.7430  12.9307
    13.2962  13.3432

          k = 0.2000-0.2020 0.0000 ( 18536 PWs)   bands (ev):

   -12.7198 -12.2537 -11.5125 -10.5286  -9.3622  -8.9796  -8.5669  -8.2034
    -7.9198  -7.5427  -4.9238  -4.7496  -3.7676  -3.5895  -2.5356  -2.4455
    -2.1027  -1.2358  -0.9507  -0.4498  -0.0994  -0.0801   0.7804   1.0932
     1.2470   1.2986   1.3003   1.8667   1.8814   1.9654   2.0556   2.0981
     2.2695   2.4311   2.7065   2.8084   3.2980   3.5063   4.5432   4.6091
     5.4556   5.6988  10.5818  10.9252  13.1427  13.5198  13.8015  13.8784
    14.0853  14.0963

          k = 0.2000-0.3030 0.0000 ( 18533 PWs)   bands (ev):

   -11.8056 -11.3505 -10.6360 -10.5483 -10.1064  -9.7245  -9.3994  -8.7711
    -8.4843  -8.0715  -5.3987  -4.9098  -4.4003  -3.5067  -2.8293  -1.8448
    -1.4127  -1.3886  -0.3929  -0.3448  -0.1465  -0.0770   0.5610   0.5831
     0.8986   0.9763   1.4072   1.4592   1.7742   1.9130   2.3698   3.0740
     3.1912   3.2333   3.3270   3.5477   3.5592   3.6424   3.9305   4.4888
     4.8315   4.9051  11.5853  11.8167  13.0883  13.1082  13.9958  14.1984
    14.5012  14.6845

          k = 0.3000-0.0000 0.0000 ( 18564 PWs)   bands (ev):

   -12.5527 -12.0837 -11.3352 -10.3318  -9.1072  -7.7106  -6.3114  -6.2356
    -5.8928  -5.2230  -4.9204  -4.3202  -4.2354  -4.1622  -3.2061  -2.2300
    -1.9106  -1.8206  -1.2074  -1.1446  -0.7943  -0.6222  -0.4572  -0.4336
     0.0763   0.4060   0.5115   1.0005   1.0233   1.2179   1.6359   1.7639
     1.8959   1.9508   2.0347   2.2459   2.5157   2.8185   2.8902   3.1046
     4.4851   5.5558  10.6285  10.8812  11.6045  11.6238  12.2746  12.5447
    13.2294  13.4466

          k = 0.3000-0.1010 0.0000 ( 18545 PWs)   bands (ev):

   -12.3699 -11.9027 -11.1577 -10.1613  -8.9514  -7.5957  -6.8599  -6.4974
    -6.2782  -5.9900  -4.5948  -4.4430  -4.4248  -4.3318  -3.4935  -2.2596
    -2.1255  -1.6819  -1.5278  -1.0203  -0.8876  -0.6901   0.1038   0.3361
     0.3565   0.5215   0.7017   0.8046   0.8509   0.9759   1.3643   1.4385
     1.6563   1.7841   1.8389   2.0321   2.8048   2.8677   3.6185   3.9176
     4.3000   5.3060  10.8856  11.1540  12.2301  12.2350  12.5574  12.8213
    13.2031  13.4275

          k = 0.3000-0.2020 0.0000 ( 18570 PWs)   bands (ev):

   -11.8249 -11.3637 -10.6310  -9.6591  -8.5096  -8.2625  -7.8569  -7.4047
    -7.1854  -6.7896  -4.4287  -4.3601  -4.2638  -3.9898  -3.7637  -3.1813
    -2.2258  -1.8604  -1.7566  -1.0288  -0.9362  -0.8781  -0.6736  -0.6439
     0.1281   0.3664   0.5904   0.6372   1.6050   1.7401   1.8462   1.8731
     2.0404   2.2146   2.2257   2.4442   2.4864   3.1058   3.6738   4.1809
     4.7443   4.8521  11.5296  11.7733  13.2443  13.3466  13.5912  13.8763
    13.8851  14.1154

          k = 0.3000-0.3030 0.0000 ( 18605 PWs)   bands (ev):

   -10.9307 -10.4820  -9.7781  -9.7172  -9.2839  -8.8824  -8.5898  -7.9535
    -7.6854  -7.2729  -4.7185  -4.2373  -3.8198  -3.5586  -3.1872  -2.9630
    -2.8653  -2.3904  -2.0552  -1.8617  -1.5650  -1.3361  -0.6734  -0.5400
    -0.4560  -0.2379   0.0791   0.7486   1.4709   1.8308   2.0761   2.3595
     2.6405   2.6421   2.9222   3.2676   3.4926   3.5988   3.6614   3.7079
     4.4479   4.6489  12.3906  12.5211  13.8343  13.8748  14.2822  14.3793
    14.7415  14.9181

          k = 0.4000-0.0000 0.0000 ( 18524 PWs)   bands (ev):

   -11.3041 -10.8412 -10.1026  -9.1132  -7.9832  -7.9063  -7.5432  -6.8410
    -6.5308  -5.8992  -5.0798  -4.7466  -3.7902  -3.4230  -3.1186  -3.0341
    -2.0027  -1.6416  -1.2880  -0.7598  -0.6997  -0.2326  -0.1324  -0.0127
    -0.0070   0.1024   0.3233   0.4823   0.5466   0.9666   1.0553   1.1443
     1.2577   1.2590   1.4473   1.4653   1.4932   1.5458   2.3727   2.5812
     3.6373   4.6802  11.3695  11.4581  11.8014  12.1535  12.6376  12.7107
    12.9704  13.1087

          k = 0.4000-0.1010 0.0000 ( 18559 PWs)   bands (ev):

   -11.1271 -10.6665  -9.9323  -8.9508  -7.9060  -7.7604  -7.4726  -6.7870
    -6.4259  -5.8930  -4.9960  -4.6847  -4.3633  -4.1235  -4.1129  -3.4140
    -2.0984  -1.4772  -1.3692  -1.3120  -1.1868  -1.1266  -0.6736  -0.6037
    -0.1799   0.3110   0.7000   0.9006   0.9318   0.9575   1.0339   1.1676
     1.2536   1.4145   1.7357   2.0047   2.0308   2.4813   2.5008   2.7104
     3.5526   4.5991  11.9569  11.9799  12.1468  12.1581  12.6423  12.6866
    13.1623  13.5522

          k = 0.4000-0.2020 0.0000 ( 18596 PWs)   bands (ev):

   -10.6036 -10.1504  -9.4308  -8.4770  -7.9396  -7.5368  -7.3363  -6.8913
    -6.1986  -6.1164  -5.5711  -5.1889  -4.7127  -4.6639  -4.5514  -3.5075
    -2.9995  -2.6948  -2.4774  -2.3148  -2.1326  -1.6111  -1.4217  -0.5867
    -0.2408  -0.0616   0.5045   0.6209   1.0345   1.2721   1.3654   1.7923
     1.8766   2.1748   2.2232   2.3800   2.5185   3.0776   3.2384   3.2974
     3.7875   4.3546  12.5274  12.6482  13.1460  13.1951  13.5135  13.6176
    13.8498  14.0628

          k = 0.4000-0.3030 0.0000 ( 18635 PWs)   bands (ev):

    -9.7649  -9.3267  -8.7216  -8.6397  -8.3004  -7.7792  -7.6080  -6.9109
    -6.6605  -6.2182  -5.4570  -5.0435  -4.4986  -4.4443  -4.3130  -4.0569
    -4.0481  -3.8868  -3.4954  -3.2236  -2.0330  -1.7630  -1.3399  -1.2706
    -0.8370  -0.2293   0.3912   0.6336   0.6808   1.1769   1.4839   1.7251
     2.1151   2.4714   2.7775   2.9022   3.2029   3.5494   3.6446   3.6922
     4.0125   4.2626  13.1288  13.1563  14.1064  14.1516  14.5114  14.6307
    14.9797  15.0703

          k =-0.5000 0.0000 0.0000 ( 18558 PWs)   bands (ev):

    -9.7498  -9.7498  -9.2958  -9.2958  -8.5719  -8.5719  -7.6022  -7.6022
    -6.4191  -6.4191  -5.0691  -5.0691  -3.6410  -3.6410  -2.3669  -2.3669
    -1.7022  -1.7022  -1.6045  -1.6045  -0.4177  -0.4177  -0.1408  -0.1408
     0.2351   0.2351   0.5924   0.5924   0.6875   0.6875   0.7225   0.7225
     0.8973   0.8973   0.8989   0.8989   1.3876   1.3876   2.5861   2.5861
     3.6404   3.6404  11.8654  11.8654  12.0757  12.0757  12.3911  12.3911
    13.1247  13.1247

          k =-0.5000-0.1010 0.0000 ( 18580 PWs)   bands (ev):

    -9.5897  -9.5897  -9.1390  -9.1390  -8.4210  -8.4210  -7.4612  -7.4612
    -6.2955  -6.2955  -4.9832  -4.9832  -3.6708  -3.6708  -3.0482  -3.0482
    -2.8259  -2.8259  -2.8182  -2.8182  -0.3682  -0.3682  -0.2976  -0.2976
     0.1834   0.1834   0.5646   0.5646   0.8240   0.8240   1.0342   1.0342
     1.3237   1.3237   1.5456   1.5456   1.7798   1.7798   2.6752   2.6752
     3.6864   3.6864  12.2119  12.2119  12.3709  12.3709  12.7362  12.7362
    13.1664  13.1664

          k =-0.5000-0.2020 0.0000 ( 18622 PWs)   bands (ev):

    -9.1399  -9.1399  -8.7001  -8.7001  -8.0015  -8.0015  -7.0742  -7.0742
    -5.9672  -5.9672  -4.8037  -4.8037  -4.7068  -4.7068  -4.3684  -4.3684
    -3.9177  -3.9177  -3.8902  -3.8902  -1.1348  -1.1348  -0.7428  -0.7428
    -0.3592  -0.3592   0.2189   0.2189   0.9957   0.9957   1.3134   1.3134
     2.0616   2.0616   2.5061   2.5061   2.6977   2.6977   3.0548   3.0548
     3.7893   3.7893  13.0294  13.0294  13.1552  13.1552  13.5321  13.5321
    13.9024  13.9024

          k =-0.5000-0.3030 0.0000 ( 18590 PWs)   bands (ev):

    -8.5834  -8.5834  -8.1630  -8.1630  -7.4983  -7.4983  -6.6254  -6.6254
    -5.9165  -5.9165  -5.6393  -5.6393  -5.4691  -5.4691  -4.9272  -4.9272
    -4.6106  -4.6106  -4.3698  -4.3698  -1.3625  -1.3625  -1.3157  -1.3157
    -0.3865  -0.3865  -0.1778  -0.1778   0.8979   0.8979   1.3127   1.3127
     2.1794   2.1794   2.7636   2.7636   3.2360   3.2360   3.8411   3.8411
     3.9067   3.9067  13.6867  13.6867  13.7074  13.7074  14.9278  14.9278
    15.0781  15.0782

     the Fermi energy is     7.9410 ev

!    total energy              =    -373.40945672 Ry
     estimated scf accuracy    <          2.6E-11 Ry
     smearing contrib. (-TS)   =       0.00000000 Ry
     internal energy E=F+TS    =    -373.40945672 Ry

     The total energy is F=E-TS. E is the sum of the following terms:
     one-electron contribution =   -2449.84367772 Ry
     hartree contribution      =    1270.09050974 Ry
     xc contribution           =     -96.55732667 Ry
     ewald contribution        =    1026.15906941 Ry
     one-center paw contrib.   =    -123.25803148 Ry

     convergence has been achieved in  15 iterations

     negative rho (up, down):  4.147E-06 0.000E+00

     Forces acting on atoms (cartesian axes, Ry/au):

     atom    1 type  1   force =     0.00000000    0.04611472   -0.02057028
     atom    2 type  1   force =     0.00000000   -0.04611472   -0.02057028
     atom    3 type  1   force =     0.00000000    0.00258073    0.00953684
     atom    4 type  1   force =     0.00000000   -0.00258073    0.00953684
     atom    5 type  1   force =     0.00000000   -0.00066142    0.00094613
     atom    6 type  1   force =     0.00000000    0.00066142    0.00094613
     atom    7 type  1   force =     0.00000000   -0.00018010    0.00029498
     atom    8 type  1   force =     0.00000000    0.00018010    0.00029498
     atom    9 type  1   force =    -0.00000000   -0.00008687    0.00007458
     atom   10 type  1   force =     0.00000000    0.00008687    0.00007458
     atom   11 type  1   force =    -0.00000000    0.00008687   -0.00007458
     atom   12 type  1   force =     0.00000000   -0.00008687   -0.00007458
     atom   13 type  1   force =     0.00000000   -0.00018010   -0.00029498
     atom   14 type  1   force =    -0.00000000    0.00018010   -0.00029498
     atom   15 type  1   force =     0.00000000   -0.00066142   -0.00094613
     atom   16 type  1   force =     0.00000000    0.00066142   -0.00094613
     atom   17 type  1   force =     0.00000000   -0.00258073   -0.00953684
     atom   18 type  1   force =     0.00000000    0.00258073   -0.00953684
     atom   19 type  1   force =     0.00000000   -0.04611472    0.02057028
     atom   20 type  1   force =     0.00000000    0.04611472    0.02057028
     atom   21 type  2   force =     0.00000000    0.00341809    0.00977260
     atom   22 type  2   force =    -0.00000000   -0.00341809    0.00977260
     atom   23 type  2   force =    -0.00000000   -0.00341809   -0.00977260
     atom   24 type  2   force =     0.00000000    0.00341809   -0.00977260

     Total force =     0.104995     Total SCF correction =     0.000009


     Computing stress (Cartesian axis) and pressure


     negative rho (up, down):  4.147E-06 0.000E+00
          total   stress  (Ry/bohr**3)                   (kbar)     P=       11.40
   0.00011559   0.00000000   0.00000000           17.00        0.00        0.00
   0.00000000   0.00015880   0.00000000            0.00       23.36        0.00
   0.00000000   0.00000000  -0.00004184            0.00        0.00       -6.15


     BFGS Geometry Optimization
     Energy error            =      0.0E+00 Ry
     Gradient error          =      4.6E-02 Ry/Bohr
     Cell gradient error     =      2.3E+01 kbar

     number of scf cycles    =   1
     number of bfgs steps    =   0

     enthalpy           new  =    -373.4094567244 Ry

     new trust radius        =       0.0504945934 bohr
     Message from routine volume:
     axis vectors are left-handed
     new conv_thr            =       0.0000000010 Ry

     new unit-cell volume =   1296.94796 a.u.^3 (   192.18786 Ang^3 )
     density =      2.11038 g/cm^3

CELL_PARAMETERS (angstrom)
   2.533580559   0.000000000   0.000000000
   0.000000000  -3.586883914   0.000000000
   0.000000000   0.000000000  21.148224330

ATOMIC_POSITIONS (crystal)
C                0.5000000000        0.4931696309        0.7682610843
C                0.0000000000        0.2568303691        0.7682610843
C                0.0000000000       -0.0003822500        0.7092864738
C                0.5000000000        0.7503822500        0.7092864738
C                0.0000000000        0.2500979682        0.6493435643
C                0.5000000000        0.4999020318        0.6493435643
C                0.5000000000        0.7500266751        0.5895993112
C                0.0000000000       -0.0000266751        0.5895993112
C               -0.0000000000        0.2500128669        0.5298658462
C                0.5000000000        0.4999871331        0.5298658462
C               -0.0000000000       -0.0000128669        0.4701341538
C                0.5000000000        0.7500128669        0.4701341538
C                0.0000000000        0.2500266751        0.4104006888
C                0.5000000000        0.4999733249        0.4104006888
C                0.5000000000        0.7500979682        0.3506564357
C                0.0000000000       -0.0000979682        0.3506564357
C                0.0000000000        0.2503822500        0.2907135262
C                0.5000000000        0.4996177500        0.2907135262
C                0.5000000000        0.7568303691        0.2317389157
C                0.0000000000       -0.0068303691        0.2317389157
H                0.5000000000        0.6756383130        0.8111033530
H               -0.0000000000        0.0743616870        0.8111033530
H                0.5000000000        0.5743616870        0.1888966470
H                0.0000000000        0.1756383130        0.1888966470



     Writing config-only to output data dir /tmp/qe/slab.save/ :
     XML data file
     NEW-OLD atomic charge density approx. for the potential

     Check: negative core charge=   -0.000001

     negative rho (up, down):  3.984E-06 0.000E+00

     total cpu time spent up to now is       82.6 secs

     Self-consistent Calculation

     iteration #  1     ecut=    90.00 Ry     beta= 0.30
     Davidson diagonalization with overlap
     c_bands:  1 eigenvalues not converged
     ethr =  1.00E-06,  avg # of iterations = 11.8

     negative rho (up, down):  3.662E-06 0.000E+00

     total cpu time spent up to now is       91.4 secs

     total energy              =    -373.41309232 Ry
     estimated scf accuracy    <       0.00138746 Ry

     iteration #  2     ecut=    90.00 Ry     beta= 0.30
     Davidson diagonalization with overlap
     ethr =  1.65E-06,  avg # of iterations =  1.2

     negative rho (up, down):  3.491E-06 0.000E+00

     total cpu time spent up to now is       94.7 secs

     total energy              =    -373.41295788 Ry
     estimated scf accuracy    <       0.00051207 Ry

     iteration #  3     ecut=    90.00 Ry     beta= 0.30
     Davidson diagonalization with overlap
     ethr =  6.10E-07,  avg # of iterations =  3.5

     negative rho (up, down):  3.530E-06 0.000E+00

     total cpu time spent up to now is       98.9 secs

     total energy              =    -373.41302417 Ry
     estimated scf accuracy    <       0.00002242 Ry

     iteration #  4     ecut=    90.00 Ry     beta= 0.30
     Davidson diagonalization with overlap
     ethr =  2.67E-08,  avg # of iterations =  2.2

     negative rho (up, down):  3.706E-06 0.000E+00

     total cpu time spent up to now is      102.6 secs

     total energy              =    -373.41302621 Ry
     estimated scf accuracy    <       0.00000819 Ry

     iteration #  5     ecut=    90.00 Ry     beta= 0.30
     Davidson diagonalization with overlap
     ethr =  9.75E-09,  avg # of iterations =  2.2

     negative rho (up, down):  3.675E-06 0.000E+00

     total cpu time spent up to now is      106.9 secs

     total energy              =    -373.41302767 Ry
     estimated scf accuracy    <       0.00000176 Ry

     iteration #  6     ecut=    90.00 Ry     beta= 0.30
     Davidson diagonalization with overlap
     ethr =  2.10E-09,  avg # of iterations =  1.5

     negative rho (up, down):  3.725E-06 0.000E+00

     total cpu time spent up to now is      110.3 secs

     total energy              =    -373.41302763 Ry
     estimated scf accuracy    <       0.00000066 Ry

     iteration #  7     ecut=    90.00 Ry     beta= 0.30
     Davidson diagonalization with overlap
     ethr =  7.82E-10,  avg # of iterations =  3.3

     negative rho (up, down):  3.726E-06 0.000E+00

     total cpu time spent up to now is      114.9 secs

     total energy              =    -373.41302786 Ry
     estimated scf accuracy    <       0.00000036 Ry

     iteration #  8     ecut=    90.00 Ry     beta= 0.30
     Davidson diagonalization with overlap
     ethr =  4.24E-10,  avg # of iterations =  1.9

     negative rho (up, down):  3.732E-06 0.000E+00

     total cpu time spent up to now is      118.5 secs

     total energy              =    -373.41302782 Ry
     estimated scf accuracy    <       0.00000010 Ry

     iteration #  9     ecut=    90.00 Ry     beta= 0.30
     Davidson diagonalization with overlap
     ethr =  1.18E-10,  avg # of iterations =  3.1

     negative rho (up, down):  3.739E-06 0.000E+00

     total cpu time spent up to now is      122.9 secs

     total energy              =    -373.41302785 Ry
     estimated scf accuracy    <       0.00000001 Ry

     iteration # 10     ecut=    90.00 Ry     beta= 0.30
     Davidson diagonalization with overlap
     ethr =  1.42E-11,  avg # of iterations =  2.9

     negative rho (up, down):  3.742E-06 0.000E+00

     total cpu time spent up to now is      127.1 secs

     total energy              =    -373.41302785 Ry
     estimated scf accuracy    <          1.3E-09 Ry

     iteration # 11     ecut=    90.00 Ry     beta= 0.30
     Davidson diagonalization with overlap
     ethr =  1.58E-12,  avg # of iterations =  3.0

     negative rho (up, down):  3.752E-06 0.000E+00

     total cpu time spent up to now is      131.4 secs

     End of self-consistent calculation

          k = 0.0000-0.0000 0.0000 ( 18619 PWs)   bands (ev):

   -14.2174 -13.7610 -13.0256 -12.0167 -10.7611  -9.3235  -7.8111  -6.4598
    -5.7620  -5.7045  -5.6339  -5.2187  -4.5609  -3.6529  -2.5761  -2.4995
    -2.1970  -1.9524  -1.1402  -0.9592  -0.8566   0.2818   0.3825   0.4491
     0.8318   1.1850   1.7426   1.9826   2.0449   2.4834   3.3633   3.5728
     3.7880   4.3038   5.1018   5.2009   5.4192   5.9563   6.3627   6.5108
     6.5712   6.8443   8.8566   9.2754  11.5114  11.8012  12.1535  12.4465
    12.6458  12.6717

          k = 0.0000-0.1006 0.0000 ( 18587 PWs)   bands (ev):

   -14.0317 -13.5769 -12.8447 -11.8422 -10.6009  -9.2038  -7.8629  -7.7955
    -7.4321  -7.1852  -4.7659  -4.7224  -3.8099  -3.7992  -3.4328  -2.4976
    -1.5139  -1.5070  -0.8054  -0.5388  -0.5203   0.4745   0.5699   0.8718
     1.0106   1.3543   1.8654   1.8940   2.5704   2.6042   3.3071   3.4329
     4.1512   4.2910   4.8027   5.0637   5.4465   5.6531   6.0225   6.0243
     6.2070   6.3500   9.0726   9.4922  11.6566  11.6895  12.3003  12.7920
    12.8183  13.1610

          k = 0.0000-0.2012 0.0000 ( 18570 PWs)   bands (ev):

   -13.4767 -13.0273 -12.3065 -11.3283 -10.1511  -9.6913  -9.2767  -8.9871
    -8.6044  -8.2684  -5.5406  -5.3292  -4.3455  -4.0998  -2.7279  -2.5319
    -1.3913  -0.8402   0.0301   0.2452   0.9123   1.0954   1.2422   1.5405
     1.6154   1.8536   2.3355   2.5098   2.8685   2.9472   3.5394   3.6158
     4.1483   4.2295   4.5806   4.6724   4.8821   4.9262   4.9499   5.0540
     5.5178   5.5505   9.7104  10.0575  11.6761  12.0204  12.3849  12.8924
    12.9925  13.2667

          k = 0.0000-0.3018 0.0000 ( 18524 PWs)   bands (ev):

   -12.5595 -12.1234 -11.4389 -11.2913 -10.8512 -10.5521 -10.1242  -9.5883
    -9.1772  -8.8131  -6.0248  -5.5678  -4.9666  -4.1227  -3.3324  -2.3858
    -1.5126  -0.5251   0.2304   1.2580   1.8835   1.9220   2.3997   2.5823
     2.6502   2.8907   3.0132   3.0465   3.4125   3.4272   3.5751   3.6836
     3.8736   3.8910   3.9079   3.9464   4.1716   4.1790   4.2844   4.3511
     4.5252   4.5467  10.6920  10.8420  11.7422  11.9356  12.1812  12.6058
    12.8924  13.3723

          k = 0.0997-0.0000 0.0000 ( 18585 PWs)   bands (ev):

   -14.0349 -13.5792 -12.8451 -11.8381 -10.5849  -9.1505  -7.6420  -6.2961
    -5.6011  -5.5779  -5.5411  -5.1655  -4.5125  -3.6113  -2.4670  -2.4161
    -2.0348  -1.8041  -1.1196  -0.8289  -0.7044  -0.0196   0.3463   0.3876
     0.4376   0.5309   0.9243   1.6897   2.0024   2.0294   2.5923   3.4884
     3.5452   3.7412   4.4349   4.8394   5.1349   5.3422   5.6455   5.8321
     5.9353   6.4771   9.0369   9.4388  11.5903  12.3327  12.4938  12.6279
    12.8565  13.0193

          k = 0.0997-0.1006 0.0000 ( 18588 PWs)   bands (ev):

   -13.8496 -13.3955 -12.6648 -11.6643 -10.4256  -9.0322  -7.6980  -7.6481
    -7.2845  -7.0329  -4.6475  -4.5987  -3.7164  -3.7016  -3.4060  -2.4019
    -1.4543  -1.4397  -0.7506  -0.5220  -0.4361   0.2427   0.5193   0.5481
     0.6904   0.9187   1.1586   1.8084   1.8952   2.5580   2.7062   3.2306
     3.5437   3.9822   4.2875   4.5380   4.6961   4.9060   5.0241   5.5892
     6.0282   6.3988   9.2694   9.6714  11.8845  12.4474  12.9712  12.9850
    13.2750  13.4085

          k = 0.0997-0.2012 0.0000 ( 18563 PWs)   bands (ev):

   -13.2959 -12.8473 -12.1282 -11.1524  -9.9787  -9.5265  -9.1138  -8.8208
    -8.4434  -8.1084  -5.3846  -5.1813  -4.1959  -3.9638  -2.6138  -2.4122
    -1.4779  -0.7772  -0.0988  -0.0189   0.5138   1.0407   1.0726   1.2209
     1.2956   1.6036   1.9649   2.2152   2.5303   2.7928   3.0859   3.2860
     3.4900   3.6127   3.6235   3.7586   3.8067   4.1289   4.5979   5.1449
     5.7855   5.8991   9.9210  10.2747  12.4175  12.4245  13.0076  13.4211
    13.6081  14.2057

          k = 0.0997-0.3018 0.0000 ( 18556 PWs)   bands (ev):

   -12.3812 -11.9463 -11.2639 -11.1178 -10.6792 -10.3802  -9.9549  -9.4208
    -9.0120  -8.6502  -5.8615  -5.4074  -4.8115  -3.9715  -3.1912  -2.2484
    -1.4041  -0.4228   0.1304   1.0368   1.0410   1.4484   1.6650   1.9159
     2.2476   2.2948   2.3348   2.7042   2.7470   2.8472   3.1063   3.1777
     3.2279   3.3373   3.5128   3.6973   3.8058   4.0414   4.4713   4.4866
     4.7973   4.8036  10.9208  11.1313  12.2381  12.3449  12.7202  13.1696
    13.3818  13.9588

          k = 0.1994-0.0000 0.0000 ( 18601 PWs)   bands (ev):

   -13.4894 -13.0360 -12.3060 -11.3047 -10.0589  -8.6338  -7.1372  -5.8067
    -5.5987  -5.1922  -5.1193  -5.0523  -4.5482  -3.6591  -2.5307  -1.9482
    -1.5973  -1.5667  -1.3675  -1.2157  -1.2029  -0.6136  -0.4818  -0.2374
     0.1762   0.2788   0.7355   0.8976   1.0913   1.8868   1.9984   2.0283
     2.8440   3.1455   3.4466   3.5597   3.8147   3.9857   4.0056   4.4774
     5.0934   6.1404   9.6058   9.9347  11.7124  11.8820  12.1131  12.4451
    12.9952  13.1239

          k = 0.1994-0.1006 0.0000 ( 18549 PWs)   bands (ev):

   -13.3054 -12.8538 -12.1273 -11.1329  -9.9024  -8.5197  -7.2478  -7.2098
    -6.8761  -6.5975  -4.3805  -4.3352  -3.7045  -3.6679  -3.4551  -2.1997
    -1.6960  -1.5749  -1.0851  -0.9284  -0.6912  -0.3365  -0.1058   0.1169
     0.3607   0.7962   0.8865   1.1259   1.4838   1.5602   2.2206   2.3230
     2.6549   2.7435   2.7953   2.8861   3.1759   3.7676   4.5233   4.8062
     5.4537   5.7230   9.8522  10.1905  12.2387  12.5054  12.6007  12.8336
    13.1423  13.3029

          k = 0.1994-0.2012 0.0000 ( 18536 PWs)   bands (ev):

   -12.7561 -12.3104 -11.5962 -10.6277  -9.4644  -9.0465  -8.6387  -8.3274
    -7.9704  -7.6353  -4.9498  -4.7707  -3.8031  -3.5923  -2.6094  -2.5365
    -2.1128  -1.3101  -1.0793  -0.4908  -0.1970  -0.1203   0.5975   0.9900
     1.1536   1.1893   1.2326   1.6573   1.8092   1.8731   1.9197   2.0135
     2.0870   2.3060   2.5640   2.7276   3.3204   3.4263   4.4847   4.5369
     5.3295   5.5993  10.5166  10.8311  13.0076  13.4634  13.6550  13.7130
    13.9469  13.9838

          k = 0.1994-0.3018 0.0000 ( 18533 PWs)   bands (ev):

   -11.8503 -11.4188 -10.7426 -10.6037 -10.1696  -9.8687  -9.4532  -8.9227
    -8.5213  -8.1651  -5.3916  -4.9447  -4.3713  -3.5415  -2.8195  -1.8898
    -1.4825  -1.4715  -0.4849  -0.4316  -0.2436  -0.1518   0.3769   0.4730
     0.7547   0.9749   1.1490   1.3592   1.5661   1.8891   2.4045   2.9602
     3.0879   3.1326   3.3094   3.4273   3.4512   3.4949   3.8629   4.3622
     4.7318   4.7804  11.4885  11.6895  12.9787  12.9941  13.9227  14.1013
    14.4058  14.5408

          k = 0.2991-0.0000 0.0000 ( 18564 PWs)   bands (ev):

   -12.5884 -12.1390 -11.4158 -10.4244  -9.1913  -7.7815  -6.4041  -6.3039
    -5.9930  -5.3378  -4.9963  -4.4352  -4.3200  -4.2421  -3.2964  -2.3016
    -1.9690  -1.9259  -1.3511  -1.2139  -0.8698  -0.6543  -0.6072  -0.5044
    -0.0052   0.2253   0.5208   0.9462   0.9631   1.0229   1.6259   1.6527
     1.7908   1.8018   1.9369   2.1496   2.3978   2.6920   2.7693   3.1327
     4.5233   5.5276  10.5041  10.7213  11.4629  11.5007  12.1835  12.4517
    13.0188  13.3990

          k = 0.2991-0.1006 0.0000 ( 18545 PWs)   bands (ev):

   -12.4071 -11.9597 -11.2405 -10.2567  -9.0399  -7.6758  -6.9490  -6.6024
    -6.3505  -6.0902  -4.6713  -4.5493  -4.5064  -4.4044  -3.5666  -2.3245
    -2.1996  -1.7911  -1.5618  -1.1013  -0.9939  -0.7623  -0.0250   0.1988
     0.2199   0.4758   0.6047   0.6855   0.8201   0.8579   1.1747   1.3537
     1.5491   1.7119   1.8178   1.9575   2.7593   2.8136   3.5039   3.8121
     4.3195   5.2772  10.7768  11.0075  12.0776  12.0824  12.4712  12.6603
    13.1945  13.2245

          k = 0.2991-0.2012 0.0000 ( 18570 PWs)   bands (ev):

   -11.8671 -11.4263 -10.7208  -9.7649  -8.6197  -8.3375  -7.9342  -7.5415
    -7.2366  -6.8881  -4.4819  -4.4320  -4.2959  -4.0805  -3.8637  -3.2088
    -2.3077  -1.9981  -1.7719  -1.0635  -1.0510  -1.0269  -0.7671  -0.7360
    -0.0269   0.2644   0.4899   0.5582   1.5188   1.6691   1.7620   1.8611
     1.9585   2.1085   2.1106   2.3768   2.4140   3.0868   3.6136   4.1071
     4.6859   4.7550  11.4234  11.6353  13.1041  13.1781  13.5042  13.6831
    13.7001  14.0411

          k = 0.2991-0.3018 0.0000 ( 18605 PWs)   bands (ev):

   -10.9817 -10.5563  -9.8908  -9.7794  -9.3529  -9.0345  -8.6479  -8.1123
    -7.7273  -7.3723  -4.7223  -4.2774  -3.8255  -3.6374  -3.2893  -3.0428
    -2.9458  -2.4779  -2.1616  -2.0045  -1.5899  -1.4414  -0.7618  -0.7439
    -0.5672  -0.3292  -0.0036   0.7354   1.5085   1.7652   1.9760   2.3501
     2.5447   2.5738   2.9000   3.1406   3.4023   3.4637   3.6090   3.6543
     4.3313   4.5514  12.2259  12.3286  13.7052  13.7774  14.1408  14.2145
    14.6686  14.7764

          k = 0.3988-0.0000 0.0000 ( 18524 PWs)   bands (ev):

   -11.3481 -10.9046 -10.1918  -9.2148  -8.0544  -7.9996  -7.6301  -6.9508
    -6.6107  -6.0185  -5.1568  -4.8533  -3.8745  -3.5116  -3.2098  -3.1179
    -2.0861  -1.7271  -1.3931  -0.8933  -0.7930  -0.2967  -0.2830  -0.1176
    -0.0913   0.0075   0.3050   0.3381   0.4603   0.8386   0.9707   1.0373
     1.1569   1.1610   1.2991   1.3218   1.4963   1.5064   2.3846   2.5653
     3.6618   4.6535  11.2257  11.3387  11.6194  12.0406  12.4407  12.6587
    12.8261  12.9707

          k = 0.3988-0.1006 0.0000 ( 18559 PWs)   bands (ev):

   -11.1729 -10.7317 -10.0235  -9.0551  -7.9809  -7.8585  -7.5610  -6.8988
    -6.5115  -6.0097  -5.0904  -4.7913  -4.4383  -4.2154  -4.1959  -3.5054
    -2.1985  -1.5281  -1.4688  -1.4073  -1.2883  -1.2309  -0.7202  -0.7100
    -0.2665   0.1859   0.6152   0.8089   0.8426   0.9072   0.9465   1.0593
     1.1394   1.3182   1.7230   1.9158   1.9598   2.3665   2.4390   2.6914
     3.5784   4.5730  11.8252  11.8280  11.9719  12.0259  12.4930  12.4967
    13.1128  13.4127

          k = 0.3988-0.2012 0.0000 ( 18596 PWs)   bands (ev):

   -10.6548 -10.2214  -9.5288  -8.5914  -8.0218  -7.6427  -7.4345  -7.0045
    -6.2986  -6.2243  -5.6232  -5.2859  -4.8492  -4.7622  -4.6162  -3.6061
    -3.0769  -2.8248  -2.5682  -2.4380  -2.1737  -1.6810  -1.4592  -0.7000
    -0.2945  -0.0843   0.5144   0.5473   0.9147   1.2037   1.3182   1.6558
     1.9004   2.0497   2.1107   2.3043   2.4650   3.0363   3.1165   3.3285
     3.6760   4.3297  12.3559  12.4564  12.9612  13.0350  13.3068  13.4557
    13.6855  13.9134

          k = 0.3988-0.3018 0.0000 ( 18635 PWs)   bands (ev):

    -9.8259  -9.4093  -8.7955  -8.7605  -8.3775  -7.9441  -7.6694  -7.0710
    -6.7192  -6.3265  -5.5165  -5.1420  -4.6650  -4.5199  -4.3516  -4.1935
    -4.1308  -3.9680  -3.5849  -3.3455  -2.0566  -1.8506  -1.3975  -1.3896
    -0.8463  -0.2390   0.3240   0.5923   0.6560   1.1686   1.4167   1.6130
     2.1367   2.4020   2.6585   2.8775   3.1533   3.4498   3.5777   3.6054
     3.9721   4.1588  12.8688  12.8871  13.9242  13.9789  14.3311  14.4989
    14.8539  14.8782

          k =-0.4986 0.0000 0.0000 ( 18558 PWs)   bands (ev):

    -9.8052  -9.8052  -9.3699  -9.3699  -8.6713  -8.6713  -7.7139  -7.7139
    -6.5218  -6.5218  -5.1574  -5.1574  -3.7259  -3.7259  -2.4596  -2.4596
    -1.8010  -1.8010  -1.6933  -1.6933  -0.5140  -0.5140  -0.2496  -0.2496
     0.1087   0.1087   0.4663   0.4663   0.6021   0.6021   0.6665   0.6665
     0.7683   0.7683   0.7839   0.7839   1.3834   1.3834   2.6004   2.6004
     3.6181   3.6181  11.7461  11.7461  11.9160  11.9160  12.3097  12.3097
    12.9444  12.9444

          k =-0.4986-0.1006 0.0000 ( 18580 PWs)   bands (ev):

    -9.6473  -9.6473  -9.2150  -9.2150  -8.5223  -8.5223  -7.5749  -7.5749
    -6.4014  -6.4014  -5.0782  -5.0782  -3.7720  -3.7720  -3.1344  -3.1344
    -2.9257  -2.9257  -2.9132  -2.9132  -0.4435  -0.4435  -0.3526  -0.3526
     0.0910   0.0910   0.5087   0.5087   0.7195   0.7195   0.9364   0.9364
     1.1884   1.1884   1.4345   1.4345   1.7390   1.7390   2.6842   2.6842
     3.6623   3.6623  12.0634  12.0634  12.2377  12.2377  12.5752  12.5752
    13.0455  13.0455

          k =-0.4986-0.2012 0.0000 ( 18622 PWs)   bands (ev):

    -9.2046  -9.2046  -8.7822  -8.7822  -8.1085  -8.1085  -7.1943  -7.1943
    -6.0843  -6.0843  -4.9342  -4.9342  -4.7627  -4.7627  -4.4691  -4.4691
    -4.0145  -4.0145  -3.9981  -3.9981  -1.1697  -1.1697  -0.8198  -0.8198
    -0.3641  -0.3641   0.1243   0.1243   0.9969   0.9969   1.2026   1.2026
     1.9776   1.9776   2.4253   2.4253   2.6080   2.6080   3.0070   3.0070
     3.7627   3.7627  12.8235  12.8235  12.9454  12.9454  13.3610  13.3610
    13.7303  13.7303

          k =-0.4986-0.3018 0.0000 ( 18590 PWs)   bands (ev):

    -8.6606  -8.6606  -8.2548  -8.2548  -7.6135  -7.6135  -6.7568  -6.7568
    -5.9660  -5.9660  -5.8014  -5.8014  -5.5137  -5.5137  -5.0842  -5.0842
    -4.6767  -4.6767  -4.4900  -4.4900  -1.3979  -1.3979  -1.3414  -1.3414
    -0.4437  -0.4437  -0.1963  -0.1963   0.8184   0.8184   1.3079   1.3079
     2.0839   2.0839   2.7582   2.7582   3.1400   3.1400   3.7568   3.7568
     3.8570   3.8570  13.4152  13.4152  13.4319  13.4319  14.7535  14.7535
    14.9179  14.9179

     the Fermi energy is     7.8166 ev

!    total energy              =    -373.41302785 Ry
     estimated scf accuracy    <          7.2E-11 Ry
     smearing contrib. (-TS)   =       0.00000000 Ry
     internal energy E=F+TS    =    -373.41302785 Ry

     The total energy is F=E-TS. E is the sum of the following terms:
     one-electron contribution =   -2436.50896354 Ry
     hartree contribution      =    1263.08463483 Ry
     xc contribution           =     -96.43129684 Ry
     ewald contribution        =    1019.69799284 Ry
     one-center paw contrib.   =    -123.25539514 Ry

     convergence has been achieved in  11 iterations

     negative rho (up, down):  3.752E-06 0.000E+00

     Forces acting on atoms (cartesian axes, Ry/au):

     atom    1 type  1   force =     0.00000000   -0.02351303    0.00664956
     atom    2 type  1   force =     0.00000000    0.02351303    0.00664956
     atom    3 type  1   force =     0.00000000   -0.00055917    0.00316851
     atom    4 type  1   force =    -0.00000000    0.00055917    0.00316851
     atom    5 type  1   force =     0.00000000    0.00221162    0.00096401
     atom    6 type  1   force =     0.00000000   -0.00221162    0.00096401
     atom    7 type  1   force =    -0.00000000   -0.00000259    0.00053593
     atom    8 type  1   force =     0.00000000    0.00000259    0.00053593
     atom    9 type  1   force =    -0.00000000   -0.00018653    0.00005470
     atom   10 type  1   force =     0.00000000    0.00018653    0.00005470
     atom   11 type  1   force =     0.00000000    0.00018653   -0.00005470
     atom   12 type  1   force =     0.00000000   -0.00018653   -0.00005470
     atom   13 type  1   force =     0.00000000   -0.00000259   -0.00053593
     atom   14 type  1   force =     0.00000000    0.00000259   -0.00053593
     atom   15 type  1   force =     0.00000000    0.00221162   -0.00096401
     atom   16 type  1   force =     0.00000000   -0.00221162   -0.00096401
     atom   17 type  1   force =    -0.00000000    0.00055917   -0.00316851
     atom   18 type  1   force =     0.00000000   -0.00055917   -0.00316851
     atom   19 type  1   force =     0.00000000    0.02351303   -0.00664956
     atom   20 type  1   force =    -0.00000000   -0.02351303   -0.00664956
     atom   21 type  2   force =    -0.00000000    0.02073670   -0.01198202
     atom   22 type  2   force =     0.00000000   -0.02073670   -0.01198202
     atom   23 type  2   force =     0.00000000   -0.02073670    0.01198202
     atom   24 type  2   force =     0.00000000    0.02073670    0.01198202

     Total force =     0.068910     Total SCF correction =     0.000017


     Computing stress (Cartesian axis) and pressure


     negative rho (up, down):  3.752E-06 0.000E+00
          total   stress  (Ry/bohr**3)                   (kbar)     P=       -7.33
  -0.00001243   0.00000000   0.00000000           -1.83        0.00        0.00
   0.00000000  -0.00000183   0.00000000            0.00       -0.27        0.00
   0.00000000   0.00000000  -0.00013517            0.00        0.00      -19.88

     Energy error            =      3.6E-03 Ry
     Gradient error          =      2.4E-02 Ry/Bohr
     Cell gradient error     =      1.8E+00 kbar

     number of scf cycles    =   2
     number of bfgs steps    =   1

     enthalpy           old  =    -373.4094567244 Ry
     enthalpy           new  =    -373.4130278525 Ry

     CASE: enthalpy          _new < enthalpy          _old

     new trust radius        =       0.0169163460 bohr
     Message from routine volume:
     axis vectors are left-handed
     new conv_thr            =       0.0000000010 Ry

     new unit-cell volume =   1297.61034 a.u.^3 (   192.28601 Ang^3 )
     density =      2.10931 g/cm^3

CELL_PARAMETERS (angstrom)
   2.533837129   0.000000000   0.000000000
   0.000000000  -3.588352437   0.000000000
   0.000000000   0.000000000  21.148224330

ATOMIC_POSITIONS (crystal)
C                0.5000000000        0.4948863952        0.7683215839
C                0.0000000000        0.2551136048        0.7683215839
C                0.0000000000       -0.0003659860        0.7093693740
C                0.5000000000        0.7503659860        0.7093693740
C                0.0000000000        0.2498756475        0.6493633190
C                0.5000000000        0.5001243525        0.6493633190
C                0.5000000000        0.7500299290        0.5896096476
C                0.0000000000       -0.0000299290        0.5896096476
C               -0.0000000000        0.2500339782        0.5298670256
C                0.5000000000        0.4999660218        0.5298670256
C               -0.0000000000       -0.0000339782        0.4701329744
C                0.5000000000        0.7500339782        0.4701329744
C                0.0000000000        0.2500299290        0.4103903524
C                0.5000000000        0.4999700710        0.4103903524
C                0.5000000000        0.7498756475        0.3506366810
C                0.0000000000        0.0001243525        0.3506366810
C               -0.0000000000        0.2503659860        0.2906306260
C                0.5000000000        0.4996340140        0.2906306260
C                0.5000000000        0.7551136048        0.2316784161
C               -0.0000000000       -0.0051136048        0.2316784161
H                0.5000000000        0.6733945556        0.8109180220
H               -0.0000000000        0.0766054444        0.8109180220
H                0.5000000000        0.5766054444        0.1890819780
H                0.0000000000        0.1733945556        0.1890819780



     Writing config-only to output data dir /tmp/qe/slab.save/ :
     XML data file
     NEW-OLD atomic charge density approx. for the potential

     Check: negative core charge=   -0.000001

     negative rho (up, down):  3.990E-06 0.000E+00

     total cpu time spent up to now is      144.9 secs

     Self-consistent Calculation

     iteration #  1     ecut=    90.00 Ry     beta= 0.30
     Davidson diagonalization with overlap
     c_bands:  1 eigenvalues not converged
     ethr =  1.00E-06,  avg # of iterations =  6.6

     negative rho (up, down):  4.058E-06 0.000E+00

     total cpu time spent up to now is      151.1 secs

     total energy              =    -373.41490488 Ry
     estimated scf accuracy    <       0.00024505 Ry

     iteration #  2     ecut=    90.00 Ry     beta= 0.30
     Davidson diagonalization with overlap
     ethr =  2.92E-07,  avg # of iterations =  1.7

     negative rho (up, down):  4.036E-06 0.000E+00

     total cpu time spent up to now is      154.5 secs

     total energy              =    -373.41488473 Ry
     estimated scf accuracy    <       0.00008087 Ry

     iteration #  3     ecut=    90.00 Ry     beta= 0.30
     Davidson diagonalization with overlap
     ethr =  9.63E-08,  avg # of iterations =  2.0

     negative rho (up, down):  3.958E-06 0.000E+00

     total cpu time spent up to now is      158.6 secs

     total energy              =    -373.41489271 Ry
     estimated scf accuracy    <       0.00000627 Ry

     iteration #  4     ecut=    90.00 Ry     beta= 0.30
     Davidson diagonalization with overlap
     ethr =  7.46E-09,  avg # of iterations =  2.2

     negative rho (up, down):  3.929E-06 0.000E+00

     total cpu time spent up to now is      162.6 secs

     total energy              =    -373.41489357 Ry
     estimated scf accuracy    <       0.00000111 Ry

     iteration #  5     ecut=    90.00 Ry     beta= 0.30
     Davidson diagonalization with overlap
     ethr =  1.32E-09,  avg # of iterations =  2.1

     negative rho (up, down):  3.910E-06 0.000E+00

     total cpu time spent up to now is      166.3 secs

     total energy              =    -373.41489372 Ry
     estimated scf accuracy    <       0.00000023 Ry

     iteration #  6     ecut=    90.00 Ry     beta= 0.30
     Davidson diagonalization with overlap
     ethr =  2.70E-10,  avg # of iterations =  1.9

     negative rho (up, down):  3.895E-06 0.000E+00

     total cpu time spent up to now is      169.8 secs

     total energy              =    -373.41489374 Ry
     estimated scf accuracy    <       0.00000006 Ry

     iteration #  7     ecut=    90.00 Ry     beta= 0.30
     Davidson diagonalization with overlap
     ethr =  7.15E-11,  avg # of iterations =  2.0

     negative rho (up, down):  3.891E-06 0.000E+00

     total cpu time spent up to now is      173.7 secs

     total energy              =    -373.41489375 Ry
     estimated scf accuracy    <          5.8E-09 Ry

     iteration #  8     ecut=    90.00 Ry     beta= 0.30
     Davidson diagonalization with overlap
     ethr =  6.95E-12,  avg # of iterations =  2.6

     negative rho (up, down):  3.892E-06 0.000E+00

     total cpu time spent up to now is      177.9 secs

     End of self-consistent calculation

          k = 0.0000-0.0000 0.0000 ( 18619 PWs)   bands (ev):

   -14.1991 -13.7401 -13.0076 -12.0010 -10.7437  -9.3047  -7.7981  -6.4513
    -5.7497  -5.6939  -5.6258  -5.2154  -4.5681  -3.6695  -2.5696  -2.5196
    -2.1977  -1.9451  -1.1630  -0.9522  -0.8628   0.2868   0.3472   0.4537
     0.8523   1.2171   1.7811   1.9922   1.9953   2.5311   3.4241   3.5882
     3.7310   4.3688   5.1212   5.2548   5.3652   5.9980   6.3771   6.5434
     6.5503   6.8612   8.8399   9.2711  11.5268  11.8184  12.1821  12.4867
    12.6456  12.6814

          k = 0.0000-0.1006 0.0000 ( 18587 PWs)   bands (ev):

   -14.0136 -13.5561 -12.8268 -11.8264 -10.5831  -9.1843  -7.8495  -7.7836
    -7.4200  -7.1768  -4.7741  -4.7246  -3.8235  -3.7968  -3.4254  -2.5141
    -1.5126  -1.5114  -0.8166  -0.5415  -0.5191   0.4777   0.5665   0.8393
     1.0310   1.3867   1.8663   1.9332   2.5237   2.6531   3.3149   3.4950
     4.1076   4.3559   4.8080   5.1157   5.4205   5.6918   6.0287   6.0538
     6.2229   6.3458   9.0560   9.4864  11.6697  11.7012  12.3281  12.8035
    12.8493  13.1752

          k = 0.0000-0.2011 0.0000 ( 18570 PWs)   bands (ev):

   -13.4590 -13.0068 -12.2885 -11.3117 -10.1306  -9.6775  -9.2634  -8.9656
    -8.5956  -8.2573  -5.5413  -5.3357  -4.3503  -4.1110  -2.7332  -2.5475
    -1.3903  -0.8603   0.0297   0.2462   0.9104   1.1034   1.2174   1.5610
     1.6101   1.8872   2.3777   2.5025   2.8332   3.0011   3.5342   3.6827
     4.1245   4.2948   4.5771   4.7197   4.9119   4.9409   4.9716   5.0446
     5.5173   5.5511   9.6966  10.0565  11.6833  12.0433  12.3930  12.9023
    13.0405  13.2776

          k = 0.0000-0.3017 0.0000 ( 18524 PWs)   bands (ev):

   -12.5424 -12.1027 -11.4180 -11.2756 -10.8365 -10.5282 -10.1196  -9.5619
    -9.1751  -8.7940  -6.0310  -5.5607  -4.9825  -4.1250  -3.3473  -2.3967
    -1.5260  -0.5375   0.2188   1.2526   1.8666   1.9226   2.4211   2.5875
     2.6898   2.8839   3.0376   3.0694   3.4218   3.4879   3.5909   3.7317
     3.8663   3.9021   3.9441   3.9784   4.1961   4.2043   4.2807   4.3524
     4.5055   4.5300  10.6932  10.8597  11.7561  11.9421  12.1767  12.6186
    12.8878  13.3644

          k = 0.0997-0.0000 0.0000 ( 18585 PWs)   bands (ev):

   -14.0166 -13.5583 -12.8271 -11.8225 -10.5675  -9.1316  -7.6290  -6.2875
    -5.5886  -5.5698  -5.5305  -5.1624  -4.5200  -3.6284  -2.4878  -2.4102
    -2.0362  -1.7970  -1.1431  -0.8216  -0.7112   0.0009   0.3519   0.3782
     0.4427   0.5353   0.9621   1.7361   1.9799   2.0118   2.6512   3.5028
     3.6076   3.6853   4.4863   4.8565   5.1565   5.3107   5.6734   5.8441
     5.9467   6.4586   9.0242   9.4393  11.6182  12.3422  12.5007  12.6598
    12.8749  13.0082

          k = 0.0997-0.1006 0.0000 ( 18588 PWs)   bands (ev):

   -13.8315 -13.3748 -12.6468 -11.6485 -10.4078  -9.0125  -7.6844  -7.6362
    -7.2724  -7.0246  -4.6566  -4.6014  -3.7160  -3.7134  -3.3982  -2.4192
    -1.4588  -1.4380  -0.7635  -0.5197  -0.4389   0.2625   0.5369   0.5468
     0.7062   0.8867   1.1957   1.8193   1.9332   2.5134   2.7651   3.2374
     3.6051   3.9524   4.3369   4.5435   4.7036   4.9071   5.0552   5.5759
     6.0409   6.3999   9.2553   9.6691  11.9014  12.4556  12.9854  12.9992
    13.2826  13.4509

          k = 0.0997-0.2011 0.0000 ( 18563 PWs)   bands (ev):

   -13.2782 -12.8269 -12.1103 -11.1358  -9.9580  -9.5128  -9.1005  -8.7993
    -8.4346  -8.0973  -5.3857  -5.1884  -4.2011  -3.9756  -2.6189  -2.4285
    -1.4741  -0.7961  -0.0977  -0.0140   0.5224   1.0489   1.0809   1.2357
     1.2777   1.6227   2.0045   2.2153   2.5738   2.7666   3.1377   3.2902
     3.5348   3.6256   3.6332   3.7751   3.8174   4.1324   4.5943   5.1519
     5.7934   5.9008   9.9084  10.2747  12.4222  12.4445  13.0131  13.4582
    13.6215  14.2212

          k = 0.0997-0.3017 0.0000 ( 18556 PWs)   bands (ev):

   -12.3642 -11.9256 -11.2429 -11.1021 -10.6646 -10.3563  -9.9504  -9.3943
    -9.0099  -8.6310  -5.8682  -5.4005  -4.8281  -3.9742  -3.2068  -2.2599
    -1.4176  -0.4351   0.1270   1.0384   1.0539   1.4440   1.6919   1.9284
     2.2630   2.3177   2.3600   2.7164   2.7654   2.9031   3.1083   3.1960
     3.2307   3.3834   3.5201   3.7093   3.8169   4.0235   4.4751   4.4783
     4.7984   4.8111  10.9202  11.1472  12.2535  12.3421  12.7189  13.1795
    13.3703  13.9554

          k = 0.1994-0.0000 0.0000 ( 18601 PWs)   bands (ev):

   -13.4713 -13.0152 -12.2881 -11.2890 -10.0414  -8.6146  -7.1239  -5.7975
    -5.5900  -5.1883  -5.1064  -5.0416  -4.5547  -3.6753  -2.5507  -1.9443
    -1.5774  -1.5698  -1.3617  -1.2270  -1.1838  -0.5782  -0.4752  -0.2448
     0.2190   0.2446   0.7420   0.9006   1.1450   1.8411   2.0074   2.0823
     2.8893   3.1572   3.4807   3.5059   3.8409   4.0005   4.0185   4.4872
     5.0444   6.1237   9.6027   9.9483  11.7230  11.8922  12.1441  12.4296
    12.9981  13.1470

          k = 0.1994-0.1006 0.0000 ( 18549 PWs)   bands (ev):

   -13.2874 -12.8331 -12.1094 -11.1171  -9.8843  -8.4997  -7.2362  -7.1962
    -6.8646  -6.5897  -4.3924  -4.3384  -3.6962  -3.6574  -3.4703  -2.2171
    -1.6842  -1.5682  -1.0720  -0.9127  -0.7129  -0.3182  -0.0909   0.1354
     0.3682   0.8086   0.8847   1.1274   1.4948   1.6015   2.2594   2.3038
     2.6903   2.7555   2.8032   2.9034   3.1721   3.7577   4.5130   4.8033
     5.4500   5.7167   9.8459  10.1991  12.2627  12.5144  12.6079  12.8286
    13.1492  13.3076

          k = 0.1994-0.2011 0.0000 ( 18536 PWs)   bands (ev):

   -12.7385 -12.2900 -11.5784 -10.6111  -9.4435  -9.0331  -8.6259  -8.3059
    -7.9617  -7.6244  -4.9526  -4.7798  -3.8088  -3.6061  -2.6041  -2.5226
    -2.1306  -1.3039  -1.0575  -0.4960  -0.1849  -0.1225   0.6344   0.9952
     1.1707   1.2035   1.2406   1.7141   1.8198   1.8845   1.9291   2.0075
     2.1152   2.3139   2.5786   2.7203   3.2907   3.4235   4.4958   4.5201
     5.3421   5.6010  10.5098  10.8381  13.0319  13.4644  13.6550  13.7200
    13.9575  13.9915

          k = 0.1994-0.3017 0.0000 ( 18533 PWs)   bands (ev):

   -11.8333 -11.3983 -10.7218 -10.5882 -10.1554  -9.8446  -9.4491  -8.8961
    -8.5194  -8.1457  -5.3997  -4.9389  -4.3899  -3.5457  -2.8363  -1.9014
    -1.4678  -1.4672  -0.4657  -0.4284  -0.2299  -0.1469   0.4195   0.4809
     0.7720   0.9797   1.2004   1.3635   1.6110   1.8817   2.3867   2.9659
     3.0944   3.1423   3.2939   3.4292   3.4575   3.5083   3.8560   4.3652
     4.7352   4.7891  11.4942  11.7110  12.9866  12.9919  13.9188  14.1008
    14.3961  14.5433

          k = 0.2991-0.0000 0.0000 ( 18564 PWs)   bands (ev):

   -12.5704 -12.1184 -11.3981 -10.4089  -9.1736  -7.7620  -6.3917  -6.2901
    -5.9823  -5.3344  -4.9864  -4.4384  -4.3063  -4.2311  -3.3007  -2.2856
    -1.9708  -1.9058  -1.3272  -1.2134  -0.8727  -0.6541  -0.5802  -0.5162
     0.0012   0.2592   0.5111   0.9535   0.9551   1.0563   1.6277   1.6723
     1.8098   1.8134   1.9494   2.1480   2.4064   2.7027   2.7790   3.0889
     4.4815   5.5147  10.5187  10.7495  11.4620  11.5033  12.1647  12.4564
    13.0640  13.3722

          k = 0.2991-0.1006 0.0000 ( 18545 PWs)   bands (ev):

   -12.3894 -11.9393 -11.2229 -10.2411  -9.0217  -7.6555  -6.9375  -6.5920
    -6.3370  -6.0849  -4.6537  -4.5499  -4.4982  -4.3893  -3.5748  -2.3272
    -2.1889  -1.7765  -1.5579  -1.0899  -0.9787  -0.7636  -0.0094   0.2252
     0.2272   0.4765   0.6170   0.7047   0.8193   0.8678   1.2106   1.3620
     1.5494   1.7132   1.8183   1.9496   2.7675   2.7827   3.5127   3.8212
     4.2843   5.2662  10.7857  11.0322  12.0826  12.0851  12.4583  12.6755
    13.1657  13.2662

          k = 0.2991-0.2011 0.0000 ( 18570 PWs)   bands (ev):

   -11.8498 -11.4063 -10.7033  -9.7484  -8.5986  -8.3246  -7.9226  -7.5221
    -7.2269  -6.8784  -4.4846  -4.4159  -4.3067  -4.0583  -3.8516  -3.2202
    -2.2989  -1.9703  -1.7851  -1.0679  -1.0151  -1.0106  -0.7528  -0.7309
     0.0152   0.2779   0.5021   0.5539   1.5188   1.6682   1.7642   1.8404
     1.9598   2.1184   2.1224   2.3841   2.4134   3.0648   3.6137   4.1045
     4.6875   4.7585  11.4313  11.6578  13.1037  13.1878  13.4960  13.7160
    13.7243  14.0434

          k = 0.2991-0.3017 0.0000 ( 18605 PWs)   bands (ev):

   -10.9650 -10.5362  -9.8704  -9.7644  -9.3394  -9.0104  -8.6449  -8.0859
    -7.7258  -7.3529  -4.7331  -4.2742  -3.8430  -3.6197  -3.2658  -3.0340
    -2.9467  -2.4612  -2.1410  -1.9854  -1.5962  -1.4261  -0.7471  -0.6993
    -0.5617  -0.3050   0.0032   0.7164   1.4860   1.7622   1.9884   2.3414
     2.5509   2.5650   2.8935   3.1478   3.4073   3.4838   3.6130   3.6402
     4.3444   4.5550  12.2569  12.3717  13.7135  13.7736  14.1380  14.2234
    14.6496  14.7896

          k = 0.3988-0.0000 0.0000 ( 18524 PWs)   bands (ev):

   -11.3306 -10.8845 -10.1746  -9.1997  -8.0388  -7.9822  -7.6134  -6.9384
    -6.5912  -6.0095  -5.1428  -4.8424  -3.8638  -3.4986  -3.1949  -3.1066
    -2.0776  -1.7146  -1.3773  -0.8804  -0.7838  -0.3013  -0.2705  -0.1001
    -0.0921   0.0199   0.2951   0.3555   0.4677   0.8556   0.9812   1.0463
     1.1599   1.1729   1.3034   1.3277   1.4791   1.4932   2.3511   2.5653
     3.6303   4.6456  11.2395  11.3366  11.6526  12.0470  12.4651  12.6396
    12.8321  12.9739

          k = 0.3988-0.1006 0.0000 ( 18559 PWs)   bands (ev):

   -11.1555 -10.7118 -10.0065  -9.0400  -7.9661  -7.8406  -7.5455  -6.8879
    -6.4914  -6.0025  -5.0735  -4.7812  -4.4222  -4.2019  -4.1775  -3.4932
    -2.1873  -1.5300  -1.4558  -1.3946  -1.2795  -1.2132  -0.7200  -0.6967
    -0.2577   0.2054   0.6108   0.8131   0.8359   0.8912   0.9489   1.0743
     1.1467   1.3246   1.7140   1.9259   1.9484   2.3776   2.4297   2.6923
     3.5465   4.5650  11.8441  11.8494  11.9853  12.0285  12.5046  12.5194
    13.0910  13.4269

          k = 0.3988-0.2011 0.0000 ( 18596 PWs)   bands (ev):

   -10.6380 -10.2020  -9.5121  -8.5758  -8.0090  -7.6278  -7.4174  -6.9972
    -6.2775  -6.2200  -5.6049  -5.2585  -4.8238  -4.7459  -4.6144  -3.5956
    -3.0622  -2.8020  -2.5568  -2.4191  -2.1734  -1.6653  -1.4695  -0.6739
    -0.3008  -0.0981   0.4847   0.5481   0.9347   1.2066   1.3140   1.6703
     1.8668   2.0566   2.1194   2.3131   2.4621   3.0388   3.1352   3.2985
     3.6870   4.3224  12.3877  12.4990  12.9820  13.0392  13.3468  13.4656
    13.6892  13.9192

          k = 0.3988-0.3017 0.0000 ( 18635 PWs)   bands (ev):

    -9.8099  -9.3904  -8.7816  -8.7413  -8.3662  -7.9209  -7.6691  -7.0491
    -6.7160  -6.3080  -5.4976  -5.1148  -4.6390  -4.5025  -4.3496  -4.1748
    -4.1122  -3.9608  -3.5708  -3.3295  -2.0599  -1.8289  -1.3943  -1.3658
    -0.8613  -0.2643   0.3303   0.6055   0.6292   1.1483   1.4189   1.6303
     2.1117   2.4028   2.6758   2.8683   3.1483   3.4571   3.5856   3.6114
     3.9716   4.1674  12.9362  12.9576  13.9667  14.0241  14.3391  14.5031
    14.8502  14.9048

          k =-0.4985 0.0000 0.0000 ( 18558 PWs)   bands (ev):

    -9.7883  -9.7883  -9.3508  -9.3508  -8.6555  -8.6555  -7.7003  -7.7003
    -6.5058  -6.5058  -5.1391  -5.1391  -3.7128  -3.7128  -2.4485  -2.4485
    -1.7848  -1.7848  -1.6815  -1.6815  -0.5029  -0.5029  -0.2370  -0.2370
     0.1184   0.1184   0.4754   0.4754   0.6056   0.6056   0.6596   0.6596
     0.7742   0.7742   0.7870   0.7870   1.3616   1.3616   2.5789   2.5789
     3.6148   3.6148  11.7447  11.7447  11.9278  11.9278  12.3098  12.3098
    12.9703  12.9703

          k =-0.4985-0.1006 0.0000 ( 18580 PWs)   bands (ev):

    -9.6307  -9.6307  -9.1963  -9.1963  -8.5069  -8.5069  -7.5617  -7.5617
    -6.3854  -6.3854  -5.0593  -5.0593  -3.7566  -3.7566  -3.1191  -3.1191
    -2.9124  -2.9124  -2.8960  -2.8960  -0.4443  -0.4443  -0.3599  -0.3599
     0.0969   0.0969   0.5073   0.5073   0.7305   0.7305   0.9448   0.9448
     1.1985   1.1985   1.4362   1.4362   1.7279   1.7279   2.6640   2.6640
     3.6592   3.6592  12.0733  12.0733  12.2387  12.2387  12.5975  12.5975
    13.0553  13.0553

          k =-0.4985-0.2011 0.0000 ( 18622 PWs)   bands (ev):

    -9.1889  -9.1889  -8.7647  -8.7647  -8.0945  -8.0945  -7.1822  -7.1822
    -6.0678  -6.0678  -4.9105  -4.9105  -4.7482  -4.7482  -4.4472  -4.4472
    -3.9984  -3.9984  -3.9812  -3.9812  -1.1769  -1.1769  -0.8103  -0.8103
    -0.3890  -0.3890   0.1395   0.1395   0.9726   0.9726   1.2175   1.2175
     1.9819   1.9819   2.4248   2.4248   2.6165   2.6165   2.9993   2.9993
     3.7599   3.7599  12.8604  12.8604  12.9866  12.9866  13.3713  13.3713
    13.7488  13.7488

          k =-0.4985-0.3017 0.0000 ( 18590 PWs)   bands (ev):

    -8.6465  -8.6465  -8.2399  -8.2399  -7.6024  -7.6024  -6.7462  -6.7462
    -5.9483  -5.9483  -5.7755  -5.7755  -5.4994  -5.4994  -5.0537  -5.0537
    -4.6634  -4.6634  -4.4690  -4.4690  -1.3967  -1.3967  -1.3505  -1.3505
    -0.4345  -0.4345  -0.2195  -0.2195   0.8332   0.8332   1.2802   1.2802
     2.1002   2.1002   2.7362   2.7362   3.1554   3.1554   3.7625   3.7625
     3.8581   3.8581  13.4936  13.4936  13.5121  13.5121  14.7603  14.7603
    14.9230  14.9230

     the Fermi energy is     7.8252 ev

!    total energy              =    -373.41489375 Ry
     estimated scf accuracy    <          9.2E-10 Ry
     smearing contrib. (-TS)   =       0.00000000 Ry
     internal energy E=F+TS    =    -373.41489375 Ry

     The total energy is F=E-TS. E is the sum of the following terms:
     one-electron contribution =   -2434.23478549 Ry
     hartree contribution      =    1261.97961950 Ry
     xc contribution           =     -96.44237651 Ry
     ewald contribution        =    1018.53808999 Ry
     one-center paw contrib.   =    -123.25544124 Ry

     convergence has been achieved in   8 iterations

     negative rho (up, down):  3.892E-06 0.000E+00

     Forces acting on atoms (cartesian axes, Ry/au):

     atom    1 type  1   force =     0.00000000   -0.00171877   -0.00258588
     atom    2 type  1   force =     0.00000000    0.00171877   -0.00258588
     atom    3 type  1   force =     0.00000000    0.00029346    0.00125481
     atom    4 type  1   force =     0.00000000   -0.00029346    0.00125481
     atom    5 type  1   force =     0.00000000    0.00017122    0.00182839
     atom    6 type  1   force =    -0.00000000   -0.00017122    0.00182839
     atom    7 type  1   force =     0.00000000   -0.00010600    0.00061280
     atom    8 type  1   force =    -0.00000000    0.00010600    0.00061280
     atom    9 type  1   force =     0.00000000   -0.00006242    0.00016682
     atom   10 type  1   force =    -0.00000000    0.00006242    0.00016682
     atom   11 type  1   force =     0.00000000    0.00006242   -0.00016682
     atom   12 type  1   force =     0.00000000   -0.00006242   -0.00016682
     atom   13 type  1   force =     0.00000000   -0.00010600   -0.00061280
     atom   14 type  1   force =    -0.00000000    0.00010600   -0.00061280
     atom   15 type  1   force =    -0.00000000    0.00017122   -0.00182839
     atom   16 type  1   force =     0.00000000   -0.00017122   -0.00182839
     atom   17 type  1   force =    -0.00000000   -0.00029346   -0.00125481
     atom   18 type  1   force =     0.00000000    0.00029346   -0.00125481
     atom   19 type  1   force =     0.00000000    0.00171877    0.00258588
     atom   20 type  1   force =     0.00000000   -0.00171877    0.00258588
     atom   21 type  2   force =    -0.00000000    0.01231041   -0.00209472
     atom   22 type  2   force =     0.00000000   -0.01231041   -0.00209472
     atom   23 type  2   force =     0.00000000   -0.01231041    0.00209472
     atom   24 type  2   force =     0.00000000    0.01231041    0.00209472

     Total force =     0.026155     Total SCF correction =     0.000081


     Computing stress (Cartesian axis) and pressure


     negative rho (up, down):  3.892E-06 0.000E+00
          total   stress  (Ry/bohr**3)                   (kbar)     P=       -6.06
  -0.00002834   0.00000000   0.00000000           -4.17        0.00        0.00
   0.00000000  -0.00000169   0.00000000            0.00       -0.25        0.00
   0.00000000   0.00000000  -0.00009362            0.00        0.00      -13.77

     Energy error            =      1.9E-03 Ry
     Gradient error          =      1.2E-02 Ry/Bohr
     Cell gradient error     =      4.2E+00 kbar

     number of scf cycles    =   3
     number of bfgs steps    =   2

     enthalpy           old  =    -373.4130278525 Ry
     enthalpy           new  =    -373.4148937450 Ry

     CASE: enthalpy          _new < enthalpy          _old

     new trust radius        =       0.0235628771 bohr
     Message from routine volume:
     axis vectors are left-handed
     new conv_thr            =       0.0000000010 Ry

     new unit-cell volume =   1297.31466 a.u.^3 (   192.24220 Ang^3 )
     density =      2.10979 g/cm^3

CELL_PARAMETERS (angstrom)
   2.532056339   0.000000000   0.000000000
   0.000000000  -3.590057897   0.000000000
   0.000000000   0.000000000  21.148224330

ATOMIC_POSITIONS (crystal)
C                0.5000000000        0.4950852313        0.7681929445
C                0.0000000000        0.2549147687        0.7681929445
C                0.0000000000       -0.0004640372        0.7094655564
C                0.5000000000        0.7504640372        0.7094655564
C                0.0000000000        0.2497795812        0.6494384938
C                0.5000000000        0.5002204188        0.6494384938
C                0.5000000000        0.7500566507        0.5896359412
C               -0.0000000000       -0.0000566507        0.5896359412
C               -0.0000000000        0.2500553893        0.5298736603
C                0.5000000000        0.4999446107        0.5298736603
C               -0.0000000000       -0.0000553893        0.4701263397
C                0.5000000000        0.7500553893        0.4701263397
C                0.0000000000        0.2500566507        0.4103640588
C                0.5000000000        0.4999433493        0.4103640588
C                0.5000000000        0.7497795812        0.3505615062
C                0.0000000000        0.0002204188        0.3505615062
C               -0.0000000000        0.2504640372        0.2905344436
C                0.5000000000        0.4995359628        0.2905344436
C                0.5000000000        0.7549147687        0.2318070555
C               -0.0000000000       -0.0049147687        0.2318070555
H                0.5000000000        0.6699791719        0.8108094236
H                0.0000000000        0.0800208281        0.8108094236
H                0.5000000000        0.5800208281        0.1891905764
H                0.0000000000        0.1699791719        0.1891905764



     Writing config-only to output data dir /tmp/qe/slab.save/ :
     XML data file
     NEW-OLD atomic charge density approx. for the potential

     Check: negative core charge=   -0.000001

     negative rho (up, down):  4.144E-06 0.000E+00

     total cpu time spent up to now is      191.5 secs

     Self-consistent Calculation

     iteration #  1     ecut=    90.00 Ry     beta= 0.30
     Davidson diagonalization with overlap
     ethr =  1.00E-06,  avg # of iterations =  4.4

     negative rho (up, down):  4.098E-06 0.000E+00

     total cpu time spent up to now is      197.0 secs

     total energy              =    -373.41584505 Ry
     estimated scf accuracy    <       0.00019442 Ry

     iteration #  2     ecut=    90.00 Ry     beta= 0.30
     Davidson diagonalization with overlap
     ethr =  2.31E-07,  avg # of iterations =  2.0

     negative rho (up, down):  3.940E-06 0.000E+00

     total cpu time spent up to now is      200.5 secs

     total energy              =    -373.41584079 Ry
     estimated scf accuracy    <       0.00005483 Ry

     iteration #  3     ecut=    90.00 Ry     beta= 0.30
     Davidson diagonalization with overlap
     ethr =  6.53E-08,  avg # of iterations =  2.0

     negative rho (up, down):  3.874E-06 0.000E+00

     total cpu time spent up to now is      204.4 secs

     total energy              =    -373.41584795 Ry
     estimated scf accuracy    <       0.00000860 Ry

     iteration #  4     ecut=    90.00 Ry     beta= 0.30
     Davidson diagonalization with overlap
     ethr =  1.02E-08,  avg # of iterations =  2.0

     negative rho (up, down):  3.793E-06 0.000E+00

     total cpu time spent up to now is      208.1 secs

     total energy              =    -373.41584858 Ry
     estimated scf accuracy    <       0.00000270 Ry

     iteration #  5     ecut=    90.00 Ry     beta= 0.30
     Davidson diagonalization with overlap
     ethr =  3.22E-09,  avg # of iterations =  2.0

     negative rho (up, down):  3.788E-06 0.000E+00

     total cpu time spent up to now is      212.2 secs

     total energy              =    -373.41584880 Ry
     estimated scf accuracy    <       0.00000057 Ry

     iteration #  6     ecut=    90.00 Ry     beta= 0.30
     Davidson diagonalization with overlap
     ethr =  6.73E-10,  avg # of iterations =  2.0

     negative rho (up, down):  3.783E-06 0.000E+00

     total cpu time spent up to now is      216.1 secs

     total energy              =    -373.41584889 Ry
     estimated scf accuracy    <       0.00000006 Ry

     iteration #  7     ecut=    90.00 Ry     beta= 0.30
     Davidson diagonalization with overlap
     ethr =  7.20E-11,  avg # of iterations =  2.6

     negative rho (up, down):  3.782E-06 0.000E+00

     total cpu time spent up to now is      220.3 secs

     total energy              =    -373.41584890 Ry
     estimated scf accuracy    <          8.6E-09 Ry

     iteration #  8     ecut=    90.00 Ry     beta= 0.30
     Davidson diagonalization with overlap
     ethr =  1.02E-11,  avg # of iterations =  2.7

     negative rho (up, down):  3.783E-06 0.000E+00

     total cpu time spent up to now is      224.4 secs

     total energy              =    -373.41584890 Ry
     estimated scf accuracy    <          2.5E-09 Ry

     iteration #  9     ecut=    90.00 Ry     beta= 0.30
     Davidson diagonalization with overlap
     ethr =  3.01E-12,  avg # of iterations =  3.2

     negative rho (up, down):  3.784E-06 0.000E+00

     total cpu time spent up to now is      228.8 secs

     total energy              =    -373.41584890 Ry
     estimated scf accuracy    <          1.6E-09 Ry

     iteration # 10     ecut=    90.00 Ry     beta= 0.30
     Davidson diagonalization with overlap
     ethr =  1.89E-12,  avg # of iterations =  2.6

     negative rho (up, down):  3.785E-06 0.000E+00

     total cpu time spent up to now is      232.9 secs

     End of self-consistent calculation

          k = 0.0000-0.0000 0.0000 ( 18619 PWs)   bands (ev):

   -14.1875 -13.7355 -13.0104 -12.0027 -10.7414  -9.3017  -7.7990  -6.4566
    -5.7536  -5.6947  -5.6168  -5.2179  -4.5821  -3.6824  -2.5762  -2.5274
    -2.2096  -1.9395  -1.1699  -0.9466  -0.8644   0.2922   0.3349   0.4636
     0.8800   1.2394   1.7973   1.9749   2.0084   2.5504   3.4510   3.6064
     3.7072   4.3983   5.1368   5.2809   5.3488   6.0205   6.3874   6.5536
     6.5627   6.8767   8.8300   9.2663  11.5300  11.8592  12.2186  12.5134
    12.6690  12.6905

          k = 0.0000-0.1005 0.0000 ( 18587 PWs)   bands (ev):

   -14.0022 -13.5517 -12.8299 -11.8284 -10.5811  -9.1822  -7.8543  -7.7780
    -7.4181  -7.1832  -4.7807  -4.7311  -3.8283  -3.8000  -3.4219  -2.5229
    -1.5326  -1.5148  -0.8159  -0.5352  -0.5197   0.4814   0.5696   0.8285
     1.0584   1.4089   1.8786   1.9496   2.5002   2.6726   3.3345   3.5220
     4.0867   4.3851   4.8259   5.1406   5.4108   5.7129   6.0446   6.0732
     6.2405   6.3484   9.0460   9.4814  11.7005  11.7063  12.3602  12.8210
    12.8795  13.1894

          k = 0.0000-0.2011 0.0000 ( 18570 PWs)   bands (ev):

   -13.4482 -13.0031 -12.2924 -11.3145 -10.1304  -9.6706  -9.2629  -8.9704
    -8.5957  -8.2614  -5.5400  -5.3330  -4.3585  -4.1115  -2.7419  -2.5507
    -1.3896  -0.8720   0.0227   0.2499   0.9092   1.1124   1.2124   1.5876
     1.6078   1.9090   2.3944   2.5069   2.8189   3.0214   3.5448   3.7103
     4.1165   4.3224   4.5897   4.7409   4.9321   4.9603   4.9921   5.0446
     5.5247   5.5566   9.6877  10.0551  11.7059  12.0609  12.4144  12.9142
    13.0635  13.3043

          k = 0.0000-0.3016 0.0000 ( 18524 PWs)   bands (ev):

   -12.5325 -12.1003 -11.4236 -11.2673 -10.8350 -10.5333 -10.1243  -9.5647
    -9.1760  -8.7936  -6.0256  -5.5569  -4.9820  -4.1342  -3.3452  -2.4136
    -1.5210  -0.5516   0.2245   1.2463   1.8706   1.9245   2.4464   2.5911
     2.7112   2.8843   3.0359   3.0877   3.4234   3.5116   3.6136   3.7511
     3.8632   3.9075   3.9736   3.9940   4.2140   4.2301   4.2898   4.3542
     4.5081   4.5291  10.6933  10.8729  11.7725  11.9579  12.1717  12.6373
    12.8891  13.3662

          k = 0.0998-0.0000 0.0000 ( 18585 PWs)   bands (ev):

   -14.0048 -13.5535 -12.8298 -11.8239 -10.5649  -9.1283  -7.6296  -6.2925
    -5.5923  -5.5595  -5.5311  -5.1636  -4.5328  -3.6403  -2.4947  -2.4167
    -2.0485  -1.7910  -1.1493  -0.8156  -0.7129   0.0258   0.3401   0.3979
     0.4483   0.5454   0.9760   1.7528   1.9602   2.0275   2.6755   3.5195
     3.6347   3.6625   4.5101   4.8705   5.1639   5.3096   5.6898   5.8550
     5.9598   6.4635   9.0154   9.4359  11.6297  12.3600  12.5207  12.6812
    12.8949  13.0226

          k = 0.0998-0.1005 0.0000 ( 18588 PWs)   bands (ev):

   -13.8198 -13.3701 -12.6497 -11.6502 -10.4055  -9.0101  -7.6892  -7.6302
    -7.2700  -7.0307  -4.6630  -4.6077  -3.7206  -3.7154  -3.3928  -2.4277
    -1.4765  -1.4406  -0.7634  -0.5183  -0.4319   0.2852   0.5465   0.5517
     0.7175   0.8767   1.2087   1.8336   1.9488   2.4909   2.7891   3.2559
     3.6311   3.9386   4.3598   4.5543   4.7115   4.9188   5.0776   5.5741
     6.0587   6.4045   9.2461   9.6652  11.9071  12.4752  13.0046  13.0243
    13.3055  13.4839

          k = 0.0998-0.2011 0.0000 ( 18563 PWs)   bands (ev):

   -13.2671 -12.8229 -12.1139 -11.1384  -9.9576  -9.5056  -9.0997  -8.8039
    -8.4343  -8.1011  -5.3843  -5.1855  -4.2090  -3.9759  -2.6267  -2.4320
    -1.4689  -0.8094  -0.1002  -0.0024   0.5306   1.0600   1.0876   1.2409
     1.2790   1.6327   2.0142   2.2255   2.5867   2.7570   3.1572   3.3052
     3.5502   3.6318   3.6490   3.7921   3.8322   4.1387   4.6062   5.1612
     5.8009   5.9056   9.9000  10.2730  12.4409  12.4569  13.0323  13.4833
    13.6436  14.2277

          k = 0.0998-0.3016 0.0000 ( 18556 PWs)   bands (ev):

   -12.3541 -11.9230 -11.2483 -11.0935 -10.6628 -10.3610  -9.9549  -9.3969
    -9.0105  -8.6304  -5.8626  -5.3964  -4.8276  -3.9830  -3.2050  -2.2764
    -1.4131  -0.4487   0.1363   1.0518   1.0584   1.4517   1.7037   1.9388
     2.2746   2.3329   2.3744   2.7228   2.7777   2.9214   3.1184   3.1996
     3.2420   3.4078   3.5227   3.7180   3.8274   4.0274   4.4761   4.4837
     4.8054   4.8165  10.9194  11.1579  12.2675  12.3402  12.7282  13.1964
    13.3687  13.9636

          k = 0.1995-0.0000 0.0000 ( 18601 PWs)   bands (ev):

   -13.4586 -13.0096 -12.2900 -11.2898 -10.0380  -8.6105  -7.1238  -5.8017
    -5.5749  -5.1846  -5.1093  -5.0415  -4.5626  -3.6826  -2.5538  -1.9507
    -1.5827  -1.5602  -1.3546  -1.2299  -1.1716  -0.5715  -0.4692  -0.2457
     0.2291   0.2355   0.7520   0.9071   1.1627   1.8235   2.0213   2.1029
     2.9071   3.1693   3.4855   3.4958   3.8545   4.0127   4.0286   4.4986
     5.0323   6.1300   9.5978   9.9504  11.7343  11.9109  12.1617  12.4330
    13.0212  13.1623

          k = 0.1995-0.1005 0.0000 ( 18549 PWs)   bands (ev):

   -13.2750 -12.8277 -12.1116 -11.1181  -9.8814  -8.4967  -7.2280  -7.2007
    -6.8600  -6.5948  -4.3982  -4.3432  -3.6915  -3.6458  -3.4718  -2.2243
    -1.6865  -1.5646  -1.0600  -0.9032  -0.7196  -0.3177  -0.0921   0.1514
     0.3721   0.8054   0.8833   1.1332   1.5143   1.6143   2.2742   2.2944
     2.7044   2.7707   2.8158   2.9105   3.1795   3.7546   4.5204   4.8034
     5.4534   5.7275   9.8401  10.1997  12.2784  12.5290  12.6140  12.8413
    13.1668  13.3139

          k = 0.1995-0.2011 0.0000 ( 18536 PWs)   bands (ev):

   -12.7266 -12.2853 -11.5813 -10.6130  -9.4423  -9.0246  -8.6240  -8.3101
    -7.9601  -7.6273  -4.9507  -4.7765  -3.8156  -3.6063  -2.6011  -2.5040
    -2.1361  -1.3078  -1.0478  -0.4955  -0.1732  -0.1220   0.6469   0.9937
     1.1708   1.2210   1.2512   1.7385   1.8270   1.8885   1.9365   2.0048
     2.1283   2.3168   2.5877   2.7233   3.2837   3.4336   4.5093   4.5207
     5.3524   5.6032  10.5048  10.8400  13.0481  13.4751  13.6626  13.7305
    13.9715  14.0091

          k = 0.1995-0.3016 0.0000 ( 18533 PWs)   bands (ev):

   -11.8224 -11.3948 -10.7264 -10.5787 -10.1528  -9.8486  -9.4528  -8.8978
    -8.5192  -8.1441  -5.3938  -4.9337  -4.3900  -3.5532  -2.8361  -1.9162
    -1.4593  -1.4471  -0.4674  -0.4212  -0.2110  -0.1360   0.4343   0.4795
     0.7811   0.9859   1.2241   1.3737   1.6291   1.8795   2.3898   2.9649
     3.1068   3.1550   3.2901   3.4258   3.4673   3.5134   3.8660   4.3668
     4.7398   4.7931  11.4979  11.7249  12.9784  13.0000  13.9271  14.1095
    14.3949  14.5525

          k = 0.2993-0.0000 0.0000 ( 18564 PWs)   bands (ev):

   -12.5565 -12.1115 -11.3989 -10.4085  -9.1691  -7.7567  -6.3705  -6.2889
    -5.9709  -5.3334  -4.9893  -4.4370  -4.3078  -4.2299  -3.2954  -2.2771
    -1.9660  -1.9030  -1.3312  -1.2198  -0.8835  -0.6488  -0.5806  -0.5162
     0.0076   0.2668   0.5107   0.9506   0.9634   1.0689   1.6349   1.6782
     1.8202   1.8230   1.9588   2.1465   2.4124   2.7083   2.7894   3.0734
     4.4729   5.5228  10.5243  10.7627  11.4662  11.5121  12.1666  12.4764
    13.0928  13.3716

          k = 0.2993-0.1005 0.0000 ( 18545 PWs)   bands (ev):

   -12.3756 -11.9326 -11.2239 -10.2409  -9.0176  -7.6513  -6.9219  -6.5899
    -6.3324  -6.0872  -4.6450  -4.5533  -4.4948  -4.3782  -3.5710  -2.3250
    -2.1910  -1.7753  -1.5563  -1.0864  -0.9751  -0.7587  -0.0191   0.2170
     0.2322   0.4853   0.6306   0.7148   0.8234   0.8712   1.2229   1.3698
     1.5455   1.7214   1.8252   1.9492   2.7732   2.7752   3.5172   3.8280
     4.2788   5.2744  10.7889  11.0435  12.0882  12.0944  12.4635  12.6939
    13.1721  13.2946

          k = 0.2993-0.2011 0.0000 ( 18570 PWs)   bands (ev):

   -11.8365 -11.4002 -10.7050  -9.7492  -8.5963  -8.3133  -7.9183  -7.5266
    -7.2219  -6.8799  -4.4837  -4.4011  -4.3011  -4.0444  -3.8485  -3.2194
    -2.3052  -1.9617  -1.7826  -1.0782  -1.0005  -0.9951  -0.7414  -0.7277
     0.0322   0.2765   0.5103   0.5533   1.5121   1.6627   1.7741   1.8252
     1.9697   2.1266   2.1299   2.3910   2.4264   3.0542   3.6268   4.1029
     4.7004   4.7608  11.4359  11.6705  13.1094  13.1967  13.5047  13.7291
    13.7568  14.0566

          k = 0.2993-0.3016 0.0000 ( 18605 PWs)   bands (ev):

   -10.9526 -10.5313  -9.8737  -9.7531  -9.3353  -9.0132  -8.6472  -8.0864
    -7.7241  -7.3498  -4.7274  -4.2675  -3.8461  -3.6015  -3.2515  -3.0353
    -2.9474  -2.4443  -2.1281  -1.9848  -1.5972  -1.4174  -0.7576  -0.6798
    -0.5552  -0.2971   0.0166   0.7053   1.4839   1.7711   2.0027   2.3412
     2.5595   2.5598   2.9019   3.1468   3.4125   3.4904   3.6226   3.6418
     4.3530   4.5558  12.2760  12.3984  13.7197  13.7721  14.1435  14.2345
    14.6487  14.8123

          k = 0.3991-0.0000 0.0000 ( 18524 PWs)   bands (ev):

   -11.3147 -10.8759 -10.1738  -9.1978  -8.0181  -7.9761  -7.6009  -6.9347
    -6.5844  -6.0050  -5.1401  -4.8339  -3.8650  -3.4895  -3.1946  -3.1039
    -2.0728  -1.7075  -1.3776  -0.8878  -0.7817  -0.3080  -0.2742  -0.0970
    -0.0948   0.0268   0.2939   0.3594   0.4746   0.8618   0.9913   1.0568
     1.1602   1.1821   1.2988   1.3240   1.4716   1.4952   2.3401   2.5741
     3.6258   4.6549  11.2552  11.3442  11.6739  12.0598  12.4754  12.6393
    12.8423  12.9853

          k = 0.3991-0.1005 0.0000 ( 18559 PWs)   bands (ev):

   -11.1398 -10.7034 -10.0059  -9.0384  -7.9457  -7.8349  -7.5336  -6.8853
    -6.4850  -5.9991  -5.0715  -4.7732  -4.4166  -4.2019  -4.1741  -3.4850
    -2.1837  -1.5346  -1.4559  -1.3860  -1.2753  -1.2055  -0.7224  -0.6918
    -0.2538   0.2100   0.6094   0.8005   0.8286   0.8798   0.9570   1.0840
     1.1525   1.3311   1.7173   1.9296   1.9443   2.3839   2.4268   2.7019
     3.5414   4.5739  11.8623  11.8687  11.9953  12.0386  12.5190  12.5324
    13.0888  13.4473

          k = 0.3991-0.2011 0.0000 ( 18596 PWs)   bands (ev):

   -10.6227 -10.1942  -9.5123  -8.5750  -7.9908  -7.6205  -7.4108  -6.9978
    -6.2716  -6.2191  -5.5944  -5.2539  -4.8238  -4.7412  -4.6065  -3.5902
    -3.0488  -2.7985  -2.5484  -2.4149  -2.1707  -1.6573  -1.4755  -0.6655
    -0.2982  -0.1077   0.4768   0.5582   0.9409   1.2141   1.3132   1.6721
     1.8567   2.0518   2.1182   2.3233   2.4685   3.0479   3.1427   3.2954
     3.6911   4.3311  12.4116  12.5294  12.9964  13.0453  13.3793  13.4769
    13.6960  13.9271

          k = 0.3991-0.3016 0.0000 ( 18635 PWs)   bands (ev):

    -9.7952  -9.3836  -8.7668  -8.7429  -8.3594  -7.9224  -7.6691  -7.0486
    -6.7119  -6.3030  -5.4838  -5.1069  -4.6415  -4.4895  -4.3398  -4.1732
    -4.1025  -3.9542  -3.5641  -3.3248  -2.0583  -1.8190  -1.3996  -1.3526
    -0.8589  -0.2766   0.3421   0.6172   0.6220   1.1383   1.4264   1.6410
     2.1054   2.4024   2.6867   2.8730   3.1483   3.4579   3.5979   3.6144
     3.9830   4.1692  12.9780  13.0012  14.0070  14.0697  14.3498  14.5102
    14.8444  14.9280

          k =-0.4989 0.0000 0.0000 ( 18558 PWs)   bands (ev):

    -9.7701  -9.7701  -9.3401  -9.3401  -8.6530  -8.6530  -7.6968  -7.6968
    -6.4980  -6.4980  -5.1307  -5.1307  -3.7085  -3.7085  -2.4477  -2.4477
    -1.7822  -1.7822  -1.6769  -1.6769  -0.4943  -0.4943  -0.2358  -0.2358
     0.1129   0.1129   0.4734   0.4734   0.6075   0.6075   0.6560   0.6560
     0.7757   0.7757   0.7900   0.7900   1.3556   1.3556   2.5775   2.5775
     3.6241   3.6241  11.7537  11.7537  11.9369  11.9369  12.3296  12.3296
    12.9841  12.9841

          k =-0.4989-0.1005 0.0000 ( 18580 PWs)   bands (ev):

    -9.6126  -9.6126  -9.1858  -9.1858  -8.5046  -8.5046  -7.5585  -7.5585
    -6.3780  -6.3780  -5.0516  -5.0516  -3.7539  -3.7539  -3.1117  -3.1117
    -2.9109  -2.9109  -2.8909  -2.8909  -0.4451  -0.4451  -0.3650  -0.3650
     0.1018   0.1018   0.5050   0.5050   0.7372   0.7372   0.9495   0.9495
     1.1986   1.1986   1.4308   1.4308   1.7252   1.7252   2.6638   2.6638
     3.6688   3.6688  12.0857  12.0857  12.2481  12.2481  12.6187  12.6187
    13.0749  13.0749

          k =-0.4989-0.2011 0.0000 ( 18622 PWs)   bands (ev):

    -9.1710  -9.1710  -8.7548  -8.7548  -8.0930  -8.0930  -7.1799  -7.1799
    -6.0617  -6.0617  -4.9062  -4.9062  -4.7368  -4.7368  -4.4433  -4.4433
    -3.9967  -3.9967  -3.9768  -3.9768  -1.1749  -1.1749  -0.8003  -0.8003
    -0.3999  -0.3999   0.1493   0.1493   0.9611   0.9611   1.2258   1.2258
     1.9836   1.9836   2.4233   2.4233   2.6205   2.6205   3.0006   3.0006
     3.7699   3.7699  12.8873  12.8873  13.0183  13.0183  13.3841  13.3841
    13.7684  13.7684

          k =-0.4989-0.3016 0.0000 ( 18590 PWs)   bands (ev):

    -8.6287  -8.6287  -8.2308  -8.2308  -7.6022  -7.6022  -6.7451  -6.7451
    -5.9373  -5.9373  -5.7726  -5.7726  -5.4909  -5.4909  -5.0544  -5.0544
    -4.6550  -4.6550  -4.4661  -4.4661  -1.3884  -1.3884  -1.3472  -1.3472
    -0.4253  -0.4253  -0.2301  -0.2301   0.8450   0.8450   1.2659   1.2659
     2.1126   2.1126   2.7302   2.7302   3.1647   3.1647   3.7647   3.7647
     3.8676   3.8676  13.5493  13.5493  13.5689  13.5689  14.7639  14.7639
    14.9300  14.9300

     the Fermi energy is     7.8334 ev

!    total energy              =    -373.41584890 Ry
     estimated scf accuracy    <          1.1E-10 Ry
     smearing contrib. (-TS)   =       0.00000000 Ry
     internal energy E=F+TS    =    -373.41584890 Ry

     The total energy is F=E-TS. E is the sum of the following terms:
     one-electron contribution =   -2435.35950176 Ry
     hartree contribution      =    1262.57245322 Ry
     xc contribution           =     -96.46942160 Ry
     ewald contribution        =    1019.09665503 Ry
     one-center paw contrib.   =    -123.25603379 Ry

     convergence has been achieved in  10 iterations

     negative rho (up, down):  3.785E-06 0.000E+00

     Forces acting on atoms (cartesian axes, Ry/au):

     atom    1 type  1   force =    -0.00000000    0.00468792   -0.00619870
     atom    2 type  1   force =     0.00000000   -0.00468792   -0.00619870
     atom    3 type  1   force =     0.00000000    0.00061778   -0.00119752
     atom    4 type  1   force =     0.00000000   -0.00061778   -0.00119752
     atom    5 type  1   force =     0.00000000   -0.00029863    0.00110560
     atom    6 type  1   force =     0.00000000    0.00029863    0.00110560
     atom    7 type  1   force =     0.00000000    0.00035057    0.00089641
     atom    8 type  1   force =     0.00000000   -0.00035057    0.00089641
     atom    9 type  1   force =     0.00000000    0.00018454    0.00031317
     atom   10 type  1   force =    -0.00000000   -0.00018454    0.00031317
     atom   11 type  1   force =     0.00000000   -0.00018454   -0.00031317
     atom   12 type  1   force =     0.00000000    0.00018454   -0.00031317
     atom   13 type  1   force =     0.00000000    0.00035057   -0.00089641
     atom   14 type  1   force =    -0.00000000   -0.00035057   -0.00089641
     atom   15 type  1   force =     0.00000000   -0.00029863   -0.00110560
     atom   16 type  1   force =    -0.00000000    0.00029863   -0.00110560
     atom   17 type  1   force =     0.00000000   -0.00061778    0.00119752
     atom   18 type  1   force =     0.00000000    0.00061778    0.00119752
     atom   19 type  1   force =     0.00000000   -0.00468792    0.00619870
     atom   20 type  1   force =    -0.00000000    0.00468792    0.00619870
     atom   21 type  2   force =    -0.00000000    0.00602193    0.00387524
     atom   22 type  2   force =     0.00000000   -0.00602193    0.00387524
     atom   23 type  2   force =     0.00000000   -0.00602193   -0.00387524
     atom   24 type  2   force =    -0.00000000    0.00602193   -0.00387524

     Total force =     0.021528     Total SCF correction =     0.000029


     Computing stress (Cartesian axis) and pressure


     negative rho (up, down):  3.785E-06 0.000E+00
          total   stress  (Ry/bohr**3)                   (kbar)     P=       -2.06
   0.00000135   0.00000000   0.00000000            0.20        0.00        0.00
   0.00000000   0.00001377   0.00000000            0.00        2.03        0.00
   0.00000000   0.00000000  -0.00005721            0.00        0.00       -8.42

     Energy error            =      9.6E-04 Ry
     Gradient error          =      6.2E-03 Ry/Bohr
     Cell gradient error     =      2.0E+00 kbar

     number of scf cycles    =   4
     number of bfgs steps    =   3

     enthalpy           old  =    -373.4148937450 Ry
     enthalpy           new  =    -373.4158488981 Ry

     CASE: enthalpy          _new < enthalpy          _old

     new trust radius        =       0.0337945712 bohr
     Message from routine volume:
     axis vectors are left-handed
     new conv_thr            =       0.0000000006 Ry

     new unit-cell volume =   1298.84486 a.u.^3 (   192.46895 Ang^3 )
     density =      2.10730 g/cm^3

CELL_PARAMETERS (angstrom)
   2.531715729   0.000000000   0.000000000
   0.000000000  -3.594775978   0.000000000
   0.000000000   0.000000000  21.148224330

ATOMIC_POSITIONS (crystal)
C                0.5000000000        0.4947592667        0.7678568448
C                0.0000000000        0.2552407333        0.7678568448
C                0.0000000000       -0.0006909132        0.7095258157
C                0.5000000000        0.7506909132        0.7095258157
C                0.0000000000        0.2496680342        0.6495438370
C                0.5000000000        0.5003319658        0.6495438370
C                0.5000000000        0.7499779279        0.5896985324
C               -0.0000000000        0.0000220721        0.5896985324
C               -0.0000000000        0.2500305747        0.5298925326
C                0.5000000000        0.4999694253        0.5298925326
C                0.0000000000       -0.0000305747        0.4701074674
C                0.5000000000        0.7500305747        0.4701074674
C                0.0000000000        0.2499779279        0.4103014676
C                0.5000000000        0.5000220721        0.4103014676
C                0.5000000000        0.7496680342        0.3504561630
C               -0.0000000000        0.0003319658        0.3504561630
C               -0.0000000000        0.2506909132        0.2904741843
C                0.5000000000        0.4993090868        0.2904741843
C                0.5000000000        0.7552407333        0.2321431552
C               -0.0000000000       -0.0052407333        0.2321431552
H                0.5000000000        0.6649980915        0.8108181386
H                0.0000000000        0.0850019085        0.8108181386
H                0.5000000000        0.5850019085        0.1891818614
H                0.0000000000        0.1649980915        0.1891818614



     Writing config-only to output data dir /tmp/qe/slab.save/ :
     XML data file
     NEW-OLD atomic charge density approx. for the potential

     Check: negative core charge=   -0.000001

     negative rho (up, down):  4.006E-06 0.000E+00

     total cpu time spent up to now is      246.5 secs

     Self-consistent Calculation

     iteration #  1     ecut=    90.00 Ry     beta= 0.30
     Davidson diagonalization with overlap
     ethr =  1.00E-06,  avg # of iterations =  5.9

     negative rho (up, down):  3.941E-06 0.000E+00

     total cpu time spent up to now is      252.8 secs

     total energy              =    -373.41666274 Ry
     estimated scf accuracy    <       0.00032050 Ry

     iteration #  2     ecut=    90.00 Ry     beta= 0.30
     Davidson diagonalization with overlap
     ethr =  3.82E-07,  avg # of iterations =  2.0

     negative rho (up, down):  3.743E-06 0.000E+00

     total cpu time spent up to now is      256.4 secs

     total energy              =    -373.41667521 Ry
     estimated scf accuracy    <       0.00008359 Ry

     iteration #  3     ecut=    90.00 Ry     beta= 0.30
     Davidson diagonalization with overlap
     ethr =  9.95E-08,  avg # of iterations =  2.0

     negative rho (up, down):  3.630E-06 0.000E+00

     total cpu time spent up to now is      260.3 secs

     total energy              =    -373.41668393 Ry
     estimated scf accuracy    <       0.00001745 Ry

     iteration #  4     ecut=    90.00 Ry     beta= 0.30
     Davidson diagonalization with overlap
     ethr =  2.08E-08,  avg # of iterations =  2.0

     negative rho (up, down):  3.579E-06 0.000E+00

     total cpu time spent up to now is      263.9 secs

     total energy              =    -373.41668548 Ry
     estimated scf accuracy    <       0.00000333 Ry

     iteration #  5     ecut=    90.00 Ry     beta= 0.30
     Davidson diagonalization with overlap
     ethr =  3.97E-09,  avg # of iterations =  2.0

     negative rho (up, down):  3.579E-06 0.000E+00

     total cpu time spent up to now is      267.5 secs

     total energy              =    -373.41668582 Ry
     estimated scf accuracy    <       0.00000035 Ry

     iteration #  6     ecut=    90.00 Ry     beta= 0.30
     Davidson diagonalization with overlap
     ethr =  4.19E-10,  avg # of iterations =  2.8

     negative rho (up, down):  3.586E-06 0.000E+00

     total cpu time spent up to now is      271.6 secs

     total energy              =    -373.41668588 Ry
     estimated scf accuracy    <       0.00000010 Ry

     iteration #  7     ecut=    90.00 Ry     beta= 0.30
     Davidson diagonalization with overlap
     ethr =  1.13E-10,  avg # of iterations =  2.6

     negative rho (up, down):  3.589E-06 0.000E+00

     total cpu time spent up to now is      275.8 secs

     total energy              =    -373.41668589 Ry
     estimated scf accuracy    <       0.00000003 Ry

     iteration #  8     ecut=    90.00 Ry     beta= 0.30
     Davidson diagonalization with overlap
     ethr =  3.87E-11,  avg # of iterations =  3.6

     negative rho (up, down):  3.592E-06 0.000E+00

     total cpu time spent up to now is      280.4 secs

     total energy              =    -373.41668590 Ry
     estimated scf accuracy    <       0.00000002 Ry

     iteration #  9     ecut=    90.00 Ry     beta= 0.30
     Davidson diagonalization with overlap
     ethr =  2.28E-11,  avg # of iterations =  3.2

     negative rho (up, down):  3.594E-06 0.000E+00

     total cpu time spent up to now is      284.6 secs

     total energy              =    -373.41668590 Ry
     estimated scf accuracy    <          3.6E-09 Ry

     iteration # 10     ecut=    90.00 Ry     beta= 0.30
     Davidson diagonalization with overlap
     ethr =  4.24E-12,  avg # of iterations =  2.2

     negative rho (up, down):  3.598E-06 0.000E+00

     total cpu time spent up to now is      288.3 secs

     End of self-consistent calculation

          k = 0.0000-0.0000 0.0000 ( 18619 PWs)   bands (ev):

   -14.1802 -13.7447 -13.0254 -12.0116 -10.7436  -9.3019  -7.8042  -6.4705
    -5.7708  -5.7071  -5.6310  -5.2533  -4.6233  -3.7138  -2.5988  -2.5475
    -2.2352  -1.9449  -1.1848  -0.9438  -0.8746   0.2949   0.3152   0.4693
     0.8934   1.2351   1.7850   1.9444   2.0210   2.5441   3.4522   3.6186
     3.6716   4.4031   5.1370   5.2840   5.3193   6.0197   6.3746   6.5382
     6.5627   6.8779   8.8043   9.2406  11.5065  11.8726  12.2169  12.5376
    12.6527  12.6902

          k = 0.0000-0.1004 0.0000 ( 18587 PWs)   bands (ev):

   -13.9954 -13.5616 -12.8454 -11.8380 -10.5844  -9.1848  -7.8691  -7.7872
    -7.4335  -7.2041  -4.7995  -4.7508  -3.8405  -3.8198  -3.4370  -2.5383
    -1.5743  -1.5343  -0.8219  -0.5377  -0.5290   0.4808   0.5585   0.8153
     1.0713   1.4042   1.8812   1.9370   2.4689   2.6662   3.3454   3.5230
     4.0552   4.3889   4.8303   5.1418   5.3831   5.7099   6.0413   6.0720
     6.2430   6.3263   9.0194   9.4554  11.6854  11.7102  12.3562  12.8165
    12.8742  13.1895

          k = 0.0000-0.2008 0.0000 ( 18570 PWs)   bands (ev):

   -13.4430 -13.0147 -12.3100 -11.3267 -10.1387  -9.6760  -9.2816  -8.9876
    -8.6062  -8.2752  -5.5439  -5.3335  -4.3743  -4.1125  -2.7587  -2.5518
    -1.4024  -0.8877  -0.0018   0.2364   0.8917   1.1139   1.2016   1.5839
     1.5989   1.9033   2.3814   2.4934   2.7975   3.0149   3.5417   3.7103
     4.0959   4.3226   4.5886   4.7348   4.9267   4.9662   4.9940   5.0213
     5.5074   5.5336   9.6601  10.0308  11.7105  12.0519  12.4170  12.8936
    13.0488  13.3075

          k = 0.0000-0.3012 0.0000 ( 18524 PWs)   bands (ev):

   -12.5300 -12.1154 -11.4463 -11.2685 -10.8511 -10.5532 -10.1403  -9.5808
    -9.1819  -8.8022  -6.0188  -5.5609  -4.9741  -4.1556  -3.3322  -2.4402
    -1.5079  -0.5731   0.2315   1.2318   1.8739   1.9045   2.4551   2.5660
     2.7034   2.8699   3.0143   3.0736   3.3998   3.5037   3.6193   3.7379
     3.8336   3.8895   3.9783   3.9821   4.2166   4.2389   4.2758   4.3245
     4.4940   4.5083  10.6706  10.8609  11.7656  11.9544  12.1396  12.6341
    12.8663  13.3442

          k = 0.0998-0.0000 0.0000 ( 18585 PWs)   bands (ev):

   -13.9974 -13.5627 -12.8447 -11.8328 -10.5671  -9.1285  -7.6348  -6.3064
    -5.6093  -5.5729  -5.5433  -5.1982  -4.5732  -3.6709  -2.5141  -2.4393
    -2.0745  -1.7960  -1.1637  -0.8147  -0.7213   0.0379   0.3207   0.3927
     0.4503   0.5515   0.9630   1.7455   1.9304   2.0391   2.6758   3.5288
     3.6278   3.6385   4.5123   4.8669   5.1493   5.2950   5.6871   5.8422
     5.9585   6.4502   8.9886   9.4091  11.6116  12.3453  12.5186  12.7005
    12.9083  13.0142

          k = 0.0998-0.1004 0.0000 ( 18588 PWs)   bands (ev):

   -13.8130 -13.3800 -12.6653 -11.6598 -10.4088  -9.0127  -7.7042  -7.6392
    -7.2852  -7.0516  -4.6819  -4.6276  -3.7349  -3.7328  -3.4063  -2.4430
    -1.5163  -1.4588  -0.7694  -0.5345  -0.4253   0.2946   0.5421   0.5421
     0.7121   0.8647   1.1948   1.8361   1.9421   2.4599   2.7890   3.2651
     3.6332   3.9123   4.3602   4.5464   4.6966   4.9154   5.0797   5.5572
     6.0571   6.3893   9.2189   9.6383  11.8852  12.4826  12.9921  13.0258
    13.3040  13.5052

          k = 0.0998-0.2008 0.0000 ( 18563 PWs)   bands (ev):

   -13.2619 -12.8345 -12.1315 -11.1506  -9.9659  -9.5108  -9.1184  -8.8213
    -8.4446  -8.1148  -5.3883  -5.1861  -4.2251  -3.9770  -2.6436  -2.4338
    -1.4798  -0.8305  -0.1184  -0.0067   0.5205   1.0645   1.0809   1.2215
     1.2746   1.6207   1.9943   2.2195   2.5747   2.7369   3.1516   3.3073
     3.5359   3.6095   3.6465   3.7935   3.8306   4.1284   4.6076   5.1502
     5.7838   5.8897   9.8721  10.2473  12.4433  12.4449  13.0315  13.4809
    13.6375  14.2025

          k = 0.0998-0.3012 0.0000 ( 18556 PWs)   bands (ev):

   -12.3515 -11.9380 -11.2710 -11.0947 -10.6789 -10.3810  -9.9708  -9.4129
    -9.0163  -8.6388  -5.8560  -5.4003  -4.8202  -4.0041  -3.1930  -2.3029
    -1.4020  -0.4705   0.1385   1.0399   1.0554   1.4483   1.6884   1.9382
     2.2717   2.3240   2.3613   2.7079   2.7660   2.9113   3.1166   3.1733
     3.2404   3.4090   3.4997   3.7026   3.8145   4.0186   4.4514   4.4737
     4.7928   4.7951  10.8957  11.1426  12.2554  12.3115  12.7189  13.1935
    13.3418  13.9491

          k = 0.1996-0.0000 0.0000 ( 18601 PWs)   bands (ev):

   -13.4511 -13.0189 -12.3049 -11.2987 -10.0403  -8.6108  -7.1289  -5.8154
    -5.5840  -5.2146  -5.1257  -5.0532  -4.5984  -3.7093  -2.5700  -1.9735
    -1.6099  -1.5532  -1.3588  -1.2416  -1.1816  -0.5883  -0.4713  -0.2517
     0.2178   0.2188   0.7550   0.9110   1.1603   1.7943   2.0291   2.1046
     2.9060   3.1698   3.4533   3.4903   3.8494   4.0103   4.0161   4.4859
     5.0079   6.1193   9.5703   9.9234  11.7175  11.9037  12.1518  12.4145
    13.0296  13.1748

          k = 0.1996-0.1004 0.0000 ( 18549 PWs)   bands (ev):

   -13.2680 -12.8375 -12.1272 -11.1278  -9.8847  -8.4993  -7.2361  -7.2173
    -6.8734  -6.6159  -4.4182  -4.3639  -3.7067  -3.6509  -3.4824  -2.2405
    -1.7108  -1.5720  -1.0560  -0.9099  -0.7314  -0.3410  -0.1128   0.1573
     0.3615   0.7930   0.8616   1.1345   1.5260   1.6066   2.2695   2.2712
     2.6971   2.7685   2.8166   2.8953   3.1732   3.7381   4.5161   4.7849
     5.4379   5.7223   9.8124  10.1726  12.2644  12.5128  12.5934  12.8371
    13.1572  13.3120

          k = 0.1996-0.2008 0.0000 ( 18536 PWs)   bands (ev):

   -12.7212 -12.2969 -11.5989 -10.6252  -9.4507  -9.0296  -8.6425  -8.3283
    -7.9693  -7.6408  -4.9555  -4.7774  -3.8324  -3.6079  -2.6158  -2.5016
    -2.1435  -1.3298  -1.0589  -0.5002  -0.1750  -0.1261   0.6373   0.9723
     1.1525   1.2194   1.2478   1.7433   1.8172   1.8784   1.9252   1.9819
     2.1223   2.3007   2.5760   2.7139   3.2678   3.4331   4.5066   4.5101
     5.3420   5.5867  10.4774  10.8149  13.0373  13.4756  13.6410  13.7102
    13.9593  14.0035

          k = 0.1996-0.3012 0.0000 ( 18533 PWs)   bands (ev):

   -11.8197 -11.4099 -10.7490 -10.5797 -10.1687  -9.8685  -9.4688  -8.9137
    -8.5248  -8.1522  -5.3879  -4.9373  -4.3845  -3.5735  -2.8289  -1.9430
    -1.4630  -1.4434  -0.4933  -0.4226  -0.2092  -0.1416   0.4253   0.4619
     0.7686   0.9854   1.2269   1.3730   1.6264   1.8718   2.3911   2.9440
     3.0977   3.1466   3.2749   3.4012   3.4576   3.4953   3.8671   4.3474
     4.7269   4.7734  11.4764  11.7107  12.9411  12.9790  13.9191  14.0952
    14.3662  14.5317

          k = 0.2994-0.0000 0.0000 ( 18564 PWs)   bands (ev):

   -12.5488 -12.1207 -11.4140 -10.4175  -9.1714  -7.7570  -6.3692  -6.2940
    -5.9893  -5.3582  -5.0026  -4.4543  -4.3234  -4.2408  -3.3042  -2.2809
    -1.9716  -1.9243  -1.3579  -1.2429  -0.9097  -0.6551  -0.5988  -0.5273
     0.0042   0.2583   0.5045   0.9341   0.9650   1.0641   1.6370   1.6723
     1.8130   1.8214   1.9549   2.1290   2.4019   2.6877   2.7763   3.0450
     4.4529   5.5156  10.5012  10.7430  11.4417  11.4990  12.1469  12.4846
    13.0941  13.3535

          k = 0.2994-0.1004 0.0000 ( 18545 PWs)   bands (ev):

   -12.3684 -11.9424 -11.2396 -10.2507  -9.0209  -7.6541  -6.9252  -6.6150
    -6.3361  -6.1100  -4.6515  -4.5760  -4.5020  -4.3807  -3.5794  -2.3358
    -2.2076  -1.7869  -1.5636  -1.0964  -0.9868  -0.7608  -0.0553   0.1848
     0.2179   0.4889   0.6287   0.7020   0.8194   0.8600   1.2187   1.3653
     1.5278   1.7135   1.8269   1.9391   2.7571   2.7650   3.5012   3.8167
     4.2617   5.2684  10.7647  11.0224  12.0648  12.0757  12.4496  12.6873
    13.1703  13.2960

          k = 0.2994-0.2008 0.0000 ( 18570 PWs)   bands (ev):

   -11.8310 -11.4118 -10.7227  -9.7614  -8.6048  -8.3173  -7.9362  -7.5483
    -7.2277  -6.8933  -4.4945  -4.3992  -4.3016  -4.0490  -3.8622  -3.2249
    -2.3296  -1.9677  -1.7809  -1.1007  -1.0024  -0.9959  -0.7504  -0.7388
     0.0358   0.2614   0.5096   0.5453   1.4893   1.6369   1.7704   1.7925
     1.9647   2.1182   2.1205   2.3857   2.4342   3.0332   3.6306   4.0851
     4.6998   4.7458  11.4137  11.6525  13.0872  13.1748  13.4928  13.7099
    13.7612  14.0552

          k = 0.2994-0.3012 0.0000 ( 18605 PWs)   bands (ev):

   -10.9498 -10.5463  -9.8963  -9.7538  -9.3513  -9.0332  -8.6631  -8.1023
    -7.7293  -7.3573  -4.7241  -4.2705  -3.8504  -3.5970  -3.2588  -3.0578
    -2.9568  -2.4433  -2.1379  -2.0063  -1.6026  -1.4205  -0.7817  -0.6824
    -0.5573  -0.3015   0.0298   0.6886   1.4803   1.7680   2.0015   2.3341
     2.5368   2.5542   2.9030   3.1259   3.4025   3.4740   3.6206   3.6346
     4.3433   4.5393  12.2652  12.3935  13.6971  13.7412  14.1205  14.2168
    14.6248  14.8131

          k = 0.3991-0.0000 0.0000 ( 18524 PWs)   bands (ev):

   -11.3069 -10.8852 -10.1892  -9.2071  -8.0116  -7.9785  -7.6126  -6.9528
    -6.5848  -6.0167  -5.1452  -4.8381  -3.8778  -3.4913  -3.2089  -3.1136
    -2.0793  -1.7170  -1.4047  -0.9193  -0.7942  -0.3321  -0.2957  -0.1180
    -0.1055   0.0205   0.2798   0.3489   0.4698   0.8560   0.9888   1.0477
     1.1485   1.1639   1.2793   1.3006   1.4496   1.4929   2.3159   2.5758
     3.6112   4.6514  11.2445  11.3271  11.6659  12.0488  12.4515  12.6237
    12.8259  12.9708

          k = 0.3991-0.1004 0.0000 ( 18559 PWs)   bands (ev):

   -11.1325 -10.7133 -10.0219  -9.0484  -7.9405  -7.8386  -7.5465  -6.9049
    -6.4868  -6.0119  -5.0799  -4.7785  -4.4238  -4.2134  -4.1862  -3.4886
    -2.1945  -1.5523  -1.4711  -1.3954  -1.2838  -1.2177  -0.7388  -0.6973
    -0.2651   0.2022   0.5984   0.7596   0.8016   0.8519   0.9542   1.0796
     1.1454   1.3310   1.7127   1.9195   1.9241   2.3709   2.4077   2.7040
     3.5267   4.5704  11.8538  11.8590  11.9755  12.0242  12.5097  12.5124
    13.0690  13.4504

          k = 0.3991-0.2008 0.0000 ( 18596 PWs)   bands (ev):

   -10.6171 -10.2060  -9.5302  -8.5874  -7.9899  -7.6396  -7.4153  -7.0213
    -6.2767  -6.2335  -5.5911  -5.2682  -4.8416  -4.7459  -4.6083  -3.5991
    -3.0484  -2.8216  -2.5513  -2.4308  -2.1733  -1.6611  -1.4852  -0.6690
    -0.3016  -0.1251   0.4643   0.5573   0.9287   1.2162   1.3022   1.6554
     1.8384   2.0259   2.0973   2.3259   2.4639   3.0458   3.1345   3.2857
     3.6780   4.3283  12.4070  12.5299  12.9784  13.0219  13.3841  13.4589
    13.6704  13.9113

          k = 0.3991-0.3012 0.0000 ( 18635 PWs)   bands (ev):

    -9.7924  -9.3988  -8.7670  -8.7656  -8.3754  -7.9443  -7.6839  -7.0654
    -6.7169  -6.3105  -5.4790  -5.1193  -4.6646  -4.4893  -4.3388  -4.1843
    -4.1128  -3.9620  -3.5733  -3.3355  -2.0615  -1.8167  -1.4172  -1.3494
    -0.8544  -0.2959   0.3424   0.6140   0.6158   1.1235   1.4225   1.6384
     2.0955   2.3928   2.6836   2.8692   3.1371   3.4435   3.5977   3.6032
     3.9835   4.1550  12.9868  13.0113  14.0261  14.0981  14.3295  14.4916
    14.8020  14.9159

          k =-0.4989 0.0000 0.0000 ( 18558 PWs)   bands (ev):

    -9.7623  -9.7623  -9.3500  -9.3500  -8.6690  -8.6690  -7.7067  -7.7067
    -6.5009  -6.5009  -5.1314  -5.1314  -3.7139  -3.7139  -2.4601  -2.4601
    -1.7949  -1.7949  -1.6851  -1.6851  -0.5054  -0.5054  -0.2640  -0.2640
     0.0811   0.0811   0.4490   0.4490   0.5931   0.5931   0.6403   0.6403
     0.7696   0.7696   0.7852   0.7852   1.3370   1.3370   2.5677   2.5677
     3.6237   3.6237  11.7389  11.7389  11.9182  11.9182  12.3318  12.3318
    12.9711  12.9711

          k =-0.4989-0.1004 0.0000 ( 18580 PWs)   bands (ev):

    -9.6055  -9.6055  -9.1964  -9.1964  -8.5214  -8.5214  -7.5691  -7.5691
    -6.3818  -6.3818  -5.0540  -5.0540  -3.7635  -3.7635  -3.1198  -3.1198
    -2.9232  -2.9232  -2.9035  -2.9035  -0.4592  -0.4592  -0.3861  -0.3861
     0.0960   0.0960   0.4854   0.4854   0.7338   0.7338   0.9378   0.9378
     1.1832   1.1832   1.4065   1.4065   1.7075   1.7075   2.6552   2.6552
     3.6683   3.6683  12.0719  12.0719  12.2316  12.2316  12.6174  12.6174
    13.0716  13.0716

          k =-0.4989-0.2008 0.0000 ( 18622 PWs)   bands (ev):

    -9.1659  -9.1659  -8.7675  -8.7675  -8.1120  -8.1120  -7.1927  -7.1927
    -6.0686  -6.0686  -4.9183  -4.9183  -4.7333  -4.7333  -4.4607  -4.4607
    -4.0102  -4.0102  -3.9834  -3.9834  -1.1812  -1.1812  -0.8000  -0.8000
    -0.4193  -0.4193   0.1488   0.1488   0.9439   0.9439   1.2207   1.2207
     1.9761   1.9761   2.4040   2.4040   2.6094   2.6094   2.9897   2.9897
     3.7695   3.7695  12.8855  12.8855  13.0212  13.0212  13.3687  13.3687
    13.7592  13.7592

          k =-0.4989-0.3012 0.0000 ( 18590 PWs)   bands (ev):

    -8.6268  -8.6268  -8.2472  -8.2472  -7.6246  -7.6246  -6.7617  -6.7617
    -5.9335  -5.9335  -5.7898  -5.7898  -5.4939  -5.4939  -5.0752  -5.0752
    -4.6553  -4.6553  -4.4754  -4.4754  -1.3850  -1.3850  -1.3519  -1.3519
    -0.4198  -0.4198  -0.2539  -0.2539   0.8546   0.8546   1.2382   1.2382
     2.1199   2.1199   2.7129   2.7129   3.1636   3.1636   3.7508   3.7508
     3.8669   3.8669  13.5777  13.5777  13.5981  13.5981  14.7409  14.7409
    14.9046  14.9046

     the Fermi energy is     7.8250 ev

!    total energy              =    -373.41668590 Ry
     estimated scf accuracy    <          5.3E-10 Ry
     smearing contrib. (-TS)   =       0.00000000 Ry
     internal energy E=F+TS    =    -373.41668590 Ry

     The total energy is F=E-TS. E is the sum of the following terms:
     one-electron contribution =   -2435.40873394 Ry
     hartree contribution      =    1262.57077819 Ry
     xc contribution           =     -96.47557609 Ry
     ewald contribution        =    1019.15309199 Ry
     one-center paw contrib.   =    -123.25624606 Ry

     convergence has been achieved in  10 iterations

     negative rho (up, down):  3.598E-06 0.000E+00

     Forces acting on atoms (cartesian axes, Ry/au):

     atom    1 type  1   force =     0.00000000    0.00552663   -0.00466988
     atom    2 type  1   force =    -0.00000000   -0.00552663   -0.00466988
     atom    3 type  1   force =    -0.00000000    0.00090026   -0.00373887
     atom    4 type  1   force =     0.00000000   -0.00090026   -0.00373887
     atom    5 type  1   force =    -0.00000000   -0.00100825   -0.00066838
     atom    6 type  1   force =     0.00000000    0.00100825   -0.00066838
     atom    7 type  1   force =     0.00000000   -0.00008667    0.00056690
     atom    8 type  1   force =    -0.00000000    0.00008667    0.00056690
     atom    9 type  1   force =     0.00000000    0.00002826    0.00031579
     atom   10 type  1   force =    -0.00000000   -0.00002826    0.00031579
     atom   11 type  1   force =    -0.00000000   -0.00002826   -0.00031579
     atom   12 type  1   force =     0.00000000    0.00002826   -0.00031579
     atom   13 type  1   force =    -0.00000000   -0.00008667   -0.00056690
     atom   14 type  1   force =     0.00000000    0.00008667   -0.00056690
     atom   15 type  1   force =    -0.00000000   -0.00100825    0.00066838
     atom   16 type  1   force =     0.00000000    0.00100825    0.00066838
     atom   17 type  1   force =    -0.00000000   -0.00090026    0.00373887
     atom   18 type  1   force =     0.00000000    0.00090026    0.00373887
     atom   19 type  1   force =     0.00000000   -0.00552663    0.00466988
     atom   20 type  1   force =     0.00000000    0.00552663    0.00466988
     atom   21 type  2   force =     0.00000000    0.00122177    0.00600816
     atom   22 type  2   force =     0.00000000   -0.00122177    0.00600816
     atom   23 type  2   force =     0.00000000   -0.00122177   -0.00600816
     atom   24 type  2   force =     0.00000000    0.00122177   -0.00600816

     Total force =     0.020652     Total SCF correction =     0.000095


     Computing stress (Cartesian axis) and pressure


     negative rho (up, down):  3.598E-06 0.000E+00
          total   stress  (Ry/bohr**3)                   (kbar)     P=       -1.04
   0.00000322   0.00000000   0.00000000            0.47        0.00        0.00
   0.00000000   0.00000217   0.00000000            0.00        0.32        0.00
   0.00000000   0.00000000  -0.00002660            0.00        0.00       -3.91

     Energy error            =      8.4E-04 Ry
     Gradient error          =      6.0E-03 Ry/Bohr
     Cell gradient error     =      4.7E-01 kbar

     number of scf cycles    =   5
     number of bfgs steps    =   4

     enthalpy           old  =    -373.4158488981 Ry
     enthalpy           new  =    -373.4166859022 Ry

     CASE: enthalpy          _new < enthalpy          _old

     new trust radius        =       0.0236063722 bohr
     Message from routine volume:
     axis vectors are left-handed
     new conv_thr            =       0.0000000006 Ry

     new unit-cell volume =   1299.52371 a.u.^3 (   192.56955 Ang^3 )
     density =      2.10620 g/cm^3

CELL_PARAMETERS (angstrom)
   2.531428389   0.000000000   0.000000000
   0.000000000  -3.597063050   0.000000000
   0.000000000   0.000000000  21.148224330

ATOMIC_POSITIONS (crystal)
C                0.5000000000        0.4942843296        0.7675868008
C                0.0000000000        0.2557156704        0.7675868008
C               -0.0000000000       -0.0009705542        0.7094489506
C                0.5000000000        0.7509705542        0.7094489506
C                0.0000000000        0.2497552407        0.6495731168
C                0.5000000000        0.5002447593        0.6495731168
C                0.5000000000        0.7499833949        0.5897483188
C               -0.0000000000        0.0000166051        0.5897483188
C                0.0000000000        0.2500305786        0.5299120737
C                0.5000000000        0.4999694214        0.5299120737
C               -0.0000000000       -0.0000305786        0.4700879263
C                0.5000000000        0.7500305786        0.4700879263
C                0.0000000000        0.2499833949        0.4102516812
C                0.5000000000        0.5000166051        0.4102516812
C                0.5000000000        0.7497552407        0.3504268832
C               -0.0000000000        0.0002447593        0.3504268832
C               -0.0000000000        0.2509705542        0.2905510494
C                0.5000000000        0.4990294458        0.2905510494
C                0.5000000000        0.7557156704        0.2324131992
C               -0.0000000000       -0.0057156704        0.2324131992
H                0.5000000000        0.6616067756        0.8109470110
H                0.0000000000        0.0883932244        0.8109470110
H                0.5000000000        0.5883932244        0.1890529890
H                0.0000000000        0.1616067756        0.1890529890



     Writing config-only to output data dir /tmp/qe/slab.save/ :
     XML data file
     NEW-OLD atomic charge density approx. for the potential

     Check: negative core charge=   -0.000001

     negative rho (up, down):  3.585E-06 0.000E+00

     total cpu time spent up to now is      301.9 secs

     Self-consistent Calculation

     iteration #  1     ecut=    90.00 Ry     beta= 0.30
     Davidson diagonalization with overlap
     ethr =  1.00E-06,  avg # of iterations =  4.1

     negative rho (up, down):  3.527E-06 0.000E+00

     total cpu time spent up to now is      307.4 secs

     total energy              =    -373.41704409 Ry
     estimated scf accuracy    <       0.00011758 Ry

     iteration #  2     ecut=    90.00 Ry     beta= 0.30
     Davidson diagonalization with overlap
     ethr =  1.40E-07,  avg # of iterations =  2.0

     negative rho (up, down):  3.418E-06 0.000E+00

     total cpu time spent up to now is      311.1 secs

     total energy              =    -373.41704839 Ry
     estimated scf accuracy    <       0.00004226 Ry

     iteration #  3     ecut=    90.00 Ry     beta= 0.30
     Davidson diagonalization with overlap
     ethr =  5.03E-08,  avg # of iterations =  2.0

     negative rho (up, down):  3.379E-06 0.000E+00

     total cpu time spent up to now is      315.0 secs

     total energy              =    -373.41705310 Ry
     estimated scf accuracy    <       0.00000631 Ry

     iteration #  4     ecut=    90.00 Ry     beta= 0.30
     Davidson diagonalization with overlap
     ethr =  7.51E-09,  avg # of iterations =  2.0

     negative rho (up, down):  3.381E-06 0.000E+00

     total cpu time spent up to now is      319.0 secs

     total energy              =    -373.41705419 Ry
     estimated scf accuracy    <       0.00000192 Ry

     iteration #  5     ecut=    90.00 Ry     beta= 0.30
     Davidson diagonalization with overlap
     ethr =  2.28E-09,  avg # of iterations =  1.4

     negative rho (up, down):  3.397E-06 0.000E+00

     total cpu time spent up to now is      322.3 secs

     total energy              =    -373.41705425 Ry
     estimated scf accuracy    <       0.00000038 Ry

     iteration #  6     ecut=    90.00 Ry     beta= 0.30
     Davidson diagonalization with overlap
     ethr =  4.48E-10,  avg # of iterations =  3.2

     negative rho (up, down):  3.400E-06 0.000E+00

     total cpu time spent up to now is      326.7 secs

     total energy              =    -373.41705436 Ry
     estimated scf accuracy    <       0.00000031 Ry

     iteration #  7     ecut=    90.00 Ry     beta= 0.30
     Davidson diagonalization with overlap
     ethr =  3.64E-10,  avg # of iterations =  1.5

     negative rho (up, down):  3.404E-06 0.000E+00

     total cpu time spent up to now is      330.1 secs

     total energy              =    -373.41705433 Ry
     estimated scf accuracy    <       0.00000008 Ry

     iteration #  8     ecut=    90.00 Ry     beta= 0.30
     Davidson diagonalization with overlap
     ethr =  9.28E-11,  avg # of iterations =  2.7

     negative rho (up, down):  3.407E-06 0.000E+00

     total cpu time spent up to now is      334.3 secs

     total energy              =    -373.41705436 Ry
     estimated scf accuracy    <          6.5E-09 Ry

     iteration #  9     ecut=    90.00 Ry     beta= 0.30
     Davidson diagonalization with overlap
     ethr =  7.73E-12,  avg # of iterations =  2.2

     negative rho (up, down):  3.408E-06 0.000E+00

     total cpu time spent up to now is      338.2 secs

     total energy              =    -373.41705436 Ry
     estimated scf accuracy    <          6.7E-10 Ry

     iteration # 10     ecut=    90.00 Ry     beta= 0.30
     Davidson diagonalization with overlap
     ethr =  7.95E-13,  avg # of iterations =  2.5

     negative rho (up, down):  3.412E-06 0.000E+00

     total cpu time spent up to now is      342.1 secs

     End of self-consistent calculation

          k = 0.0000-0.0000 0.0000 ( 18619 PWs)   bands (ev):

   -14.1839 -13.7603 -13.0363 -12.0174 -10.7472  -9.3059  -7.8115  -6.4829
    -5.7875  -5.7196  -5.6435  -5.2783  -4.6397  -3.7214  -2.6126  -2.5495
    -2.2494  -1.9501  -1.1838  -0.9394  -0.8810   0.2966   0.3145   0.4757
     0.8912   1.2181   1.7696   1.9391   2.0320   2.5319   3.4404   3.6293
     3.6631   4.3909   5.1383   5.2708   5.3134   6.0050   6.3654   6.5365
     6.5487   6.8691   8.7889   9.2215  11.4860  11.8721  12.2035  12.5480
    12.6459  12.6905

          k = 0.0000-0.1003 0.0000 ( 18587 PWs)   bands (ev):

   -13.9993 -13.5774 -12.8567 -11.8442 -10.5888  -9.1904  -7.8823  -7.7987
    -7.4498  -7.2178  -4.8023  -4.7602  -3.8390  -3.8354  -3.4497  -2.5394
    -1.5957  -1.5470  -0.8199  -0.5454  -0.5240   0.4807   0.5568   0.8169
     1.0689   1.3869   1.8886   1.9215   2.4603   2.6537   3.3581   3.5108
     4.0455   4.3763   4.8390   5.1279   5.3720   5.6947   6.0428   6.0580
     6.2357   6.3137   9.0033   9.4364  11.6669  11.7107  12.3418  12.8101
    12.8629  13.1879

          k = 0.0000-0.2007 0.0000 ( 18570 PWs)   bands (ev):

   -13.4477 -13.0315 -12.3223 -11.3345 -10.1469  -9.6858  -9.3005  -9.0015
    -8.6142  -8.2857  -5.5433  -5.3286  -4.3821  -4.1063  -2.7670  -2.5433
    -1.4109  -0.8900  -0.0180   0.2274   0.8851   1.1137   1.2027   1.5754
     1.5956   1.8854   2.3651   2.4922   2.7920   3.0015   3.5477   3.6968
     4.0919   4.3077   4.5934   4.7173   4.9085   4.9655   4.9834   5.0147
     5.4976   5.5213   9.6427  10.0118  11.7103  12.0393  12.4140  12.8739
    13.0266  13.3048

          k = 0.0000-0.3010 0.0000 ( 18524 PWs)   bands (ev):

   -12.5361 -12.1339 -11.4618 -11.2764 -10.8692 -10.5669 -10.1497  -9.5945
    -9.1851  -8.8120  -6.0099  -5.5661  -4.9592  -4.1699  -3.3128  -2.4521
    -1.4933  -0.5828   0.2394   1.2230   1.8813   1.8912   2.4501   2.5489
     2.6840   2.8648   3.0069   3.0556   3.3910   3.4864   3.6139   3.7159
     3.8182   3.8828   3.9653   3.9654   4.2109   4.2329   4.2705   4.3088
     4.4968   4.5089  10.6536  10.8467  11.7551  11.9479  12.1171  12.6263
    12.8509  13.3293

          k = 0.0998-0.0000 0.0000 ( 18585 PWs)   bands (ev):

   -14.0010 -13.5783 -12.8556 -11.8385 -10.5707  -9.1325  -7.6421  -6.3187
    -5.6259  -5.5849  -5.5557  -5.2226  -4.5890  -3.6779  -2.5156  -2.4530
    -2.0886  -1.8012  -1.1622  -0.8115  -0.7265   0.0351   0.3202   0.3753
     0.4519   0.5579   0.9474   1.7328   1.9254   2.0494   2.6638   3.5379
     3.6194   3.6264   4.4994   4.8653   5.1371   5.2874   5.6728   5.8327
     5.9499   6.4493   8.9716   9.3885  11.5939  12.3354  12.5174  12.7098
    12.9171  13.0172

          k = 0.0998-0.1003 0.0000 ( 18588 PWs)   bands (ev):

   -13.8168 -13.3958 -12.6765 -11.6660 -10.4132  -9.0184  -7.7176  -7.6505
    -7.3012  -7.0653  -4.6846  -4.6370  -3.7504  -3.7311  -3.4183  -2.4441
    -1.5368  -1.4704  -0.7668  -0.5414  -0.4205   0.2904   0.5332   0.5408
     0.7020   0.8665   1.1789   1.8409   1.9324   2.4509   2.7770   3.2771
     3.6202   3.9043   4.3466   4.5415   4.6832   4.9101   5.0736   5.5471
     6.0568   6.3777   9.2018   9.6180  11.8660  12.4862  12.9834  13.0247
    13.3045  13.5135

          k = 0.0998-0.2007 0.0000 ( 18563 PWs)   bands (ev):

   -13.2665 -12.8513 -12.1438 -11.1584  -9.9741  -9.5205  -9.1372  -8.8352
    -8.4525  -8.1252  -5.3878  -5.1810  -4.2330  -3.9707  -2.6523  -2.4256
    -1.4884  -0.8372  -0.1312  -0.0114   0.5155   1.0650   1.0732   1.2100
     1.2740   1.6058   1.9762   2.2203   2.5606   2.7301   3.1389   3.3133
     3.5183   3.5909   3.6361   3.7895   3.8285   4.1203   4.6130   5.1447
     5.7714   5.8782   9.8542  10.2272  12.4289  12.4467  13.0272  13.4701
    13.6288  14.1815

          k = 0.0998-0.3010 0.0000 ( 18556 PWs)   bands (ev):

   -12.3576 -11.9566 -11.2864 -11.1026 -10.6969 -10.3946  -9.9802  -9.4266
    -9.0195  -8.6485  -5.8470  -5.4053  -4.8054  -4.0181  -3.1742  -2.3145
    -1.3890  -0.4805   0.1401   1.0229   1.0550   1.4446   1.6760   1.9343
     2.2662   2.3171   2.3447   2.6931   2.7554   2.8964   3.1154   3.1522
     3.2368   3.3966   3.4866   3.6911   3.8062   4.0252   4.4322   4.4767
     4.7779   4.7892  10.8783  11.1266  12.2410  12.2891  12.7136  13.1888
    13.3243  13.9388

          k = 0.1996-0.0000 0.0000 ( 18601 PWs)   bands (ev):

   -13.4546 -13.0344 -12.3158 -11.3044 -10.0439  -8.6148  -7.1363  -5.8278
    -5.5935  -5.2365  -5.1423  -5.0654  -4.6120  -3.7145  -2.5700  -1.9868
    -1.6233  -1.5587  -1.3643  -1.2389  -1.2016  -0.6056  -0.4703  -0.2548
     0.2052   0.2175   0.7599   0.9135   1.1482   1.7886   2.0375   2.0936
     2.8929   3.1741   3.4461   3.4758   3.8345   4.0010   4.0076   4.4756
     5.0044   6.1195   9.5510   9.9007  11.7101  11.8970  12.1403  12.4145
    13.0326  13.1814

          k = 0.1996-0.1003 0.0000 ( 18549 PWs)   bands (ev):

   -13.2718 -12.8533 -12.1384 -11.1340  -9.8891  -8.5050  -7.2467  -7.2316
    -6.8882  -6.6294  -4.4206  -4.3735  -3.7217  -3.6578  -3.4811  -2.2432
    -1.7268  -1.5787  -1.0599  -0.9149  -0.7307  -0.3637  -0.1310   0.1616
     0.3550   0.7892   0.8455   1.1363   1.5358   1.5946   2.2598   2.2600
     2.6842   2.7606   2.8181   2.8824   3.1703   3.7301   4.5186   4.7724
     5.4272   5.7240   9.7933  10.1502  12.2540  12.5011  12.5802  12.8432
    13.1516  13.3137

          k = 0.1996-0.2007 0.0000 ( 18536 PWs)   bands (ev):

   -12.7258 -12.3135 -11.6111 -10.6329  -9.4589  -9.0390  -8.6611  -8.3424
    -7.9768  -7.6509  -4.9549  -4.7717  -3.8408  -3.6013  -2.6281  -2.5067
    -2.1394  -1.3466  -1.0681  -0.5006  -0.1750  -0.1294   0.6245   0.9551
     1.1365   1.2113   1.2423   1.7348   1.8072   1.8737   1.9166   1.9691
     2.1110   2.2906   2.5668   2.7145   3.2651   3.4389   4.5067   4.5080
     5.3338   5.5744  10.4586  10.7938  13.0253  13.4796  13.6297  13.6976
    13.9529  13.9957

          k = 0.1996-0.3010 0.0000 ( 18533 PWs)   bands (ev):

   -11.8256 -11.4283 -10.7644 -10.5874 -10.1867  -9.8820  -9.4780  -8.9272
    -8.5279  -8.1617  -5.3787  -4.9415  -4.3704  -3.5864  -2.8134  -1.9551
    -1.4673  -1.4484  -0.5123  -0.4253  -0.2154  -0.1478   0.4143   0.4476
     0.7579   0.9816   1.2231   1.3702   1.6137   1.8680   2.3975   2.9299
     3.0911   3.1382   3.2695   3.3920   3.4493   3.4840   3.8768   4.3370
     4.7180   4.7583  11.4596  11.6949  12.9138  12.9594  13.9183  14.0844
    14.3499  14.5209

          k = 0.2994-0.0000 0.0000 ( 18564 PWs)   bands (ev):

   -12.5521 -12.1362 -11.4248 -10.4232  -9.1750  -7.7610  -6.3742  -6.3014
    -6.0068  -5.3690  -5.0151  -4.4582  -4.3397  -4.2527  -3.3045  -2.2913
    -1.9710  -1.9481  -1.3771  -1.2558  -0.9210  -0.6621  -0.6124  -0.5304
     0.0040   0.2479   0.5020   0.9261   0.9687   1.0541   1.6392   1.6650
     1.7969   1.8261   1.9456   2.1185   2.3999   2.6728   2.7651   3.0370
     4.4502   5.5168  10.4827  10.7243  11.4280  11.4922  12.1429  12.4932
    13.0882  13.3515

          k = 0.2994-0.1003 0.0000 ( 18545 PWs)   bands (ev):

   -12.3720 -11.9581 -11.2507 -10.2568  -9.0253  -7.6599  -6.9326  -6.6354
    -6.3434  -6.1224  -4.6644  -4.5851  -4.5066  -4.3896  -3.5784  -2.3395
    -2.2193  -1.7923  -1.5729  -1.1069  -0.9959  -0.7600  -0.0813   0.1655
     0.2019   0.4908   0.6217   0.6848   0.8174   0.8539   1.2106   1.3601
     1.5221   1.7087   1.8301   1.9419   2.7542   2.7615   3.4876   3.8065
     4.2592   5.2699  10.7457  11.0021  12.0518  12.0641  12.4487  12.6828
    13.1812  13.2911

          k = 0.2994-0.2007 0.0000 ( 18570 PWs)   bands (ev):

   -11.8354 -11.4284 -10.7348  -9.7690  -8.6131  -8.3259  -7.9539  -7.5632
    -7.2337  -6.9028  -4.4972  -4.4040  -4.2966  -4.0624  -3.8726  -3.2219
    -2.3468  -1.9744  -1.7732  -1.1139  -1.0112  -1.0033  -0.7642  -0.7463
     0.0289   0.2501   0.5064   0.5459   1.4737   1.6183   1.7717   1.7785
     1.9589   2.1112   2.1155   2.3844   2.4477   3.0251   3.6367   4.0729
     4.7020   4.7337  11.3957  11.6339  13.0759  13.1606  13.4911  13.6948
    13.7606  14.0565

          k = 0.2994-0.3010 0.0000 ( 18605 PWs)   bands (ev):

   -10.9555 -10.5646  -9.9114  -9.7612  -9.3690  -9.0465  -8.6720  -8.1155
    -7.7321  -7.3665  -4.7153  -4.2730  -3.8430  -3.6029  -3.2742  -3.0747
    -2.9581  -2.4511  -2.1540  -2.0214  -1.6025  -1.4245  -0.7943  -0.6943
    -0.5601  -0.3116   0.0411   0.6834   1.4834   1.7696   2.0006   2.3305
     2.5275   2.5517   2.9061   3.1138   3.3959   3.4600   3.6218   3.6334
     4.3351   4.5265  12.2523  12.3822  13.6771  13.7154  14.1104  14.2064
    14.6229  14.8141

          k = 0.3992-0.0000 0.0000 ( 18524 PWs)   bands (ev):

   -11.3100 -10.9006 -10.1999  -9.2127  -8.0147  -7.9820  -7.6283  -6.9633
    -6.5888  -6.0214  -5.1527  -4.8404  -3.8903  -3.4939  -3.2250  -3.1250
    -2.0859  -1.7292  -1.4293  -0.9376  -0.8062  -0.3447  -0.3071  -0.1273
    -0.1207   0.0102   0.2701   0.3420   0.4671   0.8525   0.9838   1.0409
     1.1446   1.1452   1.2782   1.2949   1.4418   1.4934   2.3074   2.5782
     3.6091   4.6533  11.2380  11.3182  11.6562  12.0410  12.4327  12.6193
    12.8158  12.9619

          k = 0.3992-0.1003 0.0000 ( 18559 PWs)   bands (ev):

   -11.1359 -10.7290 -10.0329  -9.0543  -7.9442  -7.8430  -7.5623  -6.9157
    -6.4919  -6.0171  -5.0899  -4.7811  -4.4368  -4.2239  -4.2030  -3.4919
    -2.2043  -1.5612  -1.4797  -1.4087  -1.2905  -1.2344  -0.7525  -0.7001
    -0.2766   0.1969   0.5987   0.7345   0.7825   0.8449   0.9536   1.0742
     1.1439   1.3372   1.7119   1.9138   1.9151   2.3584   2.3964   2.7066
     3.5247   4.5722  11.8467  11.8513  11.9612  12.0165  12.4957  12.5047
    13.0630  13.4533

          k = 0.3992-0.2007 0.0000 ( 18596 PWs)   bands (ev):

   -10.6213 -10.2224  -9.5421  -8.5948  -7.9953  -7.6576  -7.4212  -7.0333
    -6.2847  -6.2399  -5.5980  -5.2888  -4.8567  -4.7524  -4.6082  -3.6050
    -3.0558  -2.8446  -2.5577  -2.4449  -2.1721  -1.6691  -1.4835  -0.6765
    -0.2965  -0.1315   0.4683   0.5582   0.9167   1.2217   1.2960   1.6454
     1.8349   2.0095   2.0826   2.3259   2.4627   3.0460   3.1243   3.2867
     3.6654   4.3303  12.4004  12.5245  12.9660  13.0072  13.3847  13.4464
    13.6538  13.9030

          k = 0.3992-0.3010 0.0000 ( 18635 PWs)   bands (ev):

    -9.7978  -9.4168  -8.7803  -8.7735  -8.3923  -7.9579  -7.6911  -7.0772
    -6.7198  -6.3191  -5.4851  -5.1385  -4.6802  -4.4972  -4.3386  -4.1923
    -4.1294  -3.9680  -3.5825  -3.3454  -2.0613  -1.8198  -1.4270  -1.3527
    -0.8411  -0.2987   0.3426   0.6128   0.6177   1.1215   1.4216   1.6358
     2.0950   2.3888   2.6811   2.8695   3.1300   3.4323   3.5929   3.5979
     3.9861   4.1423  12.9830  13.0079  14.0341  14.1113  14.3162  14.4775
    14.7741  14.9037

          k =-0.4990 0.0000 0.0000 ( 18558 PWs)   bands (ev):

    -9.7654  -9.7654  -9.3653  -9.3653  -8.6796  -8.6796  -7.7120  -7.7120
    -6.5041  -6.5041  -5.1351  -5.1351  -3.7212  -3.7212  -2.4726  -2.4726
    -1.8106  -1.8106  -1.6960  -1.6960  -0.5179  -0.5179  -0.2882  -0.2882
     0.0628   0.0628   0.4327   0.4327   0.5844   0.5844   0.6371   0.6371
     0.7742   0.7742   0.7885   0.7885   1.3285   1.3285   2.5661   2.5661
     3.6259   3.6259  11.7313  11.7313  11.9056  11.9056  12.3364  12.3364
    12.9617  12.9617

          k =-0.4990-0.1003 0.0000 ( 18580 PWs)   bands (ev):

    -9.6088  -9.6088  -9.2120  -9.2120  -8.5322  -8.5322  -7.5747  -7.5747
    -6.3856  -6.3856  -5.0590  -5.0590  -3.7739  -3.7739  -3.1331  -3.1331
    -2.9338  -2.9338  -2.9202  -2.9202  -0.4634  -0.4634  -0.3956  -0.3956
     0.0946   0.0946   0.4702   0.4702   0.7342   0.7342   0.9269   0.9269
     1.1782   1.1782   1.3943   1.3943   1.6966   1.6966   2.6542   2.6542
     3.6706   3.6706  12.0642  12.0642  12.2224  12.2224  12.6174  12.6174
    13.0702  13.0702

          k =-0.4990-0.2007 0.0000 ( 18622 PWs)   bands (ev):

    -9.1700  -9.1700  -8.7839  -8.7839  -8.1234  -8.1234  -7.1992  -7.1992
    -6.0742  -6.0742  -4.9309  -4.9309  -4.7381  -4.7381  -4.4816  -4.4816
    -4.0227  -4.0227  -3.9923  -3.9923  -1.1801  -1.1801  -0.7997  -0.7997
    -0.4234  -0.4234   0.1482   0.1482   0.9399   0.9399   1.2186   1.2186
     1.9730   1.9730   2.3917   2.3917   2.5986   2.5986   2.9835   2.9835
     3.7719   3.7719  12.8830  12.8830  13.0227  13.0227  13.3573  13.3573
    13.7524  13.7524

          k =-0.4990-0.3010 0.0000 ( 18590 PWs)   bands (ev):

    -8.6320  -8.6320  -8.2646  -8.2646  -7.6368  -7.6368  -6.7695  -6.7695
    -5.9400  -5.9400  -5.8050  -5.8050  -5.5043  -5.5043  -5.0940  -5.0940
    -4.6596  -4.6596  -4.4863  -4.4863  -1.3798  -1.3798  -1.3511  -1.3511
    -0.4143  -0.4143  -0.2632  -0.2632   0.8624   0.8624   1.2275   1.2275
     2.1235   2.1235   2.7073   2.7073   3.1588   3.1588   3.7396   3.7396
     3.8676   3.8676  13.5853  13.5853  13.6062  13.6062  14.7285  14.7285
    14.8865  14.8865

     the Fermi energy is     7.8151 ev

!    total energy              =    -373.41705436 Ry
     estimated scf accuracy    <          1.9E-10 Ry
     smearing contrib. (-TS)   =       0.00000000 Ry
     internal energy E=F+TS    =    -373.41705436 Ry

     The total energy is F=E-TS. E is the sum of the following terms:
     one-electron contribution =   -2437.68236997 Ry
     hartree contribution      =    1263.68779918 Ry
     xc contribution           =     -96.47853909 Ry
     ewald contribution        =    1020.31247711 Ry
     one-center paw contrib.   =    -123.25642159 Ry

     convergence has been achieved in  10 iterations

     negative rho (up, down):  3.412E-06 0.000E+00

     Forces acting on atoms (cartesian axes, Ry/au):

     atom    1 type  1   force =    -0.00000000    0.00162139   -0.00132402
     atom    2 type  1   force =     0.00000000   -0.00162139   -0.00132402
     atom    3 type  1   force =     0.00000000   -0.00020760   -0.00312802
     atom    4 type  1   force =    -0.00000000    0.00020760   -0.00312802
     atom    5 type  1   force =    -0.00000000   -0.00034993   -0.00198937
     atom    6 type  1   force =     0.00000000    0.00034993   -0.00198937
     atom    7 type  1   force =    -0.00000000    0.00016464   -0.00037610
     atom    8 type  1   force =     0.00000000   -0.00016464   -0.00037610
     atom    9 type  1   force =     0.00000000    0.00026603    0.00006379
     atom   10 type  1   force =     0.00000000   -0.00026603    0.00006379
     atom   11 type  1   force =     0.00000000   -0.00026603   -0.00006379
     atom   12 type  1   force =     0.00000000    0.00026603   -0.00006379
     atom   13 type  1   force =     0.00000000    0.00016464    0.00037610
     atom   14 type  1   force =     0.00000000   -0.00016464    0.00037610
     atom   15 type  1   force =    -0.00000000   -0.00034993    0.00198937
     atom   16 type  1   force =     0.00000000    0.00034993    0.00198937
     atom   17 type  1   force =     0.00000000    0.00020760    0.00312802
     atom   18 type  1   force =     0.00000000   -0.00020760    0.00312802
     atom   19 type  1   force =     0.00000000   -0.00162139    0.00132402
     atom   20 type  1   force =    -0.00000000    0.00162139    0.00132402
     atom   21 type  2   force =     0.00000000   -0.00015623    0.00380524
     atom   22 type  2   force =    -0.00000000    0.00015623    0.00380524
     atom   23 type  2   force =     0.00000000    0.00015623   -0.00380524
     atom   24 type  2   force =     0.00000000   -0.00015623   -0.00380524

     Total force =     0.011496     Total SCF correction =     0.000044


     Computing stress (Cartesian axis) and pressure


     negative rho (up, down):  3.412E-06 0.000E+00
          total   stress  (Ry/bohr**3)                   (kbar)     P=       -0.43
   0.00000922   0.00000000   0.00000000            1.36        0.00        0.00
   0.00000000   0.00000212   0.00000000            0.00        0.31        0.00
   0.00000000   0.00000000  -0.00002008            0.00        0.00       -2.95

     Energy error            =      3.7E-04 Ry
     Gradient error          =      3.8E-03 Ry/Bohr
     Cell gradient error     =      1.4E+00 kbar

     number of scf cycles    =   6
     number of bfgs steps    =   5

     enthalpy           old  =    -373.4166859022 Ry
     enthalpy           new  =    -373.4170543558 Ry

     CASE: enthalpy          _new < enthalpy          _old

     new trust radius        =       0.0102335197 bohr
     Message from routine volume:
     axis vectors are left-handed
     new conv_thr            =       0.0000000004 Ry

     new unit-cell volume =   1300.08141 a.u.^3 (   192.65219 Ang^3 )
     density =      2.10530 g/cm^3

CELL_PARAMETERS (angstrom)
   2.531900998   0.000000000   0.000000000
   0.000000000  -3.597935043   0.000000000
   0.000000000   0.000000000  21.148224330

ATOMIC_POSITIONS (crystal)
C                0.5000000000        0.4941352511        0.7674787405
C                0.0000000000        0.2558647489        0.7674787405
C                0.0000000000       -0.0009893337        0.7093357050
C                0.5000000000        0.7509893337        0.7093357050
C                0.0000000000        0.2498134086        0.6495198867
C                0.5000000000        0.5001865914        0.6495198867
C                0.5000000000        0.7499491795        0.5897500148
C               -0.0000000000        0.0000508205        0.5897500148
C                0.0000000000        0.2499768956        0.5299194988
C                0.5000000000        0.5000231044        0.5299194988
C               -0.0000000000        0.0000231044        0.4700805012
C                0.5000000000        0.7499768956        0.4700805012
C                0.0000000000        0.2499491795        0.4102499852
C                0.5000000000        0.5000508205        0.4102499852
C                0.5000000000        0.7498134086        0.3504801133
C               -0.0000000000        0.0001865914        0.3504801133
C               -0.0000000000        0.2509893337        0.2906642950
C                0.5000000000        0.4990106663        0.2906642950
C                0.5000000000        0.7558647489        0.2325212595
C               -0.0000000000       -0.0058647489        0.2325212595
H                0.5000000000        0.6603113437        0.8110774764
H                0.0000000000        0.0896886563        0.8110774764
H                0.5000000000        0.5896886563        0.1889225236
H                0.0000000000        0.1603113437        0.1889225236



     Writing config-only to output data dir /tmp/qe/slab.save/ :
     XML data file
     NEW-OLD atomic charge density approx. for the potential

     Check: negative core charge=   -0.000001

     negative rho (up, down):  3.325E-06 0.000E+00

     total cpu time spent up to now is      355.7 secs

     Self-consistent Calculation

     iteration #  1     ecut=    90.00 Ry     beta= 0.30
     Davidson diagonalization with overlap
     ethr =  1.00E-06,  avg # of iterations =  3.0

     Threshold (ethr) on eigenvalues was too large:
     Diagonalizing with lowered threshold

     Davidson diagonalization with overlap
     ethr =  3.02E-08,  avg # of iterations =  3.6

     negative rho (up, down):  3.319E-06 0.000E+00

     total cpu time spent up to now is      364.7 secs

     total energy              =    -373.41717256 Ry
     estimated scf accuracy    <       0.00002910 Ry

     iteration #  2     ecut=    90.00 Ry     beta= 0.30
     Davidson diagonalization with overlap
     ethr =  3.46E-08,  avg # of iterations =  1.0

     negative rho (up, down):  3.305E-06 0.000E+00

     total cpu time spent up to now is      368.0 secs

     total energy              =    -373.41717198 Ry
     estimated scf accuracy    <       0.00001080 Ry

     iteration #  3     ecut=    90.00 Ry     beta= 0.30
     Davidson diagonalization with overlap
     ethr =  1.29E-08,  avg # of iterations =  2.0

     negative rho (up, down):  3.320E-06 0.000E+00

     total cpu time spent up to now is      371.7 secs

     total energy              =    -373.41717308 Ry
     estimated scf accuracy    <       0.00000097 Ry

     iteration #  4     ecut=    90.00 Ry     beta= 0.30
     Davidson diagonalization with overlap
     ethr =  1.16E-09,  avg # of iterations =  2.0

     negative rho (up, down):  3.335E-06 0.000E+00

     total cpu time spent up to now is      375.4 secs

     total energy              =    -373.41717320 Ry
     estimated scf accuracy    <       0.00000018 Ry

     iteration #  5     ecut=    90.00 Ry     beta= 0.30
     Davidson diagonalization with overlap
     ethr =  2.18E-10,  avg # of iterations =  2.2

     negative rho (up, down):  3.341E-06 0.000E+00

     total cpu time spent up to now is      379.1 secs

     total energy              =    -373.41717321 Ry
     estimated scf accuracy    <       0.00000002 Ry

     iteration #  6     ecut=    90.00 Ry     beta= 0.30
     Davidson diagonalization with overlap
     ethr =  2.19E-11,  avg # of iterations =  2.9

     negative rho (up, down):  3.343E-06 0.000E+00

     total cpu time spent up to now is      383.5 secs

     total energy              =    -373.41717322 Ry
     estimated scf accuracy    <          2.0E-09 Ry

     iteration #  7     ecut=    90.00 Ry     beta= 0.30
     Davidson diagonalization with overlap
     ethr =  2.43E-12,  avg # of iterations =  3.8

     negative rho (up, down):  3.345E-06 0.000E+00

     total cpu time spent up to now is      388.1 secs

     total energy              =    -373.41717322 Ry
     estimated scf accuracy    <          2.2E-09 Ry

     iteration #  8     ecut=    90.00 Ry     beta= 0.30
     Davidson diagonalization with overlap
     ethr =  2.43E-12,  avg # of iterations =  2.1

     negative rho (up, down):  3.349E-06 0.000E+00

     total cpu time spent up to now is      391.8 secs

     End of self-consistent calculation

          k = 0.0000-0.0000 0.0000 ( 18619 PWs)   bands (ev):

   -14.1902 -13.7680 -13.0370 -12.0176 -10.7481  -9.3074  -7.8135  -6.4858
    -5.7929  -5.7252  -5.6566  -5.2914  -4.6429  -3.7232  -2.6170  -2.5508
    -2.2529  -1.9558  -1.1846  -0.9384  -0.8850   0.2959   0.3130   0.4789
     0.8823   1.2065   1.7638   1.9355   2.0362   2.5252   3.4315   3.6331
     3.6572   4.3820   5.1375   5.2636   5.3053   5.9983   6.3580   6.5275
     6.5421   6.8651   8.7796   9.2094  11.4730  11.8593  12.1881  12.5515
    12.6277  12.6934

          k = 0.0000-0.1003 0.0000 ( 18587 PWs)   bands (ev):

   -14.0057 -13.5852 -12.8575 -11.8447 -10.5900  -9.1925  -7.8854  -7.8077
    -7.4588  -7.2206  -4.8014  -4.7631  -3.8438  -3.8367  -3.4595  -2.5378
    -1.6007  -1.5542  -0.8199  -0.5500  -0.5266   0.4789   0.5555   0.8176
     1.0600   1.3754   1.8898   1.9156   2.4576   2.6469   3.3603   3.5018
     4.0411   4.3673   4.8380   5.1208   5.3650   5.6879   6.0365   6.0503
     6.2303   6.3034   8.9936   9.4243  11.6541  11.7022  12.3269  12.8013
    12.8515  13.1843

          k = 0.0000-0.2006 0.0000 ( 18570 PWs)   bands (ev):

   -13.4543 -13.0395 -12.3235 -11.3356 -10.1496  -9.6940  -9.3092  -9.0050
    -8.6164  -8.2886  -5.5440  -5.3271  -4.3840  -4.1021  -2.7696  -2.5376
    -1.4176  -0.8897  -0.0271   0.2199   0.8806   1.1097   1.2027   1.5710
     1.5867   1.8739   2.3589   2.4895   2.7887   2.9942   3.5471   3.6873
     4.0896   4.2987   4.5895   4.7101   4.8986   4.9616   4.9745   5.0118
     5.4860   5.5117   9.6321   9.9990  11.7038  12.0273  12.4063  12.8595
    13.0095  13.2976

          k = 0.0000-0.3009 0.0000 ( 18524 PWs)   bands (ev):

   -12.5433 -12.1425 -11.4642 -11.2841 -10.8775 -10.5706 -10.1497  -9.5998
    -9.1847  -8.8162  -6.0068  -5.5719  -4.9491  -4.1756  -3.3021  -2.4544
    -1.4883  -0.5870   0.2406   1.2166   1.8810   1.8823   2.4412   2.5377
     2.6725   2.8602   3.0017   3.0484   3.3834   3.4770   3.6062   3.7063
     3.8089   3.8747   3.9536   3.9593   4.2064   4.2253   4.2618   4.2986
     4.4971   4.5102  10.6417  10.8340  11.7437  11.9391  12.1035  12.6166
    12.8408  13.3190

          k = 0.0998-0.0000 0.0000 ( 18585 PWs)   bands (ev):

   -14.0074 -13.5860 -12.8564 -11.8389 -10.5717  -9.1341  -7.6442  -6.3217
    -5.6314  -5.5982  -5.5614  -5.2360  -4.5923  -3.6799  -2.5169  -2.4574
    -2.0918  -1.8072  -1.1631  -0.8101  -0.7311   0.0267   0.3186   0.3643
     0.4513   0.5607   0.9421   1.7266   1.9217   2.0535   2.6555   3.5413
     3.6133   3.6181   4.4927   4.8632   5.1297   5.2806   5.6660   5.8242
     5.9453   6.4408   8.9613   9.3755  11.5815  12.3259  12.5088  12.7129
    12.9202  13.0119

          k = 0.0998-0.1003 0.0000 ( 18588 PWs)   bands (ev):

   -13.8233 -13.4037 -12.6774 -11.6665 -10.4145  -9.0205  -7.7208  -7.6597
    -7.3103  -7.0681  -4.6837  -4.6400  -3.7591  -3.7290  -3.4283  -2.4427
    -1.5419  -1.4772  -0.7667  -0.5461  -0.4234   0.2820   0.5265   0.5393
     0.6955   0.8670   1.1736   1.8401   1.9281   2.4476   2.7688   3.2793
     3.6118   3.9007   4.3399   4.5365   4.6746   4.9035   5.0685   5.5403
     6.0509   6.3702   9.1915   9.6051  11.8531  12.4833  12.9742  13.0163
    13.2978  13.5152

          k = 0.0998-0.2006 0.0000 ( 18563 PWs)   bands (ev):

   -13.2733 -12.8594 -12.1451 -11.1596  -9.9768  -9.5289  -9.1460  -8.8387
    -8.4548  -8.1282  -5.3886  -5.1795  -4.2350  -3.9665  -2.6554  -2.4201
    -1.4965  -0.8389  -0.1389  -0.0180   0.5106   1.0610   1.0666   1.2037
     1.2716   1.5974   1.9688   2.2186   2.5533   2.7255   3.1311   3.3123
     3.5116   3.5834   3.6253   3.7825   3.8255   4.1155   4.6104   5.1413
     5.7632   5.8695   9.8431  10.2138  12.4169  12.4428  13.0181  13.4578
    13.6185  14.1684

          k = 0.0998-0.3009 0.0000 ( 18556 PWs)   bands (ev):

   -12.3648 -11.9652 -11.2889 -11.1103 -10.7053 -10.3983  -9.9803  -9.4319
    -9.0192  -8.6528  -5.8440  -5.4111  -4.7955  -4.0238  -3.1638  -2.3169
    -1.3848  -0.4851   0.1369   1.0123   1.0495   1.4389   1.6698   1.9283
     2.2595   2.3122   2.3342   2.6840   2.7506   2.8863   3.1118   3.1425
     3.2334   3.3868   3.4807   3.6815   3.7976   4.0277   4.4220   4.4788
     4.7665   4.7855  10.8662  11.1132  12.2275  12.2741  12.7074  13.1812
    13.3126  13.9291

          k = 0.1996-0.0000 0.0000 ( 18601 PWs)   bands (ev):

   -13.4612 -13.0424 -12.3168 -11.3050 -10.0451  -8.6166  -7.1386  -5.8310
    -5.6071  -5.2501  -5.1478  -5.0711  -4.6158  -3.7168  -2.5717  -1.9914
    -1.6256  -1.5661  -1.3716  -1.2401  -1.2117  -0.6098  -0.4695  -0.2595
     0.2005   0.2153   0.7630   0.9115   1.1416   1.7838   2.0408   2.0875
     2.8873   3.1763   3.4402   3.4702   3.8276   3.9958   4.0023   4.4655
     4.9970   6.1116   9.5390   9.8860  11.7043  11.8877  12.1306  12.4142
    13.0254  13.1835

          k = 0.1996-0.1003 0.0000 ( 18549 PWs)   bands (ev):

   -13.2785 -12.8614 -12.1395 -11.1347  -9.8906  -8.5074  -7.2565  -7.2352
    -6.8977  -6.6325  -4.4200  -4.3769  -3.7316  -3.6664  -3.4811  -2.2438
    -1.7319  -1.5829  -1.0657  -0.9191  -0.7303  -0.3739  -0.1394   0.1601
     0.3525   0.7872   0.8377   1.1352   1.5376   1.5880   2.2535   2.2549
     2.6800   2.7518   2.8185   2.8778   3.1646   3.7268   4.5153   4.7658
     5.4192   5.7176   9.7814  10.1357  12.2455  12.4898  12.5708  12.8440
    13.1434  13.3142

          k = 0.1996-0.2006 0.0000 ( 18536 PWs)   bands (ev):

   -12.7328 -12.3219 -11.6126 -10.6343  -9.4618  -9.0477  -8.6702  -8.3461
    -7.9794  -7.6541  -4.9560  -4.7703  -3.8434  -3.5974  -2.6354  -2.5162
    -2.1358  -1.3537  -1.0716  -0.5031  -0.1754  -0.1334   0.6166   0.9464
     1.1287   1.2018   1.2362   1.7274   1.8005   1.8711   1.9132   1.9649
     2.1052   2.2854   2.5594   2.7139   3.2612   3.4403   4.5026   4.5053
     5.3276   5.5669  10.4464  10.7792  13.0146  13.4795  13.6212  13.6866
    13.9463  13.9841

          k = 0.1996-0.3009 0.0000 ( 18533 PWs)   bands (ev):

   -11.8331 -11.4372 -10.7670 -10.5954 -10.1953  -9.8859  -9.4784  -8.9328
    -8.5278  -8.1662  -5.3760  -4.9474  -4.3610  -3.5920  -2.8046  -1.9583
    -1.4718  -1.4580  -0.5206  -0.4289  -0.2247  -0.1515   0.4081   0.4402
     0.7544   0.9757   1.2199   1.3684   1.6059   1.8630   2.3981   2.9239
     3.0819   3.1279   3.2653   3.3906   3.4419   3.4771   3.8806   4.3340
     4.7109   4.7499  11.4472  11.6813  12.8969  12.9443  13.9151  14.0737
    14.3377  14.5120

          k = 0.2993-0.0000 0.0000 ( 18564 PWs)   bands (ev):

   -12.5591 -12.1446 -11.4262 -10.4241  -9.1766  -7.7633  -6.3863  -6.3041
    -6.0195  -5.3730  -5.0185  -4.4612  -4.3454  -4.2583  -3.3075  -2.2996
    -1.9758  -1.9564  -1.3804  -1.2605  -0.9219  -0.6714  -0.6154  -0.5344
     0.0038   0.2439   0.4971   0.9212   0.9702   1.0499   1.6368   1.6628
     1.7900   1.8279   1.9403   2.1149   2.4008   2.6652   2.7543   3.0301
     4.4430   5.5098  10.4698  10.7105  11.4183  11.4857  12.1398  12.4933
    13.0802  13.3496

          k = 0.2993-0.1003 0.0000 ( 18545 PWs)   bands (ev):

   -12.3791 -11.9666 -11.2522 -10.2579  -9.0273  -7.6627  -6.9438  -6.6454
    -6.3484  -6.1260  -4.6717  -4.5872  -4.5093  -4.3972  -3.5805  -2.3437
    -2.2222  -1.7902  -1.5800  -1.1137  -1.0028  -0.7580  -0.0906   0.1606
     0.1937   0.4899   0.6139   0.6749   0.8125   0.8512   1.2063   1.3563
     1.5231   1.7025   1.8285   1.9459   2.7496   2.7613   3.4809   3.7995
     4.2523   5.2635  10.7325  10.9872  12.0419  12.0553  12.4469  12.6763
    13.1855  13.2833

          k = 0.2993-0.2006 0.0000 ( 18570 PWs)   bands (ev):

   -11.8428 -11.4372 -10.7367  -9.7708  -8.6165  -8.3354  -7.9637  -7.5670
    -7.2371  -6.9061  -4.4989  -4.4103  -4.2969  -4.0723  -3.8770  -3.2213
    -2.3531  -1.9763  -1.7703  -1.1197  -1.0199  -1.0072  -0.7728  -0.7498
     0.0251   0.2462   0.5032   0.5470   1.4664   1.6107   1.7684   1.7731
     1.9520   2.1048   2.1107   2.3822   2.4540   3.0218   3.6360   4.0667
     4.6973   4.7269  11.3826  11.6192  13.0681  13.1496  13.4881  13.6829
    13.7551  14.0559

          k = 0.2993-0.3009 0.0000 ( 18605 PWs)   bands (ev):

   -10.9634 -10.5739  -9.9144  -9.7697  -9.3780  -9.0507  -8.6727  -8.1212
    -7.7325  -7.3712  -4.7131  -4.2786  -3.8363  -3.6118  -3.2849  -3.0828
    -2.9568  -2.4604  -2.1645  -2.0276  -1.6010  -1.4250  -0.7977  -0.7006
    -0.5606  -0.3180   0.0449   0.6801   1.4827   1.7666   1.9957   2.3249
     2.5249   2.5494   2.9031   3.1113   3.3898   3.4519   3.6225   3.6287
     4.3299   4.5196  12.2403  12.3701  13.6623  13.6977  14.1024  14.1977
    14.6225  14.8075

          k = 0.3991-0.0000 0.0000 ( 18524 PWs)   bands (ev):

   -11.3176 -10.9096 -10.2018  -9.2141  -8.0246  -7.9842  -7.6393  -6.9666
    -6.5916  -6.0242  -5.1559  -4.8437  -3.8942  -3.4978  -3.2309  -3.1306
    -2.0903  -1.7391  -1.4402  -0.9406  -0.8112  -0.3498  -0.3096  -0.1289
    -0.1271   0.0047   0.2604   0.3391   0.4647   0.8511   0.9756   1.0352
     1.1326   1.1446   1.2836   1.2987   1.4386   1.4882   2.2996   2.5747
     3.6023   4.6474  11.2310  11.3112  11.6464  12.0316  12.4213  12.6146
    12.8078  12.9545

          k = 0.3991-0.1003 0.0000 ( 18559 PWs)   bands (ev):

   -11.1437 -10.7381 -10.0349  -9.0559  -7.9544  -7.8455  -7.5735  -6.9191
    -6.4952  -6.0200  -5.0936  -4.7845  -4.4440  -4.2266  -4.2104  -3.4960
    -2.2096  -1.5639  -1.4821  -1.4161  -1.2937  -1.2434  -0.7604  -0.7000
    -0.2847   0.1966   0.5995   0.7278   0.7757   0.8396   0.9503   1.0686
     1.1440   1.3433   1.7059   1.9070   1.9156   2.3502   2.3901   2.7030
     3.5182   4.5664  11.8382  11.8431  11.9512  12.0090  12.4842  12.4978
    13.0592  13.4496

          k = 0.3991-0.2006 0.0000 ( 18596 PWs)   bands (ev):

   -10.6293 -10.2319  -9.5445  -8.5970  -8.0061  -7.6683  -7.4254  -7.0368
    -6.2895  -6.2430  -5.6041  -5.2968  -4.8598  -4.7560  -4.6104  -3.6096
    -3.0641  -2.8538  -2.5643  -2.4497  -2.1708  -1.6763  -1.4783  -0.6794
    -0.2942  -0.1341   0.4695   0.5558   0.9096   1.2257   1.2909   1.6437
     1.8307   2.0052   2.0751   2.3257   2.4572   3.0413   3.1203   3.2818
     3.6591   4.3249  12.3914  12.5154  12.9565  12.9974  13.3796  13.4370
    13.6418  13.8969

          k = 0.3991-0.3009 0.0000 ( 18635 PWs)   bands (ev):

    -9.8066  -9.4268  -8.7839  -8.7833  -8.4022  -7.9626  -7.6925  -7.0827
    -6.7215  -6.3243  -5.4920  -5.1473  -4.6831  -4.5048  -4.3408  -4.1953
    -4.1387  -3.9735  -3.5861  -3.3511  -2.0614  -1.8215  -1.4311  -1.3540
    -0.8349  -0.2991   0.3397   0.6083   0.6184   1.1221   1.4191   1.6343
     2.0928   2.3883   2.6796   2.8650   3.1254   3.4275   3.5868   3.5937
     3.9816   4.1367  12.9744  12.9995  14.0321  14.1106  14.3050  14.4659
    14.7572  14.8881

          k =-0.4989 0.0000 0.0000 ( 18558 PWs)   bands (ev):

    -9.7738  -9.7738  -9.3752  -9.3752  -8.6821  -8.6821  -7.7141  -7.7141
    -6.5069  -6.5069  -5.1385  -5.1385  -3.7250  -3.7250  -2.4770  -2.4770
    -1.8168  -1.8168  -1.7016  -1.7016  -0.5288  -0.5288  -0.2998  -0.2998
     0.0582   0.0582   0.4252   0.4252   0.5782   0.5782   0.6339   0.6339
     0.7810   0.7810   0.7941   0.7941   1.3203   1.3203   2.5598   2.5598
     3.6213   3.6213  11.7255  11.7255  11.8957  11.8957  12.3357  12.3357
    12.9529  12.9529

          k =-0.4989-0.1003 0.0000 ( 18580 PWs)   bands (ev):

    -9.6174  -9.6174  -9.2220  -9.2220  -8.5348  -8.5348  -7.5769  -7.5769
    -6.3886  -6.3886  -5.0628  -5.0628  -3.7782  -3.7782  -3.1413  -3.1413
    -2.9373  -2.9373  -2.9284  -2.9284  -0.4643  -0.4643  -0.4000  -0.4000
     0.0940   0.0940   0.4610   0.4610   0.7349   0.7349   0.9193   0.9193
     1.1802   1.1802   1.3921   1.3921   1.6878   1.6878   2.6478   2.6478
     3.6658   3.6658  12.0572  12.0572  12.2154  12.2154  12.6136  12.6136
    13.0653  13.0653

          k =-0.4989-0.2006 0.0000 ( 18622 PWs)   bands (ev):

    -9.1792  -9.1792  -8.7943  -8.7943  -8.1264  -8.1264  -7.2019  -7.2019
    -6.0781  -6.0781  -4.9367  -4.9367  -4.7446  -4.7446  -4.4902  -4.4902
    -4.0258  -4.0258  -3.9969  -3.9969  -1.1810  -1.1810  -0.8020  -0.8020
    -0.4244  -0.4244   0.1479   0.1479   0.9382   0.9382   1.2183   1.2183
     1.9727   1.9727   2.3849   2.3849   2.5930   2.5930   2.9765   2.9765
     3.7669   3.7669  12.8779  12.8779  13.0192  13.0192  13.3475  13.3475
    13.7445  13.7445

          k =-0.4989-0.3009 0.0000 ( 18590 PWs)   bands (ev):

    -8.6423  -8.6423  -8.2757  -8.2757  -7.6403  -7.6403  -6.7731  -6.7731
    -5.9462  -5.9462  -5.8117  -5.8117  -5.5105  -5.5105  -5.0983  -5.0983
    -4.6634  -4.6634  -4.4898  -4.4898  -1.3792  -1.3792  -1.3539  -1.3539
    -0.4106  -0.4106  -0.2686  -0.2686   0.8674   0.8674   1.2216   1.2216
     2.1252   2.1252   2.7008   2.7008   3.1562   3.1562   3.7338   3.7338
     3.8629   3.8629  13.5811  13.5811  13.6023  13.6023  14.7226  14.7226
    14.8751  14.8751

     the Fermi energy is     7.8020 ev

!    total energy              =    -373.41717322 Ry
     estimated scf accuracy    <          1.7E-10 Ry
     smearing contrib. (-TS)   =       0.00000000 Ry
     internal energy E=F+TS    =    -373.41717322 Ry

     The total energy is F=E-TS. E is the sum of the following terms:
     one-electron contribution =   -2439.17738471 Ry
     hartree contribution      =    1264.41703345 Ry
     xc contribution           =     -96.47184131 Ry
     ewald contribution        =    1021.07134614 Ry
     one-center paw contrib.   =    -123.25632679 Ry

     convergence has been achieved in   8 iterations

     negative rho (up, down):  3.349E-06 0.000E+00

     Forces acting on atoms (cartesian axes, Ry/au):

     atom    1 type  1   force =     0.00000000   -0.00045786    0.00050022
     atom    2 type  1   force =     0.00000000    0.00045786    0.00050022
     atom    3 type  1   force =    -0.00000000   -0.00000425   -0.00147261
     atom    4 type  1   force =     0.00000000    0.00000425   -0.00147261
     atom    5 type  1   force =    -0.00000000   -0.00020004   -0.00194325
     atom    6 type  1   force =     0.00000000    0.00020004   -0.00194325
     atom    7 type  1   force =     0.00000000   -0.00026485   -0.00106699
     atom    8 type  1   force =     0.00000000    0.00026485   -0.00106699
     atom    9 type  1   force =     0.00000000   -0.00012965   -0.00029088
     atom   10 type  1   force =     0.00000000    0.00012965   -0.00029088
     atom   11 type  1   force =     0.00000000    0.00012965    0.00029088
     atom   12 type  1   force =    -0.00000000   -0.00012965    0.00029088
     atom   13 type  1   force =    -0.00000000   -0.00026485    0.00106699
     atom   14 type  1   force =     0.00000000    0.00026485    0.00106699
     atom   15 type  1   force =     0.00000000   -0.00020004    0.00194325
     atom   16 type  1   force =     0.00000000    0.00020004    0.00194325
     atom   17 type  1   force =     0.00000000    0.00000425    0.00147261
     atom   18 type  1   force =     0.00000000   -0.00000425    0.00147261
     atom   19 type  1   force =    -0.00000000    0.00045786   -0.00050022
     atom   20 type  1   force =     0.00000000   -0.00045786   -0.00050022
     atom   21 type  2   force =    -0.00000000    0.00002233    0.00118164
     atom   22 type  2   force =     0.00000000   -0.00002233    0.00118164
     atom   23 type  2   force =     0.00000000   -0.00002233   -0.00118164
     atom   24 type  2   force =    -0.00000000    0.00002233   -0.00118164

     Total force =     0.006050     Total SCF correction =     0.000037


     Computing stress (Cartesian axis) and pressure


     negative rho (up, down):  3.349E-06 0.000E+00
          total   stress  (Ry/bohr**3)                   (kbar)     P=       -1.35
   0.00000038   0.00000000   0.00000000            0.06        0.00        0.00
   0.00000000  -0.00000196   0.00000000            0.00       -0.29        0.00
   0.00000000   0.00000000  -0.00002588            0.00        0.00       -3.81

     Energy error            =      1.2E-04 Ry
     Gradient error          =      1.9E-03 Ry/Bohr
     Cell gradient error     =      2.9E-01 kbar

     number of scf cycles    =   7
     number of bfgs steps    =   6

     enthalpy           old  =    -373.4170543558 Ry
     enthalpy           new  =    -373.4171732208 Ry

     CASE: enthalpy          _new < enthalpy          _old

     new trust radius        =       0.0041460804 bohr
     Message from routine volume:
     axis vectors are left-handed
     new conv_thr            =       0.0000000001 Ry

     new unit-cell volume =   1300.06184 a.u.^3 (   192.64929 Ang^3 )
     density =      2.10533 g/cm^3

CELL_PARAMETERS (angstrom)
   2.531961133   0.000000000   0.000000000
   0.000000000  -3.597795439   0.000000000
   0.000000000   0.000000000  21.148224330

ATOMIC_POSITIONS (crystal)
C                0.5000000000        0.4941579943        0.7674620181
C                0.0000000000        0.2558420057        0.7674620181
C                0.0000000000       -0.0010023842        0.7092465788
C                0.5000000000        0.7510023842        0.7092465788
C                0.0000000000        0.2498836818        0.6494365039
C                0.5000000000        0.5001163182        0.6494365039
C                0.5000000000        0.7499992290        0.5897129697
C                0.0000000000        0.0000007710        0.5897129697
C                0.0000000000        0.2499917187        0.5299113621
C                0.5000000000        0.5000082813        0.5299113621
C               -0.0000000000        0.0000082813        0.4700886379
C                0.5000000000        0.7499917187        0.4700886379
C                0.0000000000        0.2499992290        0.4102870303
C                0.5000000000        0.5000007710        0.4102870303
C                0.5000000000        0.7498836818        0.3505634961
C               -0.0000000000        0.0001163182        0.3505634961
C               -0.0000000000        0.2510023842        0.2907534212
C                0.5000000000        0.4989976158        0.2907534212
C                0.5000000000        0.7558420057        0.2325379819
C               -0.0000000000       -0.0058420057        0.2325379819
H                0.5000000000        0.6599639239        0.8111627369
H                0.0000000000        0.0900360761        0.8111627369
H                0.5000000000        0.5900360761        0.1888372631
H                0.0000000000        0.1599639239        0.1888372631



     Writing config-only to output data dir /tmp/qe/slab.save/ :
     XML data file
     NEW-OLD atomic charge density approx. for the potential

     Check: negative core charge=   -0.000001

     negative rho (up, down):  3.266E-06 0.000E+00

     total cpu time spent up to now is      405.4 secs

     Self-consistent Calculation

     iteration #  1     ecut=    90.00 Ry     beta= 0.30
     Davidson diagonalization with overlap
     ethr =  1.00E-06,  avg # of iterations =  2.6

     Threshold (ethr) on eigenvalues was too large:
     Diagonalizing with lowered threshold

     Davidson diagonalization with overlap
     ethr =  1.44E-08,  avg # of iterations =  4.0

     negative rho (up, down):  3.276E-06 0.000E+00

     total cpu time spent up to now is      414.7 secs

     total energy              =    -373.41721938 Ry
     estimated scf accuracy    <       0.00001452 Ry

     iteration #  2     ecut=    90.00 Ry     beta= 0.30
     Davidson diagonalization with overlap
     ethr =  1.73E-08,  avg # of iterations =  1.8

     negative rho (up, down):  3.295E-06 0.000E+00

     total cpu time spent up to now is      418.1 secs

     total energy              =    -373.41721936 Ry
     estimated scf accuracy    <       0.00000431 Ry

     iteration #  3     ecut=    90.00 Ry     beta= 0.30
     Davidson diagonalization with overlap
     ethr =  5.13E-09,  avg # of iterations =  1.8

     negative rho (up, down):  3.315E-06 0.000E+00

     total cpu time spent up to now is      421.7 secs

     total energy              =    -373.41721954 Ry
     estimated scf accuracy    <       0.00000094 Ry

     iteration #  4     ecut=    90.00 Ry     beta= 0.30
     Davidson diagonalization with overlap
     ethr =  1.12E-09,  avg # of iterations =  2.0

     negative rho (up, down):  3.326E-06 0.000E+00

     total cpu time spent up to now is      425.3 secs

     total energy              =    -373.41721962 Ry
     estimated scf accuracy    <       0.00000013 Ry

     iteration #  5     ecut=    90.00 Ry     beta= 0.30
     Davidson diagonalization with overlap
     ethr =  1.58E-10,  avg # of iterations =  2.0

     negative rho (up, down):  3.330E-06 0.000E+00

     total cpu time spent up to now is      429.3 secs

     total energy              =    -373.41721964 Ry
     estimated scf accuracy    <       0.00000002 Ry

     iteration #  6     ecut=    90.00 Ry     beta= 0.30
     Davidson diagonalization with overlap
     ethr =  2.25E-11,  avg # of iterations =  2.2

     negative rho (up, down):  3.331E-06 0.000E+00

     total cpu time spent up to now is      433.1 secs

     total energy              =    -373.41721964 Ry
     estimated scf accuracy    <          3.2E-09 Ry

     iteration #  7     ecut=    90.00 Ry     beta= 0.30
     Davidson diagonalization with overlap
     ethr =  3.79E-12,  avg # of iterations =  2.4

     negative rho (up, down):  3.332E-06 0.000E+00

     total cpu time spent up to now is      437.4 secs

     total energy              =    -373.41721964 Ry
     estimated scf accuracy    <          2.7E-10 Ry

     iteration #  8     ecut=    90.00 Ry     beta= 0.30
     Davidson diagonalization with overlap
     ethr =  3.17E-13,  avg # of iterations =  3.1

     negative rho (up, down):  3.334E-06 0.000E+00

     total cpu time spent up to now is      442.0 secs

     End of self-consistent calculation

          k = 0.0000-0.0000 0.0000 ( 18619 PWs)   bands (ev):

   -14.1962 -13.7690 -13.0340 -12.0162 -10.7477  -9.3076  -7.8144  -6.4866
    -5.7947  -5.7294  -5.6623  -5.2901  -4.6364  -3.7187  -2.6146  -2.5471
    -2.2493  -1.9585  -1.1811  -0.9388  -0.8850   0.2967   0.3158   0.4811
     0.8754   1.2040   1.7650   1.9375   2.0387   2.5241   3.4291   3.6356
     3.6583   4.3791   5.1396   5.2603   5.3056   5.9948   6.3565   6.5284
     6.5374   6.8604   8.7771   9.2057  11.4689  11.8523  12.1849  12.5537
    12.6243  12.6959

          k = 0.0000-0.1003 0.0000 ( 18587 PWs)   bands (ev):

   -14.0117 -13.5861 -12.8545 -11.8433 -10.5898  -9.1927  -7.8851  -7.8129
    -7.4611  -7.2197  -4.7964  -4.7605  -3.8452  -3.8323  -3.4646  -2.5333
    -1.5963  -1.5537  -0.8179  -0.5494  -0.5292   0.4795   0.5579   0.8196
     1.0531   1.3730   1.8928   1.9167   2.4588   2.6458   3.3638   3.4993
     4.0416   4.3644   4.8411   5.1178   5.3654   5.6849   6.0382   6.0457
     6.2251   6.3009   8.9911   9.4206  11.6501  11.6985  12.3236  12.7991
    12.8500  13.1858

          k = 0.0000-0.2006 0.0000 ( 18570 PWs)   bands (ev):

   -13.4603 -13.0404 -12.3205 -11.3343 -10.1493  -9.6993  -9.3099  -9.0044
    -8.6157  -8.2893  -5.5425  -5.3253  -4.3816  -4.0976  -2.7690  -2.5335
    -1.4209  -0.8878  -0.0281   0.2197   0.8812   1.1092   1.2042   1.5737
     1.5801   1.8716   2.3600   2.4921   2.7886   2.9929   3.5503   3.6849
     4.0923   4.2966   4.5907   4.7088   4.8954   4.9563   4.9688   5.0174
     5.4816   5.5133   9.6293   9.9952  11.7019  12.0237  12.4037  12.8563
    13.0050  13.2945

          k = 0.0000-0.3009 0.0000 ( 18524 PWs)   bands (ev):

   -12.5490 -12.1431 -11.4609 -11.2896 -10.8783 -10.5693 -10.1473  -9.6003
    -9.1842  -8.8174  -6.0046  -5.5743  -4.9419  -4.1744  -3.2976  -2.4525
    -1.4874  -0.5877   0.2403   1.2151   1.8786   1.8829   2.4350   2.5383
     2.6706   2.8612   3.0030   3.0494   3.3845   3.4759   3.6006   3.7061
     3.8082   3.8754   3.9488   3.9586   4.2022   4.2203   4.2612   4.2994
     4.5036   4.5173  10.6381  10.8297  11.7403  11.9360  12.1003  12.6133
    12.8387  13.3172

          k = 0.0998-0.0000 0.0000 ( 18585 PWs)   bands (ev):

   -14.0134 -13.5870 -12.8534 -11.8375 -10.5714  -9.1343  -7.6451  -6.3225
    -5.6332  -5.6039  -5.5656  -5.2347  -4.5859  -3.6753  -2.5133  -2.4550
    -2.0879  -1.8103  -1.1596  -0.8093  -0.7324   0.0199   0.3214   0.3619
     0.4523   0.5626   0.9433   1.7256   1.9236   2.0560   2.6532   3.5441
     3.6144   3.6153   4.4898   4.8652   5.1272   5.2800   5.6616   5.8220
     5.9408   6.4417   8.9585   9.3716  11.5783  12.3270  12.5057  12.7157
    12.9213  13.0149

          k = 0.0998-0.1003 0.0000 ( 18588 PWs)   bands (ev):

   -13.8293 -13.4046 -12.6744 -11.6652 -10.4143  -9.0208  -7.7204  -7.6649
    -7.3127  -7.0672  -4.6788  -4.6373  -3.7606  -3.7246  -3.4336  -2.4383
    -1.5376  -1.4766  -0.7647  -0.5456  -0.4261   0.2755   0.5254   0.5416
     0.6947   0.8690   1.1749   1.8417   1.9285   2.4485   2.7666   3.2831
     3.6091   3.9017   4.3373   4.5375   4.6730   4.8987   5.0673   5.5385
     6.0518   6.3673   9.1887   9.6013  11.8495  12.4839  12.9750  13.0139
    13.2977  13.5147

          k = 0.0998-0.2006 0.0000 ( 18563 PWs)   bands (ev):

   -13.2792 -12.8603 -12.1420 -11.1582  -9.9765  -9.5342  -9.1467  -8.8381
    -8.4541  -8.1289  -5.3870  -5.1776  -4.2326  -3.9620  -2.6549  -2.4160
    -1.5005  -0.8370  -0.1393  -0.0186   0.5102   1.0595   1.0634   1.2054
     1.2707   1.5970   1.9692   2.2210   2.5524   2.7248   3.1299   3.3129
     3.5132   3.5850   3.6207   3.7785   3.8241   4.1154   4.6116   5.1435
     5.7631   5.8658   9.8402  10.2098  12.4131  12.4431  13.0155  13.4535
    13.6164  14.1651

          k = 0.0998-0.3009 0.0000 ( 18556 PWs)   bands (ev):

   -12.3706 -11.9658 -11.2856 -11.1158 -10.7061 -10.3970  -9.9778  -9.4324
    -9.0188  -8.6541  -5.8418  -5.4134  -4.7882  -4.0225  -3.1593  -2.3149
    -1.3840  -0.4859   0.1349   1.0112   1.0466   1.4363   1.6712   1.9270
     2.2572   2.3125   2.3333   2.6807   2.7508   2.8849   3.1110   3.1435
     3.2319   3.3834   3.4819   3.6784   3.7971   4.0336   4.4202   4.4846
     4.7648   4.7862  10.8627  11.1087  12.2231  12.2695  12.7073  13.1794
    13.3102  13.9270

          k = 0.1996-0.0000 0.0000 ( 18601 PWs)   bands (ev):

   -13.4673 -13.0434 -12.3138 -11.3036 -10.0448  -8.6169  -7.1395  -5.8319
    -5.6130  -5.2491  -5.1498  -5.0753  -4.6097  -3.7126  -2.5684  -1.9890
    -1.6208  -1.5726  -1.3755  -1.2368  -1.2138  -0.6081  -0.4679  -0.2616
     0.2000   0.2178   0.7657   0.9116   1.1399   1.7852   2.0434   2.0856
     2.8849   3.1798   3.4413   3.4679   3.8237   3.9911   4.0042   4.4620
     4.9972   6.1125   9.5360   9.8822  11.7061  11.8862  12.1276  12.4185
    13.0226  13.1870

          k = 0.1996-0.1003 0.0000 ( 18549 PWs)   bands (ev):

   -13.2845 -12.8624 -12.1365 -11.1333  -9.8904  -8.5076  -7.2618  -7.2345
    -6.9003  -6.6314  -4.4147  -4.3739  -3.7338  -3.6718  -3.4777  -2.2399
    -1.7288  -1.5827  -1.0717  -0.9192  -0.7278  -0.3747  -0.1392   0.1594
     0.3535   0.7871   0.8370   1.1366   1.5399   1.5871   2.2520   2.2546
     2.6800   2.7463   2.8212   2.8782   3.1637   3.7268   4.5164   4.7648
     5.4161   5.7188   9.7783  10.1317  12.2457  12.4879  12.5683  12.8480
    13.1422  13.3188

          k = 0.1996-0.2006 0.0000 ( 18536 PWs)   bands (ev):

   -12.7387 -12.3228 -11.6095 -10.6330  -9.4615  -9.0530  -8.6709  -8.3453
    -7.9790  -7.6547  -4.9543  -4.7681  -3.8411  -3.5928  -2.6362  -2.5224
    -2.1318  -1.3531  -1.0690  -0.5041  -0.1735  -0.1365   0.6156   0.9444
     1.1285   1.1962   1.2343   1.7250   1.8003   1.8719   1.9139   1.9665
     2.1034   2.2850   2.5584   2.7169   3.2614   3.4442   4.5022   4.5078
     5.3280   5.5638  10.4430  10.7749  13.0121  13.4829  13.6208  13.6851
    13.9465  13.9811

          k = 0.1996-0.3009 0.0000 ( 18533 PWs)   bands (ev):

   -11.8389 -11.4378 -10.7637 -10.6010 -10.1961  -9.8846  -9.4759  -8.9332
    -8.5275  -8.1675  -5.3737  -4.9495  -4.3538  -3.5906  -2.8002  -1.9566
    -1.4720  -1.4642  -0.5197  -0.4295  -0.2306  -0.1514   0.4082   0.4396
     0.7560   0.9730   1.2209   1.3668   1.6032   1.8614   2.3990   2.9237
     3.0805   3.1252   3.2661   3.3948   3.4419   3.4764   3.8857   4.3370
     4.7072   4.7494  11.4435  11.6769  12.8921  12.9397  13.9181  14.0710
    14.3369  14.5123

          k = 0.2993-0.0000 0.0000 ( 18564 PWs)   bands (ev):

   -12.5652 -12.1456 -11.4232 -10.4228  -9.1764  -7.7636  -6.3925  -6.3051
    -6.0195  -5.3683  -5.0196  -4.4584  -4.3476  -4.2626  -3.3056  -2.3055
    -1.9751  -1.9566  -1.3773  -1.2581  -0.9163  -0.6762  -0.6144  -0.5338
     0.0053   0.2439   0.4951   0.9205   0.9724   1.0496   1.6372   1.6627
     1.7871   1.8303   1.9356   2.1160   2.4051   2.6674   2.7502   3.0305
     4.4427   5.5105  10.4670  10.7077  11.4167  11.4852  12.1415  12.4953
    13.0783  13.3518

          k = 0.2993-0.1003 0.0000 ( 18545 PWs)   bands (ev):

   -12.3852 -11.9676 -11.2492 -10.2566  -9.0270  -7.6630  -6.9497  -6.6444
    -6.3510  -6.1235  -4.6748  -4.5825  -4.5106  -4.4008  -3.5784  -2.3420
    -2.2196  -1.7856  -1.5837  -1.1183  -1.0044  -0.7551  -0.0889   0.1643
     0.1921   0.4894   0.6080   0.6721   0.8096   0.8515   1.2070   1.3542
     1.5281   1.7013   1.8298   1.9516   2.7505   2.7639   3.4804   3.7966
     4.2515   5.2642  10.7293  10.9836  12.0404  12.0545  12.4489  12.6766
    13.1895  13.2815

          k = 0.2993-0.2006 0.0000 ( 18570 PWs)   bands (ev):

   -11.8488 -11.4381 -10.7336  -9.7694  -8.6161  -8.3409  -7.9645  -7.5652
    -7.2373  -6.9066  -4.4960  -4.4147  -4.2951  -4.0756  -3.8765  -3.2179
    -2.3513  -1.9749  -1.7683  -1.1200  -1.0249  -1.0070  -0.7751  -0.7503
     0.0236   0.2457   0.5010   0.5501   1.4656   1.6118   1.7678   1.7751
     1.9495   2.1035   2.1096   2.3852   2.4602   3.0219   3.6377   4.0654
     4.6984   4.7238  11.3789  11.6149  13.0680  13.1483  13.4898  13.6811
    13.7560  14.0595

          k = 0.2993-0.3009 0.0000 ( 18605 PWs)   bands (ev):

   -10.9693 -10.5745  -9.9111  -9.7754  -9.3788  -9.0493  -8.6703  -8.1215
    -7.7323  -7.3726  -4.7103  -4.2802  -3.8291  -3.6177  -3.2877  -3.0826
    -2.9531  -2.4660  -2.1670  -2.0271  -1.5989  -1.4244  -0.7957  -0.7009
    -0.5611  -0.3211   0.0470   0.6799   1.4827   1.7671   1.9951   2.3232
     2.5285   2.5523   2.9023   3.1143   3.3865   3.4520   3.6249   3.6278
     4.3301   4.5163  12.2371  12.3668  13.6585  13.6925  14.1023  14.1969
    14.6275  14.8069

          k = 0.3991-0.0000 0.0000 ( 18524 PWs)   bands (ev):

   -11.3238 -10.9107 -10.1987  -9.2128  -8.0309  -7.9840  -7.6401  -6.9631
    -6.5919  -6.0224  -5.1569  -4.8430  -3.8954  -3.4977  -3.2333  -3.1350
    -2.0911  -1.7448  -1.4403  -0.9366  -0.8127  -0.3475  -0.3076  -0.1302
    -0.1249   0.0001   0.2571   0.3402   0.4652   0.8528   0.9726   1.0320
     1.1291   1.1477   1.2929   1.3076   1.4411   1.4860   2.2992   2.5751
     3.6013   4.6479  11.2307  11.3107  11.6448  12.0296  12.4201  12.6139
    12.8070  12.9532

          k = 0.3991-0.1003 0.0000 ( 18559 PWs)   bands (ev):

   -11.1498 -10.7391 -10.0319  -9.0546  -7.9607  -7.8453  -7.5742  -6.9154
    -6.4956  -6.0184  -5.0942  -4.7837  -4.4484  -4.2281  -4.2131  -3.4957
    -2.2100  -1.5616  -1.4793  -1.4194  -1.2961  -1.2463  -0.7624  -0.6978
    -0.2899   0.1994   0.6027   0.7319   0.7784   0.8409   0.9484   1.0665
     1.1478   1.3491   1.7035   1.9070   1.9185   2.3462   2.3902   2.7034
     3.5172   4.5669  11.8370  11.8426  11.9500  12.0080  12.4820  12.4974
    13.0595  13.4497

          k = 0.3991-0.2006 0.0000 ( 18596 PWs)   bands (ev):

   -10.6354 -10.2327  -9.5413  -8.5957  -8.0121  -7.6681  -7.4259  -7.0329
    -6.2904  -6.2417  -5.6099  -5.2981  -4.8584  -4.7576  -4.6099  -3.6088
    -3.0701  -2.8535  -2.5678  -2.4495  -2.1686  -1.6799  -1.4720  -0.6788
    -0.2905  -0.1335   0.4732   0.5563   0.9081   1.2305   1.2883   1.6476
     1.8309   2.0081   2.0733   2.3263   2.4541   3.0418   3.1197   3.2813
     3.6559   4.3254  12.3899  12.5139  12.9561  12.9961  13.3807  13.4362
    13.6398  13.8956

          k = 0.3991-0.3009 0.0000 ( 18635 PWs)   bands (ev):

    -9.8125  -9.4273  -8.7890  -8.7805  -8.4028  -7.9606  -7.6901  -7.0823
    -6.7213  -6.3255  -5.4978  -5.1486  -4.6797  -4.5099  -4.3408  -4.1949
    -4.1406  -3.9740  -3.5861  -3.3527  -2.0599  -1.8225  -1.4296  -1.3536
    -0.8300  -0.2958   0.3402   0.6077   0.6197   1.1245   1.4205   1.6363
     2.0921   2.3890   2.6814   2.8646   3.1241   3.4259   3.5838   3.5944
     3.9822   4.1339  12.9732  12.9984  14.0324  14.1103  14.3028  14.4632
    14.7556  14.8839

          k =-0.4989 0.0000 0.0000 ( 18558 PWs)   bands (ev):

    -9.7801  -9.7801  -9.3762  -9.3762  -8.6790  -8.6790  -7.7127  -7.7127
    -6.5066  -6.5066  -5.1388  -5.1388  -3.7260  -3.7260  -2.4783  -2.4783
    -1.8194  -1.8194  -1.7061  -1.7061  -0.5343  -0.5343  -0.2997  -0.2997
     0.0617   0.0617   0.4254   0.4254   0.5764   0.5764   0.6335   0.6335
     0.7896   0.7896   0.8020   0.8020   1.3187   1.3187   2.5582   2.5582
     3.6217   3.6217  11.7251  11.7251  11.8942  11.8942  12.3373  12.3373
    12.9525  12.9525

          k =-0.4989-0.1003 0.0000 ( 18580 PWs)   bands (ev):

    -9.6237  -9.6237  -9.2229  -9.2229  -8.5316  -8.5316  -7.5755  -7.5755
    -6.3883  -6.3883  -5.0630  -5.0630  -3.7789  -3.7789  -3.1458  -3.1458
    -2.9388  -2.9388  -2.9311  -2.9311  -0.4612  -0.4612  -0.3978  -0.3978
     0.0962   0.0962   0.4591   0.4591   0.7373   0.7373   0.9146   0.9146
     1.1858   1.1858   1.3959   1.3959   1.6858   1.6858   2.6460   2.6460
     3.6662   3.6662  12.0570  12.0570  12.2146  12.2146  12.6148  12.6148
    13.0655  13.0655

          k =-0.4989-0.2006 0.0000 ( 18622 PWs)   bands (ev):

    -9.1854  -9.1854  -8.7951  -8.7951  -8.1230  -8.1230  -7.2003  -7.2003
    -6.0777  -6.0777  -4.9367  -4.9367  -4.7506  -4.7506  -4.4912  -4.4912
    -4.0256  -4.0256  -3.9994  -3.9994  -1.1788  -1.1788  -0.8023  -0.8023
    -0.4204  -0.4204   0.1503   0.1503   0.9390   0.9390   1.2209   1.2209
     1.9736   1.9736   2.3837   2.3837   2.5921   2.5921   2.9733   2.9733
     3.7673   3.7673  12.8793  12.8793  13.0216  13.0216  13.3454  13.3454
    13.7437  13.7437

          k =-0.4989-0.3009 0.0000 ( 18590 PWs)   bands (ev):

    -8.6483  -8.6483  -8.2761  -8.2761  -7.6365  -7.6365  -6.7712  -6.7712
    -5.9520  -5.9520  -5.8110  -5.8110  -5.5130  -5.5130  -5.0973  -5.0973
    -4.6649  -4.6649  -4.4913  -4.4913  -1.3778  -1.3778  -1.3532  -1.3532
    -0.4069  -0.4069  -0.2668  -0.2668   0.8701   0.8701   1.2223   1.2223
     2.1258   2.1258   2.6996   2.6996   3.1555   3.1555   3.7314   3.7314
     3.8627   3.8627  13.5811  13.5811  13.6025  13.6025  14.7219  14.7219
    14.8739  14.8739

     the Fermi energy is     7.7973 ev

!    total energy              =    -373.41721964 Ry
     estimated scf accuracy    <          6.6E-11 Ry
     smearing contrib. (-TS)   =       0.00000000 Ry
     internal energy E=F+TS    =    -373.41721964 Ry

     The total energy is F=E-TS. E is the sum of the following terms:
     one-electron contribution =   -2440.84255841 Ry
     hartree contribution      =    1265.24797914 Ry
     xc contribution           =     -96.46981964 Ry
     ewald contribution        =    1021.90348249 Ry
     one-center paw contrib.   =    -123.25630322 Ry

     convergence has been achieved in   8 iterations

     negative rho (up, down):  3.334E-06 0.000E+00

     Forces acting on atoms (cartesian axes, Ry/au):

     atom    1 type  1   force =    -0.00000000   -0.00093568    0.00061783
     atom    2 type  1   force =    -0.00000000    0.00093568    0.00061783
     atom    3 type  1   force =    -0.00000000   -0.00031167   -0.00019616
     atom    4 type  1   force =     0.00000000    0.00031167   -0.00019616
     atom    5 type  1   force =    -0.00000000    0.00024434   -0.00118351
     atom    6 type  1   force =     0.00000000   -0.00024434   -0.00118351
     atom    7 type  1   force =     0.00000000    0.00004875   -0.00118793
     atom    8 type  1   force =     0.00000000   -0.00004875   -0.00118793
     atom    9 type  1   force =    -0.00000000    0.00003599   -0.00045086
     atom   10 type  1   force =     0.00000000   -0.00003599   -0.00045086
     atom   11 type  1   force =     0.00000000   -0.00003599    0.00045086
     atom   12 type  1   force =     0.00000000    0.00003599    0.00045086
     atom   13 type  1   force =     0.00000000    0.00004875    0.00118793
     atom   14 type  1   force =    -0.00000000   -0.00004875    0.00118793
     atom   15 type  1   force =    -0.00000000    0.00024434    0.00118351
     atom   16 type  1   force =     0.00000000   -0.00024434    0.00118351
     atom   17 type  1   force =    -0.00000000    0.00031167    0.00019616
     atom   18 type  1   force =     0.00000000   -0.00031167    0.00019616
     atom   19 type  1   force =    -0.00000000    0.00093568   -0.00061783
     atom   20 type  1   force =     0.00000000   -0.00093568   -0.00061783
     atom   21 type  2   force =     0.00000000    0.00022344   -0.00026061
     atom   22 type  2   force =    -0.00000000   -0.00022344   -0.00026061
     atom   23 type  2   force =     0.00000000   -0.00022344    0.00026061
     atom   24 type  2   force =    -0.00000000    0.00022344    0.00026061

     Total force =     0.004284     Total SCF correction =     0.000017


     Computing stress (Cartesian axis) and pressure


     negative rho (up, down):  3.334E-06 0.000E+00
          total   stress  (Ry/bohr**3)                   (kbar)     P=       -1.62
  -0.00000032   0.00000000   0.00000000           -0.05        0.00        0.00
   0.00000000  -0.00000048   0.00000000            0.00       -0.07        0.00
   0.00000000   0.00000000  -0.00003219            0.00        0.00       -4.74

     Energy error            =      4.6E-05 Ry
     Gradient error          =      1.2E-03 Ry/Bohr
     Cell gradient error     =      7.0E-02 kbar

     number of scf cycles    =   8
     number of bfgs steps    =   7

     enthalpy           old  =    -373.4171732208 Ry
     enthalpy           new  =    -373.4172196402 Ry

     CASE: enthalpy          _new < enthalpy          _old

     new trust radius        =       0.0029049500 bohr
     Message from routine volume:
     axis vectors are left-handed
     new conv_thr            =            4.6E-11 Ry

     new unit-cell volume =   1300.04186 a.u.^3 (   192.64633 Ang^3 )
     density =      2.10536 g/cm^3

CELL_PARAMETERS (angstrom)
   2.532009715   0.000000000   0.000000000
   0.000000000  -3.597671100   0.000000000
   0.000000000   0.000000000  21.148224330

ATOMIC_POSITIONS (crystal)
C                0.5000000000        0.4942381919        0.7674693583
C                0.0000000000        0.2557618081        0.7674693583
C               -0.0000000000       -0.0009387705        0.7092003872
C                0.5000000000        0.7509387705        0.7092003872
C                0.0000000000        0.2498683187        0.6493638624
C                0.5000000000        0.5001316813        0.6493638624
C                0.5000000000        0.7499985098        0.5896582026
C                0.0000000000        0.0000014902        0.5896582026
C                0.0000000000        0.2499817359        0.5298928997
C                0.5000000000        0.5000182641        0.5298928997
C               -0.0000000000        0.0000182641        0.4701071003
C                0.5000000000        0.7499817359        0.4701071003
C                0.0000000000        0.2499985098        0.4103417974
C                0.5000000000        0.5000014902        0.4103417974
C                0.5000000000        0.7498683187        0.3506361376
C                0.0000000000        0.0001316813        0.3506361376
C               -0.0000000000        0.2509387705        0.2907996128
C                0.5000000000        0.4990612295        0.2907996128
C                0.5000000000        0.7557618081        0.2325306417
C               -0.0000000000       -0.0057618081        0.2325306417
H                0.5000000000        0.6599086765        0.8111995311
H               -0.0000000000        0.0900913235        0.8111995311
H                0.5000000000        0.5900913235        0.1888004689
H               -0.0000000000        0.1599086765        0.1888004689



     Writing config-only to output data dir /tmp/qe/slab.save/ :
     XML data file
     NEW-OLD atomic charge density approx. for the potential

     Check: negative core charge=   -0.000001

     negative rho (up, down):  3.302E-06 0.000E+00

     total cpu time spent up to now is      455.6 secs

     Self-consistent Calculation

     iteration #  1     ecut=    90.00 Ry     beta= 0.30
     Davidson diagonalization with overlap
     ethr =  1.00E-06,  avg # of iterations =  2.0

     Threshold (ethr) on eigenvalues was too large:
     Diagonalizing with lowered threshold

     Davidson diagonalization with overlap
     ethr =  7.32E-09,  avg # of iterations =  4.6

     negative rho (up, down):  3.312E-06 0.000E+00

     total cpu time spent up to now is      465.0 secs

     total energy              =    -373.41723841 Ry
     estimated scf accuracy    <       0.00000744 Ry

     iteration #  2     ecut=    90.00 Ry     beta= 0.30
     Davidson diagonalization with overlap
     ethr =  8.86E-09,  avg # of iterations =  2.0

     negative rho (up, down):  3.326E-06 0.000E+00

     total cpu time spent up to now is      468.6 secs

     total energy              =    -373.41723848 Ry
     estimated scf accuracy    <       0.00000221 Ry

     iteration #  3     ecut=    90.00 Ry     beta= 0.30
     Davidson diagonalization with overlap
     ethr =  2.63E-09,  avg # of iterations =  1.0

     negative rho (up, down):  3.343E-06 0.000E+00

     total cpu time spent up to now is      472.0 secs

     total energy              =    -373.41723849 Ry
     estimated scf accuracy    <       0.00000060 Ry

     iteration #  4     ecut=    90.00 Ry     beta= 0.30
     Davidson diagonalization with overlap
     ethr =  7.12E-10,  avg # of iterations =  2.0

     negative rho (up, down):  3.347E-06 0.000E+00

     total cpu time spent up to now is      475.6 secs

     total energy              =    -373.41723855 Ry
     estimated scf accuracy    <       0.00000005 Ry

     iteration #  5     ecut=    90.00 Ry     beta= 0.30
     Davidson diagonalization with overlap
     ethr =  5.54E-11,  avg # of iterations =  2.3

     negative rho (up, down):  3.348E-06 0.000E+00

     total cpu time spent up to now is      479.8 secs

     total energy              =    -373.41723855 Ry
     estimated scf accuracy    <       0.00000001 Ry

     iteration #  6     ecut=    90.00 Ry     beta= 0.30
     Davidson diagonalization with overlap
     ethr =  1.50E-11,  avg # of iterations =  2.1

     negative rho (up, down):  3.348E-06 0.000E+00

     total cpu time spent up to now is      483.7 secs

     total energy              =    -373.41723855 Ry
     estimated scf accuracy    <          1.6E-09 Ry

     iteration #  7     ecut=    90.00 Ry     beta= 0.30
     Davidson diagonalization with overlap
     ethr =  1.94E-12,  avg # of iterations =  2.4

     negative rho (up, down):  3.348E-06 0.000E+00

     total cpu time spent up to now is      487.8 secs

     total energy              =    -373.41723855 Ry
     estimated scf accuracy    <          2.3E-10 Ry

     iteration #  8     ecut=    90.00 Ry     beta= 0.30
     Davidson diagonalization with overlap
     ethr =  2.69E-13,  avg # of iterations =  2.6

     negative rho (up, down):  3.349E-06 0.000E+00

     total cpu time spent up to now is      492.3 secs

     End of self-consistent calculation

          k = 0.0000-0.0000 0.0000 ( 18619 PWs)   bands (ev):

   -14.2000 -13.7662 -13.0315 -12.0151 -10.7469  -9.3069  -7.8136  -6.4852
    -5.7928  -5.7307  -5.6672  -5.2866  -4.6335  -3.7177  -2.6125  -2.5467
    -2.2461  -1.9607  -1.1809  -0.9413  -0.8842   0.2966   0.3155   0.4823
     0.8725   1.2076   1.7685   1.9361   2.0400   2.5262   3.4310   3.6368
     3.6561   4.3814   5.1413   5.2630   5.3026   5.9978   6.3560   6.5256
     6.5400   6.8621   8.7758   9.2041  11.4673  11.8493  12.1874  12.5564
    12.6182  12.6996

          k = 0.0000-0.1003 0.0000 ( 18587 PWs)   bands (ev):

   -14.0155 -13.5833 -12.8519 -11.8421 -10.5889  -9.1919  -7.8831  -7.8159
    -7.4597  -7.2181  -4.7949  -4.7591  -3.8444  -3.8310  -3.4679  -2.5316
    -1.5928  -1.5527  -0.8184  -0.5498  -0.5325   0.4795   0.5587   0.8194
     1.0503   1.3765   1.8933   1.9202   2.4582   2.6479   3.3640   3.5013
     4.0406   4.3668   4.8410   5.1207   5.3652   5.6881   6.0370   6.0481
     6.2254   6.2989   8.9897   9.4190  11.6485  11.6974  12.3257  12.7991
    12.8511  13.1878

          k = 0.0000-0.2006 0.0000 ( 18570 PWs)   bands (ev):

   -13.4640 -13.0374 -12.3178 -11.3330 -10.1481  -9.7025  -9.3071  -9.0030
    -8.6144  -8.2886  -5.5425  -5.3255  -4.3798  -4.0956  -2.7689  -2.5327
    -1.4232  -0.8873  -0.0281   0.2205   0.8796   1.1085   1.2040   1.5745
     1.5776   1.8753   2.3635   2.4925   2.7874   2.9951   3.5501   3.6872
     4.0926   4.2995   4.5895   4.7128   4.8989   4.9542   4.9699   5.0206
     5.4771   5.5146   9.6279   9.9935  11.7019  12.0228  12.4033  12.8572
    13.0049  13.2940

          k = 0.0000-0.3009 0.0000 ( 18524 PWs)   bands (ev):

   -12.5526 -12.1400 -11.4580 -11.2930 -10.8754 -10.5679 -10.1451  -9.5995
    -9.1834  -8.8169  -6.0048  -5.5763  -4.9383  -4.1723  -3.2976  -2.4520
    -1.4882  -0.5887   0.2392   1.2142   1.8770   1.8818   2.4331   2.5400
     2.6745   2.8602   3.0026   3.0531   3.3839   3.4786   3.5995   3.7109
     3.8077   3.8746   3.9507   3.9622   4.2025   4.2205   4.2592   4.3004
     4.5057   4.5192  10.6365  10.8280  11.7394  11.9349  12.0998  12.6129
    12.8385  13.3173

          k = 0.0998-0.0000 0.0000 ( 18585 PWs)   bands (ev):

   -14.0172 -13.5842 -12.8508 -11.8363 -10.5706  -9.1336  -7.6443  -6.3212
    -5.6313  -5.6089  -5.5669  -5.2313  -4.5831  -3.6744  -2.5129  -2.4531
    -2.0845  -1.8126  -1.1595  -0.8101  -0.7333   0.0171   0.3210   0.3654
     0.4523   0.5637   0.9468   1.7277   1.9223   2.0573   2.6552   3.5454
     3.6122   3.6175   4.4925   4.8672   5.1274   5.2798   5.6639   5.8208
     5.9418   6.4390   8.9572   9.3701  11.5772  12.3294  12.5013  12.7184
    12.9231  13.0151

          k = 0.0998-0.1003 0.0000 ( 18588 PWs)   bands (ev):

   -13.8331 -13.4018 -12.6718 -11.6640 -10.4134  -9.0199  -7.7183  -7.6679
    -7.3113  -7.0656  -4.6772  -4.6358  -3.7598  -3.7234  -3.4370  -2.4366
    -1.5342  -1.4757  -0.7651  -0.5461  -0.4294   0.2730   0.5271   0.5423
     0.6965   0.8688   1.1783   1.8422   1.9306   2.4479   2.7686   3.2835
     3.6113   3.9011   4.3401   4.5390   4.6746   4.8966   5.0690   5.5382
     6.0514   6.3668   9.1874   9.5997  11.8482  12.4850  12.9769  13.0109
    13.2980  13.5161

          k = 0.0998-0.2006 0.0000 ( 18563 PWs)   bands (ev):

   -13.2829 -12.8573 -12.1394 -11.1570  -9.9754  -9.5374  -9.1439  -8.8366
    -8.4528  -8.1282  -5.3871  -5.1778  -4.2309  -3.9600  -2.6548  -2.4152
    -1.5033  -0.8361  -0.1387  -0.0178   0.5086   1.0586   1.0626   1.2070
     1.2696   1.5999   1.9712   2.2221   2.5540   2.7236   3.1318   3.3116
     3.5174   3.5898   3.6207   3.7774   3.8239   4.1163   4.6107   5.1456
     5.7644   5.8641   9.8388  10.2081  12.4115  12.4441  13.0145  13.4523
    13.6173  14.1649

          k = 0.0998-0.3009 0.0000 ( 18556 PWs)   bands (ev):

   -12.3742 -11.9627 -11.2827 -11.1192 -10.7032 -10.3956  -9.9757  -9.4316
    -9.0180  -8.6535  -5.8420  -5.4154  -4.7847  -4.0205  -3.1594  -2.3145
    -1.3846  -0.4870   0.1334   1.0129   1.0450   1.4352   1.6730   1.9266
     2.2566   2.3132   2.3364   2.6803   2.7525   2.8862   3.1102   3.1471
     3.2326   3.3851   3.4830   3.6766   3.7969   4.0354   4.4215   4.4871
     4.7659   4.7853  10.8611  11.1069  12.2215  12.2677  12.7082  13.1790
    13.3096  13.9264

          k = 0.1995-0.0000 0.0000 ( 18601 PWs)   bands (ev):

   -13.4712 -13.0406 -12.3113 -11.3025 -10.0440  -8.6162  -7.1387  -5.8305
    -5.6182  -5.2460  -5.1478  -5.0765  -4.6072  -3.7119  -2.5682  -1.9871
    -1.6169  -1.5752  -1.3785  -1.2368  -1.2101  -0.6045  -0.4673  -0.2640
     0.2022   0.2173   0.7672   0.9111   1.1420   1.7838   2.0446   2.0879
     2.8873   3.1816   3.4392   3.4707   3.8261   3.9915   4.0069   4.4598
     4.9942   6.1099   9.5348   9.8810  11.7069  11.8865  12.1262  12.4197
    13.0207  13.1900

          k = 0.1995-0.1003 0.0000 ( 18549 PWs)   bands (ev):

   -13.2883 -12.8596 -12.1339 -11.1322  -9.8896  -8.5068  -7.2652  -7.2322
    -6.8993  -6.6297  -4.4130  -4.3721  -3.7330  -3.6755  -3.4769  -2.2384
    -1.7255  -1.5815  -1.0749  -0.9190  -0.7276  -0.3716  -0.1370   0.1578
     0.3544   0.7871   0.8374   1.1369   1.5410   1.5887   2.2514   2.2567
     2.6830   2.7441   2.8247   2.8807   3.1627   3.7277   4.5155   4.7659
     5.4149   5.7170   9.7770  10.1303  12.2463  12.4878  12.5666  12.8496
    13.1415  13.3219

          k = 0.1995-0.2006 0.0000 ( 18536 PWs)   bands (ev):

   -12.7425 -12.3199 -11.6069 -10.6318  -9.4604  -9.0563  -8.6681  -8.3437
    -7.9778  -7.6540  -4.9544  -4.7683  -3.8394  -3.5910  -2.6351  -2.5262
    -2.1308  -1.3511  -1.0662  -0.5047  -0.1721  -0.1388   0.6171   0.9450
     1.1302   1.1937   1.2346   1.7262   1.8014   1.8722   1.9161   1.9681
     2.1054   2.2854   2.5584   2.7177   3.2601   3.4456   4.5006   4.5095
     5.3292   5.5630  10.4416  10.7732  13.0112  13.4848  13.6206  13.6847
    13.9470  13.9791

          k = 0.1995-0.3009 0.0000 ( 18533 PWs)   bands (ev):

   -11.8425 -11.4347 -10.7608 -10.6044 -10.1932  -9.8832  -9.4738  -8.9324
    -8.5267  -8.1669  -5.3740  -4.9515  -4.3503  -3.5887  -2.8001  -1.9562
    -1.4706  -1.4678  -0.5175  -0.4289  -0.2335  -0.1497   0.4099   0.4407
     0.7587   0.9724   1.2225   1.3675   1.6047   1.8600   2.3979   2.9245
     3.0793   3.1238   3.2660   3.3979   3.4432   3.4760   3.8873   4.3402
     4.7049   4.7510  11.4420  11.6752  12.8903  12.9379  13.9199  14.0694
    14.3367  14.5125

          k = 0.2993-0.0000 0.0000 ( 18564 PWs)   bands (ev):

   -12.5692 -12.1428 -11.4206 -10.4217  -9.1756  -7.7629  -6.3975  -6.3043
    -6.0168  -5.3660  -5.0181  -4.4577  -4.3456  -4.2637  -3.3054  -2.3084
    -1.9743  -1.9534  -1.3736  -1.2564  -0.9120  -0.6797  -0.6122  -0.5339
     0.0061   0.2458   0.4923   0.9206   0.9736   1.0515   1.6366   1.6645
     1.7896   1.8313   1.9353   2.1178   2.4071   2.6711   2.7479   3.0287
     4.4396   5.5082  10.4662  10.7072  11.4161  11.4849  12.1420  12.4965
    13.0778  13.3522

          k = 0.2993-0.1003 0.0000 ( 18545 PWs)   bands (ev):

   -12.3891 -11.9648 -11.2467 -10.2554  -9.0262  -7.6621  -6.9540  -6.6408
    -6.3513  -6.1216  -4.6745  -4.5793  -4.5115  -4.4009  -3.5783  -2.3415
    -2.2169  -1.7818  -1.5846  -1.1209  -1.0047  -0.7528  -0.0851   0.1683
     0.1930   0.4900   0.6051   0.6742   0.8057   0.8520   1.2095   1.3537
     1.5320   1.7000   1.8296   1.9545   2.7492   2.7661   3.4825   3.7959
     4.2486   5.2621  10.7282  10.9827  12.0399  12.0545  12.4494  12.6774
    13.1907  13.2809

          k = 0.2993-0.2006 0.0000 ( 18570 PWs)   bands (ev):

   -11.8526 -11.4352 -10.7310  -9.7682  -8.6150  -8.3445  -7.9618  -7.5633
    -7.2366  -6.9059  -4.4948  -4.4169  -4.2953  -4.0741  -3.8754  -3.2167
    -2.3488  -1.9728  -1.7686  -1.1200  -1.0269  -1.0047  -0.7730  -0.7499
     0.0253   0.2464   0.5004   0.5516   1.4664   1.6148   1.7659   1.7762
     1.9480   2.1034   2.1081   2.3868   2.4626   3.0218   3.6376   4.0660
     4.6975   4.7234  11.3775  11.6135  13.0681  13.1480  13.4907  13.6813
    13.7571  14.0606

          k = 0.2993-0.3009 0.0000 ( 18605 PWs)   bands (ev):

   -10.9730 -10.5714  -9.9082  -9.7789  -9.3760  -9.0479  -8.6682  -8.1206
    -7.7317  -7.3721  -4.7104  -4.2821  -3.8254  -3.6206  -3.2855  -3.0809
    -2.9515  -2.4684  -2.1648  -2.0260  -1.5979  -1.4226  -0.7945  -0.6984
    -0.5601  -0.3206   0.0475   0.6788   1.4815   1.7662   1.9941   2.3217
     2.5309   2.5550   2.9009   3.1178   3.3836   3.4537   3.6262   3.6268
     4.3315   4.5157  12.2361  12.3659  13.6572  13.6906  14.1022  14.1969
    14.6290  14.8064

          k = 0.3991-0.0000 0.0000 ( 18524 PWs)   bands (ev):

   -11.3278 -10.9079 -10.1962  -9.2117  -8.0353  -7.9833  -7.6374  -6.9607
    -6.5912  -6.0215  -5.1561  -4.8425  -3.8939  -3.4972  -3.2313  -3.1360
    -2.0905  -1.7481  -1.4365  -0.9332  -0.8114  -0.3459  -0.3058  -0.1282
    -0.1219  -0.0004   0.2545   0.3415   0.4658   0.8544   0.9730   1.0271
     1.1291   1.1500   1.2983   1.3132   1.4421   1.4832   2.2975   2.5741
     3.5981   4.6460  11.2310  11.3109  11.6448  12.0287  12.4207  12.6130
    12.8073  12.9532

          k = 0.3991-0.1003 0.0000 ( 18559 PWs)   bands (ev):

   -11.1538 -10.7363 -10.0293  -9.0535  -7.9651  -7.8445  -7.5715  -6.9130
    -6.4949  -6.0176  -5.0930  -4.7831  -4.4492  -4.2276  -4.2109  -3.4952
    -2.2090  -1.5602  -1.4767  -1.4194  -1.2970  -1.2442  -0.7619  -0.6960
    -0.2925   0.2021   0.6038   0.7366   0.7819   0.8410   0.9458   1.0652
     1.1502   1.3525   1.7002   1.9071   1.9209   2.3450   2.3913   2.7025
     3.5142   4.5650  11.8368  11.8430  11.9501  12.0078  12.4821  12.4973
    13.0593  13.4498

          k = 0.3991-0.2006 0.0000 ( 18596 PWs)   bands (ev):

   -10.6394 -10.2299  -9.5388  -8.5945  -8.0165  -7.6652  -7.4252  -7.0305
    -6.2898  -6.2411  -5.6122  -5.2944  -4.8557  -4.7572  -4.6097  -3.6081
    -3.0729  -2.8493  -2.5687  -2.4476  -2.1677  -1.6817  -1.4680  -0.6764
    -0.2895  -0.1341   0.4734   0.5561   0.9077   1.2338   1.2864   1.6513
     1.8292   2.0122   2.0733   2.3281   2.4503   3.0409   3.1220   3.2787
     3.6558   4.3236  12.3896  12.5138  12.9565  12.9962  13.3821  13.4367
    13.6399  13.8947

          k = 0.3991-0.3009 0.0000 ( 18635 PWs)   bands (ev):

    -9.8164  -9.4243  -8.7930  -8.7776  -8.4001  -7.9589  -7.6883  -7.0813
    -6.7209  -6.3251  -5.5004  -5.1451  -4.6762  -4.5121  -4.3408  -4.1937
    -4.1378  -3.9742  -3.5845  -3.3524  -2.0592  -1.8218  -1.4280  -1.3517
    -0.8294  -0.2954   0.3402   0.6074   0.6189   1.1254   1.4210   1.6384
     2.0906   2.3898   2.6832   2.8632   3.1243   3.4265   3.5833   3.5943
     3.9811   4.1342  12.9740  12.9993  14.0330  14.1103  14.3029  14.4630
    14.7557  14.8806

          k =-0.4989 0.0000 0.0000 ( 18558 PWs)   bands (ev):

    -9.7843  -9.7843  -9.3734  -9.3734  -8.6765  -8.6765  -7.7117  -7.7117
    -6.5059  -6.5059  -5.1381  -5.1381  -3.7253  -3.7253  -2.4769  -2.4769
    -1.8175  -1.8175  -1.7068  -1.7068  -0.5378  -0.5378  -0.2962  -0.2962
     0.0647   0.0647   0.4267   0.4267   0.5751   0.5751   0.6318   0.6318
     0.7948   0.7948   0.8068   0.8068   1.3167   1.3167   2.5550   2.5550
     3.6202   3.6202  11.7255  11.7255  11.8940  11.8940  12.3385  12.3385
    12.9531  12.9531

          k =-0.4989-0.1003 0.0000 ( 18580 PWs)   bands (ev):

    -9.6278  -9.6278  -9.2202  -9.2202  -8.5291  -8.5291  -7.5745  -7.5745
    -6.3876  -6.3876  -5.0623  -5.0623  -3.7776  -3.7776  -3.1465  -3.1465
    -2.9384  -2.9384  -2.9291  -2.9291  -0.4598  -0.4598  -0.3969  -0.3969
     0.0977   0.0977   0.4594   0.4594   0.7388   0.7388   0.9119   0.9119
     1.1896   1.1896   1.3994   1.3994   1.6851   1.6851   2.6427   2.6427
     3.6648   3.6648  12.0573  12.0573  12.2148  12.2148  12.6157  12.6157
    13.0660  13.0660

          k =-0.4989-0.2006 0.0000 ( 18622 PWs)   bands (ev):

    -9.1895  -9.1895  -8.7923  -8.7923  -8.1205  -8.1205  -7.1993  -7.1993
    -6.0769  -6.0769  -4.9352  -4.9352  -4.7536  -4.7536  -4.4876  -4.4876
    -4.0235  -4.0235  -3.9992  -3.9992  -1.1786  -1.1786  -0.8030  -0.8030
    -0.4186  -0.4186   0.1525   0.1525   0.9384   0.9384   1.2225   1.2225
     1.9747   1.9747   2.3837   2.3837   2.5937   2.5937   2.9707   2.9707
     3.7658   3.7658  12.8807  12.8807  13.0232  13.0232  13.3454  13.3454
    13.7438  13.7438

          k =-0.4989-0.3009 0.0000 ( 18590 PWs)   bands (ev):

    -8.6526  -8.6526  -8.2732  -8.2732  -7.6341  -7.6341  -6.7702  -6.7702
    -5.9545  -5.9545  -5.8088  -5.8088  -5.5113  -5.5113  -5.0944  -5.0944
    -4.6646  -4.6646  -4.4902  -4.4902  -1.3778  -1.3778  -1.3540  -1.3540
    -0.4042  -0.4042  -0.2662  -0.2662   0.8716   0.8716   1.2212   1.2212
     2.1272   2.1272   2.6973   2.6973   3.1571   3.1571   3.7313   3.7313
     3.8616   3.8616  13.5826  13.5826  13.6041  13.6041  14.7213  14.7213
    14.8763  14.8763

     the Fermi energy is     7.7939 ev

!    total energy              =    -373.41723855 Ry
     estimated scf accuracy    <          4.1E-11 Ry
     smearing contrib. (-TS)   =       0.00000000 Ry
     internal energy E=F+TS    =    -373.41723855 Ry

     The total energy is F=E-TS. E is the sum of the following terms:
     one-electron contribution =   -2441.93336713 Ry
     hartree contribution      =    1265.79439454 Ry
     xc contribution           =     -96.46862551 Ry
     ewald contribution        =    1022.44663955 Ry
     one-center paw contrib.   =    -123.25628001 Ry

     convergence has been achieved in   8 iterations

     negative rho (up, down):  3.349E-06 0.000E+00

     Forces acting on atoms (cartesian axes, Ry/au):

     atom    1 type  1   force =     0.00000000   -0.00041663    0.00020439
     atom    2 type  1   force =    -0.00000000    0.00041663    0.00020439
     atom    3 type  1   force =    -0.00000000    0.00006889    0.00020298
     atom    4 type  1   force =     0.00000000   -0.00006889    0.00020298
     atom    5 type  1   force =     0.00000000    0.00006979   -0.00043428
     atom    6 type  1   force =    -0.00000000   -0.00006979   -0.00043428
     atom    7 type  1   force =    -0.00000000   -0.00010233   -0.00079035
     atom    8 type  1   force =     0.00000000    0.00010233   -0.00079035
     atom    9 type  1   force =     0.00000000   -0.00018013   -0.00038210
     atom   10 type  1   force =     0.00000000    0.00018013   -0.00038210
     atom   11 type  1   force =    -0.00000000    0.00018013    0.00038210
     atom   12 type  1   force =     0.00000000   -0.00018013    0.00038210
     atom   13 type  1   force =    -0.00000000   -0.00010233    0.00079035
     atom   14 type  1   force =     0.00000000    0.00010233    0.00079035
     atom   15 type  1   force =     0.00000000    0.00006979    0.00043428
     atom   16 type  1   force =    -0.00000000   -0.00006979    0.00043428
     atom   17 type  1   force =    -0.00000000   -0.00006889   -0.00020298
     atom   18 type  1   force =     0.00000000    0.00006889   -0.00020298
     atom   19 type  1   force =     0.00000000    0.00041663   -0.00020439
     atom   20 type  1   force =    -0.00000000   -0.00041663   -0.00020439
     atom   21 type  2   force =     0.00000000    0.00020780   -0.00071864
     atom   22 type  2   force =     0.00000000   -0.00020780   -0.00071864
     atom   23 type  2   force =    -0.00000000   -0.00020780    0.00071864
     atom   24 type  2   force =     0.00000000    0.00020780    0.00071864

     Total force =     0.002704     Total SCF correction =     0.000015


     Computing stress (Cartesian axis) and pressure


     negative rho (up, down):  3.349E-06 0.000E+00
          total   stress  (Ry/bohr**3)                   (kbar)     P=       -1.79
  -0.00000164   0.00000000   0.00000000           -0.24        0.00        0.00
   0.00000000  -0.00000031   0.00000000            0.00       -0.05        0.00
   0.00000000   0.00000000  -0.00003462            0.00        0.00       -5.09

     Energy error            =      1.9E-05 Ry
     Gradient error          =      7.9E-04 Ry/Bohr
     Cell gradient error     =      2.4E-01 kbar

     number of scf cycles    =   9
     number of bfgs steps    =   8

     enthalpy           old  =    -373.4172196402 Ry
     enthalpy           new  =    -373.4172385541 Ry

     CASE: enthalpy          _new < enthalpy          _old

     new trust radius        =       0.0017280476 bohr
     Message from routine volume:
     axis vectors are left-handed
     new conv_thr            =            1.9E-11 Ry

     new unit-cell volume =   1299.98829 a.u.^3 (   192.63839 Ang^3 )
     density =      2.10545 g/cm^3

CELL_PARAMETERS (angstrom)
   2.531934784   0.000000000   0.000000000
   0.000000000  -3.597629326   0.000000000
   0.000000000   0.000000000  21.148224330

ATOMIC_POSITIONS (crystal)
C                0.5000000000        0.4942744024        0.7674724764
C                0.0000000000        0.2557255976        0.7674724764
C               -0.0000000000       -0.0009407675        0.7091873043
C                0.5000000000        0.7509407675        0.7091873043
C                0.0000000000        0.2498616987        0.6493246941
C                0.5000000000        0.5001383013        0.6493246941
C                0.5000000000        0.7500215182        0.5896151404
C                0.0000000000       -0.0000215182        0.5896151404
C               -0.0000000000        0.2500164069        0.5298747710
C                0.5000000000        0.4999835931        0.5298747710
C               -0.0000000000       -0.0000164069        0.4701252290
C                0.5000000000        0.7500164069        0.4701252290
C                0.0000000000        0.2500215182        0.4103848596
C                0.5000000000        0.4999784818        0.4103848596
C                0.5000000000        0.7498616987        0.3506753059
C               -0.0000000000        0.0001383013        0.3506753059
C               -0.0000000000        0.2509407675        0.2908126957
C                0.5000000000        0.4990592325        0.2908126957
C                0.5000000000        0.7557255976        0.2325275236
C               -0.0000000000       -0.0057255976        0.2325275236
H                0.5000000000        0.6598847379        0.8111968439
H               -0.0000000000        0.0901152621        0.8111968439
H                0.5000000000        0.5901152621        0.1888031561
H               -0.0000000000        0.1598847379        0.1888031561



     Writing config-only to output data dir /tmp/qe/slab.save/ :
     XML data file
     NEW-OLD atomic charge density approx. for the potential

     Check: negative core charge=   -0.000001

     negative rho (up, down):  3.365E-06 0.000E+00

     total cpu time spent up to now is      505.9 secs

     Self-consistent Calculation

     iteration #  1     ecut=    90.00 Ry     beta= 0.30
     Davidson diagonalization with overlap
     ethr =  1.00E-06,  avg # of iterations =  2.0

     Threshold (ethr) on eigenvalues was too large:
     Diagonalizing with lowered threshold

     Davidson diagonalization with overlap
     ethr =  2.52E-09,  avg # of iterations =  4.8

     negative rho (up, down):  3.367E-06 0.000E+00

     total cpu time spent up to now is      515.3 secs

     total energy              =    -373.41724501 Ry
     estimated scf accuracy    <       0.00000253 Ry

     iteration #  2     ecut=    90.00 Ry     beta= 0.30
     Davidson diagonalization with overlap
     ethr =  3.01E-09,  avg # of iterations =  2.0

     negative rho (up, down):  3.369E-06 0.000E+00

     total cpu time spent up to now is      519.2 secs

     total energy              =    -373.41724505 Ry
     estimated scf accuracy    <       0.00000075 Ry

     iteration #  3     ecut=    90.00 Ry     beta= 0.30
     Davidson diagonalization with overlap
     ethr =  8.92E-10,  avg # of iterations =  1.2

     negative rho (up, down):  3.370E-06 0.000E+00

     total cpu time spent up to now is      522.6 secs

     total energy              =    -373.41724504 Ry
     estimated scf accuracy    <       0.00000022 Ry

     iteration #  4     ecut=    90.00 Ry     beta= 0.30
     Davidson diagonalization with overlap
     ethr =  2.59E-10,  avg # of iterations =  2.0

     negative rho (up, down):  3.369E-06 0.000E+00

     total cpu time spent up to now is      526.3 secs

     total energy              =    -373.41724507 Ry
     estimated scf accuracy    <       0.00000001 Ry

     iteration #  5     ecut=    90.00 Ry     beta= 0.30
     Davidson diagonalization with overlap
     ethr =  1.44E-11,  avg # of iterations =  3.0

     negative rho (up, down):  3.368E-06 0.000E+00

     total cpu time spent up to now is      530.8 secs

     total energy              =    -373.41724507 Ry
     estimated scf accuracy    <          4.8E-09 Ry

     iteration #  6     ecut=    90.00 Ry     beta= 0.30
     Davidson diagonalization with overlap
     ethr =  5.77E-12,  avg # of iterations =  2.3

     negative rho (up, down):  3.369E-06 0.000E+00

     total cpu time spent up to now is      535.0 secs

     total energy              =    -373.41724507 Ry
     estimated scf accuracy    <          4.5E-10 Ry

     iteration #  7     ecut=    90.00 Ry     beta= 0.30
     Davidson diagonalization with overlap
     ethr =  5.37E-13,  avg # of iterations =  2.5

     negative rho (up, down):  3.369E-06 0.000E+00

     total cpu time spent up to now is      539.0 secs

     total energy              =    -373.41724507 Ry
     estimated scf accuracy    <          7.2E-11 Ry

     iteration #  8     ecut=    90.00 Ry     beta= 0.30
     Davidson diagonalization with overlap
     ethr =  1.00E-13,  avg # of iterations =  2.2

     negative rho (up, down):  3.369E-06 0.000E+00

     total cpu time spent up to now is      543.1 secs

     End of self-consistent calculation

          k = 0.0000-0.0000 0.0000 ( 18619 PWs)   bands (ev):

   -14.2019 -13.7635 -13.0311 -12.0150 -10.7467  -9.3066  -7.8135  -6.4853
    -5.7923  -5.7325  -5.6688  -5.2826  -4.6327  -3.7174  -2.6114  -2.5462
    -2.2439  -1.9615  -1.1803  -0.9433  -0.8830   0.2976   0.3158   0.4824
     0.8711   1.2106   1.7693   1.9361   2.0403   2.5269   3.4323   3.6373
     3.6561   4.3826   5.1425   5.2637   5.3030   5.9981   6.3561   6.5272
     6.5400   6.8611   8.7758   9.2043  11.4675  11.8487  12.1907  12.5585
    12.6185  12.7008

          k = 0.0000-0.1003 0.0000 ( 18587 PWs)   bands (ev):

   -14.0174 -13.5806 -12.8515 -11.8420 -10.5887  -9.1916  -7.8827  -7.8175
    -7.4579  -7.2184  -4.7943  -4.7583  -3.8431  -3.8306  -3.4697  -2.5310
    -1.5913  -1.5510  -0.8187  -0.5499  -0.5333   0.4807   0.5592   0.8193
     1.0489   1.3796   1.8939   1.9210   2.4578   2.6486   3.3650   3.5026
     4.0401   4.3681   4.8425   5.1213   5.3660   5.6885   6.0390   6.0486
     6.2242   6.2985   8.9898   9.4192  11.6489  11.6978  12.3285  12.8002
    12.8518  13.1905

          k = 0.0000-0.2006 0.0000 ( 18570 PWs)   bands (ev):

   -13.4659 -13.0347 -12.3174 -11.3329 -10.1477  -9.7041  -9.3046  -9.0029
    -8.6142  -8.2888  -5.5422  -5.3256  -4.3787  -4.0946  -2.7691  -2.5330
    -1.4243  -0.8873  -0.0272   0.2225   0.8785   1.1097   1.2040   1.5752
     1.5762   1.8782   2.3643   2.4932   2.7870   2.9959   3.5508   3.6886
     4.0932   4.3008   4.5906   4.7139   4.9007   4.9513   4.9706   5.0229
     5.4755   5.5171   9.6280   9.9939  11.7028  12.0237  12.4042  12.8589
    13.0064  13.2937

          k = 0.0000-0.3009 0.0000 ( 18524 PWs)   bands (ev):

   -12.5545 -12.1372 -11.4573 -11.2947 -10.8729 -10.5676 -10.1452  -9.5991
    -9.1837  -8.8167  -6.0049  -5.5766  -4.9369  -4.1705  -3.2988  -2.4524
    -1.4884  -0.5890   0.2388   1.2146   1.8770   1.8818   2.4320   2.5430
     2.6774   2.8600   3.0034   3.0542   3.3845   3.4800   3.5982   3.7132
     3.8078   3.8755   3.9527   3.9629   4.2016   4.2204   4.2596   4.3028
     4.5072   4.5201  10.6368  10.8288  11.7404  11.9355  12.1006  12.6137
    12.8390  13.3179

          k = 0.0998-0.0000 0.0000 ( 18585 PWs)   bands (ev):

   -14.0192 -13.5815 -12.8504 -11.8363 -10.5704  -9.1333  -7.6442  -6.3213
    -5.6308  -5.6105  -5.5686  -5.2272  -4.5822  -3.6741  -2.5124  -2.4519
    -2.0823  -1.8135  -1.1589  -0.8114  -0.7328   0.0156   0.3214   0.3683
     0.4533   0.5639   0.9476   1.7283   1.9223   2.0576   2.6563   3.5459
     3.6121   3.6187   4.4931   4.8687   5.1273   5.2805   5.6640   5.8206
     5.9408   6.4407   8.9574   9.3705  11.5778  12.3326  12.4996  12.7208
    12.9235  13.0172

          k = 0.0998-0.1003 0.0000 ( 18588 PWs)   bands (ev):

   -13.8351 -13.3991 -12.6714 -11.6639 -10.4132  -9.0196  -7.7178  -7.6695
    -7.3095  -7.0659  -4.6766  -4.6349  -3.7585  -3.7230  -3.4387  -2.4360
    -1.5326  -1.4740  -0.7654  -0.5461  -0.4303   0.2717   0.5290   0.5429
     0.6986   0.8688   1.1789   1.8427   1.9314   2.4475   2.7697   3.2846
     3.6125   3.9006   4.3408   4.5407   4.6760   4.8947   5.0699   5.5384
     6.0532   6.3663   9.1875   9.6001  11.8486  12.4870  12.9796  13.0102
    13.2995  13.5160

          k = 0.0998-0.2006 0.0000 ( 18563 PWs)   bands (ev):

   -13.2848 -12.8546 -12.1389 -11.1568  -9.9749  -9.5391  -9.1414  -8.8365
    -8.4527  -8.1284  -5.3868  -5.1779  -4.2298  -3.9590  -2.6548  -2.4155
    -1.5046  -0.8358  -0.1374  -0.0157   0.5075   1.0592   1.0622   1.2082
     1.2691   1.6025   1.9714   2.2230   2.5546   2.7233   3.1329   3.3109
     3.5190   3.5925   3.6220   3.7771   3.8228   4.1169   4.6118   5.1469
     5.7660   5.8631   9.8389  10.2085  12.4120  12.4458  13.0154  13.4532
    13.6188  14.1654

          k = 0.0998-0.3009 0.0000 ( 18556 PWs)   bands (ev):

   -12.3760 -11.9598 -11.2820 -11.1210 -10.7007 -10.3953  -9.9757  -9.4312
    -9.0183  -8.6533  -5.8420  -5.4158  -4.7833  -4.0187  -3.1605  -2.3149
    -1.3848  -0.4874   0.1328   1.0151   1.0448   1.4354   1.6735   1.9275
     2.2563   2.3141   2.3390   2.6800   2.7525   2.8876   3.1102   3.1497
     3.2328   3.3864   3.4832   3.6762   3.7978   4.0365   4.4225   4.4883
     4.7676   4.7844  10.8614  11.1076  12.2224  12.2680  12.7097  13.1799
    13.3101  13.9270

          k = 0.1996-0.0000 0.0000 ( 18601 PWs)   bands (ev):

   -13.4731 -13.0378 -12.3108 -11.3024 -10.0438  -8.6158  -7.1386  -5.8306
    -5.6196  -5.2419  -5.1473  -5.0783  -4.6061  -3.7114  -2.5676  -1.9859
    -1.6146  -1.5770  -1.3795  -1.2362  -1.2074  -0.6040  -0.4677  -0.2643
     0.2027   0.2177   0.7674   0.9122   1.1429   1.7838   2.0450   2.0889
     2.8878   3.1821   3.4393   3.4710   3.8264   3.9903   4.0091   4.4592
     4.9946   6.1115   9.5353   9.8819  11.7076  11.8882  12.1261  12.4202
    13.0212  13.1927

          k = 0.1996-0.1003 0.0000 ( 18549 PWs)   bands (ev):

   -13.2902 -12.8568 -12.1335 -11.1321  -9.8892  -8.5064  -7.2667  -7.2314
    -6.8975  -6.6299  -4.4122  -4.3710  -3.7314  -3.6777  -3.4763  -2.2374
    -1.7239  -1.5803  -1.0773  -0.9187  -0.7276  -0.3693  -0.1351   0.1571
     0.3543   0.7869   0.8377   1.1381   1.5418   1.5895   2.2511   2.2575
     2.6837   2.7424   2.8264   2.8814   3.1634   3.7276   4.5164   4.7665
     5.4142   5.7187   9.7774  10.1310  12.2476  12.4890  12.5660  12.8509
    13.1420  13.3248

          k = 0.1996-0.2006 0.0000 ( 18536 PWs)   bands (ev):

   -12.7444 -12.3171 -11.6064 -10.6316  -9.4599  -9.0579  -8.6656  -8.3435
    -7.9776  -7.6542  -4.9540  -4.7683  -3.8383  -3.5900  -2.6338  -2.5279
    -2.1309  -1.3496  -1.0650  -0.5049  -0.1715  -0.1400   0.6181   0.9454
     1.1317   1.1924   1.2353   1.7274   1.8032   1.8721   1.9165   1.9685
     2.1060   2.2855   2.5590   2.7181   3.2602   3.4466   4.5012   4.5105
     5.3307   5.5622  10.4419  10.7739  13.0120  13.4871  13.6209  13.6856
    13.9477  13.9797

          k = 0.1996-0.3009 0.0000 ( 18533 PWs)   bands (ev):

   -11.8443 -11.4318 -10.7601 -10.6061 -10.1907  -9.8828  -9.4738  -8.9319
    -8.5270  -8.1667  -5.3739  -4.9518  -4.3489  -3.5868  -2.8012  -1.9564
    -1.4693  -1.4690  -0.5161  -0.4279  -0.2348  -0.1490   0.4108   0.4419
     0.7594   0.9728   1.2236   1.3671   1.6055   1.8601   2.3979   2.9244
     3.0799   3.1246   3.2668   3.3997   3.4447   3.4758   3.8880   4.3416
     4.7032   4.7525  11.4424  11.6760  12.8906  12.9385  13.9223  14.0699
    14.3384  14.5132

          k = 0.2993-0.0000 0.0000 ( 18564 PWs)   bands (ev):

   -12.5710 -12.1400 -11.4201 -10.4215  -9.1752  -7.7625  -6.3989  -6.3041
    -6.0129  -5.3650  -5.0182  -4.4571  -4.3451  -4.2654  -3.3046  -2.3103
    -1.9729  -1.9512  -1.3732  -1.2553  -0.9100  -0.6804  -0.6119  -0.5335
     0.0062   0.2464   0.4918   0.9207   0.9739   1.0523   1.6378   1.6647
     1.7903   1.8316   1.9338   2.1184   2.4073   2.6740   2.7473   3.0290
     4.4399   5.5097  10.4672  10.7086  11.4163  11.4851  12.1420  12.4977
    13.0785  13.3523

          k = 0.2993-0.1003 0.0000 ( 18545 PWs)   bands (ev):

   -12.3909 -11.9620 -11.2461 -10.2553  -9.0258  -7.6616  -6.9555  -6.6376
    -6.3512  -6.1212  -4.6745  -4.5777  -4.5128  -4.4001  -3.5777  -2.3405
    -2.2158  -1.7808  -1.5845  -1.1231  -1.0044  -0.7522  -0.0826   0.1702
     0.1935   0.4901   0.6030   0.6758   0.8039   0.8519   1.2111   1.3530
     1.5337   1.6999   1.8308   1.9553   2.7496   2.7666   3.4837   3.7953
     4.2486   5.2636  10.7291  10.9839  12.0402  12.0550  12.4494  12.6787
    13.1910  13.2815

          k = 0.2993-0.2006 0.0000 ( 18570 PWs)   bands (ev):

   -11.8544 -11.4323 -10.7304  -9.7680  -8.6144  -8.3460  -7.9590  -7.5629
    -7.2363  -6.9060  -4.4939  -4.4182  -4.2949  -4.0722  -3.8753  -3.2158
    -2.3472  -1.9721  -1.7692  -1.1199  -1.0280  -1.0035  -0.7712  -0.7503
     0.0257   0.2461   0.5001   0.5522   1.4669   1.6170   1.7652   1.7771
     1.9477   2.1042   2.1075   2.3889   2.4637   3.0214   3.6384   4.0664
     4.6991   4.7226  11.3782  11.6145  13.0684  13.1487  13.4913  13.6826
    13.7588  14.0620

          k = 0.2993-0.3009 0.0000 ( 18605 PWs)   bands (ev):

   -10.9747 -10.5685  -9.9074  -9.7806  -9.3733  -9.0475  -8.6681  -8.1200
    -7.7319  -7.3718  -4.7102  -4.2822  -3.8240  -3.6219  -3.2830  -3.0793
    -2.9516  -2.4695  -2.1625  -2.0259  -1.5981  -1.4226  -0.7944  -0.6969
    -0.5606  -0.3203   0.0480   0.6787   1.4812   1.7663   1.9943   2.3219
     2.5323   2.5569   2.9011   3.1192   3.3815   3.4554   3.6266   3.6276
     4.3328   4.5147  12.2372  12.3671  13.6579  13.6913  14.1026  14.1976
    14.6295  14.8077

          k = 0.3991-0.0000 0.0000 ( 18524 PWs)   bands (ev):

   -11.3296 -10.9049 -10.1956  -9.2115  -8.0369  -7.9828  -7.6339  -6.9598
    -6.5907  -6.0210  -5.1559  -4.8419  -3.8939  -3.4964  -3.2308  -3.1377
    -2.0901  -1.7499  -1.4334  -0.9327  -0.8113  -0.3448  -0.3056  -0.1278
    -0.1206  -0.0020   0.2546   0.3419   0.4660   0.8550   0.9749   1.0231
     1.1307   1.1508   1.2998   1.3150   1.4428   1.4831   2.2980   2.5753
     3.5982   4.6474  11.2317  11.3112  11.6461  12.0295  12.4218  12.6127
    12.8078  12.9533

          k = 0.3991-0.1003 0.0000 ( 18559 PWs)   bands (ev):

   -11.1556 -10.7333 -10.0287  -9.0532  -7.9666  -7.8440  -7.5681  -6.9121
    -6.4944  -6.0171  -5.0926  -4.7824  -4.4501  -4.2287  -4.2096  -3.4945
    -2.2083  -1.5595  -1.4756  -1.4198  -1.2988  -1.2427  -0.7610  -0.6955
    -0.2945   0.2030   0.6040   0.7389   0.7843   0.8420   0.9442   1.0645
     1.1513   1.3533   1.6998   1.9080   1.9211   2.3440   2.3924   2.7039
     3.5142   4.5665  11.8380  11.8441  11.9508  12.0082  12.4829  12.4979
    13.0590  13.4507

          k = 0.3991-0.2006 0.0000 ( 18596 PWs)   bands (ev):

   -10.6411 -10.2269  -9.5381  -8.5942  -8.0180  -7.6619  -7.4245  -7.0297
    -6.2893  -6.2408  -5.6140  -5.2923  -4.8554  -4.7572  -4.6094  -3.6073
    -3.0744  -2.8467  -2.5686  -2.4474  -2.1675  -1.6823  -1.4667  -0.6751
    -0.2891  -0.1347   0.4741   0.5563   0.9077   1.2351   1.2854   1.6528
     1.8290   2.0140   2.0734   2.3286   2.4486   3.0424   3.1228   3.2788
     3.6549   4.3250  12.3908  12.5153  12.9576  12.9967  13.3840  13.4376
    13.6407  13.8938

          k = 0.3991-0.3009 0.0000 ( 18635 PWs)   bands (ev):

    -9.8180  -9.4212  -8.7945  -8.7767  -8.3972  -7.9583  -7.6880  -7.0807
    -6.7209  -6.3247  -5.5021  -5.1426  -4.6753  -4.5135  -4.3407  -4.1935
    -4.1353  -3.9738  -3.5843  -3.3523  -2.0589  -1.8219  -1.4268  -1.3509
    -0.8293  -0.2952   0.3407   0.6077   0.6187   1.1256   1.4219   1.6395
     2.0900   2.3894   2.6841   2.8637   3.1246   3.4263   3.5826   3.5959
     3.9825   4.1334  12.9760  13.0013  14.0338  14.1109  14.3041  14.4640
    14.7574  14.8814

          k =-0.4989 0.0000 0.0000 ( 18558 PWs)   bands (ev):

    -9.7859  -9.7859  -9.3703  -9.3703  -8.6758  -8.6758  -7.7113  -7.7113
    -6.5054  -6.5054  -5.1375  -5.1375  -3.7250  -3.7250  -2.4769  -2.4769
    -1.8170  -1.8170  -1.7085  -1.7085  -0.5394  -0.5394  -0.2930  -0.2930
     0.0655   0.0655   0.4277   0.4277   0.5746   0.5746   0.6309   0.6309
     0.7967   0.7967   0.8084   0.8084   1.3171   1.3171   2.5549   2.5549
     3.6216   3.6216  11.7257  11.7257  11.8946  11.8946  12.3392  12.3392
    12.9545  12.9545

          k =-0.4989-0.1003 0.0000 ( 18580 PWs)   bands (ev):

    -9.6295  -9.6295  -9.2170  -9.2170  -8.5284  -8.5284  -7.5741  -7.5741
    -6.3870  -6.3870  -5.0617  -5.0617  -3.7772  -3.7772  -3.1473  -3.1473
    -2.9394  -2.9394  -2.9277  -2.9277  -0.4592  -0.4592  -0.3960  -0.3960
     0.0983   0.0983   0.4605   0.4605   0.7393   0.7393   0.9096   0.9096
     1.1907   1.1907   1.4006   1.4006   1.6859   1.6859   2.6424   2.6424
     3.6662   3.6662  12.0580  12.0580  12.2150  12.2150  12.6169  12.6169
    13.0669  13.0669

          k =-0.4989-0.2006 0.0000 ( 18622 PWs)   bands (ev):

    -9.1911  -9.1911  -8.7890  -8.7890  -8.1198  -8.1198  -7.1989  -7.1989
    -6.0763  -6.0763  -4.9345  -4.9345  -4.7553  -4.7553  -4.4854  -4.4854
    -4.0236  -4.0236  -3.9994  -3.9994  -1.1782  -1.1782  -0.8031  -0.8031
    -0.4174  -0.4174   0.1538   0.1538   0.9379   0.9379   1.2229   1.2229
     1.9745   1.9745   2.3841   2.3841   2.5947   2.5947   2.9698   2.9698
     3.7672   3.7672  12.8821  12.8821  13.0249  13.0249  13.3461  13.3461
    13.7448  13.7448

          k =-0.4989-0.3009 0.0000 ( 18590 PWs)   bands (ev):

    -8.6540  -8.6540  -8.2698  -8.2698  -7.6332  -7.6332  -6.7696  -6.7696
    -5.9563  -5.9563  -5.8074  -5.8074  -5.5098  -5.5098  -5.0941  -5.0941
    -4.6644  -4.6644  -4.4904  -4.4904  -1.3777  -1.3777  -1.3537  -1.3537
    -0.4031  -0.4031  -0.2649  -0.2649   0.8714   0.8714   1.2212   1.2212
     2.1273   2.1273   2.6972   2.6972   3.1577   3.1577   3.7308   3.7308
     3.8626   3.8626  13.5849  13.5849  13.6064  13.6064  14.7198  14.7198
    14.8786  14.8786

     the Fermi energy is     7.7939 ev

!    total energy              =    -373.41724507 Ry
     estimated scf accuracy    <          8.2E-12 Ry
     smearing contrib. (-TS)   =       0.00000000 Ry
     internal energy E=F+TS    =    -373.41724507 Ry

     The total energy is F=E-TS. E is the sum of the following terms:
     one-electron contribution =   -2442.64364910 Ry
     hartree contribution      =    1266.15146297 Ry
     xc contribution           =     -96.46959012 Ry
     ewald contribution        =    1022.80082967 Ry
     one-center paw contrib.   =    -123.25629849 Ry

     convergence has been achieved in   8 iterations

     negative rho (up, down):  3.369E-06 0.000E+00

     Forces acting on atoms (cartesian axes, Ry/au):

     atom    1 type  1   force =     0.00000000   -0.00000538   -0.00025714
     atom    2 type  1   force =     0.00000000    0.00000538   -0.00025714
     atom    3 type  1   force =     0.00000000   -0.00005998    0.00006929
     atom    4 type  1   force =     0.00000000    0.00005998    0.00006929
     atom    5 type  1   force =     0.00000000    0.00011322   -0.00005734
     atom    6 type  1   force =     0.00000000   -0.00011322   -0.00005734
     atom    7 type  1   force =    -0.00000000    0.00008708   -0.00030367
     atom    8 type  1   force =     0.00000000   -0.00008708   -0.00030367
     atom    9 type  1   force =     0.00000000    0.00002465   -0.00017707
     atom   10 type  1   force =     0.00000000   -0.00002465   -0.00017707
     atom   11 type  1   force =     0.00000000   -0.00002465    0.00017707
     atom   12 type  1   force =    -0.00000000    0.00002465    0.00017707
     atom   13 type  1   force =     0.00000000    0.00008708    0.00030367
     atom   14 type  1   force =     0.00000000   -0.00008708    0.00030367
     atom   15 type  1   force =     0.00000000    0.00011322    0.00005734
     atom   16 type  1   force =    -0.00000000   -0.00011322    0.00005734
     atom   17 type  1   force =     0.00000000    0.00005998   -0.00006929
     atom   18 type  1   force =     0.00000000   -0.00005998   -0.00006929
     atom   19 type  1   force =     0.00000000    0.00000538    0.00025714
     atom   20 type  1   force =    -0.00000000   -0.00000538    0.00025714
     atom   21 type  2   force =    -0.00000000    0.00003009   -0.00055039
     atom   22 type  2   force =     0.00000000   -0.00003009   -0.00055039
     atom   23 type  2   force =     0.00000000   -0.00003009    0.00055039
     atom   24 type  2   force =     0.00000000    0.00003009    0.00055039

     Total force =     0.001451     Total SCF correction =     0.000008


     Computing stress (Cartesian axis) and pressure


     negative rho (up, down):  3.369E-06 0.000E+00
          total   stress  (Ry/bohr**3)                   (kbar)     P=       -1.65
  -0.00000029   0.00000000   0.00000000           -0.04        0.00        0.00
   0.00000000   0.00000032   0.00000000            0.00        0.05        0.00
   0.00000000   0.00000000  -0.00003375            0.00        0.00       -4.96

     Energy error            =      6.5E-06 Ry
     Gradient error          =      5.5E-04 Ry/Bohr
     Cell gradient error     =      4.7E-02 kbar

     number of scf cycles    =  10
     number of bfgs steps    =   9

     enthalpy           old  =    -373.4172385541 Ry
     enthalpy           new  =    -373.4172450682 Ry

     CASE: enthalpy          _new < enthalpy          _old

     new trust radius        =       0.0009521277 bohr
     Message from routine volume:
     axis vectors are left-handed
     new conv_thr            =            1.0E-11 Ry

     new unit-cell volume =   1299.99672 a.u.^3 (   192.63964 Ang^3 )
     density =      2.10543 g/cm^3

CELL_PARAMETERS (angstrom)
   2.531908048   0.000000000   0.000000000
   0.000000000  -3.597690649   0.000000000
   0.000000000   0.000000000  21.148224330

ATOMIC_POSITIONS (crystal)
C                0.5000000000        0.4942767777        0.7674627934
C               -0.0000000000        0.2557232223        0.7674627934
C               -0.0000000000       -0.0009281161        0.7091841000
C                0.5000000000        0.7509281161        0.7091841000
C                0.0000000000        0.2498367488        0.6493092584
C                0.5000000000        0.5001632512        0.6493092584
C                0.5000000000        0.7500099490        0.5895913974
C                0.0000000000       -0.0000099490        0.5895913974
C               -0.0000000000        0.2500199338        0.5298633145
C                0.5000000000        0.4999800662        0.5298633145
C               -0.0000000000       -0.0000199338        0.4701366855
C                0.5000000000        0.7500199338        0.4701366855
C                0.0000000000        0.2500099490        0.4104086026
C                0.5000000000        0.4999900510        0.4104086026
C                0.5000000000        0.7498367488        0.3506907416
C               -0.0000000000        0.0001632512        0.3506907416
C               -0.0000000000        0.2509281161        0.2908159000
C                0.5000000000        0.4990718839        0.2908159000
C                0.5000000000        0.7557232223        0.2325372066
C               -0.0000000000       -0.0057232223        0.2325372066
H                0.5000000000        0.6598532621        0.8111798440
H               -0.0000000000        0.0901467379        0.8111798440
H                0.5000000000        0.5901467379        0.1888201560
H                0.0000000000        0.1598532621        0.1888201560



     Writing config-only to output data dir /tmp/qe/slab.save/ :
     XML data file
     NEW-OLD atomic charge density approx. for the potential

     Check: negative core charge=   -0.000001

     negative rho (up, down):  3.411E-06 0.000E+00

     total cpu time spent up to now is      556.7 secs

     Self-consistent Calculation

     iteration #  1     ecut=    90.00 Ry     beta= 0.30
     Davidson diagonalization with overlap
     ethr =  1.00E-06,  avg # of iterations =  2.0

     Threshold (ethr) on eigenvalues was too large:
     Diagonalizing with lowered threshold

     Davidson diagonalization with overlap
     ethr =  9.46E-10,  avg # of iterations =  4.9

     negative rho (up, down):  3.408E-06 0.000E+00

     total cpu time spent up to now is      565.9 secs

     total energy              =    -373.41724757 Ry
     estimated scf accuracy    <       0.00000093 Ry

     iteration #  2     ecut=    90.00 Ry     beta= 0.30
     Davidson diagonalization with overlap
     ethr =  1.11E-09,  avg # of iterations =  2.0

     negative rho (up, down):  3.400E-06 0.000E+00

     total cpu time spent up to now is      569.5 secs

     total energy              =    -373.41724759 Ry
     estimated scf accuracy    <       0.00000024 Ry

     iteration #  3     ecut=    90.00 Ry     beta= 0.30
     Davidson diagonalization with overlap
     ethr =  2.91E-10,  avg # of iterations =  2.0

     negative rho (up, down):  3.395E-06 0.000E+00

     total cpu time spent up to now is      573.1 secs

     total energy              =    -373.41724760 Ry
     estimated scf accuracy    <       0.00000006 Ry

     iteration #  4     ecut=    90.00 Ry     beta= 0.30
     Davidson diagonalization with overlap
     ethr =  7.61E-11,  avg # of iterations =  2.0

     negative rho (up, down):  3.391E-06 0.000E+00

     total cpu time spent up to now is      576.7 secs

     total energy              =    -373.41724761 Ry
     estimated scf accuracy    <       0.00000001 Ry

     iteration #  5     ecut=    90.00 Ry     beta= 0.30
     Davidson diagonalization with overlap
     ethr =  1.33E-11,  avg # of iterations =  2.0

     negative rho (up, down):  3.391E-06 0.000E+00

     total cpu time spent up to now is      580.5 secs

     total energy              =    -373.41724761 Ry
     estimated scf accuracy    <          1.1E-09 Ry

     iteration #  6     ecut=    90.00 Ry     beta= 0.30
     Davidson diagonalization with overlap
     ethr =  1.27E-12,  avg # of iterations =  2.6

     negative rho (up, down):  3.391E-06 0.000E+00

     total cpu time spent up to now is      584.6 secs

     total energy              =    -373.41724761 Ry
     estimated scf accuracy    <          2.4E-10 Ry

     iteration #  7     ecut=    90.00 Ry     beta= 0.30
     Davidson diagonalization with overlap
     ethr =  2.88E-13,  avg # of iterations =  2.4

     negative rho (up, down):  3.392E-06 0.000E+00

     total cpu time spent up to now is      588.9 secs

     total energy              =    -373.41724761 Ry
     estimated scf accuracy    <          3.4E-11 Ry

     iteration #  8     ecut=    90.00 Ry     beta= 0.30
     Davidson diagonalization with overlap
     ethr =  1.00E-13,  avg # of iterations =  2.2

     negative rho (up, down):  3.392E-06 0.000E+00

     total cpu time spent up to now is      592.7 secs

     End of self-consistent calculation

          k = 0.0000-0.0000 0.0000 ( 18619 PWs)   bands (ev):

   -14.2027 -13.7623 -13.0319 -12.0155 -10.7468  -9.3065  -7.8133  -6.4851
    -5.7916  -5.7329  -5.6704  -5.2818  -4.6345  -3.7188  -2.6119  -2.5473
    -2.2438  -1.9622  -1.1813  -0.9446  -0.8827   0.2980   0.3149   0.4823
     0.8711   1.2125   1.7692   1.9351   2.0403   2.5273   3.4331   3.6374
     3.6550   4.3837   5.1427   5.2649   5.3022   5.9994   6.3558   6.5265
     6.5417   6.8624   8.7757   9.2043  11.4674  11.8490  12.1925  12.5603
    12.6167  12.7020

          k = 0.0000-0.1003 0.0000 ( 18587 PWs)   bands (ev):

   -14.0182 -13.5794 -12.8523 -11.8425 -10.5888  -9.1915  -7.8825  -7.8183
    -7.4569  -7.2190  -4.7953  -4.7589  -3.8426  -3.8316  -3.4707  -2.5317
    -1.5919  -1.5509  -0.8197  -0.5509  -0.5337   0.4812   0.5586   0.8189
     1.0490   1.3814   1.8934   1.9209   2.4570   2.6490   3.3646   3.5034
     4.0394   4.3691   4.8423   5.1225   5.3657   5.6897   6.0387   6.0503
     6.2251   6.2978   8.9897   9.4193  11.6488  11.6985  12.3301  12.8010
    12.8519  13.1918

          k = 0.0000-0.2006 0.0000 ( 18570 PWs)   bands (ev):

   -13.4667 -13.0336 -12.3182 -11.3334 -10.1478  -9.7050  -9.3037  -9.0033
    -8.6145  -8.2889  -5.5429  -5.3264  -4.3788  -4.0949  -2.7696  -2.5338
    -1.4249  -0.8877  -0.0273   0.2230   0.8768   1.1100   1.2037   1.5744
     1.5763   1.8800   2.3642   2.4924   2.7866   2.9964   3.5500   3.6895
     4.0926   4.3018   4.5903   4.7149   4.9024   4.9509   4.9723   5.0227
     5.4741   5.5171   9.6279   9.9940  11.7036  12.0242  12.4051  12.8597
    13.0071  13.2941

          k = 0.0000-0.3009 0.0000 ( 18524 PWs)   bands (ev):

   -12.5553 -12.1361 -11.4582 -11.2956 -10.8718 -10.5682 -10.1459  -9.5994
    -9.1838  -8.8166  -6.0056  -5.5772  -4.9369  -4.1703  -3.2998  -2.4534
    -1.4882  -0.5893   0.2387   1.2147   1.8765   1.8817   2.4322   2.5435
     2.6791   2.8587   3.0029   3.0541   3.3835   3.4806   3.5985   3.7143
     3.8071   3.8747   3.9544   3.9635   4.2023   4.2214   4.2585   4.3029
     4.5063   4.5187  10.6370  10.8292  11.7411  11.9360  12.1010  12.6144
    12.8394  13.3181

          k = 0.0998-0.0000 0.0000 ( 18585 PWs)   bands (ev):

   -14.0200 -13.5803 -12.8512 -11.8367 -10.5705  -9.1332  -7.6440  -6.3210
    -5.6301  -5.6121  -5.5690  -5.2264  -4.5840  -3.6755  -2.5135  -2.4524
    -2.0823  -1.8142  -1.1598  -0.8125  -0.7326   0.0156   0.3205   0.3701
     0.4535   0.5638   0.9474   1.7287   1.9213   2.0576   2.6571   3.5459
     3.6110   3.6198   4.4943   4.8690   5.1276   5.2806   5.6655   5.8202
     5.9418   6.4401   8.9573   9.3706  11.5778  12.3337  12.4980  12.7226
    12.9242  13.0171

          k = 0.0998-0.1003 0.0000 ( 18588 PWs)   bands (ev):

   -13.8358 -13.3979 -12.6722 -11.6644 -10.4133  -9.0195  -7.7177  -7.6703
    -7.3085  -7.0664  -4.6776  -4.6356  -3.7580  -3.7240  -3.4397  -2.4367
    -1.5332  -1.4739  -0.7664  -0.5470  -0.4306   0.2717   0.5301   0.5423
     0.6996   0.8683   1.1788   1.8423   1.9316   2.4468   2.7705   3.2842
     3.6134   3.8998   4.3419   4.5411   4.6767   4.8945   5.0707   5.5387
     6.0532   6.3664   9.1875   9.6001  11.8486  12.4882  12.9805  13.0093
    13.2999  13.5168

          k = 0.0998-0.2006 0.0000 ( 18563 PWs)   bands (ev):

   -13.2857 -12.8535 -12.1398 -11.1573  -9.9751  -9.5399  -9.1404  -8.8369
    -8.4529  -8.1285  -5.3874  -5.1787  -4.2298  -3.9593  -2.6552  -2.4163
    -1.5053  -0.8362  -0.1372  -0.0149   0.5060   1.0595   1.0623   1.2079
     1.2689   1.6037   1.9708   2.2227   2.5547   2.7229   3.1333   3.3099
     3.5194   3.5936   3.6232   3.7774   3.8224   4.1171   4.6117   5.1469
     5.7664   5.8627   9.8389  10.2086  12.4121  12.4468  13.0161  13.4538
    13.6198  14.1655

          k = 0.0998-0.3009 0.0000 ( 18556 PWs)   bands (ev):

   -12.3768 -11.9588 -11.2829 -11.1218 -10.6997 -10.3960  -9.9764  -9.4315
    -9.0184  -8.6532  -5.8427  -5.4164  -4.7833  -4.0184  -3.1615  -2.3158
    -1.3846  -0.4877   0.1325   1.0158   1.0448   1.4357   1.6728   1.9277
     2.2562   2.3140   2.3402   2.6800   2.7521   2.8879   3.1100   3.1504
     3.2334   3.3876   3.4824   3.6756   3.7974   4.0357   4.4230   4.4878
     4.7681   4.7831  10.8615  11.1079  12.2229  12.2682  12.7105  13.1805
    13.3102  13.9273

          k = 0.1996-0.0000 0.0000 ( 18601 PWs)   bands (ev):

   -13.4738 -13.0366 -12.3116 -11.3028 -10.0439  -8.6157  -7.1384  -5.8302
    -5.6211  -5.2410  -5.1466  -5.0786  -4.6079  -3.7127  -2.5686  -1.9865
    -1.6146  -1.5772  -1.3801  -1.2371  -1.2058  -0.6043  -0.4683  -0.2646
     0.2029   0.2169   0.7671   0.9126   1.1435   1.7829   2.0448   2.0897
     2.8887   3.1817   3.4383   3.4719   3.8279   3.9910   4.0096   4.4585
     4.9939   6.1109   9.5353   9.8821  11.7070  11.8891  12.1259  12.4197
    13.0215  13.1943

          k = 0.1996-0.1003 0.0000 ( 18549 PWs)   bands (ev):

   -13.2910 -12.8556 -12.1343 -11.1325  -9.8894  -8.5063  -7.2676  -7.2313
    -6.8965  -6.6305  -4.4133  -4.3715  -3.7306  -3.6787  -3.4770  -2.2379
    -1.7242  -1.5800  -1.0778  -0.9191  -0.7284  -0.3684  -0.1347   0.1563
     0.3538   0.7868   0.8374   1.1384   1.5419   1.5898   2.2509   2.2578
     2.6842   2.7421   2.8271   2.8816   3.1633   3.7276   4.5161   4.7668
     5.4141   5.7184   9.7775  10.1312  12.2475  12.4894  12.5653  12.8510
    13.1419  13.3260

          k = 0.1996-0.2006 0.0000 ( 18536 PWs)   bands (ev):

   -12.7452 -12.3159 -11.6073 -10.6320  -9.4600  -9.0588  -8.6645  -8.3439
    -7.9778  -7.6543  -4.9546  -4.7691  -3.8384  -3.5904  -2.6334  -2.5285
    -2.1316  -1.3494  -1.0652  -0.5049  -0.1716  -0.1402   0.6184   0.9454
     1.1321   1.1921   1.2358   1.7281   1.8038   1.8714   1.9166   1.9681
     2.1067   2.2852   2.5588   2.7174   3.2599   3.4462   4.5010   4.5105
     5.3310   5.5622  10.4420  10.7741  13.0122  13.4880  13.6206  13.6856
    13.9478  13.9796

          k = 0.1996-0.3009 0.0000 ( 18533 PWs)   bands (ev):

   -11.8451 -11.4307 -10.7610 -10.6069 -10.1896  -9.8835  -9.4745  -8.9321
    -8.5271  -8.1666  -5.3746  -4.9524  -4.3490  -3.5866  -2.8022  -1.9573
    -1.4699  -1.4682  -0.5161  -0.4273  -0.2351  -0.1487   0.4108   0.4422
     0.7593   0.9733   1.2237   1.3674   1.6063   1.8601   2.3978   2.9240
     3.0794   3.1246   3.2667   3.3999   3.4447   3.4750   3.8875   4.3417
     4.7026   4.7529  11.4426  11.6764  12.8906  12.9387  13.9231  14.0699
    14.3387  14.5128

          k = 0.2993-0.0000 0.0000 ( 18564 PWs)   bands (ev):

   -12.5718 -12.1388 -11.4209 -10.4220  -9.1753  -7.7624  -6.4000  -6.3039
    -6.0118  -5.3662  -5.0178  -4.4580  -4.3443  -4.2656  -3.3052  -2.3109
    -1.9730  -1.9501  -1.3739  -1.2558  -0.9101  -0.6809  -0.6122  -0.5337
     0.0057   0.2465   0.4913   0.9207   0.9736   1.0525   1.6380   1.6649
     1.7915   1.8314   1.9341   2.1183   2.4063   2.6747   2.7466   3.0283
     4.4391   5.5093  10.4674  10.7089  11.4162  11.4849  12.1416  12.4983
    13.0786  13.3519

          k = 0.2993-0.1003 0.0000 ( 18545 PWs)   bands (ev):

   -12.3917 -11.9608 -11.2469 -10.2557  -9.0259  -7.6615  -6.9565  -6.6367
    -6.3508  -6.1221  -4.6742  -4.5782  -4.5136  -4.3993  -3.5784  -2.3409
    -2.2161  -1.7810  -1.5842  -1.1240  -1.0045  -0.7522  -0.0823   0.1701
     0.1936   0.4905   0.6025   0.6770   0.8026   0.8514   1.2117   1.3528
     1.5337   1.6993   1.8309   1.9548   2.7490   2.7664   3.4843   3.7952
     4.2480   5.2633  10.7293  10.9843  12.0401  12.0547  12.4490  12.6790
    13.1910  13.2815

          k = 0.2993-0.2006 0.0000 ( 18570 PWs)   bands (ev):

   -11.8552 -11.4311 -10.7312  -9.7684  -8.6145  -8.3470  -7.9580  -7.5635
    -7.2364  -6.9062  -4.4944  -4.4186  -4.2955  -4.0708  -3.8757  -3.2163
    -2.3473  -1.9721  -1.7699  -1.1203  -1.0282  -1.0030  -0.7700  -0.7506
     0.0263   0.2458   0.5003   0.5519   1.4667   1.6175   1.7642   1.7767
     1.9473   2.1043   2.1066   2.3891   2.4633   3.0211   3.6382   4.0666
     4.6991   4.7226  11.3785  11.6149  13.0681  13.1486  13.4912  13.6829
    13.7591  14.0623

          k = 0.2993-0.3009 0.0000 ( 18605 PWs)   bands (ev):

   -10.9755 -10.5673  -9.9083  -9.7814  -9.3722  -9.0481  -8.6688  -8.1203
    -7.7321  -7.3717  -4.7109  -4.2828  -3.8242  -3.6222  -3.2815  -3.0792
    -2.9525  -2.4697  -2.1612  -2.0265  -1.5985  -1.4226  -0.7951  -0.6964
    -0.5604  -0.3197   0.0481   0.6784   1.4810   1.7656   1.9937   2.3220
     2.5321   2.5572   2.9011   3.1193   3.3804   3.4557   3.6265   3.6277
     4.3333   4.5146  12.2376  12.3677  13.6580  13.6915  14.1023  14.1976
    14.6287  14.8081

          k = 0.3991-0.0000 0.0000 ( 18524 PWs)   bands (ev):

   -11.3303 -10.9037 -10.1964  -9.2119  -8.0377  -7.9829  -7.6327  -6.9607
    -6.5906  -6.0216  -5.1556  -4.8421  -3.8935  -3.4964  -3.2300  -3.1378
    -2.0899  -1.7509  -1.4324  -0.9338  -0.8109  -0.3453  -0.3062  -0.1267
    -0.1209  -0.0018   0.2542   0.3417   0.4657   0.8548   0.9760   1.0204
     1.1315   1.1505   1.2989   1.3143   1.4421   1.4828   2.2974   2.5755
     3.5976   4.6472  11.2318  11.3112  11.6465  12.0297  12.4219  12.6125
    12.8078  12.9533

          k = 0.3991-0.1003 0.0000 ( 18559 PWs)   bands (ev):

   -11.1563 -10.7321 -10.0295  -9.0537  -7.9675  -7.8441  -7.5669  -6.9131
    -6.4943  -6.0177  -5.0924  -4.7826  -4.4501  -4.2289  -4.2084  -3.4945
    -2.2082  -1.5601  -1.4759  -1.4196  -1.2995  -1.2415  -0.7606  -0.6958
    -0.2952   0.2028   0.6033   0.7388   0.7847   0.8415   0.9431   1.0638
     1.1511   1.3531   1.6992   1.9079   1.9207   2.3438   2.3926   2.7041
     3.5136   4.5663  11.8383  11.8443  11.9507  12.0082  12.4831  12.4979
    13.0587  13.4510

          k = 0.3991-0.2006 0.0000 ( 18596 PWs)   bands (ev):

   -10.6419 -10.2256  -9.5390  -8.5946  -8.0190  -7.6610  -7.4244  -7.0308
    -6.2892  -6.2413  -5.6142  -5.2910  -4.8556  -4.7570  -4.6097  -3.6075
    -3.0747  -2.8458  -2.5682  -2.4475  -2.1680  -1.6826  -1.4667  -0.6746
    -0.2898  -0.1355   0.4736   0.5558   0.9073   1.2353   1.2850   1.6528
     1.8282   2.0144   2.0733   2.3291   2.4475   3.0425   3.1235   3.2784
     3.6550   4.3248  12.3912  12.5158  12.9576  12.9966  13.3846  13.4376
    13.6409  13.8932

          k = 0.3991-0.3009 0.0000 ( 18635 PWs)   bands (ev):

    -9.8188  -9.4200  -8.7954  -8.7776  -8.3962  -7.9591  -7.6887  -7.0810
    -6.7210  -6.3246  -5.5024  -5.1413  -4.6759  -4.5139  -4.3409  -4.1936
    -4.1340  -3.9741  -3.5845  -3.3523  -2.0592  -1.8218  -1.4269  -1.3505
    -0.8301  -0.2961   0.3404   0.6074   0.6183   1.1252   1.4218   1.6396
     2.0897   2.3892   2.6842   2.8635   3.1249   3.4265   3.5826   3.5961
     3.9825   4.1336  12.9768  13.0021  14.0342  14.1115  14.3047  14.4645
    14.7573  14.8811

          k =-0.4989 0.0000 0.0000 ( 18558 PWs)   bands (ev):

    -9.7867  -9.7867  -9.3690  -9.3690  -8.6766  -8.6766  -7.7118  -7.7118
    -6.5055  -6.5055  -5.1374  -5.1374  -3.7247  -3.7247  -2.4764  -2.4764
    -1.8160  -1.8160  -1.7084  -1.7084  -0.5405  -0.5405  -0.2920  -0.2920
     0.0646   0.0646   0.4275   0.4275   0.5739   0.5739   0.6298   0.6298
     0.7964   0.7964   0.8080   0.8080   1.3167   1.3167   2.5543   2.5543
     3.6216   3.6216  11.7256  11.7256  11.8945  11.8945  12.3395  12.3395
    12.9547  12.9547

          k =-0.4989-0.1003 0.0000 ( 18580 PWs)   bands (ev):

    -9.6302  -9.6302  -9.2157  -9.2157  -8.5292  -8.5292  -7.5746  -7.5746
    -6.3872  -6.3872  -5.0616  -5.0616  -3.7770  -3.7770  -3.1473  -3.1473
    -2.9396  -2.9396  -2.9266  -2.9266  -0.4599  -0.4599  -0.3966  -0.3966
     0.0980   0.0980   0.4610   0.4610   0.7390   0.7390   0.9087   0.9087
     1.1902   1.1902   1.4003   1.4003   1.6860   1.6860   2.6418   2.6418
     3.6662   3.6662  12.0579  12.0579  12.2149  12.2149  12.6171  12.6171
    13.0672  13.0672

          k =-0.4989-0.2006 0.0000 ( 18622 PWs)   bands (ev):

    -9.1919  -9.1919  -8.7878  -8.7878  -8.1207  -8.1207  -7.1994  -7.1994
    -6.0764  -6.0764  -4.9346  -4.9346  -4.7556  -4.7556  -4.4842  -4.4842
    -4.0237  -4.0237  -3.9991  -3.9991  -1.1789  -1.1789  -0.8035  -0.8035
    -0.4177  -0.4177   0.1539   0.1539   0.9372   0.9372   1.2225   1.2225
     1.9743   1.9743   2.3842   2.3842   2.5953   2.5953   2.9693   2.9693
     3.7672   3.7672  12.8823  12.8823  13.0250  13.0250  13.3465  13.3465
    13.7450  13.7450

          k =-0.4989-0.3009 0.0000 ( 18590 PWs)   bands (ev):

    -8.6550  -8.6550  -8.2687  -8.2687  -7.6343  -7.6343  -6.7702  -6.7702
    -5.9567  -5.9567  -5.8073  -5.8073  -5.5087  -5.5087  -5.0944  -5.0944
    -4.6641  -4.6641  -4.4902  -4.4902  -1.3782  -1.3782  -1.3543  -1.3543
    -0.4030  -0.4030  -0.2652  -0.2652   0.8712   0.8712   1.2203   1.2203
     2.1277   2.1277   2.6968   2.6968   3.1583   3.1583   3.7309   3.7309
     3.8627   3.8627  13.5860  13.5860  13.6075  13.6075  14.7187  14.7187
    14.8799  14.8799

     the Fermi energy is     7.7935 ev

!    total energy              =    -373.41724761 Ry
     estimated scf accuracy    <          9.8E-12 Ry
     smearing contrib. (-TS)   =       0.00000000 Ry
     internal energy E=F+TS    =    -373.41724761 Ry

     The total energy is F=E-TS. E is the sum of the following terms:
     one-electron contribution =   -2443.08673476 Ry
     hartree contribution      =    1266.37330038 Ry
     xc contribution           =     -96.47053621 Ry
     ewald contribution        =    1023.02304137 Ry
     one-center paw contrib.   =    -123.25631839 Ry

     convergence has been achieved in   8 iterations

     negative rho (up, down):  3.392E-06 0.000E+00

     Forces acting on atoms (cartesian axes, Ry/au):

     atom    1 type  1   force =    -0.00000000    0.00015668   -0.00038534
     atom    2 type  1   force =     0.00000000   -0.00015668   -0.00038534
     atom    3 type  1   force =    -0.00000000    0.00006326   -0.00016818
     atom    4 type  1   force =     0.00000000   -0.00006326   -0.00016818
     atom    5 type  1   force =     0.00000000   -0.00003928    0.00000964
     atom    6 type  1   force =    -0.00000000    0.00003928    0.00000964
     atom    7 type  1   force =     0.00000000   -0.00001628    0.00001440
     atom    8 type  1   force =     0.00000000    0.00001628    0.00001440
     atom    9 type  1   force =    -0.00000000   -0.00003667   -0.00000788
     atom   10 type  1   force =     0.00000000    0.00003667   -0.00000788
     atom   11 type  1   force =     0.00000000    0.00003667    0.00000788
     atom   12 type  1   force =    -0.00000000   -0.00003667    0.00000788
     atom   13 type  1   force =     0.00000000   -0.00001628   -0.00001440
     atom   14 type  1   force =     0.00000000    0.00001628   -0.00001440
     atom   15 type  1   force =     0.00000000   -0.00003928   -0.00000964
     atom   16 type  1   force =     0.00000000    0.00003928   -0.00000964
     atom   17 type  1   force =    -0.00000000   -0.00006326    0.00016818
     atom   18 type  1   force =     0.00000000    0.00006326    0.00016818
     atom   19 type  1   force =     0.00000000   -0.00015668    0.00038534
     atom   20 type  1   force =     0.00000000    0.00015668    0.00038534
     atom   21 type  2   force =    -0.00000000   -0.00009298   -0.00035368
     atom   22 type  2   force =     0.00000000    0.00009298   -0.00035368
     atom   23 type  2   force =    -0.00000000    0.00009298    0.00035368
     atom   24 type  2   force =     0.00000000   -0.00009298    0.00035368

     Total force =     0.001171     Total SCF correction =     0.000011


     Computing stress (Cartesian axis) and pressure


     negative rho (up, down):  3.392E-06 0.000E+00
          total   stress  (Ry/bohr**3)                   (kbar)     P=       -1.51
   0.00000007   0.00000000   0.00000000            0.01        0.00        0.00
   0.00000000   0.00000026   0.00000000            0.00        0.04        0.00
   0.00000000   0.00000000  -0.00003120            0.00        0.00       -4.59

     Energy error            =      2.5E-06 Ry
     Gradient error          =      3.9E-04 Ry/Bohr
     Cell gradient error     =      3.9E-02 kbar

     number of scf cycles    =  11
     number of bfgs steps    =  10

     enthalpy           old  =    -373.4172450682 Ry
     enthalpy           new  =    -373.4172476094 Ry

     CASE: enthalpy          _new < enthalpy          _old

     new trust radius        =       0.0011070530 bohr
     Message from routine volume:
     axis vectors are left-handed
     new conv_thr            =            1.0E-11 Ry

     new unit-cell volume =   1300.01873 a.u.^3 (   192.64290 Ang^3 )
     density =      2.10540 g/cm^3

CELL_PARAMETERS (angstrom)
   2.531888646   0.000000000   0.000000000
   0.000000000  -3.597779122   0.000000000
   0.000000000   0.000000000  21.148224330

ATOMIC_POSITIONS (crystal)
C                0.5000000000        0.4942648501        0.7674424542
C                0.0000000000        0.2557351499        0.7674424542
C               -0.0000000000       -0.0009357538        0.7091752978
C                0.5000000000        0.7509357538        0.7091752978
C                0.0000000000        0.2498277776        0.6492965475
C                0.5000000000        0.5001722224        0.6492965475
C                0.5000000000        0.7500097415        0.5895732348
C                0.0000000000       -0.0000097415        0.5895732348
C               -0.0000000000        0.2500350932        0.5298542106
C                0.5000000000        0.4999649068        0.5298542106
C               -0.0000000000       -0.0000350932        0.4701457894
C                0.5000000000        0.7500350932        0.4701457894
C                0.0000000000        0.2500097415        0.4104267652
C                0.5000000000        0.4999902585        0.4104267652
C                0.5000000000        0.7498277776        0.3507034525
C               -0.0000000000        0.0001722224        0.3507034525
C               -0.0000000000        0.2509357538        0.2908247022
C                0.5000000000        0.4990642462        0.2908247022
C                0.5000000000        0.7557351499        0.2325575458
C               -0.0000000000       -0.0057351499        0.2325575458
H                0.5000000000        0.6598258381        0.8111525386
H               -0.0000000000        0.0901741619        0.8111525386
H                0.5000000000        0.5901741619        0.1888474614
H                0.0000000000        0.1598258381        0.1888474614



     Writing config-only to output data dir /tmp/qe/slab.save/ :
     XML data file
     NEW-OLD atomic charge density approx. for the potential

     Check: negative core charge=   -0.000001

     negative rho (up, down):  3.458E-06 0.000E+00

     total cpu time spent up to now is      606.3 secs

     Self-consistent Calculation

     iteration #  1     ecut=    90.00 Ry     beta= 0.30
     Davidson diagonalization with overlap
     ethr =  1.00E-06,  avg # of iterations =  2.0

     Threshold (ethr) on eigenvalues was too large:
     Diagonalizing with lowered threshold

     Davidson diagonalization with overlap
     ethr =  1.16E-09,  avg # of iterations =  4.7

     negative rho (up, down):  3.451E-06 0.000E+00

     total cpu time spent up to now is      615.3 secs

     total energy              =    -373.41724990 Ry
     estimated scf accuracy    <       0.00000107 Ry

     iteration #  2     ecut=    90.00 Ry     beta= 0.30
     Davidson diagonalization with overlap
     ethr =  1.28E-09,  avg # of iterations =  1.9

     negative rho (up, down):  3.436E-06 0.000E+00

     total cpu time spent up to now is      618.8 secs

     total energy              =    -373.41724992 Ry
     estimated scf accuracy    <       0.00000028 Ry

     iteration #  3     ecut=    90.00 Ry     beta= 0.30
     Davidson diagonalization with overlap
     ethr =  3.31E-10,  avg # of iterations =  2.0

     negative rho (up, down):  3.428E-06 0.000E+00

     total cpu time spent up to now is      622.5 secs

     total energy              =    -373.41724994 Ry
     estimated scf accuracy    <       0.00000007 Ry

     iteration #  4     ecut=    90.00 Ry     beta= 0.30
     Davidson diagonalization with overlap
     ethr =  7.80E-11,  avg # of iterations =  1.7

     negative rho (up, down):  3.423E-06 0.000E+00

     total cpu time spent up to now is      626.0 secs

     total energy              =    -373.41724994 Ry
     estimated scf accuracy    <       0.00000001 Ry

     iteration #  5     ecut=    90.00 Ry     beta= 0.30
     Davidson diagonalization with overlap
     ethr =  1.58E-11,  avg # of iterations =  2.0

     negative rho (up, down):  3.423E-06 0.000E+00

     total cpu time spent up to now is      629.8 secs

     total energy              =    -373.41724994 Ry
     estimated scf accuracy    <          1.1E-09 Ry

     iteration #  6     ecut=    90.00 Ry     beta= 0.30
     Davidson diagonalization with overlap
     ethr =  1.30E-12,  avg # of iterations =  2.6

     negative rho (up, down):  3.424E-06 0.000E+00

     total cpu time spent up to now is      634.0 secs

     total energy              =    -373.41724994 Ry
     estimated scf accuracy    <          3.0E-10 Ry

     iteration #  7     ecut=    90.00 Ry     beta= 0.30
     Davidson diagonalization with overlap
     ethr =  3.52E-13,  avg # of iterations =  2.2

     negative rho (up, down):  3.425E-06 0.000E+00

     total cpu time spent up to now is      638.3 secs

     total energy              =    -373.41724994 Ry
     estimated scf accuracy    <          7.3E-11 Ry

     iteration #  8     ecut=    90.00 Ry     beta= 0.30
     Davidson diagonalization with overlap
     ethr =  1.00E-13,  avg # of iterations =  2.8

     negative rho (up, down):  3.425E-06 0.000E+00

     total cpu time spent up to now is      642.6 secs

     total energy              =    -373.41724994 Ry
     estimated scf accuracy    <          2.2E-11 Ry

     iteration #  9     ecut=    90.00 Ry     beta= 0.30
     Davidson diagonalization with overlap
     ethr =  1.00E-13,  avg # of iterations =  1.3

     negative rho (up, down):  3.426E-06 0.000E+00

     total cpu time spent up to now is      645.9 secs

     End of self-consistent calculation

          k = 0.0000-0.0000 0.0000 ( 18619 PWs)   bands (ev):

   -14.2037 -13.7622 -13.0332 -12.0162 -10.7472  -9.3067  -7.8134  -6.4852
    -5.7917  -5.7338  -5.6720  -5.2821  -4.6367  -3.7203  -2.6128  -2.5484
    -2.2440  -1.9630  -1.1821  -0.9455  -0.8825   0.2988   0.3143   0.4817
     0.8705   1.2128   1.7680   1.9346   2.0399   2.5267   3.4329   3.6371
     3.6547   4.3837   5.1424   5.2649   5.3023   5.9992   6.3552   6.5271
     6.5417   6.8622   8.7759   9.2045  11.4673  11.8485  12.1929  12.5623
    12.6158  12.7028

          k = 0.0000-0.1003 0.0000 ( 18587 PWs)   bands (ev):

   -14.0192 -13.5793 -12.8536 -11.8433 -10.5892  -9.1917  -7.8828  -7.8194
    -7.4568  -7.2200  -4.7966  -4.7596  -3.8426  -3.8326  -3.4719  -2.5326
    -1.5930  -1.5511  -0.8205  -0.5520  -0.5335   0.4820   0.5577   0.8186
     1.0483   1.3817   1.8928   1.9197   2.4566   2.6485   3.3643   3.5032
     4.0389   4.3691   4.8423   5.1224   5.3656   5.6893   6.0391   6.0504
     6.2248   6.2971   8.9899   9.4195  11.6488  11.6988  12.3305  12.8018
    12.8511  13.1934

          k = 0.0000-0.2006 0.0000 ( 18570 PWs)   bands (ev):

   -13.4677 -13.0335 -12.3196 -11.3342 -10.1483  -9.7061  -9.3037  -9.0040
    -8.6152  -8.2893  -5.5435  -5.3272  -4.3790  -4.0953  -2.7699  -2.5345
    -1.4255  -0.8880  -0.0274   0.2231   0.8752   1.1108   1.2035   1.5733
     1.5757   1.8802   2.3630   2.4915   2.7865   2.9959   3.5493   3.6892
     4.0922   4.3016   4.5903   4.7145   4.9026   4.9498   4.9726   5.0220
     5.4731   5.5169   9.6281   9.9942  11.7042  12.0245  12.4060  12.8597
    13.0075  13.2939

          k = 0.0000-0.3009 0.0000 ( 18524 PWs)   bands (ev):

   -12.5563 -12.1361 -11.4596 -11.2966 -10.8719 -10.5692 -10.1471  -9.5999
    -9.1843  -8.8168  -6.0063  -5.5778  -4.9372  -4.1703  -3.3004  -2.4541
    -1.4878  -0.5893   0.2389   1.2150   1.8759   1.8821   2.4315   2.5436
     2.6792   2.8577   3.0027   3.0530   3.3824   3.4801   3.5977   3.7139
     3.8061   3.8738   3.9549   3.9628   4.2020   4.2214   4.2576   4.3027
     4.5053   4.5172  10.6373  10.8297  11.7419  11.9366  12.1013  12.6148
    12.8396  13.3183

          k = 0.0998-0.0000 0.0000 ( 18585 PWs)   bands (ev):

   -14.0209 -13.5802 -12.8525 -11.8375 -10.5709  -9.1333  -7.6441  -6.3211
    -5.6302  -5.6136  -5.5699  -5.2266  -4.5862  -3.6770  -2.5146  -2.4534
    -2.0825  -1.8150  -1.1606  -0.8136  -0.7323   0.0149   0.3199   0.3704
     0.4543   0.5633   0.9462   1.7281   1.9208   2.0571   2.6569   3.5455
     3.6108   3.6197   4.4942   4.8687   5.1275   5.2807   5.6656   5.8194
     5.9416   6.4407   8.9575   9.3708  11.5777  12.3342  12.4970  12.7247
    12.9246  13.0170

          k = 0.0998-0.1003 0.0000 ( 18588 PWs)   bands (ev):

   -13.8368 -13.3978 -12.6735 -11.6651 -10.4137  -9.0197  -7.7180  -7.6715
    -7.3085  -7.0674  -4.6789  -4.6363  -3.7579  -3.7250  -3.4408  -2.4375
    -1.5343  -1.4741  -0.7672  -0.5480  -0.4304   0.2710   0.5305   0.5415
     0.7001   0.8681   1.1775   1.8418   1.9310   2.4463   2.7703   3.2839
     3.6133   3.8991   4.3418   4.5411   4.6766   4.8937   5.0707   5.5388
     6.0536   6.3659   9.1877   9.6003  11.8485  12.4896  12.9808  13.0088
    13.3000  13.5170

          k = 0.0998-0.2006 0.0000 ( 18563 PWs)   bands (ev):

   -13.2866 -12.8534 -12.1411 -11.1581  -9.9755  -9.5411  -9.1405  -8.8376
    -8.4537  -8.1289  -5.3881  -5.1795  -4.2300  -3.9598  -2.6555  -2.4170
    -1.5060  -0.8365  -0.1371  -0.0147   0.5045   1.0600   1.0619   1.2071
     1.2686   1.6040   1.9694   2.2220   2.5540   2.7227   3.1329   3.3089
     3.5187   3.5934   3.6236   3.7771   3.8214   4.1169   4.6120   5.1464
     5.7662   5.8621   9.8391  10.2089  12.4122  12.4479  13.0168  13.4544
    13.6200  14.1655

          k = 0.0998-0.3009 0.0000 ( 18556 PWs)   bands (ev):

   -12.3778 -11.9587 -11.2843 -11.1229 -10.6997 -10.3970  -9.9777  -9.4320
    -9.0189  -8.6534  -5.8434  -5.4170  -4.7836  -4.0185  -3.1622  -2.3165
    -1.3842  -0.4878   0.1323   1.0159   1.0447   1.4358   1.6715   1.9280
     2.2556   2.3137   2.3402   2.6794   2.7510   2.8876   3.1099   3.1502
     3.2334   3.3876   3.4812   3.6747   3.7967   4.0348   4.4227   4.4870
     4.7680   4.7818  10.8618  11.1084  12.2235  12.2685  12.7113  13.1811
    13.3105  13.9276

          k = 0.1996-0.0000 0.0000 ( 18601 PWs)   bands (ev):

   -13.4748 -13.0365 -12.3129 -11.3036 -10.0443  -8.6159  -7.1384  -5.8303
    -5.6226  -5.2411  -5.1466  -5.0795  -4.6099  -3.7141  -2.5695  -1.9874
    -1.6150  -1.5780  -1.3808  -1.2378  -1.2057  -0.6056  -0.4693  -0.2643
     0.2022   0.2164   0.7664   0.9135   1.1432   1.7825   2.0443   2.0896
     2.8885   3.1809   3.4382   3.4716   3.8279   3.9905   4.0093   4.4575
     4.9941   6.1116   9.5356   9.8823  11.7062  11.8894  12.1256  12.4191
    13.0217  13.1965

          k = 0.1996-0.1003 0.0000 ( 18549 PWs)   bands (ev):

   -13.2920 -12.8555 -12.1356 -11.1333  -9.8898  -8.5065  -7.2687  -7.2316
    -6.8964  -6.6315  -4.4145  -4.3722  -3.7305  -3.6799  -3.4779  -2.2386
    -1.7251  -1.5800  -1.0788  -0.9199  -0.7291  -0.3685  -0.1348   0.1557
     0.3528   0.7865   0.8366   1.1390   1.5417   1.5893   2.2506   2.2574
     2.6838   2.7413   2.8269   2.8808   3.1632   3.7272   4.5162   4.7666
     5.4136   5.7190   9.7777  10.1314  12.2471  12.4894  12.5647  12.8511
    13.1417  13.3277

          k = 0.1996-0.2006 0.0000 ( 18536 PWs)   bands (ev):

   -12.7461 -12.3158 -11.6086 -10.6328  -9.4604  -9.0599  -8.6646  -8.3447
    -7.9785  -7.6548  -4.9553  -4.7699  -3.8386  -3.5909  -2.6335  -2.5294
    -2.1324  -1.3497  -1.0662  -0.5051  -0.1720  -0.1403   0.6180   0.9450
     1.1320   1.1912   1.2358   1.7282   1.8041   1.8706   1.9159   1.9673
     2.1064   2.2845   2.5582   2.7165   3.2600   3.4457   4.5014   4.5101
     5.3310   5.5616  10.4422  10.7744  13.0122  13.4896  13.6201  13.6855
    13.9476  13.9798

          k = 0.1996-0.3009 0.0000 ( 18533 PWs)   bands (ev):

   -11.8462 -11.4307 -10.7624 -10.6080 -10.1897  -9.8845  -9.4757  -8.9327
    -8.5276  -8.1668  -5.3753  -4.9530  -4.3493  -3.5866  -2.8029  -1.9579
    -1.4708  -1.4680  -0.5166  -0.4271  -0.2360  -0.1493   0.4101   0.4422
     0.7583   0.9736   1.2234   1.3670   1.6062   1.8605   2.3982   2.9230
     3.0788   3.1243   3.2670   3.3994   3.4443   3.4740   3.8868   4.3411
     4.7017   4.7528  11.4430  11.6768  12.8909  12.9391  13.9243  14.0702
    14.3393  14.5123

          k = 0.2993-0.0000 0.0000 ( 18564 PWs)   bands (ev):

   -12.5727 -12.1386 -11.4222 -10.4227  -9.1757  -7.7625  -6.4011  -6.3039
    -6.0117  -5.3679  -5.0179  -4.4591  -4.3444  -4.2665  -3.3059  -2.3121
    -1.9733  -1.9504  -1.3756  -1.2567  -0.9108  -0.6812  -0.6132  -0.5340
     0.0048   0.2459   0.4915   0.9206   0.9729   1.0521   1.6389   1.6644
     1.7915   1.8307   1.9335   2.1177   2.4050   2.6743   2.7456   3.0281
     4.4394   5.5100  10.4676  10.7091  11.4159  11.4845  12.1411  12.4986
    13.0786  13.3516

          k = 0.2993-0.1003 0.0000 ( 18545 PWs)   bands (ev):

   -12.3927 -11.9606 -11.2483 -10.2565  -9.0263  -7.6617  -6.9576  -6.6369
    -6.3508  -6.1234  -4.6747  -4.5791  -4.5146  -4.3993  -3.5791  -2.3414
    -2.2169  -1.7819  -1.5841  -1.1252  -1.0049  -0.7528  -0.0827   0.1693
     0.1931   0.4904   0.6015   0.6771   0.8020   0.8505   1.2115   1.3522
     1.5330   1.6986   1.8316   1.9539   2.7489   2.7657   3.4841   3.7945
     4.2481   5.2640  10.7296  10.9846  12.0397  12.0543  12.4484  12.6789
    13.1909  13.2815

          k = 0.2993-0.2006 0.0000 ( 18570 PWs)   bands (ev):

   -11.8562 -11.4310 -10.7326  -9.7692  -8.6149  -8.3481  -7.9580  -7.5645
    -7.2369  -6.9067  -4.4951  -4.4195  -4.2961  -4.0706  -3.8766  -3.2168
    -2.3477  -1.9727  -1.7706  -1.1206  -1.0290  -1.0033  -0.7699  -0.7513
     0.0261   0.2453   0.5001   0.5514   1.4662   1.6173   1.7633   1.7761
     1.9466   2.1040   2.1058   2.3896   2.4627   3.0208   3.6383   4.0665
     4.6997   4.7220  11.3788  11.6153  13.0676  13.1482  13.4909  13.6829
    13.7590  14.0629

          k = 0.2993-0.3009 0.0000 ( 18605 PWs)   bands (ev):

   -10.9765 -10.5673  -9.9097  -9.7824  -9.3723  -9.0492  -8.6700  -8.1208
    -7.7326  -7.3719  -4.7116  -4.2834  -3.8247  -3.6229  -3.2813  -3.0794
    -2.9536  -2.4705  -2.1610  -2.0276  -1.5992  -1.4233  -0.7959  -0.6967
    -0.5610  -0.3197   0.0482   0.6784   1.4812   1.7649   1.9931   2.3223
     2.5317   2.5570   2.9013   3.1187   3.3793   3.4555   3.6270   3.6273
     4.3333   4.5140  12.2379  12.3681  13.6583  13.6919  14.1018  14.1973
    14.6280  14.8085

          k = 0.3991-0.0000 0.0000 ( 18524 PWs)   bands (ev):

   -11.3313 -10.9035 -10.1978  -9.2127  -8.0387  -7.9833  -7.6325  -6.9621
    -6.5907  -6.0224  -5.1556  -4.8425  -3.8936  -3.4967  -3.2300  -3.1386
    -2.0899  -1.7522  -1.4326  -0.9356  -0.8110  -0.3462  -0.3073  -0.1267
    -0.1218  -0.0024   0.2541   0.3409   0.4649   0.8541   0.9762   1.0181
     1.1315   1.1497   1.2974   1.3127   1.4413   1.4832   2.2973   2.5764
     3.5978   4.6480  11.2316  11.3108  11.6467  12.0298  12.4218  12.6124
    12.8074  12.9529

          k = 0.3991-0.1003 0.0000 ( 18559 PWs)   bands (ev):

   -11.1573 -10.7319 -10.0309  -9.0544  -7.9685  -7.8445  -7.5667  -6.9146
    -6.4945  -6.0185  -5.0926  -4.7831  -4.4508  -4.2297  -4.2083  -3.4948
    -2.2084  -1.5609  -1.4767  -1.4203  -1.3005  -1.2414  -0.7605  -0.6966
    -0.2963   0.2021   0.6023   0.7379   0.7843   0.8409   0.9420   1.0629
     1.1504   1.3523   1.6993   1.9078   1.9198   2.3429   2.3924   2.7049
     3.5138   4.5670  11.8385  11.8442  11.9504  12.0080  12.4831  12.4977
    13.0584  13.4512

          k = 0.3991-0.2006 0.0000 ( 18596 PWs)   bands (ev):

   -10.6428 -10.2255  -9.5404  -8.5954  -8.0201  -7.6610  -7.4247  -7.0323
    -6.2894  -6.2421  -5.6150  -5.2911  -4.8567  -4.7571  -4.6102  -3.6080
    -3.0756  -2.8460  -2.5682  -2.4485  -2.1687  -1.6830  -1.4672  -0.6748
    -0.2906  -0.1360   0.4733   0.5551   0.9066   1.2348   1.2847   1.6521
     1.8280   2.0138   2.0727   2.3288   2.4469   3.0432   3.1232   3.2788
     3.6543   4.3256  12.3914  12.5161  12.9573  12.9961  13.3847  13.4373
    13.6407  13.8926

          k = 0.3991-0.3009 0.0000 ( 18635 PWs)   bands (ev):

    -9.8198  -9.4200  -8.7965  -8.7790  -8.3962  -7.9603  -7.6898  -7.0817
    -6.7215  -6.3248  -5.5033  -5.1413  -4.6771  -4.5148  -4.3415  -4.1942
    -4.1338  -3.9746  -3.5854  -3.3526  -2.0598  -1.8223  -1.4272  -1.3508
    -0.8307  -0.2967   0.3399   0.6068   0.6182   1.1249   1.4217   1.6392
     2.0896   2.3887   2.6838   2.8638   3.1250   3.4262   3.5821   3.5966
     3.9833   4.1331  12.9771  13.0024  14.0342  14.1117  14.3048  14.4647
    14.7572  14.8813

          k =-0.4989 0.0000 0.0000 ( 18558 PWs)   bands (ev):

    -9.7876  -9.7876  -9.3688  -9.3688  -8.6780  -8.6780  -7.7125  -7.7125
    -6.5059  -6.5059  -5.1376  -5.1376  -3.7247  -3.7247  -2.4765  -2.4765
    -1.8160  -1.8160  -1.7092  -1.7092  -0.5418  -0.5418  -0.2923  -0.2923
     0.0629   0.0629   0.4267   0.4267   0.5730   0.5730   0.6288   0.6288
     0.7955   0.7955   0.8071   0.8071   1.3166   1.3166   2.5545   2.5545
     3.6224   3.6224  11.7252  11.7252  11.8942  11.8942  12.3393  12.3393
    12.9547  12.9547

          k =-0.4989-0.1003 0.0000 ( 18580 PWs)   bands (ev):

    -9.6312  -9.6312  -9.2156  -9.2156  -8.5306  -8.5306  -7.5753  -7.5753
    -6.3876  -6.3876  -5.0617  -5.0617  -3.7771  -3.7771  -3.1480  -3.1480
    -2.9405  -2.9405  -2.9265  -2.9265  -0.4609  -0.4609  -0.3974  -0.3974
     0.0972   0.0972   0.4610   0.4610   0.7383   0.7383   0.9074   0.9074
     1.1892   1.1892   1.3994   1.3994   1.6859   1.6859   2.6420   2.6420
     3.6670   3.6670  12.0575  12.0575  12.2145  12.2145  12.6171  12.6171
    13.0671  13.0671

          k =-0.4989-0.2006 0.0000 ( 18622 PWs)   bands (ev):

    -9.1929  -9.1929  -8.7877  -8.7877  -8.1221  -8.1221  -7.2002  -7.2002
    -6.0769  -6.0769  -4.9351  -4.9351  -4.7563  -4.7563  -4.4843  -4.4843
    -4.0246  -4.0246  -3.9992  -3.9992  -1.1796  -1.1796  -0.8043  -0.8043
    -0.4181  -0.4181   0.1535   0.1535   0.9368   0.9368   1.2218   1.2218
     1.9737   1.9737   2.3840   2.3840   2.5950   2.5950   2.9689   2.9689
     3.7680   3.7680  12.8820  12.8820  13.0248  13.0248  13.3465  13.3465
    13.7449  13.7449

          k =-0.4989-0.3009 0.0000 ( 18590 PWs)   bands (ev):

    -8.6560  -8.6560  -8.2686  -8.2686  -7.6358  -7.6358  -6.7711  -6.7711
    -5.9576  -5.9576  -5.8079  -5.8079  -5.5085  -5.5085  -5.0955  -5.0955
    -4.6643  -4.6643  -4.4906  -4.4906  -1.3789  -1.3789  -1.3550  -1.3550
    -0.4033  -0.4033  -0.2654  -0.2654   0.8706   0.8706   1.2199   1.2199
     2.1275   2.1275   2.6970   2.6970   3.1583   3.1583   3.7305   3.7305
     3.8632   3.8632  13.5865  13.5865  13.6079  13.6079  14.7175  14.7175
    14.8804  14.8804

     the Fermi energy is     7.7934 ev

!    total energy              =    -373.41724994 Ry
     estimated scf accuracy    <          1.0E-12 Ry
     smearing contrib. (-TS)   =       0.00000000 Ry
     internal energy E=F+TS    =    -373.41724994 Ry

     The total energy is F=E-TS. E is the sum of the following terms:
     one-electron contribution =   -2443.68934683 Ry
     hartree contribution      =    1266.67389114 Ry
     xc contribution           =     -96.47183993 Ry
     ewald contribution        =    1023.32639267 Ry
     one-center paw contrib.   =    -123.25634699 Ry

     convergence has been achieved in   9 iterations

     negative rho (up, down):  3.426E-06 0.000E+00

     Forces acting on atoms (cartesian axes, Ry/au):

     atom    1 type  1   force =     0.00000000    0.00016382   -0.00040819
     atom    2 type  1   force =     0.00000000   -0.00016382   -0.00040819
     atom    3 type  1   force =     0.00000000    0.00002074   -0.00035661
     atom    4 type  1   force =    -0.00000000   -0.00002074   -0.00035661
     atom    5 type  1   force =    -0.00000000   -0.00005835   -0.00000665
     atom    6 type  1   force =    -0.00000000    0.00005835   -0.00000665
     atom    7 type  1   force =    -0.00000000    0.00000330    0.00022778
     atom    8 type  1   force =     0.00000000   -0.00000330    0.00022778
     atom    9 type  1   force =    -0.00000000    0.00004216    0.00012743
     atom   10 type  1   force =     0.00000000   -0.00004216    0.00012743
     atom   11 type  1   force =     0.00000000   -0.00004216   -0.00012743
     atom   12 type  1   force =    -0.00000000    0.00004216   -0.00012743
     atom   13 type  1   force =    -0.00000000    0.00000330   -0.00022778
     atom   14 type  1   force =     0.00000000   -0.00000330   -0.00022778
     atom   15 type  1   force =    -0.00000000   -0.00005835    0.00000665
     atom   16 type  1   force =     0.00000000    0.00005835    0.00000665
     atom   17 type  1   force =     0.00000000   -0.00002074    0.00035661
     atom   18 type  1   force =     0.00000000    0.00002074    0.00035661
     atom   19 type  1   force =    -0.00000000   -0.00016382    0.00040819
     atom   20 type  1   force =     0.00000000    0.00016382    0.00040819
     atom   21 type  2   force =     0.00000000   -0.00017268   -0.00017693
     atom   22 type  2   force =    -0.00000000    0.00017268   -0.00017693
     atom   23 type  2   force =    -0.00000000    0.00017268    0.00017693
     atom   24 type  2   force =     0.00000000   -0.00017268    0.00017693

     Total force =     0.001350     Total SCF correction =     0.000001


     Computing stress (Cartesian axis) and pressure


     negative rho (up, down):  3.426E-06 0.000E+00
          total   stress  (Ry/bohr**3)                   (kbar)     P=       -1.32
   0.00000046   0.00000000   0.00000000            0.07        0.00        0.00
   0.00000000   0.00000012   0.00000000            0.00        0.02        0.00
   0.00000000   0.00000000  -0.00002747            0.00        0.00       -4.04

     Energy error            =      2.3E-06 Ry
     Gradient error          =      4.1E-04 Ry/Bohr
     Cell gradient error     =      6.8E-02 kbar

     number of scf cycles    =  12
     number of bfgs steps    =  11

     enthalpy           old  =    -373.4172476094 Ry
     enthalpy           new  =    -373.4172499425 Ry

     CASE: enthalpy          _new < enthalpy          _old

     new trust radius        =       0.0012177592 bohr
     Message from routine volume:
     axis vectors are left-handed
     new conv_thr            =            1.0E-11 Ry

     new unit-cell volume =   1300.04203 a.u.^3 (   192.64635 Ang^3 )
     density =      2.10536 g/cm^3

CELL_PARAMETERS (angstrom)
   2.531883950   0.000000000   0.000000000
   0.000000000  -3.597850282   0.000000000
   0.000000000   0.000000000  21.148224330

ATOMIC_POSITIONS (crystal)
C                0.5000000000        0.4942533372        0.7674169134
C                0.0000000000        0.2557466628        0.7674169134
C               -0.0000000000       -0.0009390297        0.7091595555
C                0.5000000000        0.7509390297        0.7091595555
C                0.0000000000        0.2498214581        0.6492830718
C                0.5000000000        0.5001785419        0.6492830718
C                0.5000000000        0.7500060070        0.5895597494
C                0.0000000000       -0.0000060070        0.5895597494
C               -0.0000000000        0.2500395762        0.5298479943
C                0.5000000000        0.4999604238        0.5298479943
C               -0.0000000000       -0.0000395762        0.4701520057
C                0.5000000000        0.7500395762        0.4701520057
C                0.0000000000        0.2500060070        0.4104402506
C                0.5000000000        0.4999939930        0.4104402506
C                0.5000000000        0.7498214581        0.3507169282
C               -0.0000000000        0.0001785419        0.3507169282
C               -0.0000000000        0.2509390297        0.2908404445
C                0.5000000000        0.4990609703        0.2908404445
C                0.5000000000        0.7557466628        0.2325830866
C               -0.0000000000       -0.0057466628        0.2325830866
H                0.5000000000        0.6598180138        0.8111220966
H               -0.0000000000        0.0901819862        0.8111220966
H                0.5000000000        0.5901819862        0.1888779034
H                0.0000000000        0.1598180138        0.1888779034



     Writing config-only to output data dir /tmp/qe/slab.save/ :
     XML data file
     NEW-OLD atomic charge density approx. for the potential

     Check: negative core charge=   -0.000001

     negative rho (up, down):  3.502E-06 0.000E+00

     total cpu time spent up to now is      659.5 secs

     Self-consistent Calculation

     iteration #  1     ecut=    90.00 Ry     beta= 0.30
     Davidson diagonalization with overlap
     ethr =  1.00E-06,  avg # of iterations =  2.0

     Threshold (ethr) on eigenvalues was too large:
     Diagonalizing with lowered threshold

     Davidson diagonalization with overlap
     ethr =  1.31E-09,  avg # of iterations =  4.2

     negative rho (up, down):  3.494E-06 0.000E+00

     total cpu time spent up to now is      668.5 secs

     total energy              =    -373.41725234 Ry
     estimated scf accuracy    <       0.00000126 Ry

     iteration #  2     ecut=    90.00 Ry     beta= 0.30
     Davidson diagonalization with overlap
     ethr =  1.50E-09,  avg # of iterations =  2.0

     negative rho (up, down):  3.479E-06 0.000E+00

     total cpu time spent up to now is      672.1 secs

     total energy              =    -373.41725238 Ry
     estimated scf accuracy    <       0.00000033 Ry

     iteration #  3     ecut=    90.00 Ry     beta= 0.30
     Davidson diagonalization with overlap
     ethr =  3.93E-10,  avg # of iterations =  1.8

     negative rho (up, down):  3.467E-06 0.000E+00

     total cpu time spent up to now is      675.5 secs

     total energy              =    -373.41725239 Ry
     estimated scf accuracy    <       0.00000010 Ry

     iteration #  4     ecut=    90.00 Ry     beta= 0.30
     Davidson diagonalization with overlap
     ethr =  1.14E-10,  avg # of iterations =  1.8

     negative rho (up, down):  3.462E-06 0.000E+00

     total cpu time spent up to now is      679.0 secs

     total energy              =    -373.41725240 Ry
     estimated scf accuracy    <       0.00000001 Ry

     iteration #  5     ecut=    90.00 Ry     beta= 0.30
     Davidson diagonalization with overlap
     ethr =  1.46E-11,  avg # of iterations =  2.1

     negative rho (up, down):  3.464E-06 0.000E+00

     total cpu time spent up to now is      683.1 secs

     total energy              =    -373.41725240 Ry
     estimated scf accuracy    <          1.4E-09 Ry

     iteration #  6     ecut=    90.00 Ry     beta= 0.30
     Davidson diagonalization with overlap
     ethr =  1.72E-12,  avg # of iterations =  2.4

     negative rho (up, down):  3.465E-06 0.000E+00

     total cpu time spent up to now is      687.0 secs

     total energy              =    -373.41725240 Ry
     estimated scf accuracy    <          3.4E-10 Ry

     iteration #  7     ecut=    90.00 Ry     beta= 0.30
     Davidson diagonalization with overlap
     ethr =  4.00E-13,  avg # of iterations =  2.4

     negative rho (up, down):  3.465E-06 0.000E+00

     total cpu time spent up to now is      691.1 secs

     total energy              =    -373.41725240 Ry
     estimated scf accuracy    <          2.4E-11 Ry

     iteration #  8     ecut=    90.00 Ry     beta= 0.30
     Davidson diagonalization with overlap
     ethr =  1.00E-13,  avg # of iterations =  2.0

     negative rho (up, down):  3.467E-06 0.000E+00

     total cpu time spent up to now is      694.9 secs

     End of self-consistent calculation

          k = 0.0000-0.0000 0.0000 ( 18619 PWs)   bands (ev):

   -14.2048 -13.7628 -13.0345 -12.0170 -10.7477  -9.3068  -7.8133  -6.4850
    -5.7917  -5.7345  -5.6739  -5.2834  -4.6389  -3.7219  -2.6139  -2.5496
    -2.2445  -1.9640  -1.1831  -0.9461  -0.8827   0.2996   0.3136   0.4811
     0.8696   1.2124   1.7668   1.9341   2.0395   2.5262   3.4326   3.6368
     3.6544   4.3835   5.1420   5.2649   5.3024   5.9993   6.3545   6.5272
     6.5420   6.8625   8.7761   9.2047  11.4670  11.8478  12.1926  12.5645
    12.6142  12.7039

          k = 0.0000-0.1003 0.0000 ( 18587 PWs)   bands (ev):

   -14.0203 -13.5800 -12.8549 -11.8440 -10.5897  -9.1919  -7.8830  -7.8207
    -7.4574  -7.2207  -4.7979  -4.7605  -3.8429  -3.8338  -3.4731  -2.5335
    -1.5942  -1.5517  -0.8214  -0.5532  -0.5334   0.4827   0.5566   0.8183
     1.0475   1.3813   1.8919   1.9186   2.4563   2.6479   3.3637   3.5029
     4.0387   4.3689   4.8420   5.1223   5.3653   5.6893   6.0391   6.0505
     6.2247   6.2963   8.9901   9.4196  11.6487  11.6990  12.3302  12.8025
    12.8504  13.1949

          k = 0.0000-0.2006 0.0000 ( 18570 PWs)   bands (ev):

   -13.4689 -13.0342 -12.3209 -11.3350 -10.1488  -9.7074  -9.3044  -9.0046
    -8.6159  -8.2897  -5.5444  -5.3282  -4.3792  -4.0960  -2.7700  -2.5351
    -1.4260  -0.8882  -0.0278   0.2226   0.8738   1.1113   1.2033   1.5720
     1.5749   1.8798   2.3620   2.4904   2.7865   2.9953   3.5483   3.6889
     4.0918   4.3013   4.5901   4.7142   4.9025   4.9492   4.9727   5.0210
     5.4720   5.5161   9.6284   9.9944  11.7047  12.0246  12.4068  12.8594
    13.0078  13.2939

          k = 0.0000-0.3009 0.0000 ( 18524 PWs)   bands (ev):

   -12.5575 -12.1368 -11.4610 -11.2979 -10.8726 -10.5702 -10.1482  -9.6005
    -9.1848  -8.8169  -6.0072  -5.5786  -4.9377  -4.1706  -3.3008  -2.4544
    -1.4874  -0.5891   0.2391   1.2154   1.8751   1.8826   2.4308   2.5430
     2.6788   2.8566   3.0025   3.0519   3.3810   3.4795   3.5971   3.7133
     3.8051   3.8725   3.9549   3.9622   4.2018   4.2214   4.2563   4.3018
     4.5041   4.5158  10.6376  10.8302  11.7425  11.9372  12.1016  12.6152
    12.8400  13.3185

          k = 0.0998-0.0000 0.0000 ( 18585 PWs)   bands (ev):

   -14.0220 -13.5808 -12.8538 -11.8382 -10.5713  -9.1335  -7.6440  -6.3209
    -5.6302  -5.6155  -5.5706  -5.2279  -4.5883  -3.6785  -2.5158  -2.4545
    -2.0830  -1.8159  -1.1616  -0.8144  -0.7322   0.0140   0.3192   0.3700
     0.4551   0.5627   0.9451   1.7275   1.9203   2.0566   2.6566   3.5450
     3.6105   3.6196   4.4942   4.8682   5.1275   5.2808   5.6658   5.8186
     5.9417   6.4409   8.9578   9.3710  11.5774  12.3341  12.4960  12.7270
    12.9252  13.0165

          k = 0.0998-0.1003 0.0000 ( 18588 PWs)   bands (ev):

   -13.8379 -13.3984 -12.6748 -11.6659 -10.4142  -9.0199  -7.7182  -7.6727
    -7.3090  -7.0682  -4.6802  -4.6372  -3.7583  -3.7262  -3.4420  -2.4384
    -1.5355  -1.4746  -0.7681  -0.5493  -0.4303   0.2702   0.5307   0.5404
     0.7002   0.8679   1.1764   1.8410   1.9304   2.4459   2.7700   3.2833
     3.6132   3.8986   4.3417   4.5409   4.6762   4.8932   5.0707   5.5390
     6.0537   6.3656   9.1879   9.6005  11.8482  12.4909  12.9807  13.0082
    13.2999  13.5175

          k = 0.0998-0.2006 0.0000 ( 18563 PWs)   bands (ev):

   -13.2878 -12.8540 -12.1424 -11.1589  -9.9760  -9.5423  -9.1412  -8.8383
    -8.4544  -8.1293  -5.3890  -5.1806  -4.2303  -3.9604  -2.6556  -2.4176
    -1.5067  -0.8369  -0.1373  -0.0151   0.5032   1.0603   1.0614   1.2061
     1.2683   1.6038   1.9681   2.2211   2.5533   2.7226   3.1323   3.3080
     3.5180   3.5928   3.6235   3.7766   3.8207   4.1167   4.6122   5.1458
     5.7658   5.8615   9.8393  10.2091  12.4122  12.4490  13.0175  13.4549
    13.6201  14.1655

          k = 0.0998-0.3009 0.0000 ( 18556 PWs)   bands (ev):

   -12.3790 -11.9595 -11.2857 -11.1241 -10.7004 -10.3979  -9.9788  -9.4326
    -9.0193  -8.6536  -5.8443  -5.4178  -4.7841  -4.0188  -3.1625  -2.3169
    -1.3839  -0.4876   0.1319   1.0155   1.0445   1.4357   1.6702   1.9282
     2.2550   2.3132   2.3396   2.6787   2.7500   2.8871   3.1098   3.1495
     3.2334   3.3875   3.4801   3.6737   3.7957   4.0336   4.4222   4.4861
     4.7675   4.7806  10.8621  11.1087  12.2241  12.2689  12.7121  13.1815
    13.3109  13.9280

          k = 0.1996-0.0000 0.0000 ( 18601 PWs)   bands (ev):

   -13.4759 -13.0371 -12.3142 -11.3044 -10.0447  -8.6161  -7.1384  -5.8302
    -5.6244  -5.2423  -5.1467  -5.0802  -4.6119  -3.7156  -2.5707  -1.9885
    -1.6155  -1.5789  -1.3816  -1.2387  -1.2061  -0.6068  -0.4703  -0.2641
     0.2016   0.2156   0.7656   0.9143   1.1429   1.7820   2.0437   2.0895
     2.8884   3.1801   3.4379   3.4714   3.8280   3.9904   4.0086   4.4564
     4.9943   6.1118   9.5358   9.8824  11.7054  11.8894  12.1254  12.4187
    13.0216  13.1988

          k = 0.1996-0.1003 0.0000 ( 18549 PWs)   bands (ev):

   -13.2931 -12.8561 -12.1369 -11.1341  -9.8902  -8.5067  -7.2700  -7.2318
    -6.8969  -6.6324  -4.4159  -4.3730  -3.7309  -3.6811  -3.4790  -2.2395
    -1.7262  -1.5804  -1.0796  -0.9208  -0.7297  -0.3692  -0.1351   0.1550
     0.3519   0.7862   0.8359   1.1396   1.5413   1.5886   2.2503   2.2568
     2.6834   2.7405   2.8265   2.8801   3.1629   3.7270   4.5162   4.7664
     5.4132   5.7193   9.7779  10.1316  12.2466  12.4892  12.5643  12.8511
    13.1413  13.3296

          k = 0.1996-0.2006 0.0000 ( 18536 PWs)   bands (ev):

   -12.7473 -12.3165 -11.6099 -10.6336  -9.4609  -9.0612  -8.6653  -8.3454
    -7.9792  -7.6551  -4.9562  -4.7710  -3.8389  -3.5916  -2.6338  -2.5305
    -2.1330  -1.3502  -1.0673  -0.5054  -0.1726  -0.1402   0.6174   0.9444
     1.1318   1.1903   1.2354   1.7281   1.8041   1.8697   1.9152   1.9665
     2.1061   2.2836   2.5573   2.7156   3.2600   3.4449   4.5018   4.5096
     5.3308   5.5613  10.4425  10.7746  13.0120  13.4912  13.6197  13.6852
    13.9473  13.9800

          k = 0.1996-0.3009 0.0000 ( 18533 PWs)   bands (ev):

   -11.8473 -11.4314 -10.7638 -10.6092 -10.1904  -9.8855  -9.4768  -8.9333
    -8.5281  -8.1670  -5.3763  -4.9538  -4.3498  -3.5870  -2.8032  -1.9584
    -1.4718  -1.4682  -0.5172  -0.4273  -0.2369  -0.1500   0.4093   0.4420
     0.7573   0.9736   1.2231   1.3667   1.6060   1.8608   2.3987   2.9221
     3.0778   3.1235   3.2672   3.3987   3.4436   3.4730   3.8861   4.3404
     4.7011   4.7524  11.4433  11.6771  12.8912  12.9394  13.9256  14.0703
    14.3398  14.5117

          k = 0.2993-0.0000 0.0000 ( 18564 PWs)   bands (ev):

   -12.5738 -12.1393 -11.4235 -10.4235  -9.1762  -7.7627  -6.4026  -6.3039
    -6.0126  -5.3696  -5.0178  -4.4603  -4.3444  -4.2672  -3.3068  -2.3133
    -1.9739  -1.9511  -1.3770  -1.2578  -0.9117  -0.6818  -0.6141  -0.5343
     0.0038   0.2453   0.4917   0.9206   0.9721   1.0516   1.6396   1.6640
     1.7915   1.8299   1.9332   2.1170   2.4037   2.6734   2.7442   3.0277
     4.4395   5.5103  10.4678  10.7091  11.4155  11.4842  12.1406  12.4988
    13.0785  13.3515

          k = 0.2993-0.1003 0.0000 ( 18545 PWs)   bands (ev):

   -12.3938 -11.9613 -11.2496 -10.2573  -9.0268  -7.6620  -6.9591  -6.6378
    -6.3508  -6.1246  -4.6754  -4.5803  -4.5153  -4.3996  -3.5801  -2.3421
    -2.2178  -1.7828  -1.5843  -1.1263  -1.0054  -0.7533  -0.0834   0.1685
     0.1927   0.4902   0.6007   0.6767   0.8015   0.8496   1.2111   1.3516
     1.5324   1.6977   1.8322   1.9530   2.7486   2.7651   3.4837   3.7938
     4.2482   5.2643  10.7298  10.9847  12.0394  12.0538  12.4480  12.6787
    13.1911  13.2813

          k = 0.2993-0.2006 0.0000 ( 18570 PWs)   bands (ev):

   -11.8573 -11.4317 -10.7339  -9.7700  -8.6155  -8.3494  -7.9588  -7.5654
    -7.2375  -6.9071  -4.4959  -4.4205  -4.2971  -4.0710  -3.8774  -3.2176
    -2.3484  -1.9735  -1.7711  -1.1208  -1.0299  -1.0038  -0.7703  -0.7519
     0.0260   0.2450   0.5000   0.5508   1.4656   1.6169   1.7622   1.7756
     1.9458   2.1034   2.1049   2.3898   2.4620   3.0206   3.6382   4.0663
     4.7000   4.7217  11.3791  11.6156  13.0670  13.1478  13.4905  13.6827
    13.7587  14.0636

          k = 0.2993-0.3009 0.0000 ( 18605 PWs)   bands (ev):

   -10.9777 -10.5680  -9.9111  -9.7837  -9.3730  -9.0502  -8.6711  -8.1214
    -7.7330  -7.3721  -4.7126  -4.2842  -3.8253  -3.6239  -3.2817  -3.0799
    -2.9545  -2.4715  -2.1615  -2.0284  -1.5998  -1.4239  -0.7965  -0.6972
    -0.5614  -0.3197   0.0482   0.6785   1.4813   1.7639   1.9922   2.3226
     2.5312   2.5565   2.9014   3.1180   3.3785   3.4551   3.6269   3.6274
     4.3331   4.5136  12.2382  12.3683  13.6584  13.6922  14.1014  14.1970
    14.6276  14.8086

          k = 0.3991-0.0000 0.0000 ( 18524 PWs)   bands (ev):

   -11.3324 -10.9042 -10.1991  -9.2135  -8.0399  -7.9838  -7.6332  -6.9636
    -6.5909  -6.0234  -5.1556  -4.8432  -3.8935  -3.4970  -3.2300  -3.1392
    -2.0900  -1.7536  -1.4335  -0.9372  -0.8109  -0.3473  -0.3085  -0.1267
    -0.1229  -0.0029   0.2538   0.3400   0.4639   0.8533   0.9757   1.0162
     1.1307   1.1488   1.2961   1.3113   1.4404   1.4835   2.2969   2.5770
     3.5979   4.6484  11.2312  11.3104  11.6467  12.0298  12.4217  12.6126
    12.8070  12.9525

          k = 0.3991-0.1003 0.0000 ( 18559 PWs)   bands (ev):

   -11.1584 -10.7326 -10.0322  -9.0553  -7.9698  -7.8450  -7.5675  -6.9160
    -6.4947  -6.0194  -5.0927  -4.7838  -4.4516  -4.2300  -4.2086  -3.4952
    -2.2085  -1.5618  -1.4777  -1.4210  -1.3011  -1.2417  -0.7607  -0.6975
    -0.2972   0.2013   0.6012   0.7369   0.7837   0.8401   0.9410   1.0619
     1.1495   1.3515   1.6994   1.9075   1.9189   2.3421   2.3919   2.7055
     3.5140   4.5674  11.8385  11.8439  11.9500  12.0077  12.4831  12.4975
    13.0584  13.4512

          k = 0.3991-0.2006 0.0000 ( 18596 PWs)   bands (ev):

   -10.6440 -10.2262  -9.5417  -8.5962  -8.0214  -7.6619  -7.4252  -7.0338
    -6.2897  -6.2429  -5.6159  -5.2916  -4.8575  -4.7573  -4.6109  -3.6085
    -3.0765  -2.8467  -2.5683  -2.4493  -2.1696  -1.6836  -1.4677  -0.6751
    -0.2916  -0.1363   0.4729   0.5541   0.9059   1.2342   1.2846   1.6513
     1.8278   2.0131   2.0721   2.3285   2.4463   3.0436   3.1229   3.2790
     3.6538   4.3260  12.3915  12.5162  12.9569  12.9957  13.3845  13.4369
    13.6404  13.8923

          k = 0.3991-0.3009 0.0000 ( 18635 PWs)   bands (ev):

    -9.8210  -9.4207  -8.7978  -8.7804  -8.3970  -7.9614  -7.6909  -7.0824
    -6.7220  -6.3251  -5.5042  -5.1418  -4.6782  -4.5158  -4.3422  -4.1947
    -4.1343  -3.9753  -3.5862  -3.3530  -2.0604  -1.8227  -1.4278  -1.3512
    -0.8313  -0.2972   0.3391   0.6061   0.6182   1.1247   1.4214   1.6387
     2.0898   2.3884   2.6834   2.8639   3.1249   3.4259   3.5817   3.5969
     3.9837   4.1327  12.9772  13.0024  14.0340  14.1118  14.3047  14.4648
    14.7571  14.8812

          k =-0.4989 0.0000 0.0000 ( 18558 PWs)   bands (ev):

    -9.7888  -9.7888  -9.3695  -9.3695  -8.6793  -8.6793  -7.7134  -7.7134
    -6.5064  -6.5064  -5.1378  -5.1378  -3.7247  -3.7247  -2.4764  -2.4764
    -1.8160  -1.8160  -1.7097  -1.7097  -0.5433  -0.5433  -0.2932  -0.2932
     0.0613   0.0613   0.4257   0.4257   0.5720   0.5720   0.6277   0.6277
     0.7945   0.7945   0.8061   0.8061   1.3163   1.3163   2.5547   2.5547
     3.6229   3.6229  11.7248  11.7248  11.8938  11.8938  12.3392  12.3392
    12.9546  12.9546

          k =-0.4989-0.1003 0.0000 ( 18580 PWs)   bands (ev):

    -9.6324  -9.6324  -9.2163  -9.2163  -8.5320  -8.5320  -7.5762  -7.5762
    -6.3881  -6.3881  -5.0620  -5.0620  -3.7772  -3.7772  -3.1488  -3.1488
    -2.9409  -2.9409  -2.9268  -2.9268  -0.4620  -0.4620  -0.3983  -0.3983
     0.0962   0.0962   0.4608   0.4608   0.7375   0.7375   0.9063   0.9063
     1.1882   1.1882   1.3984   1.3984   1.6855   1.6855   2.6421   2.6421
     3.6675   3.6675  12.0571  12.0571  12.2141  12.2141  12.6169  12.6169
    13.0670  13.0670

          k =-0.4989-0.2006 0.0000 ( 18622 PWs)   bands (ev):

    -9.1941  -9.1941  -8.7884  -8.7884  -8.1235  -8.1235  -7.2011  -7.2011
    -6.0775  -6.0775  -4.9357  -4.9357  -4.7570  -4.7570  -4.4848  -4.4848
    -4.0254  -4.0254  -3.9992  -3.9992  -1.1806  -1.1806  -0.8052  -0.8052
    -0.4186  -0.4186   0.1529   0.1529   0.9366   0.9366   1.2212   1.2212
     1.9732   1.9732   2.3839   2.3839   2.5946   2.5946   2.9686   2.9686
     3.7685   3.7685  12.8815  12.8815  13.0244  13.0244  13.3464  13.3464
    13.7446  13.7446

          k =-0.4989-0.3009 0.0000 ( 18590 PWs)   bands (ev):

    -8.6573  -8.6573  -8.2694  -8.2694  -7.6373  -7.6373  -6.7721  -6.7721
    -5.9585  -5.9585  -5.8086  -5.8086  -5.5089  -5.5089  -5.0964  -5.0964
    -4.6645  -4.6645  -4.4908  -4.4908  -1.3797  -1.3797  -1.3558  -1.3558
    -0.4038  -0.4038  -0.2659  -0.2659   0.8702   0.8702   1.2196   1.2196
     2.1274   2.1274   2.6972   2.6972   3.1581   3.1581   3.7303   3.7303
     3.8636   3.8636  13.5865  13.5865  13.6079  13.6079  14.7168  14.7168
    14.8806  14.8806

     the Fermi energy is     7.7930 ev

!    total energy              =    -373.41725240 Ry
     estimated scf accuracy    <          7.6E-12 Ry
     smearing contrib. (-TS)   =       0.00000000 Ry
     internal energy E=F+TS    =    -373.41725240 Ry

     The total energy is F=E-TS. E is the sum of the following terms:
     one-electron contribution =   -2444.42018251 Ry
     hartree contribution      =    1267.03841134 Ry
     xc contribution           =     -96.47322682 Ry
     ewald contribution        =    1023.69412403 Ry
     one-center paw contrib.   =    -123.25637845 Ry

     convergence has been achieved in   8 iterations

     negative rho (up, down):  3.467E-06 0.000E+00

     Forces acting on atoms (cartesian axes, Ry/au):

     atom    1 type  1   force =     0.00000000    0.00012473   -0.00036145
     atom    2 type  1   force =     0.00000000   -0.00012473   -0.00036145
     atom    3 type  1   force =     0.00000000    0.00002020   -0.00044225
     atom    4 type  1   force =    -0.00000000   -0.00002020   -0.00044225
     atom    5 type  1   force =    -0.00000000   -0.00009115   -0.00003539
     atom    6 type  1   force =     0.00000000    0.00009115   -0.00003539
     atom    7 type  1   force =     0.00000000   -0.00002332    0.00033318
     atom    8 type  1   force =    -0.00000000    0.00002332    0.00033318
     atom    9 type  1   force =     0.00000000    0.00004560    0.00020193
     atom   10 type  1   force =    -0.00000000   -0.00004560    0.00020193
     atom   11 type  1   force =    -0.00000000   -0.00004560   -0.00020193
     atom   12 type  1   force =     0.00000000    0.00004560   -0.00020193
     atom   13 type  1   force =    -0.00000000   -0.00002332   -0.00033318
     atom   14 type  1   force =     0.00000000    0.00002332   -0.00033318
     atom   15 type  1   force =    -0.00000000   -0.00009115    0.00003539
     atom   16 type  1   force =     0.00000000    0.00009115    0.00003539
     atom   17 type  1   force =     0.00000000   -0.00002020    0.00044225
     atom   18 type  1   force =     0.00000000    0.00002020    0.00044225
     atom   19 type  1   force =    -0.00000000   -0.00012473    0.00036145
     atom   20 type  1   force =     0.00000000    0.00012473    0.00036145
     atom   21 type  2   force =     0.00000000   -0.00019871   -0.00007227
     atom   22 type  2   force =     0.00000000    0.00019871   -0.00007227
     atom   23 type  2   force =     0.00000000    0.00019871    0.00007227
     atom   24 type  2   force =     0.00000000   -0.00019871    0.00007227

     Total force =     0.001484     Total SCF correction =     0.000006


     Computing stress (Cartesian axis) and pressure


     negative rho (up, down):  3.467E-06 0.000E+00
          total   stress  (Ry/bohr**3)                   (kbar)     P=       -1.11
   0.00000060   0.00000000   0.00000000            0.09        0.00        0.00
   0.00000000   0.00000001   0.00000000            0.00        0.00        0.00
   0.00000000   0.00000000  -0.00002323            0.00        0.00       -3.42

     Energy error            =      2.5E-06 Ry
     Gradient error          =      4.4E-04 Ry/Bohr
     Cell gradient error     =      8.8E-02 kbar

     number of scf cycles    =  13
     number of bfgs steps    =  12

     enthalpy           old  =    -373.4172499425 Ry
     enthalpy           new  =    -373.4172523963 Ry

     CASE: enthalpy          _new < enthalpy          _old

     new trust radius        =       0.0018266389 bohr
     Message from routine volume:
     axis vectors are left-handed
     new conv_thr            =            1.0E-11 Ry

     new unit-cell volume =   1300.07292 a.u.^3 (   192.65093 Ang^3 )
     density =      2.10531 g/cm^3

CELL_PARAMETERS (angstrom)
   2.531888294   0.000000000   0.000000000
   0.000000000  -3.597929589   0.000000000
   0.000000000   0.000000000  21.148224330

ATOMIC_POSITIONS (crystal)
C                0.5000000000        0.4942416542        0.7673771550
C                0.0000000000        0.2557583458        0.7673771550
C               -0.0000000000       -0.0009440516        0.7091302170
C                0.5000000000        0.7509440516        0.7091302170
C                0.0000000000        0.2498208105        0.6492618819
C                0.5000000000        0.5001791895        0.6492618819
C                0.5000000000        0.7500054940        0.5895445214
C                0.0000000000       -0.0000054940        0.5895445214
C               -0.0000000000        0.2500442611        0.5298419747
C                0.5000000000        0.4999557389        0.5298419747
C               -0.0000000000       -0.0000442611        0.4701580253
C                0.5000000000        0.7500442611        0.4701580253
C               -0.0000000000        0.2500054940        0.4104554786
C                0.5000000000        0.4999945060        0.4104554786
C                0.5000000000        0.7498208105        0.3507381181
C               -0.0000000000        0.0001791895        0.3507381181
C               -0.0000000000        0.2509440516        0.2908697830
C                0.5000000000        0.4990559484        0.2908697830
C                0.5000000000        0.7557583458        0.2326228450
C                0.0000000000       -0.0057583458        0.2326228450
H                0.5000000000        0.6598302432        0.8110764373
H               -0.0000000000        0.0901697568        0.8110764373
H                0.5000000000        0.5901697568        0.1889235627
H                0.0000000000        0.1598302432        0.1889235627



     Writing config-only to output data dir /tmp/qe/slab.save/ :
     XML data file
     NEW-OLD atomic charge density approx. for the potential

     Check: negative core charge=   -0.000001

     negative rho (up, down):  3.582E-06 0.000E+00

     total cpu time spent up to now is      708.5 secs

     Self-consistent Calculation

     iteration #  1     ecut=    90.00 Ry     beta= 0.30
     Davidson diagonalization with overlap
     ethr =  1.00E-06,  avg # of iterations =  2.0

     Threshold (ethr) on eigenvalues was too large:
     Diagonalizing with lowered threshold

     Davidson diagonalization with overlap
     ethr =  2.77E-09,  avg # of iterations =  4.0

     negative rho (up, down):  3.571E-06 0.000E+00

     total cpu time spent up to now is      717.5 secs

     total energy              =    -373.41725576 Ry
     estimated scf accuracy    <       0.00000290 Ry

     iteration #  2     ecut=    90.00 Ry     beta= 0.30
     Davidson diagonalization with overlap
     ethr =  3.46E-09,  avg # of iterations =  2.0

     negative rho (up, down):  3.549E-06 0.000E+00

     total cpu time spent up to now is      721.1 secs

     total energy              =    -373.41725586 Ry
     estimated scf accuracy    <       0.00000079 Ry

     iteration #  3     ecut=    90.00 Ry     beta= 0.30
     Davidson diagonalization with overlap
     ethr =  9.37E-10,  avg # of iterations =  1.3

     negative rho (up, down):  3.528E-06 0.000E+00

     total cpu time spent up to now is      724.4 secs

     total energy              =    -373.41725586 Ry
     estimated scf accuracy    <       0.00000025 Ry

     iteration #  4     ecut=    90.00 Ry     beta= 0.30
     Davidson diagonalization with overlap
     ethr =  3.02E-10,  avg # of iterations =  1.7

     negative rho (up, down):  3.524E-06 0.000E+00

     total cpu time spent up to now is      727.8 secs

     total energy              =    -373.41725588 Ry
     estimated scf accuracy    <       0.00000002 Ry

     iteration #  5     ecut=    90.00 Ry     beta= 0.30
     Davidson diagonalization with overlap
     ethr =  2.63E-11,  avg # of iterations =  2.2

     negative rho (up, down):  3.526E-06 0.000E+00

     total cpu time spent up to now is      732.0 secs

     total energy              =    -373.41725588 Ry
     estimated scf accuracy    <          4.0E-09 Ry

     iteration #  6     ecut=    90.00 Ry     beta= 0.30
     Davidson diagonalization with overlap
     ethr =  4.80E-12,  avg # of iterations =  2.2

     negative rho (up, down):  3.527E-06 0.000E+00

     total cpu time spent up to now is      735.9 secs

     total energy              =    -373.41725588 Ry
     estimated scf accuracy    <          6.4E-10 Ry

     iteration #  7     ecut=    90.00 Ry     beta= 0.30
     Davidson diagonalization with overlap
     ethr =  7.60E-13,  avg # of iterations =  2.4

     negative rho (up, down):  3.528E-06 0.000E+00

     total cpu time spent up to now is      739.9 secs

     total energy              =    -373.41725588 Ry
     estimated scf accuracy    <          5.9E-11 Ry

     iteration #  8     ecut=    90.00 Ry     beta= 0.30
     Davidson diagonalization with overlap
     ethr =  1.00E-13,  avg # of iterations =  2.8

     negative rho (up, down):  3.529E-06 0.000E+00

     total cpu time spent up to now is      744.4 secs

     total energy              =    -373.41725588 Ry
     estimated scf accuracy    <          1.6E-11 Ry

     iteration #  9     ecut=    90.00 Ry     beta= 0.30
     Davidson diagonalization with overlap
     ethr =  1.00E-13,  avg # of iterations =  1.0

     negative rho (up, down):  3.530E-06 0.000E+00

     total cpu time spent up to now is      747.6 secs

     End of self-consistent calculation

          k = 0.0000-0.0000 0.0000 ( 18619 PWs)   bands (ev):

   -14.2066 -13.7643 -13.0361 -12.0181 -10.7484  -9.3071  -7.8131  -6.4847
    -5.7920  -5.7356  -5.6766  -5.2858  -4.6415  -3.7240  -2.6155  -2.5514
    -2.2451  -1.9655  -1.1845  -0.9466  -0.8830   0.3008   0.3126   0.4801
     0.8681   1.2111   1.7654   1.9336   2.0387   2.5252   3.4319   3.6361
     3.6543   4.3832   5.1413   5.2647   5.3027   5.9992   6.3536   6.5277
     6.5420   6.8625   8.7766   9.2050  11.4667  11.8464  12.1914  12.5677
    12.6120  12.7055

          k = 0.0000-0.1003 0.0000 ( 18587 PWs)   bands (ev):

   -14.0221 -13.5815 -12.8566 -11.8451 -10.5903  -9.1921  -7.8831  -7.8226
    -7.4586  -7.2215  -4.7998  -4.7616  -3.8435  -3.8354  -3.4748  -2.5347
    -1.5956  -1.5526  -0.8226  -0.5550  -0.5331   0.4838   0.5551   0.8180
     1.0460   1.3800   1.8907   1.9171   2.4561   2.6469   3.3628   3.5023
     4.0384   4.3685   4.8416   5.1221   5.3648   5.6890   6.0392   6.0503
     6.2244   6.2951   8.9906   9.4200  11.6485  11.6989  12.3292  12.8034
    12.8495  13.1972

          k = 0.0000-0.2006 0.0000 ( 18570 PWs)   bands (ev):

   -13.4707 -13.0357 -12.3225 -11.3361 -10.1495  -9.7094  -9.3060  -9.0053
    -8.6169  -8.2901  -5.5457  -5.3298  -4.3795  -4.0970  -2.7699  -2.5357
    -1.4267  -0.8885  -0.0283   0.2215   0.8722   1.1120   1.2031   1.5703
     1.5734   1.8786   2.3606   2.4887   2.7866   2.9944   3.5470   3.6883
     4.0914   4.3008   4.5896   4.7137   4.9018   4.9484   4.9722   5.0195
     5.4706   5.5149   9.6288   9.9948  11.7053  12.0248  12.4078  12.8585
    13.0082  13.2939

          k = 0.0000-0.3009 0.0000 ( 18524 PWs)   bands (ev):

   -12.5594 -12.1384 -11.4626 -11.2998 -10.8742 -10.5714 -10.1496  -9.6013
    -9.1854  -8.8172  -6.0086  -5.5798  -4.9383  -4.1711  -3.3009  -2.4546
    -1.4870  -0.5887   0.2394   1.2159   1.8738   1.8832   2.4294   2.5418
     2.6776   2.8554   3.0023   3.0506   3.3790   3.4785   3.5960   3.7122
     3.8036   3.8706   3.9544   3.9613   4.2014   4.2210   4.2543   4.3003
     4.5023   4.5139  10.6381  10.8307  11.7435  11.9380  12.1022  12.6157
    12.8406  13.3190

          k = 0.0998-0.0000 0.0000 ( 18585 PWs)   bands (ev):

   -14.0239 -13.5824 -12.8554 -11.8393 -10.5720  -9.1338  -7.6438  -6.3206
    -5.6305  -5.6183  -5.5717  -5.2304  -4.5910  -3.6806  -2.5176  -2.4560
    -2.0836  -1.8174  -1.1630  -0.8154  -0.7320   0.0125   0.3182   0.3687
     0.4563   0.5616   0.9436   1.7266   1.9198   2.0558   2.6560   3.5443
     3.6104   3.6192   4.4941   4.8673   5.1275   5.2809   5.6658   5.8173
     5.9417   6.4414   8.9582   9.3712  11.5769  12.3336  12.4950  12.7305
    12.9261  13.0156

          k = 0.0998-0.1003 0.0000 ( 18588 PWs)   bands (ev):

   -13.8398 -13.3999 -12.6764 -11.6670 -10.4148  -9.0202  -7.7183  -7.6747
    -7.3102  -7.0690  -4.6821  -4.6383  -3.7589  -3.7279  -3.4437  -2.4397
    -1.5370  -1.4755  -0.7692  -0.5511  -0.4301   0.2687   0.5305   0.5389
     0.7000   0.8677   1.1750   1.8398   1.9294   2.4456   2.7693   3.2824
     3.6128   3.8979   4.3415   4.5404   4.6753   4.8924   5.0705   5.5392
     6.0538   6.3651   9.1884   9.6008  11.8479  12.4929  12.9802  13.0076
    13.2994  13.5181

          k = 0.0998-0.2006 0.0000 ( 18563 PWs)   bands (ev):

   -13.2896 -12.8556 -12.1441 -11.1600  -9.9767  -9.5443  -9.1428  -8.8390
    -8.4554  -8.1297  -5.3902  -5.1821  -4.2306  -3.9615  -2.6556  -2.4183
    -1.5078  -0.8374  -0.1377  -0.0162   0.5016   1.0604   1.0606   1.2047
     1.2679   1.6030   1.9666   2.2198   2.5522   2.7224   3.1314   3.3066
     3.5170   3.5917   3.6228   3.7757   3.8198   4.1165   4.6123   5.1449
     5.7650   5.8608   9.8398  10.2094  12.4121  12.4506  13.0184  13.4555
    13.6199  14.1657

          k = 0.0998-0.3009 0.0000 ( 18556 PWs)   bands (ev):

   -12.3809 -11.9611 -11.2874 -11.1260 -10.7020 -10.3992  -9.9802  -9.4334
    -9.0200  -8.6538  -5.8458  -5.4190  -4.7848  -4.0193  -3.1627  -2.3170
    -1.3835  -0.4873   0.1314   1.0147   1.0438   1.4353   1.6685   1.9283
     2.2541   2.3124   2.3384   2.6775   2.7486   2.8864   3.1097   3.1483
     3.2332   3.3870   3.4785   3.6723   3.7941   4.0320   4.4212   4.4848
     4.7664   4.7792  10.8626  11.1092  12.2248  12.2695  12.7133  13.1821
    13.3115  13.9287

          k = 0.1996-0.0000 0.0000 ( 18601 PWs)   bands (ev):

   -13.4777 -13.0386 -12.3159 -11.3055 -10.0454  -8.6163  -7.1382  -5.8299
    -5.6271  -5.2447  -5.1470  -5.0812  -4.6145  -3.7176  -2.5724  -1.9900
    -1.6163  -1.5805  -1.3830  -1.2401  -1.2075  -0.6083  -0.4716  -0.2636
     0.2006   0.2147   0.7644   0.9156   1.1422   1.7815   2.0427   2.0891
     2.8882   3.1790   3.4378   3.4712   3.8278   3.9900   4.0072   4.4546
     4.9946   6.1124   9.5362   9.8826  11.7045  11.8890  12.1252  12.4183
    13.0213  13.2023

          k = 0.1996-0.1003 0.0000 ( 18549 PWs)   bands (ev):

   -13.2949 -12.8577 -12.1385 -11.1352  -9.8909  -8.5070  -7.2720  -7.2321
    -6.8981  -6.6333  -4.4178  -4.3741  -3.7318  -3.6828  -3.4806  -2.2407
    -1.7278  -1.5810  -1.0809  -0.9223  -0.7306  -0.3704  -0.1356   0.1541
     0.3508   0.7856   0.8348   1.1405   1.5406   1.5877   2.2498   2.2560
     2.6828   2.7392   2.8257   2.8790   3.1622   3.7267   4.5161   4.7660
     5.4126   5.7198   9.7784  10.1318  12.2459  12.4887  12.5640  12.8512
    13.1407  13.3326

          k = 0.1996-0.2006 0.0000 ( 18536 PWs)   bands (ev):

   -12.7492 -12.3181 -11.6116 -10.6347  -9.4617  -9.0632  -8.6669  -8.3461
    -7.9802  -7.6556  -4.9574  -4.7725  -3.8393  -3.5927  -2.6344  -2.5322
    -2.1338  -1.3508  -1.0688  -0.5060  -0.1734  -0.1400   0.6166   0.9435
     1.1314   1.1888   1.2346   1.7278   1.8039   1.8687   1.9143   1.9654
     2.1054   2.2823   2.5559   2.7143   3.2602   3.4439   4.5023   4.5089
     5.3304   5.5608  10.4430  10.7749  13.0116  13.4939  13.6191  13.6847
    13.9471  13.9803

          k = 0.1996-0.3009 0.0000 ( 18533 PWs)   bands (ev):

   -11.8492 -11.4330 -10.7654 -10.6111 -10.1920  -9.8867  -9.4782  -8.9341
    -8.5287  -8.1673  -5.3777  -4.9550  -4.3505  -3.5875  -2.8035  -1.9586
    -1.4735  -1.4688  -0.5180  -0.4277  -0.2385  -0.1511   0.4082   0.4416
     0.7560   0.9735   1.2226   1.3661   1.6057   1.8615   2.3994   2.9209
     3.0761   3.1221   3.2676   3.3976   3.4423   3.4717   3.8852   4.3394
     4.7003   4.7516  11.4437  11.6774  12.8917  12.9398  13.9275  14.0706
    14.3406  14.5112

          k = 0.2993-0.0000 0.0000 ( 18564 PWs)   bands (ev):

   -12.5757 -12.1408 -11.4252 -10.4246  -9.1769  -7.7630  -6.4049  -6.3037
    -6.0147  -5.3718  -5.0176  -4.4620  -4.3447  -4.2681  -3.3081  -2.3152
    -1.9749  -1.9528  -1.3788  -1.2593  -0.9128  -0.6828  -0.6153  -0.5348
     0.0024   0.2443   0.4922   0.9207   0.9709   1.0508   1.6407   1.6633
     1.7913   1.8287   1.9326   2.1160   2.4021   2.6717   2.7422   3.0274
     4.4398   5.5109  10.4681  10.7091  11.4151  11.4837  12.1401  12.4989
    13.0783  13.3516

          k = 0.2993-0.1003 0.0000 ( 18545 PWs)   bands (ev):

   -12.3956 -11.9628 -11.2512 -10.2584  -9.0275  -7.6623  -6.9613  -6.6395
    -6.3510  -6.1261  -4.6766  -4.5818  -4.5161  -4.4005  -3.5815  -2.3432
    -2.2190  -1.7840  -1.5847  -1.1277  -1.0063  -0.7540  -0.0846   0.1673
     0.1920   0.4898   0.5993   0.6758   0.8012   0.8483   1.2103   1.3505
     1.5314   1.6963   1.8331   1.9518   2.7483   2.7642   3.4829   3.7928
     4.2485   5.2650  10.7302  10.9849  12.0389  12.0531  12.4476  12.6783
    13.1914  13.2811

          k = 0.2993-0.2006 0.0000 ( 18570 PWs)   bands (ev):

   -11.8592 -11.4333 -10.7356  -9.7712  -8.6162  -8.3515  -7.9604  -7.5664
    -7.2383  -6.9077  -4.4971  -4.4222  -4.2986  -4.0722  -3.8783  -3.2187
    -2.3493  -1.9746  -1.7718  -1.1208  -1.0315  -1.0046  -0.7714  -0.7526
     0.0257   0.2447   0.4996   0.5500   1.4647   1.6161   1.7607   1.7749
     1.9445   2.1022   2.1038   2.3901   2.4610   3.0205   3.6381   4.0661
     4.7006   4.7212  11.3795  11.6158  13.0664  13.1472  13.4901  13.6823
    13.7580  14.0648

          k = 0.2993-0.3009 0.0000 ( 18605 PWs)   bands (ev):

   -10.9796 -10.5696  -9.9128  -9.7856  -9.3746  -9.0515  -8.6726  -8.1223
    -7.7337  -7.3725  -4.7140  -4.2855  -3.8261  -3.6256  -3.2830  -3.0807
    -2.9555  -2.4731  -2.1628  -2.0294  -1.6005  -1.4249  -0.7971  -0.6979
    -0.5621  -0.3199   0.0483   0.6788   1.4817   1.7625   1.9908   2.3230
     2.5306   2.5555   2.9015   3.1170   3.3775   3.4545   3.6262   3.6280
     4.3327   4.5130  12.2385  12.3684  13.6588  13.6928  14.1008  14.1965
    14.6273  14.8087

          k = 0.3991-0.0000 0.0000 ( 18524 PWs)   bands (ev):

   -11.3343 -10.9057 -10.2008  -9.2146  -8.0420  -7.9845  -7.6350  -6.9655
    -6.5913  -6.0248  -5.1555  -4.8442  -3.8933  -3.4976  -3.2303  -3.1401
    -2.0902  -1.7558  -1.4354  -0.9393  -0.8107  -0.3487  -0.3100  -0.1268
    -0.1243  -0.0036   0.2531   0.3387   0.4625   0.8521   0.9743   1.0139
     1.1290   1.1476   1.2946   1.3094   1.4392   1.4839   2.2965   2.5781
     3.5983   4.6492  11.2308  11.3098  11.6468  12.0297  12.4217  12.6129
    12.8063  12.9519

          k = 0.3991-0.1003 0.0000 ( 18559 PWs)   bands (ev):

   -11.1603 -10.7342 -10.0339  -9.0564  -7.9718  -7.8457  -7.5693  -6.9179
    -6.4951  -6.0207  -5.0928  -4.7848  -4.4529  -4.2304  -4.2094  -3.4958
    -2.2088  -1.5630  -1.4792  -1.4223  -1.3017  -1.2426  -0.7612  -0.6987
    -0.2986   0.2002   0.5998   0.7355   0.7826   0.8389   0.9395   1.0606
     1.1481   1.3504   1.6995   1.9071   1.9178   2.3408   2.3910   2.7065
     3.5144   4.5682  11.8384  11.8435  11.9495  12.0072  12.4830  12.4971
    13.0585  13.4512

          k = 0.3991-0.2006 0.0000 ( 18596 PWs)   bands (ev):

   -10.6459 -10.2278  -9.5434  -8.5974  -8.0236  -7.6637  -7.4260  -7.0357
    -6.2901  -6.2441  -5.6173  -5.2927  -4.8584  -4.7577  -4.6119  -3.6094
    -3.0781  -2.8479  -2.5688  -2.4503  -2.1709  -1.6845  -1.4684  -0.6758
    -0.2929  -0.1364   0.4723   0.5526   0.9050   1.2332   1.2844   1.6502
     1.8276   2.0119   2.0712   2.3279   2.4457   3.0444   3.1223   3.2795
     3.6530   4.3268  12.3915  12.5162  12.9564  12.9950  13.3842  13.4362
    13.6399  13.8921

          k = 0.3991-0.3009 0.0000 ( 18635 PWs)   bands (ev):

    -9.8230  -9.4224  -8.7999  -8.7822  -8.3987  -7.9629  -7.6924  -7.0835
    -6.7228  -6.3256  -5.5058  -5.1431  -4.6795  -4.5174  -4.3433  -4.1954
    -4.1356  -3.9763  -3.5873  -3.3536  -2.0615  -1.8235  -1.4287  -1.3519
    -0.8319  -0.2977   0.3378   0.6049   0.6183   1.1245   1.4210   1.6379
     2.0901   2.3881   2.6828   2.8643   3.1247   3.4256   3.5811   3.5973
     3.9844   4.1322  12.9771  13.0022  14.0337  14.1117  14.3042  14.4648
    14.7569  14.8810

          k =-0.4989 0.0000 0.0000 ( 18558 PWs)   bands (ev):

    -9.7907  -9.7907  -9.3711  -9.3711  -8.6811  -8.6811  -7.7146  -7.7146
    -6.5073  -6.5073  -5.1382  -5.1382  -3.7247  -3.7247  -2.4762  -2.4762
    -1.8162  -1.8162  -1.7105  -1.7105  -0.5456  -0.5456  -0.2952  -0.2952
     0.0593   0.0593   0.4241   0.4241   0.5705   0.5705   0.6262   0.6262
     0.7931   0.7931   0.8047   0.8047   1.3159   1.3159   2.5551   2.5551
     3.6239   3.6239  11.7242  11.7242  11.8932  11.8932  12.3389  12.3389
    12.9543  12.9543

          k =-0.4989-0.1003 0.0000 ( 18580 PWs)   bands (ev):

    -9.6343  -9.6343  -9.2179  -9.2179  -8.5338  -8.5338  -7.5774  -7.5774
    -6.3890  -6.3890  -5.0625  -5.0625  -3.7773  -3.7773  -3.1502  -3.1502
    -2.9414  -2.9414  -2.9277  -2.9277  -0.4636  -0.4636  -0.3995  -0.3995
     0.0948   0.0948   0.4603   0.4603   0.7362   0.7362   0.9049   0.9049
     1.1869   1.1869   1.3970   1.3970   1.6846   1.6846   2.6424   2.6424
     3.6684   3.6684  12.0565  12.0565  12.2135  12.2135  12.6166  12.6166
    13.0667  13.0667

          k =-0.4989-0.2006 0.0000 ( 18622 PWs)   bands (ev):

    -9.1961  -9.1961  -8.7901  -8.7901  -8.1253  -8.1253  -7.2024  -7.2024
    -6.0784  -6.0784  -4.9364  -4.9364  -4.7583  -4.7583  -4.4860  -4.4860
    -4.0263  -4.0263  -3.9995  -3.9995  -1.1821  -1.1821  -0.8066  -0.8066
    -0.4192  -0.4192   0.1519   0.1519   0.9365   0.9365   1.2204   1.2204
     1.9726   1.9726   2.3836   2.3836   2.5938   2.5938   2.9681   2.9681
     3.7694   3.7694  12.8809  12.8809  13.0237  13.0237  13.3460  13.3460
    13.7441  13.7441

          k =-0.4989-0.3009 0.0000 ( 18590 PWs)   bands (ev):

    -8.6594  -8.6594  -8.2712  -8.2712  -7.6392  -7.6392  -6.7735  -6.7735
    -5.9600  -5.9600  -5.8097  -5.8097  -5.5099  -5.5099  -5.0975  -5.0975
    -4.6649  -4.6649  -4.4912  -4.4912  -1.3811  -1.3811  -1.3572  -1.3572
    -0.4047  -0.4047  -0.2665  -0.2665   0.8696   0.8696   1.2196   1.2196
     2.1271   2.1271   2.6977   2.6977   3.1578   3.1578   3.7299   3.7299
     3.8641   3.8641  13.5862  13.5862  13.6076  13.6076  14.7164  14.7164
    14.8804  14.8804

     the Fermi energy is     7.7924 ev

!    total energy              =    -373.41725588 Ry
     estimated scf accuracy    <          1.5E-12 Ry
     smearing contrib. (-TS)   =       0.00000000 Ry
     internal energy E=F+TS    =    -373.41725588 Ry

     The total energy is F=E-TS. E is the sum of the following terms:
     one-electron contribution =   -2445.58070349 Ry
     hartree contribution      =    1267.61714060 Ry
     xc contribution           =     -96.47526056 Ry
     ewald contribution        =    1024.27799254 Ry
     one-center paw contrib.   =    -123.25642498 Ry

     convergence has been achieved in   9 iterations

     negative rho (up, down):  3.530E-06 0.000E+00

     Forces acting on atoms (cartesian axes, Ry/au):

     atom    1 type  1   force =     0.00000000    0.00006231   -0.00026842
     atom    2 type  1   force =     0.00000000   -0.00006231   -0.00026842
     atom    3 type  1   force =     0.00000000    0.00000538   -0.00045866
     atom    4 type  1   force =     0.00000000   -0.00000538   -0.00045866
     atom    5 type  1   force =     0.00000000   -0.00009436   -0.00006161
     atom    6 type  1   force =     0.00000000    0.00009436   -0.00006161
     atom    7 type  1   force =     0.00000000   -0.00002934    0.00037804
     atom    8 type  1   force =    -0.00000000    0.00002934    0.00037804
     atom    9 type  1   force =    -0.00000000    0.00006332    0.00024028
     atom   10 type  1   force =    -0.00000000   -0.00006332    0.00024028
     atom   11 type  1   force =     0.00000000   -0.00006332   -0.00024028
     atom   12 type  1   force =     0.00000000    0.00006332   -0.00024028
     atom   13 type  1   force =     0.00000000   -0.00002934   -0.00037804
     atom   14 type  1   force =    -0.00000000    0.00002934   -0.00037804
     atom   15 type  1   force =     0.00000000   -0.00009436    0.00006161
     atom   16 type  1   force =     0.00000000    0.00009436    0.00006161
     atom   17 type  1   force =     0.00000000   -0.00000538    0.00045866
     atom   18 type  1   force =    -0.00000000    0.00000538    0.00045866
     atom   19 type  1   force =    -0.00000000   -0.00006231    0.00026842
     atom   20 type  1   force =    -0.00000000    0.00006231    0.00026842
     atom   21 type  2   force =     0.00000000   -0.00019189    0.00002071
     atom   22 type  2   force =     0.00000000    0.00019189    0.00002071
     atom   23 type  2   force =    -0.00000000    0.00019189   -0.00002071
     atom   24 type  2   force =     0.00000000   -0.00019189   -0.00002071

     Total force =     0.001472     Total SCF correction =     0.000002


     Computing stress (Cartesian axis) and pressure


     negative rho (up, down):  3.530E-06 0.000E+00
          total   stress  (Ry/bohr**3)                   (kbar)     P=       -0.80
   0.00000062   0.00000000   0.00000000            0.09        0.00        0.00
   0.00000000  -0.00000012   0.00000000            0.00       -0.02        0.00
   0.00000000   0.00000000  -0.00001687            0.00        0.00       -2.48

     Energy error            =      3.5E-06 Ry
     Gradient error          =      4.6E-04 Ry/Bohr
     Cell gradient error     =      9.2E-02 kbar

     number of scf cycles    =  14
     number of bfgs steps    =  13

     enthalpy           old  =    -373.4172523963 Ry
     enthalpy           new  =    -373.4172558825 Ry

     CASE: enthalpy          _new < enthalpy          _old

     new trust radius        =       0.0027399584 bohr
     Message from routine volume:
     axis vectors are left-handed
     new conv_thr            =            1.0E-11 Ry

     new unit-cell volume =   1300.11013 a.u.^3 (   192.65644 Ang^3 )
     density =      2.10525 g/cm^3

CELL_PARAMETERS (angstrom)
   2.531905558   0.000000000   0.000000000
   0.000000000  -3.598008043   0.000000000
   0.000000000   0.000000000  21.148224330

ATOMIC_POSITIONS (crystal)
C                0.5000000000        0.4942326599        0.7673164629
C                0.0000000000        0.2557673401        0.7673164629
C               -0.0000000000       -0.0009487227        0.7090795164
C                0.5000000000        0.7509487227        0.7090795164
C                0.0000000000        0.2498268422        0.6492284403
C                0.5000000000        0.5001731578        0.6492284403
C                0.5000000000        0.7500071943        0.5895271885
C               -0.0000000000       -0.0000071943        0.5895271885
C               -0.0000000000        0.2500432913        0.5298367561
C                0.5000000000        0.4999567087        0.5298367561
C               -0.0000000000       -0.0000432913        0.4701632439
C                0.5000000000        0.7500432913        0.4701632439
C                0.0000000000        0.2500071943        0.4104728115
C                0.5000000000        0.4999928057        0.4104728115
C                0.5000000000        0.7498268422        0.3507715597
C               -0.0000000000        0.0001731578        0.3507715597
C               -0.0000000000        0.2509487227        0.2909204836
C                0.5000000000        0.4990512773        0.2909204836
C                0.5000000000        0.7557673401        0.2326835371
C               -0.0000000000       -0.0057673401        0.2326835371
H                0.5000000000        0.6598773397        0.8110083470
H               -0.0000000000        0.0901226603        0.8110083470
H                0.5000000000        0.5901226603        0.1889916530
H                0.0000000000        0.1598773397        0.1889916530



     Writing config-only to output data dir /tmp/qe/slab.save/ :
     XML data file
     NEW-OLD atomic charge density approx. for the potential

     Check: negative core charge=   -0.000001

     negative rho (up, down):  3.708E-06 0.000E+00

     total cpu time spent up to now is      761.2 secs

     Self-consistent Calculation

     iteration #  1     ecut=    90.00 Ry     beta= 0.30
     Davidson diagonalization with overlap
     ethr =  1.00E-06,  avg # of iterations =  2.0

     Threshold (ethr) on eigenvalues was too large:
     Diagonalizing with lowered threshold

     Davidson diagonalization with overlap
     ethr =  6.29E-09,  avg # of iterations =  4.0

     negative rho (up, down):  3.690E-06 0.000E+00

     total cpu time spent up to now is      770.3 secs

     total energy              =    -373.41725958 Ry
     estimated scf accuracy    <       0.00000682 Ry

     iteration #  2     ecut=    90.00 Ry     beta= 0.30
     Davidson diagonalization with overlap
     ethr =  8.12E-09,  avg # of iterations =  2.0

     negative rho (up, down):  3.657E-06 0.000E+00

     total cpu time spent up to now is      774.0 secs

     total energy              =    -373.41725983 Ry
     estimated scf accuracy    <       0.00000190 Ry

     iteration #  3     ecut=    90.00 Ry     beta= 0.30
     Davidson diagonalization with overlap
     ethr =  2.26E-09,  avg # of iterations =  1.2

     negative rho (up, down):  3.623E-06 0.000E+00

     total cpu time spent up to now is      777.3 secs

     total energy              =    -373.41725981 Ry
     estimated scf accuracy    <       0.00000064 Ry

     iteration #  4     ecut=    90.00 Ry     beta= 0.30
     Davidson diagonalization with overlap
     ethr =  7.59E-10,  avg # of iterations =  1.8

     negative rho (up, down):  3.618E-06 0.000E+00

     total cpu time spent up to now is      780.8 secs

     total energy              =    -373.41725986 Ry
     estimated scf accuracy    <       0.00000005 Ry

     iteration #  5     ecut=    90.00 Ry     beta= 0.30
     Davidson diagonalization with overlap
     ethr =  5.43E-11,  avg # of iterations =  2.2

     negative rho (up, down):  3.622E-06 0.000E+00

     total cpu time spent up to now is      785.0 secs

     total energy              =    -373.41725986 Ry
     estimated scf accuracy    <       0.00000001 Ry

     iteration #  6     ecut=    90.00 Ry     beta= 0.30
     Davidson diagonalization with overlap
     ethr =  1.32E-11,  avg # of iterations =  2.2

     negative rho (up, down):  3.624E-06 0.000E+00

     total cpu time spent up to now is      789.0 secs

     total energy              =    -373.41725986 Ry
     estimated scf accuracy    <          1.5E-09 Ry

     iteration #  7     ecut=    90.00 Ry     beta= 0.30
     Davidson diagonalization with overlap
     ethr =  1.82E-12,  avg # of iterations =  2.5

     negative rho (up, down):  3.626E-06 0.000E+00

     total cpu time spent up to now is      793.2 secs

     total energy              =    -373.41725986 Ry
     estimated scf accuracy    <          5.5E-10 Ry

     iteration #  8     ecut=    90.00 Ry     beta= 0.30
     Davidson diagonalization with overlap
     ethr =  6.57E-13,  avg # of iterations =  2.3

     negative rho (up, down):  3.627E-06 0.000E+00

     total cpu time spent up to now is      797.6 secs

     total energy              =    -373.41725986 Ry
     estimated scf accuracy    <          5.6E-11 Ry

     iteration #  9     ecut=    90.00 Ry     beta= 0.30
     Davidson diagonalization with overlap
     ethr =  1.00E-13,  avg # of iterations =  1.8

     negative rho (up, down):  3.630E-06 0.000E+00

     total cpu time spent up to now is      801.1 secs

     End of self-consistent calculation

          k = 0.0000-0.0000 0.0000 ( 18619 PWs)   bands (ev):

   -14.2095 -13.7672 -13.0381 -12.0196 -10.7493  -9.3074  -7.8128  -6.4841
    -5.7925  -5.7370  -5.6809  -5.2901  -4.6448  -3.7269  -2.6177  -2.5540
    -2.2459  -1.9679  -1.1865  -0.9471  -0.8836   0.3027   0.3112   0.4785
     0.8656   1.2085   1.7636   1.9330   2.0375   2.5239   3.4310   3.6351
     3.6544   4.3826   5.1402   5.2645   5.3032   5.9992   6.3522   6.5284
     6.5421   6.8626   8.7774   9.2056  11.4664  11.8440  12.1891  12.5725
    12.6085  12.7083

          k = 0.0000-0.1003 0.0000 ( 18587 PWs)   bands (ev):

   -14.0250 -13.5844 -12.8586 -11.8466 -10.5913  -9.1925  -7.8831  -7.8256
    -7.4610  -7.2223  -4.8024  -4.7631  -3.8446  -3.8377  -3.4772  -2.5364
    -1.5973  -1.5543  -0.8242  -0.5576  -0.5329   0.4853   0.5527   0.8176
     1.0435   1.3774   1.8888   1.9154   2.4559   2.6456   3.3615   3.5013
     4.0383   4.3679   4.8409   5.1218   5.3642   5.6888   6.0392   6.0499
     6.2239   6.2936   8.9914   9.4205  11.6483  11.6987  12.3272  12.8048
    12.8483  13.2006

          k = 0.0000-0.2006 0.0000 ( 18570 PWs)   bands (ev):

   -13.4736 -13.0386 -12.3245 -11.3375 -10.1504  -9.7123  -9.3088  -9.0060
    -8.6182  -8.2906  -5.5476  -5.3321  -4.3799  -4.0986  -2.7694  -2.5364
    -1.4277  -0.8888  -0.0292   0.2195   0.8702   1.1128   1.2028   1.5677
     1.5710   1.8762   2.3589   2.4861   2.7870   2.9932   3.5450   3.6873
     4.0909   4.3002   4.5888   4.7131   4.9005   4.9477   4.9711   5.0174
     5.4687   5.5128   9.6297   9.9954  11.7062  12.0249  12.4093  12.8571
    13.0089  13.2939

          k = 0.0000-0.3009 0.0000 ( 18524 PWs)   bands (ev):

   -12.5623 -12.1413 -11.4647 -11.3027 -10.8771 -10.5730 -10.1515  -9.6024
    -9.1862  -8.8176  -6.0108  -5.5816  -4.9394  -4.1720  -3.3009  -2.4542
    -1.4866  -0.5878   0.2397   1.2168   1.8719   1.8841   2.4272   2.5396
     2.6755   2.8538   3.0023   3.0492   3.3760   3.4772   3.5943   3.7106
     3.8015   3.8676   3.9532   3.9601   4.2007   4.2203   4.2513   4.2977
     4.4999   4.5116  10.6389  10.8315  11.7448  11.9393  12.1032  12.6164
    12.8415  13.3199

          k = 0.0998-0.0000 0.0000 ( 18585 PWs)   bands (ev):

   -14.0267 -13.5852 -12.8575 -11.8408 -10.5730  -9.1341  -7.6435  -6.3200
    -5.6310  -5.6225  -5.5731  -5.2347  -4.5943  -3.6836  -2.5202  -2.4582
    -2.0844  -1.8197  -1.1651  -0.8167  -0.7319   0.0100   0.3167   0.3661
     0.4581   0.5601   0.9419   1.7253   1.9191   2.0545   2.6551   3.5431
     3.6104   3.6187   4.4939   4.8659   5.1276   5.2812   5.6657   5.8154
     5.9417   6.4421   8.9590   9.3717  11.5764  12.3325  12.4939  12.7356
    12.9275  13.0141

          k = 0.0998-0.1003 0.0000 ( 18588 PWs)   bands (ev):

   -13.8426 -13.4028 -12.6785 -11.6685 -10.4158  -9.0205  -7.7184  -7.6776
    -7.3126  -7.0699  -4.6847  -4.6397  -3.7601  -3.7301  -3.4462  -2.4414
    -1.5388  -1.4771  -0.7707  -0.5537  -0.4298   0.2663   0.5300   0.5365
     0.6994   0.8675   1.1733   1.8381   1.9280   2.4454   2.7684   3.2810
     3.6122   3.8973   4.3413   4.5397   4.6737   4.8913   5.0702   5.5395
     6.0538   6.3644   9.1892   9.6013  11.8475  12.4957  12.9791  13.0069
    13.2986  13.5192

          k = 0.0998-0.2006 0.0000 ( 18563 PWs)   bands (ev):

   -13.2925 -12.8585 -12.1461 -11.1615  -9.9777  -9.5472  -9.1456  -8.8397
    -8.4566  -8.1302  -5.3921  -5.1844  -4.2310  -3.9631  -2.6553  -2.4190
    -1.5094  -0.8379  -0.1384  -0.0183   0.4996   1.0590   1.0609   1.2027
     1.2674   1.6015   1.9647   2.2177   2.5507   2.7223   3.1302   3.3048
     3.5159   3.5898   3.6213   3.7741   3.8188   4.1161   4.6125   5.1436
     5.7638   5.8598   9.8407  10.2100  12.4121  12.4529  13.0198  13.4565
    13.6195  14.1662

          k = 0.0998-0.3009 0.0000 ( 18556 PWs)   bands (ev):

   -12.3838 -11.9640 -11.2894 -11.1289 -10.7049 -10.4007  -9.9820  -9.4345
    -9.0208  -8.6542  -5.8480  -5.4208  -4.7859  -4.0202  -3.1627  -2.3167
    -1.3832  -0.4865   0.1306   1.0131   1.0427   1.4346   1.6665   1.9285
     2.2527   2.3113   2.3361   2.6758   2.7470   2.8854   3.1095   3.1464
     3.2328   3.3860   3.4767   3.6701   3.7916   4.0297   4.4197   4.4830
     4.7645   4.7775  10.8634  11.1098  12.2259  12.2706  12.7151  13.1829
    13.3128  13.9299

          k = 0.1996-0.0000 0.0000 ( 18601 PWs)   bands (ev):

   -13.4806 -13.0415 -12.3179 -11.3070 -10.0464  -8.6167  -7.1379  -5.8293
    -5.6313  -5.2489  -5.1474  -5.0825  -4.6178  -3.7205  -2.5749  -1.9922
    -1.6173  -1.5830  -1.3851  -1.2421  -1.2100  -0.6100  -0.4735  -0.2629
     0.1993   0.2134   0.7627   0.9173   1.1414   1.7809   2.0412   2.0886
     2.8879   3.1774   3.4378   3.4709   3.8274   3.9894   4.0050   4.4520
     4.9953   6.1131   9.5370   9.8830  11.7034  11.8881  12.1250  12.4180
    13.0205  13.2076

          k = 0.1996-0.1003 0.0000 ( 18549 PWs)   bands (ev):

   -13.2978 -12.8606 -12.1406 -11.1367  -9.8919  -8.5074  -7.2751  -7.2323
    -6.9006  -6.6344  -4.4204  -4.3755  -3.7335  -3.6852  -3.4829  -2.2424
    -1.7298  -1.5822  -1.0827  -0.9244  -0.7318  -0.3725  -0.1364   0.1529
     0.3493   0.7848   0.8335   1.1419   1.5395   1.5863   2.2492   2.2548
     2.6820   2.7373   2.8244   2.8776   3.1611   3.7264   4.5160   4.7654
     5.4118   5.7205   9.7792  10.1323  12.2449  12.4877  12.5639  12.8514
    13.1398  13.3374

          k = 0.1996-0.2006 0.0000 ( 18536 PWs)   bands (ev):

   -12.7521 -12.3210 -11.6136 -10.6363  -9.4627  -9.0662  -8.6697  -8.3470
    -7.9814  -7.6562  -4.9594  -4.7749  -3.8398  -3.5943  -2.6355  -2.5348
    -2.1347  -1.3519  -1.0708  -0.5069  -0.1747  -0.1395   0.6154   0.9423
     1.1308   1.1865   1.2331   1.7272   1.8034   1.8672   1.9130   1.9641
     2.1045   2.2805   2.5537   2.7124   3.2604   3.4424   4.5032   4.5079
     5.3297   5.5602  10.4438  10.7754  13.0111  13.4980  13.6185  13.6840
    13.9467  13.9808

          k = 0.1996-0.3009 0.0000 ( 18533 PWs)   bands (ev):

   -11.8522 -11.4359 -10.7675 -10.6141 -10.1949  -9.8883  -9.4801  -8.9352
    -8.5296  -8.1677  -5.3799  -4.9570  -4.3516  -3.5885  -2.8036  -1.9585
    -1.4761  -1.4701  -0.5191  -0.4287  -0.2410  -0.1528   0.4066   0.4410
     0.7543   0.9732   1.2220   1.3652   1.6052   1.8624   2.4005   2.9195
     3.0736   3.1196   3.2682   3.3960   3.4402   3.4701   3.8839   4.3381
     4.6993   4.7503  11.4444  11.6779  12.8928  12.9405  13.9306  14.0710
    14.3417  14.5106

          k = 0.2993-0.0000 0.0000 ( 18564 PWs)   bands (ev):

   -12.5786 -12.1437 -11.4272 -10.4262  -9.1780  -7.7634  -6.4086  -6.3035
    -6.0184  -5.3747  -5.0170  -4.4644  -4.3451  -4.2694  -3.3101  -2.3182
    -1.9765  -1.9556  -1.3809  -1.2614  -0.9143  -0.6844  -0.6170  -0.5355
     0.0003   0.2430   0.4929   0.9209   0.9690   1.0497   1.6424   1.6624
     1.7910   1.8268   1.9319   2.1147   2.4001   2.6688   2.7391   3.0270
     4.4404   5.5118  10.4686  10.7092  11.4146  11.4832  12.1396  12.4990
    13.0782  13.3520

          k = 0.2993-0.1003 0.0000 ( 18545 PWs)   bands (ev):

   -12.3986 -11.9658 -11.2533 -10.2599  -9.0286  -7.6627  -6.9647  -6.6424
    -6.3514  -6.1279  -4.6786  -4.5839  -4.5169  -4.4024  -3.5837  -2.3448
    -2.2207  -1.7856  -1.5856  -1.1295  -1.0075  -0.7551  -0.0863   0.1658
     0.1911   0.4891   0.5973   0.6740   0.8010   0.8464   1.2090   1.3490
     1.5300   1.6943   1.8345   1.9501   2.7478   2.7630   3.4816   3.7913
     4.2490   5.2659  10.7308  10.9851  12.0382  12.0523  12.4473  12.6776
    13.1920  13.2808

          k = 0.2993-0.2006 0.0000 ( 18570 PWs)   bands (ev):

   -11.8622 -11.4362 -10.7377  -9.7727  -8.6173  -8.3546  -7.9634  -7.5676
    -7.2395  -6.9085  -4.4989  -4.4246  -4.3010  -4.0746  -3.8793  -3.2203
    -2.3505  -1.9761  -1.7727  -1.1207  -1.0338  -1.0058  -0.7735  -0.7535
     0.0253   0.2446   0.4991   0.5489   1.4635   1.6148   1.7584   1.7740
     1.9425   2.1001   2.1024   2.3907   2.4597   3.0205   3.6379   4.0658
     4.7013   4.7205  11.3802  11.6162  13.0657  13.1465  13.4894  13.6817
    13.7571  14.0667

          k = 0.2993-0.3009 0.0000 ( 18605 PWs)   bands (ev):

   -10.9826 -10.5726  -9.9149  -9.7887  -9.3776  -9.0531  -8.6745  -8.1235
    -7.7347  -7.3730  -4.7162  -4.2874  -3.8272  -3.6282  -3.2855  -3.0818
    -2.9565  -2.4757  -2.1653  -2.0305  -1.6013  -1.4263  -0.7976  -0.6990
    -0.5631  -0.3204   0.0482   0.6793   1.4822   1.7603   1.9888   2.3237
     2.5298   2.5540   2.9015   3.1156   3.3764   3.4535   3.6252   3.6288
     4.3321   4.5123  12.2390  12.3686  13.6594  13.6938  14.1001  14.1958
    14.6274  14.8087

          k = 0.3991-0.0000 0.0000 ( 18524 PWs)   bands (ev):

   -11.3373 -10.9087 -10.2029  -9.2162  -8.0452  -7.9857  -7.6383  -6.9679
    -6.5918  -6.0267  -5.1553  -4.8456  -3.8928  -3.4985  -3.2307  -3.1413
    -2.0903  -1.7592  -1.4388  -0.9417  -0.8103  -0.3508  -0.3121  -0.1272
    -0.1264  -0.0045   0.2520   0.3368   0.4603   0.8504   0.9716   1.0112
     1.1257   1.1458   1.2928   1.3072   1.4375   1.4843   2.2959   2.5795
     3.5989   4.6502  11.2301  11.3091  11.6468  12.0294  12.4218  12.6136
    12.8055  12.9512

          k = 0.3991-0.1003 0.0000 ( 18559 PWs)   bands (ev):

   -11.1633 -10.7372 -10.0360  -9.0580  -7.9752  -7.8469  -7.5726  -6.9204
    -6.4956  -6.0226  -5.0928  -4.7863  -4.4549  -4.2305  -4.2110  -3.4967
    -2.2091  -1.5646  -1.4813  -1.4244  -1.3022  -1.2444  -0.7621  -0.7005
    -0.3006   0.1988   0.5978   0.7336   0.7809   0.8371   0.9375   1.0586
     1.1461   1.3489   1.6997   1.9064   1.9164   2.3388   2.3895   2.7079
     3.5150   4.5693  11.8382  11.8428  11.9489  12.0065  12.4831  12.4966
    13.0590  13.4511

          k = 0.3991-0.2006 0.0000 ( 18596 PWs)   bands (ev):

   -10.6489 -10.2308  -9.5456  -8.5991  -8.0270  -7.6668  -7.4273  -7.0381
    -6.2906  -6.2457  -5.6195  -5.2947  -4.8595  -4.7582  -4.6134  -3.6105
    -3.0805  -2.8498  -2.5697  -2.4515  -2.1727  -1.6860  -1.4693  -0.6768
    -0.2948  -0.1362   0.4713   0.5503   0.9037   1.2317   1.2843   1.6487
     1.8275   2.0102   2.0699   2.3268   2.4449   3.0454   3.1214   3.2803
     3.6519   4.3279  12.3914  12.5160  12.9557  12.9941  13.3835  13.4353
    13.6391  13.8923

          k = 0.3991-0.3009 0.0000 ( 18635 PWs)   bands (ev):

    -9.8261  -9.4255  -8.8031  -8.7844  -8.4019  -7.9647  -7.6944  -7.0849
    -6.7239  -6.3263  -5.5082  -5.1454  -4.6809  -4.5199  -4.3449  -4.1962
    -4.1380  -3.9777  -3.5888  -3.3545  -2.0630  -1.8248  -1.4301  -1.3530
    -0.8327  -0.2982   0.3357   0.6030   0.6185   1.1243   1.4204   1.6366
     2.0906   2.3879   2.6821   2.8647   3.1244   3.4251   3.5802   3.5978
     3.9853   4.1316  12.9769  13.0019  14.0332  14.1114  14.3035  14.4649
    14.7569  14.8808

          k =-0.4989 0.0000 0.0000 ( 18558 PWs)   bands (ev):

    -9.7938  -9.7938  -9.3742  -9.3742  -8.6833  -8.6833  -7.7163  -7.7163
    -6.5085  -6.5085  -5.1389  -5.1389  -3.7247  -3.7247  -2.4757  -2.4757
    -1.8166  -1.8166  -1.7116  -1.7116  -0.5490  -0.5490  -0.2986  -0.2986
     0.0567   0.0567   0.4218   0.4218   0.5684   0.5684   0.6242   0.6242
     0.7912   0.7912   0.8030   0.8030   1.3150   1.3150   2.5557   2.5557
     3.6251   3.6251  11.7235  11.7235  11.8925  11.8925  12.3385  12.3385
    12.9540  12.9540

          k =-0.4989-0.1003 0.0000 ( 18580 PWs)   bands (ev):

    -9.6374  -9.6374  -9.2210  -9.2210  -8.5360  -8.5360  -7.5792  -7.5792
    -6.3902  -6.3902  -5.0631  -5.0631  -3.7773  -3.7773  -3.1523  -3.1523
    -2.9417  -2.9417  -2.9294  -2.9294  -0.4659  -0.4659  -0.4013  -0.4013
     0.0927   0.0927   0.4593   0.4593   0.7344   0.7344   0.9030   0.9030
     1.1852   1.1852   1.3952   1.3952   1.6831   1.6831   2.6428   2.6428
     3.6696   3.6696  12.0557  12.0557  12.2126  12.2126  12.6161  12.6161
    13.0662  13.0662

          k =-0.4989-0.2006 0.0000 ( 18622 PWs)   bands (ev):

    -9.1993  -9.1993  -8.7933  -8.7933  -8.1276  -8.1276  -7.2042  -7.2042
    -6.0796  -6.0796  -4.9374  -4.9374  -4.7604  -4.7604  -4.4881  -4.4881
    -4.0273  -4.0273  -3.9998  -3.9998  -1.1843  -1.1843  -0.8088  -0.8088
    -0.4201  -0.4201   0.1502   0.1502   0.9366   0.9366   1.2194   1.2194
     1.9717   1.9717   2.3832   2.3832   2.5925   2.5925   2.9675   2.9675
     3.7705   3.7705  12.8800  12.8800  13.0228  13.0228  13.3455  13.3455
    13.7434  13.7434

          k =-0.4989-0.3009 0.0000 ( 18590 PWs)   bands (ev):

    -8.6627  -8.6627  -8.2746  -8.2746  -7.6416  -7.6416  -6.7753  -6.7753
    -5.9623  -5.9623  -5.8112  -5.8112  -5.5119  -5.5119  -5.0987  -5.0987
    -4.6656  -4.6656  -4.4917  -4.4917  -1.3832  -1.3832  -1.3592  -1.3592
    -0.4060  -0.4060  -0.2673  -0.2673   0.8690   0.8690   1.2198   1.2198
     2.1265   2.1265   2.6984   2.6984   3.1572   3.1572   3.7295   3.7295
     3.8649   3.8649  13.5855  13.5855  13.6068  13.6068  14.7165  14.7165
    14.8800  14.8800

     the Fermi energy is     7.7915 ev

!    total energy              =    -373.41725986 Ry
     estimated scf accuracy    <          9.4E-12 Ry
     smearing contrib. (-TS)   =       0.00000000 Ry
     internal energy E=F+TS    =    -373.41725986 Ry

     The total energy is F=E-TS. E is the sum of the following terms:
     one-electron contribution =   -2447.40096918 Ry
     hartree contribution      =    1268.52506726 Ry
     xc contribution           =     -96.47829062 Ry
     ewald contribution        =    1025.19342743 Ry
     one-center paw contrib.   =    -123.25649474 Ry

     convergence has been achieved in   9 iterations

     negative rho (up, down):  3.630E-06 0.000E+00

     Forces acting on atoms (cartesian axes, Ry/au):

     atom    1 type  1   force =     0.00000000   -0.00001465   -0.00011496
     atom    2 type  1   force =     0.00000000    0.00001465   -0.00011496
     atom    3 type  1   force =    -0.00000000   -0.00000724   -0.00035146
     atom    4 type  1   force =     0.00000000    0.00000724   -0.00035146
     atom    5 type  1   force =    -0.00000000   -0.00007853   -0.00007065
     atom    6 type  1   force =     0.00000000    0.00007853   -0.00007065
     atom    7 type  1   force =    -0.00000000   -0.00003649    0.00031776
     atom    8 type  1   force =     0.00000000    0.00003649    0.00031776
     atom    9 type  1   force =    -0.00000000    0.00004937    0.00021205
     atom   10 type  1   force =     0.00000000   -0.00004937    0.00021205
     atom   11 type  1   force =     0.00000000   -0.00004937   -0.00021205
     atom   12 type  1   force =     0.00000000    0.00004937   -0.00021205
     atom   13 type  1   force =     0.00000000   -0.00003649   -0.00031776
     atom   14 type  1   force =    -0.00000000    0.00003649   -0.00031776
     atom   15 type  1   force =    -0.00000000   -0.00007853    0.00007065
     atom   16 type  1   force =     0.00000000    0.00007853    0.00007065
     atom   17 type  1   force =     0.00000000    0.00000724    0.00035146
     atom   18 type  1   force =     0.00000000   -0.00000724    0.00035146
     atom   19 type  1   force =    -0.00000000    0.00001465    0.00011496
     atom   20 type  1   force =     0.00000000   -0.00001465    0.00011496
     atom   21 type  2   force =     0.00000000   -0.00013388    0.00009032
     atom   22 type  2   force =     0.00000000    0.00013388    0.00009032
     atom   23 type  2   force =     0.00000000    0.00013388   -0.00009032
     atom   24 type  2   force =    -0.00000000   -0.00013388   -0.00009032

     Total force =     0.001138     Total SCF correction =     0.000008


     Computing stress (Cartesian axis) and pressure


     negative rho (up, down):  3.630E-06 0.000E+00
          total   stress  (Ry/bohr**3)                   (kbar)     P=       -0.35
   0.00000047   0.00000000   0.00000000            0.07        0.00        0.00
   0.00000000  -0.00000019   0.00000000            0.00       -0.03        0.00
   0.00000000   0.00000000  -0.00000732            0.00        0.00       -1.08

     Energy error            =      4.0E-06 Ry
     Gradient error          =      3.5E-04 Ry/Bohr
     Cell gradient error     =      6.9E-02 kbar

     number of scf cycles    =  15
     number of bfgs steps    =  14

     enthalpy           old  =    -373.4172558825 Ry
     enthalpy           new  =    -373.4172598596 Ry

     CASE: enthalpy          _new < enthalpy          _old

     new trust radius        =       0.0020868035 bohr
     Message from routine volume:
     axis vectors are left-handed
     new conv_thr            =            1.0E-11 Ry

     new unit-cell volume =   1300.12908 a.u.^3 (   192.65925 Ang^3 )
     density =      2.10522 g/cm^3

CELL_PARAMETERS (angstrom)
   2.531929258   0.000000000   0.000000000
   0.000000000  -3.598026817   0.000000000
   0.000000000   0.000000000  21.148224330

ATOMIC_POSITIONS (crystal)
C                0.5000000000        0.4942357826        0.7672697592
C                0.0000000000        0.2557642174        0.7672697592
C               -0.0000000000       -0.0009493235        0.7090344162
C                0.5000000000        0.7509493235        0.7090344162
C                0.0000000000        0.2498401278        0.6492013603
C                0.5000000000        0.5001598722        0.6492013603
C                0.5000000000        0.7500133777        0.5895198025
C                0.0000000000       -0.0000133777        0.5895198025
C               -0.0000000000        0.2500373927        0.5298368412
C                0.5000000000        0.4999626073        0.5298368412
C                0.0000000000       -0.0000373927        0.4701631588
C                0.5000000000        0.7500373927        0.4701631588
C                0.0000000000        0.2500133777        0.4104801975
C                0.5000000000        0.4999866223        0.4104801975
C                0.5000000000        0.7498401278        0.3507986397
C               -0.0000000000        0.0001598722        0.3507986397
C               -0.0000000000        0.2509493235        0.2909655838
C                0.5000000000        0.4990506765        0.2909655838
C                0.5000000000        0.7557642174        0.2327302408
C               -0.0000000000       -0.0057642174        0.2327302408
H                0.5000000000        0.6599430922        0.8109573428
H               -0.0000000000        0.0900569078        0.8109573428
H                0.5000000000        0.5900569078        0.1890426572
H                0.0000000000        0.1599430922        0.1890426572



     Writing config-only to output data dir /tmp/qe/slab.save/ :
     XML data file
     NEW-OLD atomic charge density approx. for the potential

     Check: negative core charge=   -0.000001

     negative rho (up, down):  3.768E-06 0.000E+00

     total cpu time spent up to now is      814.7 secs

     Self-consistent Calculation

     iteration #  1     ecut=    90.00 Ry     beta= 0.30
     Davidson diagonalization with overlap
     ethr =  1.00E-06,  avg # of iterations =  2.0

     Threshold (ethr) on eigenvalues was too large:
     Diagonalizing with lowered threshold

     Davidson diagonalization with overlap
     ethr =  3.82E-09,  avg # of iterations =  4.0

     negative rho (up, down):  3.755E-06 0.000E+00

     total cpu time spent up to now is      823.8 secs

     total energy              =    -373.41726134 Ry
     estimated scf accuracy    <       0.00000428 Ry

     iteration #  2     ecut=    90.00 Ry     beta= 0.30
     Davidson diagonalization with overlap
     ethr =  5.09E-09,  avg # of iterations =  2.0

     negative rho (up, down):  3.731E-06 0.000E+00

     total cpu time spent up to now is      827.5 secs

     total energy              =    -373.41726150 Ry
     estimated scf accuracy    <       0.00000121 Ry

     iteration #  3     ecut=    90.00 Ry     beta= 0.30
     Davidson diagonalization with overlap
     ethr =  1.44E-09,  avg # of iterations =  1.1

     negative rho (up, down):  3.703E-06 0.000E+00

     total cpu time spent up to now is      830.8 secs

     total energy              =    -373.41726148 Ry
     estimated scf accuracy    <       0.00000042 Ry

     iteration #  4     ecut=    90.00 Ry     beta= 0.30
     Davidson diagonalization with overlap
     ethr =  5.02E-10,  avg # of iterations =  1.9

     negative rho (up, down):  3.702E-06 0.000E+00

     total cpu time spent up to now is      834.3 secs

     total energy              =    -373.41726151 Ry
     estimated scf accuracy    <       0.00000003 Ry

     iteration #  5     ecut=    90.00 Ry     beta= 0.30
     Davidson diagonalization with overlap
     ethr =  3.04E-11,  avg # of iterations =  2.3

     negative rho (up, down):  3.705E-06 0.000E+00

     total cpu time spent up to now is      838.6 secs

     total energy              =    -373.41726151 Ry
     estimated scf accuracy    <          8.0E-09 Ry

     iteration #  6     ecut=    90.00 Ry     beta= 0.30
     Davidson diagonalization with overlap
     ethr =  9.48E-12,  avg # of iterations =  2.6

     negative rho (up, down):  3.706E-06 0.000E+00

     total cpu time spent up to now is      842.8 secs

     total energy              =    -373.41726151 Ry
     estimated scf accuracy    <          1.7E-09 Ry

     iteration #  7     ecut=    90.00 Ry     beta= 0.30
     Davidson diagonalization with overlap
     ethr =  1.97E-12,  avg # of iterations =  2.8

     negative rho (up, down):  3.708E-06 0.000E+00

     total cpu time spent up to now is      847.3 secs

     total energy              =    -373.41726151 Ry
     estimated scf accuracy    <          9.3E-10 Ry

     iteration #  8     ecut=    90.00 Ry     beta= 0.30
     Davidson diagonalization with overlap
     ethr =  1.10E-12,  avg # of iterations =  2.0

     negative rho (up, down):  3.709E-06 0.000E+00

     total cpu time spent up to now is      851.1 secs

     total energy              =    -373.41726151 Ry
     estimated scf accuracy    <          3.1E-11 Ry

     iteration #  9     ecut=    90.00 Ry     beta= 0.30
     Davidson diagonalization with overlap
     ethr =  1.00E-13,  avg # of iterations =  3.4

     negative rho (up, down):  3.710E-06 0.000E+00

     total cpu time spent up to now is      855.6 secs

     total energy              =    -373.41726151 Ry
     estimated scf accuracy    <          4.5E-11 Ry

     iteration # 10     ecut=    90.00 Ry     beta= 0.30
     Davidson diagonalization with overlap
     ethr =  1.00E-13,  avg # of iterations =  2.2

     negative rho (up, down):  3.711E-06 0.000E+00

     total cpu time spent up to now is      859.5 secs

     End of self-consistent calculation

          k = 0.0000-0.0000 0.0000 ( 18619 PWs)   bands (ev):

   -14.2118 -13.7700 -13.0392 -12.0206 -10.7500  -9.3077  -7.8125  -6.4834
    -5.7930  -5.7379  -5.6841  -5.2939  -4.6466  -3.7288  -2.6191  -2.5557
    -2.2464  -1.9697  -1.1880  -0.9471  -0.8842   0.3041   0.3102   0.4773
     0.8634   1.2059   1.7628   1.9326   2.0365   2.5229   3.4302   3.6343
     3.6546   4.3821   5.1394   5.2643   5.3037   5.9992   6.3513   6.5290
     6.5419   6.8626   8.7781   9.2060  11.4663  11.8419  12.1867  12.5760
    12.6059  12.7106

          k = 0.0000-0.1003 0.0000 ( 18587 PWs)   bands (ev):

   -14.0273 -13.5872 -12.8596 -11.8476 -10.5920  -9.1926  -7.8829  -7.8278
    -7.4633  -7.2225  -4.8042  -4.7639  -3.8457  -3.8392  -3.4789  -2.5375
    -1.5982  -1.5557  -0.8251  -0.5595  -0.5328   0.4864   0.5510   0.8174
     1.0413   1.3749   1.8874   1.9146   2.4561   2.6447   3.3604   3.5006
     4.0384   4.3675   4.8403   5.1216   5.3638   5.6887   6.0391   6.0492
     6.2234   6.2925   8.9922   9.4210  11.6482  11.6983  12.3251  12.8058
    12.8478  13.2032

          k = 0.0000-0.2006 0.0000 ( 18570 PWs)   bands (ev):

   -13.4759 -13.0414 -12.3256 -11.3385 -10.1511  -9.7146  -9.3114  -9.0062
    -8.6189  -8.2909  -5.5490  -5.3339  -4.3801  -4.0999  -2.7688  -2.5367
    -1.4283  -0.8890  -0.0298   0.2176   0.8693   1.1134   1.2026   1.5659
     1.5689   1.8738   2.3582   2.4842   2.7873   2.9923   3.5436   3.6866
     4.0908   4.2997   4.5881   4.7128   4.8992   4.9474   4.9696   5.0159
     5.4674   5.5111   9.6305   9.9960  11.7066  12.0250  12.4103  12.8559
    13.0096  13.2941

          k = 0.0000-0.3009 0.0000 ( 18524 PWs)   bands (ev):

   -12.5646 -12.1440 -11.4657 -11.3050 -10.8798 -10.5739 -10.1524  -9.6031
    -9.1868  -8.8178  -6.0125  -5.5831  -4.9403  -4.1727  -3.3006  -2.4534
    -1.4866  -0.5870   0.2400   1.2175   1.8704   1.8848   2.4253   2.5376
     2.6733   2.8530   3.0024   3.0486   3.3739   3.4763   3.5929   3.7094
     3.8002   3.8653   3.9519   3.9595   4.2000   4.2195   4.2490   4.2955
     4.4982   4.5103  10.6397  10.8321  11.7458  11.9402  12.1040  12.6168
    12.8423  13.3208

          k = 0.0998-0.0000 0.0000 ( 18585 PWs)   bands (ev):

   -14.0290 -13.5880 -12.8585 -11.8419 -10.5737  -9.1344  -7.6432  -6.3193
    -5.6314  -5.6257  -5.5740  -5.2385  -4.5961  -3.6855  -2.5219  -2.4597
    -2.0850  -1.8215  -1.1665  -0.8174  -0.7318   0.0079   0.3158   0.3636
     0.4595   0.5588   0.9411   1.7244   1.9187   2.0535   2.6544   3.5422
     3.6106   3.6183   4.4938   4.8647   5.1278   5.2815   5.6654   5.8141
     5.9415   6.4427   8.9598   9.3722  11.5760  12.3312  12.4935  12.7395
    12.9287  13.0128

          k = 0.0998-0.1003 0.0000 ( 18588 PWs)   bands (ev):

   -13.8450 -13.4056 -12.6795 -11.6695 -10.4165  -9.0207  -7.7182  -7.6799
    -7.3150  -7.0701  -4.6865  -4.6406  -3.7613  -3.7317  -3.4480  -2.4425
    -1.5398  -1.4784  -0.7716  -0.5555  -0.4296   0.2643   0.5292   0.5348
     0.6986   0.8674   1.1725   1.8367   1.9270   2.4454   2.7677   3.2800
     3.6118   3.8970   4.3411   4.5390   4.6721   4.8904   5.0700   5.5398
     6.0539   6.3640   9.1900   9.6018  11.8474  12.4978  12.9780  13.0066
    13.2977  13.5202

          k = 0.0998-0.2006 0.0000 ( 18563 PWs)   bands (ev):

   -13.2949 -12.8613 -12.1472 -11.1625  -9.9783  -9.5495  -9.1482  -8.8399
    -8.4574  -8.1305  -5.3936  -5.1862  -4.2312  -3.9643  -2.6548  -2.4193
    -1.5105  -0.8383  -0.1390  -0.0205   0.4986   1.0577   1.0609   1.2013
     1.2669   1.5999   1.9639   2.2162   2.5497   2.7222   3.1294   3.3035
     3.5153   3.5883   3.6196   3.7727   3.8183   4.1160   4.6126   5.1428
     5.7628   5.8592   9.8414  10.2105  12.4121  12.4545  13.0208  13.4572
    13.6190  14.1668

          k = 0.0998-0.3009 0.0000 ( 18556 PWs)   bands (ev):

   -12.3861 -11.9667 -11.2904 -11.1313 -10.7076 -10.4016  -9.9830  -9.4351
    -9.0214  -8.6544  -5.8497  -5.4223  -4.7867  -4.0209  -3.1624  -2.3160
    -1.3832  -0.4858   0.1300   1.0117   1.0417   1.4338   1.6654   1.9286
     2.2517   2.3105   2.3340   2.6744   2.7461   2.8848   3.1095   3.1447
     3.2324   3.3850   3.4756   3.6685   3.7897   4.0281   4.4183   4.4818
     4.7628   4.7767  10.8641  11.1103  12.2267  12.2716  12.7164  13.1835
    13.3139  13.9309

          k = 0.1996-0.0000 0.0000 ( 18601 PWs)   bands (ev):

   -13.4830 -13.0444 -12.3190 -11.3080 -10.0471  -8.6169  -7.1376  -5.8287
    -5.6345  -5.2528  -5.1479  -5.0835  -4.6196  -3.7225  -2.5767  -1.9936
    -1.6179  -1.5851  -1.3869  -1.2435  -1.2125  -0.6107  -0.4748  -0.2623
     0.1985   0.2124   0.7615   0.9186   1.1407   1.7805   2.0400   2.0883
     2.8878   3.1764   3.4380   3.4709   3.8269   3.9889   4.0031   4.4500
     4.9958   6.1137   9.5377   9.8834  11.7030  11.8870  12.1251  12.4180
    13.0197  13.2117

          k = 0.1996-0.1003 0.0000 ( 18549 PWs)   bands (ev):

   -13.3002 -12.8634 -12.1416 -11.1377  -9.8926  -8.5076  -7.2775  -7.2323
    -6.9030  -6.6347  -4.4221  -4.3764  -3.7351  -3.6870  -3.4847  -2.2436
    -1.7311  -1.5832  -1.0840  -0.9261  -0.7325  -0.3744  -0.1370   0.1521
     0.3484   0.7842   0.8326   1.1430   1.5385   1.5853   2.2487   2.2540
     2.6815   2.7359   2.8233   2.8768   3.1600   3.7262   4.5159   4.7649
     5.4113   5.7211   9.7799  10.1327  12.2443  12.4867  12.5641  12.8515
    13.1392  13.3411

          k = 0.1996-0.2006 0.0000 ( 18536 PWs)   bands (ev):

   -12.7544 -12.3238 -11.6147 -10.6373  -9.4633  -9.0685  -8.6724  -8.3472
    -7.9822  -7.6565  -4.9608  -4.7767  -3.8400  -3.5956  -2.6365  -2.5368
    -2.1351  -1.3526  -1.0720  -0.5078  -0.1756  -0.1392   0.6145   0.9413
     1.1304   1.1847   1.2318   1.7267   1.8028   1.8664   1.9122   1.9633
     2.1037   2.2791   2.5520   2.7111   3.2606   3.4413   4.5038   4.5072
     5.3292   5.5598  10.4445  10.7758  13.0108  13.5013  13.6183  13.6835
    13.9465  13.9813

          k = 0.1996-0.3009 0.0000 ( 18533 PWs)   bands (ev):

   -11.8545 -11.4387 -10.7685 -10.6164 -10.1976  -9.8892  -9.4811  -8.9359
    -8.5303  -8.1680  -5.3817  -4.9584  -4.3525  -3.5892  -2.8033  -1.9579
    -1.4782  -1.4715  -0.5197  -0.4298  -0.2431  -0.1542   0.4056   0.4405
     0.7532   0.9727   1.2217   1.3644   1.6048   1.8632   2.4014   2.9187
     3.0715   3.1175   3.2688   3.3949   3.4385   3.4692   3.8831   4.3373
     4.6987   4.7493  11.4451  11.6782  12.8937  12.9411  13.9330  14.0713
    14.3427  14.5103

          k = 0.2993-0.0000 0.0000 ( 18564 PWs)   bands (ev):

   -12.5810 -12.1466 -11.4284 -10.4272  -9.1787  -7.7637  -6.4116  -6.3032
    -6.0220  -5.3763  -5.0164  -4.4661  -4.3456  -4.2703  -3.3116  -2.3204
    -1.9778  -1.9581  -1.3818  -1.2629  -0.9153  -0.6859  -0.6180  -0.5360
    -0.0012   0.2421   0.4936   0.9212   0.9676   1.0489   1.6436   1.6617
     1.7906   1.8254   1.9313   2.1139   2.3989   2.6663   2.7367   3.0267
     4.4409   5.5124  10.4691  10.7093  11.4143  11.4830  12.1394  12.4989
    13.0782  13.3526

          k = 0.2993-0.1003 0.0000 ( 18545 PWs)   bands (ev):

   -12.4009 -11.9686 -11.2544 -10.2610  -9.0293  -7.6629  -6.9674  -6.6449
    -6.3519  -6.1288  -4.6802  -4.5852  -4.5171  -4.4043  -3.5853  -2.3460
    -2.2217  -1.7865  -1.5866  -1.1307  -1.0084  -0.7558  -0.0876   0.1650
     0.1906   0.4884   0.5957   0.6723   0.8012   0.8451   1.2080   1.3479
     1.5291   1.6927   1.8355   1.9491   2.7474   2.7624   3.4805   3.7902
     4.2494   5.2666  10.7313  10.9853  12.0378  12.0518  12.4473  12.6770
    13.1925  13.2807

          k = 0.2993-0.2006 0.0000 ( 18570 PWs)   bands (ev):

   -11.8645 -11.4391 -10.7388  -9.7738  -8.6180  -8.3570  -7.9662  -7.5680
    -7.2403  -6.9090  -4.5000  -4.4266  -4.3029  -4.0770  -3.8798  -3.2216
    -2.3513  -1.9772  -1.7732  -1.1203  -1.0357  -1.0067  -0.7755  -0.7539
     0.0249   0.2449   0.4985   0.5482   1.4626   1.6138   1.7567   1.7734
     1.9409   2.0983   2.1015   2.3912   2.4588   3.0206   3.6378   4.0655
     4.7018   4.7201  11.3808  11.6164  13.0653  13.1460  13.4891  13.6813
    13.7564  14.0682

          k = 0.2993-0.3009 0.0000 ( 18605 PWs)   bands (ev):

   -10.9850 -10.5754  -9.9160  -9.7911  -9.3804  -9.0540  -8.6756  -8.1243
    -7.7354  -7.3733  -4.7179  -4.2889  -3.8278  -3.6304  -3.2881  -3.0826
    -2.9569  -2.4779  -2.1677  -2.0309  -1.6017  -1.4273  -0.7975  -0.6997
    -0.5638  -0.3208   0.0481   0.6798   1.4826   1.7586   1.9873   2.3241
     2.5294   2.5527   2.9014   3.1147   3.3758   3.4528   3.6244   3.6295
     4.3316   4.5119  12.2393  12.3688  13.6600  13.6947  14.0997  14.1955
    14.6278  14.8086

          k = 0.3991-0.0000 0.0000 ( 18524 PWs)   bands (ev):

   -11.3397 -10.9116 -10.2040  -9.2174  -8.0479  -7.9865  -7.6415  -6.9693
    -6.5921  -6.0281  -5.1551  -4.8467  -3.8922  -3.4991  -3.2311  -3.1422
    -2.0903  -1.7617  -1.4418  -0.9429  -0.8098  -0.3522  -0.3134  -0.1277
    -0.1276  -0.0053   0.2511   0.3356   0.4587   0.8492   0.9689   1.0098
     1.1226   1.1447   1.2920   1.3060   1.4364   1.4846   2.2954   2.5806
     3.5993   4.6510  11.2297  11.3085  11.6469  12.0292  12.4222  12.6142
    12.8049  12.9507

          k = 0.3991-0.1003 0.0000 ( 18559 PWs)   bands (ev):

   -11.1657 -10.7401 -10.0372  -9.0592  -7.9778  -7.8477  -7.5758  -6.9217
    -6.4959  -6.0239  -5.0926  -4.7875  -4.4566  -4.2302  -4.2126  -3.4974
    -2.2092  -1.5656  -1.4828  -1.4261  -1.3022  -1.2462  -0.7630  -0.7018
    -0.3021   0.1978   0.5964   0.7325   0.7796   0.8358   0.9361   1.0572
     1.1447   1.3479   1.6998   1.9058   1.9156   2.3374   2.3883   2.7088
     3.5155   4.5701  11.8381  11.8424  11.9486  12.0060  12.4833  12.4963
    13.0596  13.4509

          k = 0.3991-0.2006 0.0000 ( 18596 PWs)   bands (ev):

   -10.6513 -10.2338  -9.5467  -8.6002  -8.0297  -7.6698  -7.4284  -7.0394
    -6.2910  -6.2468  -5.6213  -5.2965  -4.8598  -4.7587  -4.6146  -3.6113
    -3.0826  -2.8515  -2.5707  -2.4521  -2.1741  -1.6871  -1.4699  -0.6777
    -0.2961  -0.1357   0.4706   0.5486   0.9028   1.2306   1.2843   1.6478
     1.8276   2.0091   2.0689   2.3258   2.4445   3.0461   3.1205   3.2808
     3.6512   4.3288  12.3913  12.5159  12.9553  12.9936  13.3829  13.4346
    13.6385  13.8928

          k = 0.3991-0.3009 0.0000 ( 18635 PWs)   bands (ev):

    -9.8285  -9.4284  -8.8056  -8.7856  -8.4048  -7.9658  -7.6957  -7.0859
    -6.7247  -6.3268  -5.5102  -5.1476  -4.6815  -4.5219  -4.3461  -4.1967
    -4.1405  -3.9788  -3.5897  -3.3551  -2.0642  -1.8257  -1.4311  -1.3539
    -0.8332  -0.2983   0.3340   0.6016   0.6187   1.1243   1.4200   1.6358
     2.0911   2.3880   2.6816   2.8651   3.1240   3.4248   3.5795   3.5981
     3.9860   4.1311  12.9767  13.0015  14.0328  14.1110  14.3027  14.4650
    14.7572  14.8807

          k =-0.4989 0.0000 0.0000 ( 18558 PWs)   bands (ev):

    -9.7963  -9.7963  -9.3772  -9.3772  -8.6845  -8.6845  -7.7175  -7.7175
    -6.5094  -6.5094  -5.1393  -5.1393  -3.7245  -3.7245  -2.4752  -2.4752
    -1.8171  -1.8171  -1.7124  -1.7124  -0.5516  -0.5516  -0.3017  -0.3017
     0.0553   0.0553   0.4201   0.4201   0.5668   0.5668   0.6229   0.6229
     0.7901   0.7901   0.8019   0.8019   1.3144   1.3144   2.5562   2.5562
     3.6260   3.6260  11.7230  11.7230  11.8920  11.8920  12.3381  12.3381
    12.9538  12.9538

          k =-0.4989-0.1003 0.0000 ( 18580 PWs)   bands (ev):

    -9.6399  -9.6399  -9.2240  -9.2240  -8.5372  -8.5372  -7.5804  -7.5804
    -6.3911  -6.3911  -5.0635  -5.0635  -3.7772  -3.7772  -3.1541  -3.1541
    -2.9416  -2.9416  -2.9312  -2.9312  -0.4675  -0.4675  -0.4024  -0.4024
     0.0912   0.0912   0.4583   0.4583   0.7332   0.7332   0.9018   0.9018
     1.1842   1.1842   1.3941   1.3941   1.6817   1.6817   2.6432   2.6432
     3.6705   3.6705  12.0551  12.0551  12.2121  12.2121  12.6158  12.6158
    13.0659  13.0659

          k =-0.4989-0.2006 0.0000 ( 18622 PWs)   bands (ev):

    -9.2018  -9.2018  -8.7963  -8.7963  -8.1289  -8.1289  -7.2054  -7.2054
    -6.0805  -6.0805  -4.9379  -4.9379  -4.7621  -4.7621  -4.4901  -4.4901
    -4.0278  -4.0278  -4.0001  -4.0001  -1.1859  -1.1859  -0.8104  -0.8104
    -0.4206  -0.4206   0.1490   0.1490   0.9369   0.9369   1.2189   1.2189
     1.9712   1.9712   2.3829   2.3829   2.5913   2.5913   2.9671   2.9671
     3.7713   3.7713  12.8793  12.8793  13.0221  13.0221  13.3450  13.3450
    13.7428  13.7428

          k =-0.4989-0.3009 0.0000 ( 18590 PWs)   bands (ev):

    -8.6654  -8.6654  -8.2777  -8.2777  -7.6429  -7.6429  -6.7766  -6.7766
    -5.9642  -5.9642  -5.8123  -5.8123  -5.5139  -5.5139  -5.0991  -5.0991
    -4.6661  -4.6661  -4.4920  -4.4920  -1.3848  -1.3848  -1.3608  -1.3608
    -0.4071  -0.4071  -0.2680  -0.2680   0.8686   0.8686   1.2203   1.2203
     2.1261   2.1261   2.6990   2.6990   3.1567   3.1567   3.7293   3.7293
     3.8654   3.8654  13.5846  13.5846  13.6060  13.6060  14.7173  14.7173
    14.8792  14.8792

     the Fermi energy is     7.7907 ev

!    total energy              =    -373.41726151 Ry
     estimated scf accuracy    <          4.0E-12 Ry
     smearing contrib. (-TS)   =       0.00000000 Ry
     internal energy E=F+TS    =    -373.41726151 Ry

     The total energy is F=E-TS. E is the sum of the following terms:
     one-electron contribution =   -2448.85393777 Ry
     hartree contribution      =    1269.25002217 Ry
     xc contribution           =     -96.48055046 Ry
     ewald contribution        =    1025.92375174 Ry
     one-center paw contrib.   =    -123.25654718 Ry

     convergence has been achieved in  10 iterations

     negative rho (up, down):  3.711E-06 0.000E+00

     Forces acting on atoms (cartesian axes, Ry/au):

     atom    1 type  1   force =     0.00000000   -0.00004410    0.00001001
     atom    2 type  1   force =     0.00000000    0.00004410    0.00001001
     atom    3 type  1   force =     0.00000000   -0.00000864   -0.00013595
     atom    4 type  1   force =     0.00000000    0.00000864   -0.00013595
     atom    5 type  1   force =     0.00000000   -0.00003070   -0.00004190
     atom    6 type  1   force =    -0.00000000    0.00003070   -0.00004190
     atom    7 type  1   force =     0.00000000   -0.00001761    0.00013868
     atom    8 type  1   force =     0.00000000    0.00001761    0.00013868
     atom    9 type  1   force =    -0.00000000    0.00002788    0.00009811
     atom   10 type  1   force =     0.00000000   -0.00002788    0.00009811
     atom   11 type  1   force =     0.00000000   -0.00002788   -0.00009811
     atom   12 type  1   force =    -0.00000000    0.00002788   -0.00009811
     atom   13 type  1   force =     0.00000000   -0.00001761   -0.00013868
     atom   14 type  1   force =     0.00000000    0.00001761   -0.00013868
     atom   15 type  1   force =     0.00000000   -0.00003070    0.00004190
     atom   16 type  1   force =    -0.00000000    0.00003070    0.00004190
     atom   17 type  1   force =    -0.00000000    0.00000864    0.00013595
     atom   18 type  1   force =    -0.00000000   -0.00000864    0.00013595
     atom   19 type  1   force =     0.00000000    0.00004410   -0.00001001
     atom   20 type  1   force =    -0.00000000   -0.00004410   -0.00001001
     atom   21 type  2   force =     0.00000000   -0.00004326    0.00007538
     atom   22 type  2   force =    -0.00000000    0.00004326    0.00007538
     atom   23 type  2   force =    -0.00000000    0.00004326   -0.00007538
     atom   24 type  2   force =    -0.00000000   -0.00004326   -0.00007538

     Total force =     0.000493     Total SCF correction =     0.000007


     Computing stress (Cartesian axis) and pressure


     negative rho (up, down):  3.711E-06 0.000E+00
          total   stress  (Ry/bohr**3)                   (kbar)     P=       -0.00
   0.00000017   0.00000000   0.00000000            0.03        0.00        0.00
   0.00000000  -0.00000014   0.00000000            0.00       -0.02        0.00
   0.00000000   0.00000000  -0.00000011            0.00        0.00       -0.02

     Energy error            =      1.7E-06 Ry
     Gradient error          =      1.4E-04 Ry/Bohr
     Cell gradient error     =      2.6E-02 kbar

     number of scf cycles    =  16
     number of bfgs steps    =  15

     enthalpy           old  =    -373.4172598596 Ry
     enthalpy           new  =    -373.4172615121 Ry

     CASE: enthalpy          _new < enthalpy          _old

     new trust radius        =       0.0001972732 bohr
     Message from routine volume:
     axis vectors are left-handed
     new conv_thr            =            1.0E-11 Ry

     new unit-cell volume =   1300.12228 a.u.^3 (   192.65825 Ang^3 )
     density =      2.10523 g/cm^3

CELL_PARAMETERS (angstrom)
   2.531936253   0.000000000   0.000000000
   0.000000000  -3.597998060   0.000000000
   0.000000000   0.000000000  21.148224330

ATOMIC_POSITIONS (crystal)
C                0.5000000000        0.4942426523        0.7672689102
C                0.0000000000        0.2557573477        0.7672689102
C                0.0000000000       -0.0009475678        0.7090294890
C                0.5000000000        0.7509475678        0.7090294890
C                0.0000000000        0.2498456493        0.6491998922
C                0.5000000000        0.5001543507        0.6491998922
C                0.5000000000        0.7500160340        0.5895235800
C                0.0000000000       -0.0000160340        0.5895235800
C               -0.0000000000        0.2500325186        0.5298395572
C                0.5000000000        0.4999674814        0.5298395572
C                0.0000000000       -0.0000325186        0.4701604428
C                0.5000000000        0.7500325186        0.4701604428
C                0.0000000000        0.2500160340        0.4104764200
C                0.5000000000        0.4999839660        0.4104764200
C                0.5000000000        0.7498456493        0.3508001078
C               -0.0000000000        0.0001543507        0.3508001078
C               -0.0000000000        0.2509475678        0.2909705110
C                0.5000000000        0.4990524322        0.2909705110
C                0.5000000000        0.7557573477        0.2327310898
C               -0.0000000000       -0.0057573477        0.2327310898
H                0.5000000000        0.6599643186        0.8109571989
H               -0.0000000000        0.0900356814        0.8109571989
H                0.5000000000        0.5900356814        0.1890428011
H               -0.0000000000        0.1599643186        0.1890428011



     Writing config-only to output data dir /tmp/qe/slab.save/ :
     XML data file
     NEW-OLD atomic charge density approx. for the potential

     Check: negative core charge=   -0.000001

     negative rho (up, down):  3.713E-06 0.000E+00

     total cpu time spent up to now is      873.0 secs

     Self-consistent Calculation

     iteration #  1     ecut=    90.00 Ry     beta= 0.30
     Davidson diagonalization with overlap
     ethr =  1.00E-06,  avg # of iterations =  2.0

     Threshold (ethr) on eigenvalues was too large:
     Diagonalizing with lowered threshold

     Davidson diagonalization with overlap
     ethr =  5.12E-11,  avg # of iterations =  5.0

     negative rho (up, down):  3.713E-06 0.000E+00

     total cpu time spent up to now is      882.5 secs

     total energy              =    -373.41726170 Ry
     estimated scf accuracy    <       0.00000005 Ry

     iteration #  2     ecut=    90.00 Ry     beta= 0.30
     Davidson diagonalization with overlap
     ethr =  6.27E-11,  avg # of iterations =  2.0

     negative rho (up, down):  3.713E-06 0.000E+00

     total cpu time spent up to now is      886.2 secs

     total energy              =    -373.41726170 Ry
     estimated scf accuracy    <       0.00000001 Ry

     iteration #  3     ecut=    90.00 Ry     beta= 0.30
     Davidson diagonalization with overlap
     ethr =  1.40E-11,  avg # of iterations =  1.8

     negative rho (up, down):  3.714E-06 0.000E+00

     total cpu time spent up to now is      889.7 secs

     total energy              =    -373.41726170 Ry
     estimated scf accuracy    <          3.2E-09 Ry

     iteration #  4     ecut=    90.00 Ry     beta= 0.30
     Davidson diagonalization with overlap
     ethr =  3.80E-12,  avg # of iterations =  1.8

     negative rho (up, down):  3.714E-06 0.000E+00

     total cpu time spent up to now is      893.2 secs

     total energy              =    -373.41726170 Ry
     estimated scf accuracy    <          3.9E-10 Ry

     iteration #  5     ecut=    90.00 Ry     beta= 0.30
     Davidson diagonalization with overlap
     ethr =  4.59E-13,  avg # of iterations =  2.1

     negative rho (up, down):  3.714E-06 0.000E+00

     total cpu time spent up to now is      897.2 secs

     total energy              =    -373.41726170 Ry
     estimated scf accuracy    <          3.2E-11 Ry

     iteration #  6     ecut=    90.00 Ry     beta= 0.30
     Davidson diagonalization with overlap
     ethr =  1.00E-13,  avg # of iterations =  1.8

     negative rho (up, down):  3.714E-06 0.000E+00

     total cpu time spent up to now is      900.7 secs

     total energy              =    -373.41726170 Ry
     estimated scf accuracy    <          1.0E-11 Ry

     iteration #  7     ecut=    90.00 Ry     beta= 0.30
     Davidson diagonalization with overlap
     ethr =  1.00E-13,  avg # of iterations =  1.0

     negative rho (up, down):  3.714E-06 0.000E+00

     total cpu time spent up to now is      904.0 secs

     End of self-consistent calculation

          k = 0.0000-0.0000 0.0000 ( 18619 PWs)   bands (ev):

   -14.2119 -13.7704 -13.0389 -12.0205 -10.7500  -9.3076  -7.8124  -6.4833
    -5.7930  -5.7378  -5.6841  -5.2943  -4.6461  -3.7286  -2.6190  -2.5557
    -2.2464  -1.9697  -1.1879  -0.9468  -0.8843   0.3042   0.3103   0.4772
     0.8632   1.2055   1.7631   1.9327   2.0364   2.5230   3.4302   3.6343
     3.6548   4.3821   5.1394   5.2644   5.3038   5.9993   6.3513   6.5290
     6.5419   6.8626   8.7782   9.2061  11.4663  11.8417  12.1863  12.5760
    12.6058  12.7107

          k = 0.0000-0.1003 0.0000 ( 18587 PWs)   bands (ev):

   -14.0274 -13.5876 -12.8593 -11.8475 -10.5919  -9.1926  -7.8828  -7.8278
    -7.4637  -7.2222  -4.8040  -4.7638  -3.8458  -3.8391  -3.4788  -2.5374
    -1.5979  -1.5558  -0.8250  -0.5594  -0.5328   0.4863   0.5511   0.8174
     1.0411   1.3745   1.8874   1.9149   2.4562   2.6448   3.3604   3.5006
     4.0386   4.3675   4.8402   5.1216   5.3638   5.6888   6.0391   6.0491
     6.2234   6.2926   8.9923   9.4210  11.6482  11.6981  12.3248  12.8058
    12.8480  13.2032

          k = 0.0000-0.2006 0.0000 ( 18570 PWs)   bands (ev):

   -13.4760 -13.0418 -12.3253 -11.3384 -10.1510  -9.7146  -9.3117  -9.0060
    -8.6188  -8.2908  -5.5490  -5.3339  -4.3800  -4.0999  -2.7686  -2.5365
    -1.4282  -0.8890  -0.0298   0.2173   0.8697   1.1133   1.2026   1.5660
     1.5688   1.8734   2.3585   2.4843   2.7874   2.9924   3.5437   3.6867
     4.0909   4.2998   4.5881   4.7129   4.8990   4.9477   4.9692   5.0159
     5.4676   5.5110   9.6306   9.9960  11.7066  12.0250  12.4103  12.8557
    13.0097  13.2942

          k = 0.0000-0.3009 0.0000 ( 18524 PWs)   bands (ev):

   -12.5647 -12.1444 -11.4653 -11.3051 -10.8801 -10.5736 -10.1522  -9.6030
    -9.1868  -8.8177  -6.0126  -5.5831  -4.9403  -4.1727  -3.3004  -2.4531
    -1.4867  -0.5868   0.2400   1.2175   1.8704   1.8847   2.4252   2.5373
     2.6730   2.8532   3.0025   3.0490   3.3739   3.4764   3.5929   3.7094
     3.8003   3.8653   3.9516   3.9597   4.2000   4.2194   4.2490   4.2953
     4.4983   4.5106  10.6397  10.8321  11.7458  11.9402  12.1041  12.6167
    12.8424  13.3210

          k = 0.0998-0.0000 0.0000 ( 18585 PWs)   bands (ev):

   -14.0291 -13.5885 -12.8582 -11.8418 -10.5737  -9.1343  -7.6431  -6.3192
    -5.6315  -5.6258  -5.5739  -5.2389  -4.5956  -3.6853  -2.5219  -2.4595
    -2.0849  -1.8216  -1.1665  -0.8172  -0.7319   0.0077   0.3158   0.3632
     0.4596   0.5587   0.9414   1.7245   1.9188   2.0534   2.6544   3.5422
     3.6107   3.6184   4.4938   4.8646   5.1279   5.2815   5.6654   5.8141
     5.9415   6.4427   8.9599   9.3722  11.5761  12.3309  12.4937  12.7395
    12.9288  13.0127

          k = 0.0998-0.1003 0.0000 ( 18588 PWs)   bands (ev):

   -13.8451 -13.4060 -12.6792 -11.6694 -10.4164  -9.0206  -7.7180  -7.6799
    -7.3153  -7.0698  -4.6864  -4.6405  -3.7614  -3.7316  -3.4479  -2.4424
    -1.5395  -1.4785  -0.7715  -0.5555  -0.4297   0.2642   0.5290   0.5349
     0.6984   0.8675   1.1728   1.8367   1.9271   2.4456   2.7678   3.2800
     3.6119   3.8972   4.3412   4.5389   4.6720   4.8905   5.0700   5.5398
     6.0538   6.3640   9.1901   9.6018  11.8474  12.4977  12.9778  13.0068
    13.2976  13.5202

          k = 0.0998-0.2006 0.0000 ( 18563 PWs)   bands (ev):

   -13.2949 -12.8617 -12.1468 -11.1623  -9.9783  -9.5495  -9.1485  -8.8397
    -8.4572  -8.1304  -5.3935  -5.1862  -4.2311  -3.9644  -2.6546  -2.4191
    -1.5105  -0.8382  -0.1390  -0.0209   0.4989   1.0577   1.0608   1.2014
     1.2669   1.5996   1.9643   2.2162   2.5498   2.7223   3.1294   3.3037
     3.5155   3.5882   3.6192   3.7725   3.8185   4.1161   4.6125   5.1428
     5.7627   5.8593   9.8415  10.2105  12.4121  12.4545  13.0207  13.4572
    13.6188  14.1670

          k = 0.0998-0.3009 0.0000 ( 18556 PWs)   bands (ev):

   -12.3862 -11.9671 -11.2900 -11.1313 -10.7079 -10.4014  -9.9828  -9.4350
    -9.0214  -8.6544  -5.8498  -5.4223  -4.7868  -4.0209  -3.1622  -2.3156
    -1.3834  -0.4857   0.1300   1.0116   1.0416   1.4336   1.6657   1.9285
     2.2517   2.3106   2.3337   2.6744   2.7463   2.8849   3.1095   3.1446
     3.2323   3.3849   3.4759   3.6685   3.7897   4.0281   4.4183   4.4819
     4.7627   4.7770  10.8642  11.1103  12.2267  12.2717  12.7164  13.1835
    13.3140  13.9310

          k = 0.1996-0.0000 0.0000 ( 18601 PWs)   bands (ev):

   -13.4831 -13.0448 -12.3187 -11.3079 -10.0471  -8.6169  -7.1375  -5.8286
    -5.6345  -5.2532  -5.1479  -5.0834  -4.6192  -3.7223  -2.5767  -1.9935
    -1.6178  -1.5852  -1.3870  -1.2435  -1.2129  -0.6104  -0.4747  -0.2623
     0.1986   0.2125   0.7615   0.9186   1.1408   1.7806   2.0400   2.0883
     2.8878   3.1765   3.4382   3.4710   3.8268   3.9889   4.0029   4.4500
     4.9958   6.1137   9.5378   9.8834  11.7032  11.8868  12.1252  12.4182
    13.0195  13.2118

          k = 0.1996-0.1003 0.0000 ( 18549 PWs)   bands (ev):

   -13.3003 -12.8638 -12.1413 -11.1376  -9.8926  -8.5075  -7.2775  -7.2321
    -6.9034  -6.6344  -4.4220  -4.3762  -3.7354  -3.6869  -3.4847  -2.2436
    -1.7309  -1.5833  -1.0840  -0.9260  -0.7324  -0.3746  -0.1370   0.1522
     0.3487   0.7842   0.8327   1.1430   1.5384   1.5854   2.2487   2.2541
     2.6817   2.7359   2.8232   2.8770   3.1599   3.7264   4.5159   4.7649
     5.4114   5.7210   9.7800  10.1328  12.2444  12.4866  12.5644  12.8516
    13.1392  13.3413

          k = 0.1996-0.2006 0.0000 ( 18536 PWs)   bands (ev):

   -12.7545 -12.3242 -11.6144 -10.6371  -9.4633  -9.0685  -8.6727  -8.3470
    -7.9821  -7.6565  -4.9608  -4.7767  -3.8399  -3.5956  -2.6366  -2.5369
    -2.1349  -1.3525  -1.0719  -0.5079  -0.1755  -0.1391   0.6145   0.9413
     1.1304   1.1846   1.2316   1.7267   1.8027   1.8666   1.9123   1.9634
     2.1037   2.2791   2.5520   2.7112   3.2607   3.4413   4.5038   4.5073
     5.3292   5.5599  10.4446  10.7758  13.0107  13.5014  13.6184  13.6836
    13.9465  13.9814

          k = 0.1996-0.3009 0.0000 ( 18533 PWs)   bands (ev):

   -11.8546 -11.4390 -10.7682 -10.6165 -10.1980  -9.8890  -9.4809  -8.9358
    -8.5302  -8.1679  -5.3817  -4.9585  -4.3525  -3.5893  -2.8031  -1.9575
    -1.4783  -1.4718  -0.5196  -0.4300  -0.2432  -0.1542   0.4057   0.4404
     0.7535   0.9726   1.2219   1.3644   1.6048   1.8632   2.4014   2.9189
     3.0714   3.1173   3.2688   3.3949   3.4384   3.4694   3.8832   4.3374
     4.6989   4.7492  11.4451  11.6782  12.8939  12.9412  13.9331  14.0714
    14.3427  14.5102

          k = 0.2993-0.0000 0.0000 ( 18564 PWs)   bands (ev):

   -12.5811 -12.1470 -11.4281 -10.4272  -9.1787  -7.7637  -6.4117  -6.3031
    -6.0224  -5.3759  -5.0162  -4.4660  -4.3456  -4.2702  -3.3116  -2.3205
    -1.9778  -1.9584  -1.3814  -1.2628  -0.9151  -0.6860  -0.6179  -0.5360
    -0.0011   0.2422   0.4937   0.9213   0.9676   1.0490   1.6436   1.6618
     1.7906   1.8254   1.9313   2.1140   2.3992   2.6661   2.7366   3.0267
     4.4409   5.5124  10.4692  10.7093  11.4144  11.4831  12.1396  12.4989
    13.0782  13.3528

          k = 0.2993-0.1003 0.0000 ( 18545 PWs)   bands (ev):

   -12.4010 -11.9690 -11.2541 -10.2609  -9.0293  -7.6629  -6.9675  -6.6452
    -6.3519  -6.1285  -4.6803  -4.5851  -4.5168  -4.4046  -3.5853  -2.3460
    -2.2216  -1.7864  -1.5868  -1.1306  -1.0084  -0.7558  -0.0875   0.1652
     0.1907   0.4883   0.5958   0.6721   0.8014   0.8452   1.2079   1.3479
     1.5292   1.6927   1.8356   1.9492   2.7475   2.7626   3.4804   3.7902
     4.2495   5.2666  10.7314  10.9853  12.0379  12.0519  12.4474  12.6770
    13.1926  13.2807

          k = 0.2993-0.2006 0.0000 ( 18570 PWs)   bands (ev):

   -11.8646 -11.4395 -10.7385  -9.7737  -8.6179  -8.3571  -7.9666  -7.5677
    -7.2402  -6.9089  -4.5000  -4.4266  -4.3030  -4.0774  -3.8795  -3.2216
    -2.3512  -1.9772  -1.7730  -1.1201  -1.0358  -1.0067  -0.7759  -0.7538
     0.0250   0.2451   0.4985   0.5483   1.4627   1.6137   1.7567   1.7735
     1.9409   2.0981   2.1017   2.3912   2.4589   3.0207   3.6378   4.0656
     4.7018   4.7202  11.3808  11.6164  13.0655  13.1461  13.4892  13.6813
    13.7564  14.0683

          k = 0.2993-0.3009 0.0000 ( 18605 PWs)   bands (ev):

   -10.9851 -10.5758  -9.9156  -9.7911  -9.3808  -9.0538  -8.6753  -8.1242
    -7.7353  -7.3733  -4.7180  -4.2890  -3.8278  -3.6305  -3.2885  -3.0826
    -2.9565  -2.4780  -2.1681  -2.0305  -1.6016  -1.4272  -0.7972  -0.6996
    -0.5637  -0.3209   0.0480   0.6798   1.4826   1.7586   1.9873   2.3241
     2.5295   2.5526   2.9013   3.1148   3.3761   3.4529   3.6244   3.6295
     4.3316   4.5120  12.2393  12.3687  13.6601  13.6947  14.0998  14.1956
    14.6281  14.8085

          k = 0.3991-0.0000 0.0000 ( 18524 PWs)   bands (ev):

   -11.3398 -10.9121 -10.2037  -9.2173  -8.0480  -7.9864  -7.6419  -6.9689
    -6.5921  -6.0280  -5.1550  -4.8467  -3.8921  -3.4991  -3.2312  -3.1421
    -2.0903  -1.7617  -1.4421  -0.9425  -0.8097  -0.3521  -0.3133  -0.1277
    -0.1276  -0.0052   0.2510   0.3356   0.4587   0.8493   0.9684   1.0103
     1.1221   1.1448   1.2924   1.3064   1.4365   1.4846   2.2954   2.5806
     3.5994   4.6510  11.2297  11.3086  11.6469  12.0292  12.4224  12.6143
    12.8050  12.9507

          k = 0.3991-0.1003 0.0000 ( 18559 PWs)   bands (ev):

   -11.1658 -10.7405 -10.0369  -9.0591  -7.9780  -7.8477  -7.5762  -6.9214
    -6.4959  -6.0238  -5.0925  -4.7875  -4.4566  -4.2300  -4.2129  -3.4974
    -2.2091  -1.5655  -1.4827  -1.4262  -1.3019  -1.2465  -0.7632  -0.7017
    -0.3020   0.1980   0.5965   0.7326   0.7796   0.8358   0.9362   1.0573
     1.1447   1.3480   1.6998   1.9058   1.9158   2.3374   2.3882   2.7088
     3.5155   4.5700  11.8380  11.8424  11.9487  12.0061  12.4834  12.4964
    13.0598  13.4509

          k = 0.3991-0.2006 0.0000 ( 18596 PWs)   bands (ev):

   -10.6515 -10.2342  -9.5464  -8.6001  -8.0298  -7.6701  -7.4284  -7.0390
    -6.2909  -6.2467  -5.6214  -5.2967  -4.8595  -4.7587  -4.6146  -3.6112
    -3.0827  -2.8516  -2.5709  -2.4519  -2.1740  -1.6871  -1.4698  -0.6778
    -0.2960  -0.1355   0.4705   0.5486   0.9029   1.2306   1.2844   1.6479
     1.8277   2.0091   2.0690   2.3258   2.4446   3.0461   3.1205   3.2808
     3.6512   4.3287  12.3913  12.5158  12.9554  12.9937  13.3828  13.4347
    13.6385  13.8931

          k = 0.3991-0.3009 0.0000 ( 18635 PWs)   bands (ev):

    -9.8286  -9.4288  -8.8057  -8.7852  -8.4052  -7.9655  -7.6955  -7.0858
    -6.7247  -6.3268  -5.5103  -5.1479  -4.6811  -4.5219  -4.3461  -4.1966
    -4.1408  -3.9788  -3.5895  -3.3551  -2.0642  -1.8257  -1.4312  -1.3539
    -0.8330  -0.2981   0.3340   0.6015   0.6187   1.1244   1.4200   1.6358
     2.0912   2.3882   2.6817   2.8651   3.1239   3.4249   3.5796   3.5980
     3.9860   4.1312  12.9766  13.0015  14.0328  14.1109  14.3026  14.4650
    14.7573  14.8807

          k =-0.4989 0.0000 0.0000 ( 18558 PWs)   bands (ev):

    -9.7964  -9.7964  -9.3777  -9.3777  -8.6842  -8.6842  -7.7174  -7.7174
    -6.5094  -6.5094  -5.1393  -5.1393  -3.7245  -3.7245  -2.4751  -2.4751
    -1.8171  -1.8171  -1.7123  -1.7123  -0.5516  -0.5516  -0.3020  -0.3020
     0.0556   0.0556   0.4201   0.4201   0.5668   0.5668   0.6230   0.6230
     0.7902   0.7902   0.8021   0.8021   1.3143   1.3143   2.5563   2.5563
     3.6260   3.6260  11.7231  11.7231  11.8921  11.8921  12.3381  12.3381
    12.9539  12.9539

          k =-0.4989-0.1003 0.0000 ( 18580 PWs)   bands (ev):

    -9.6400  -9.6400  -9.2245  -9.2245  -8.5369  -8.5369  -7.5803  -7.5803
    -6.3911  -6.3911  -5.0635  -5.0635  -3.7771  -3.7771  -3.1541  -3.1541
    -2.9413  -2.9413  -2.9315  -2.9315  -0.4675  -0.4675  -0.4023  -0.4023
     0.0913   0.0913   0.4581   0.4581   0.7332   0.7332   0.9019   0.9019
     1.1844   1.1844   1.3943   1.3943   1.6815   1.6815   2.6432   2.6432
     3.6705   3.6705  12.0552  12.0552  12.2122  12.2122  12.6158  12.6158
    13.0659  13.0659

          k =-0.4989-0.2006 0.0000 ( 18622 PWs)   bands (ev):

    -9.2019  -9.2019  -8.7968  -8.7968  -8.1285  -8.1285  -7.2053  -7.2053
    -6.0805  -6.0805  -4.9378  -4.9378  -4.7622  -4.7622  -4.4903  -4.4903
    -4.0276  -4.0276  -4.0001  -4.0001  -1.1859  -1.1859  -0.8105  -0.8105
    -0.4206  -0.4206   0.1489   0.1489   0.9371   0.9371   1.2191   1.2191
     1.9713   1.9713   2.3829   2.3829   2.5913   2.5913   2.9672   2.9672
     3.7713   3.7713  12.8794  12.8794  13.0221  13.0221  13.3450  13.3450
    13.7429  13.7429

          k =-0.4989-0.3009 0.0000 ( 18590 PWs)   bands (ev):

    -8.6655  -8.6655  -8.2781  -8.2781  -7.6425  -7.6425  -6.7765  -6.7765
    -5.9642  -5.9642  -5.8123  -5.8123  -5.5143  -5.5143  -5.0987  -5.0987
    -4.6661  -4.6661  -4.4919  -4.4919  -1.3848  -1.3848  -1.3609  -1.3609
    -0.4071  -0.4071  -0.2680  -0.2680   0.8688   0.8688   1.2205   1.2205
     2.1260   2.1260   2.6991   2.6991   3.1566   3.1566   3.7294   3.7294
     3.8654   3.8654  13.5845  13.5845  13.6058  13.6058  14.7178  14.7178
    14.8790  14.8790

     the Fermi energy is     7.7907 ev

!    total energy              =    -373.41726170 Ry
     estimated scf accuracy    <          6.0E-13 Ry
     smearing contrib. (-TS)   =       0.00000000 Ry
     internal energy E=F+TS    =    -373.41726170 Ry

     The total energy is F=E-TS. E is the sum of the following terms:
     one-electron contribution =   -2448.91792980 Ry
     hartree contribution      =    1269.28204662 Ry
     xc contribution           =     -96.48055723 Ry
     ewald contribution        =    1025.95572620 Ry
     one-center paw contrib.   =    -123.25654749 Ry

     convergence has been achieved in   7 iterations

     negative rho (up, down):  3.714E-06 0.000E+00

     Forces acting on atoms (cartesian axes, Ry/au):

     atom    1 type  1   force =     0.00000000   -0.00002291    0.00001356
     atom    2 type  1   force =    -0.00000000    0.00002291    0.00001356
     atom    3 type  1   force =    -0.00000000   -0.00000549   -0.00004353
     atom    4 type  1   force =     0.00000000    0.00000549   -0.00004353
     atom    5 type  1   force =     0.00000000   -0.00001077   -0.00001675
     atom    6 type  1   force =     0.00000000    0.00001077   -0.00001675
     atom    7 type  1   force =    -0.00000000   -0.00000834    0.00004778
     atom    8 type  1   force =    -0.00000000    0.00000834    0.00004778
     atom    9 type  1   force =    -0.00000000    0.00000745    0.00003520
     atom   10 type  1   force =     0.00000000   -0.00000745    0.00003520
     atom   11 type  1   force =    -0.00000000   -0.00000745   -0.00003520
     atom   12 type  1   force =    -0.00000000    0.00000745   -0.00003520
     atom   13 type  1   force =     0.00000000   -0.00000834   -0.00004778
     atom   14 type  1   force =    -0.00000000    0.00000834   -0.00004778
     atom   15 type  1   force =     0.00000000   -0.00001077    0.00001675
     atom   16 type  1   force =    -0.00000000    0.00001077    0.00001675
     atom   17 type  1   force =     0.00000000    0.00000549    0.00004353
     atom   18 type  1   force =     0.00000000   -0.00000549    0.00004353
     atom   19 type  1   force =     0.00000000    0.00002291   -0.00001356
     atom   20 type  1   force =    -0.00000000   -0.00002291   -0.00001356
     atom   21 type  2   force =     0.00000000   -0.00001194    0.00003166
     atom   22 type  2   force =    -0.00000000    0.00001194    0.00003166
     atom   23 type  2   force =     0.00000000    0.00001194   -0.00003166
     atom   24 type  2   force =     0.00000000   -0.00001194   -0.00003166

     Total force =     0.000177     Total SCF correction =     0.000002


     Computing stress (Cartesian axis) and pressure


     negative rho (up, down):  3.714E-06 0.000E+00
          total   stress  (Ry/bohr**3)                   (kbar)     P=       -0.00
   0.00000005   0.00000000   0.00000000            0.01        0.00        0.00
   0.00000000  -0.00000006   0.00000000            0.00       -0.01        0.00
   0.00000000   0.00000000  -0.00000006            0.00        0.00       -0.01

     Energy error            =      1.9E-07 Ry
     Gradient error          =      4.8E-05 Ry/Bohr
     Cell gradient error     =      8.4E-03 kbar
     Message from routine volume:
     axis vectors are left-handed

     bfgs converged in  17 scf cycles and  16 bfgs steps
     (criteria: energy <  1.0E-05 Ry, force <  1.0E-04 Ry/Bohr, cell <  1.0E-01 kbar)

     End of BFGS Geometry Optimization

     Final enthalpy           =    -373.4172617029 Ry

     File /tmp/qe/slab.bfgs deleted, as requested
Begin final coordinates
     new unit-cell volume =   1300.12228 a.u.^3 (   192.65825 Ang^3 )
     density =      2.10523 g/cm^3

CELL_PARAMETERS (angstrom)
   2.531936253   0.000000000   0.000000000
   0.000000000  -3.597998060   0.000000000
   0.000000000   0.000000000  21.148224330

ATOMIC_POSITIONS (crystal)
C                0.5000000000        0.4942426523        0.7672689102
C                0.0000000000        0.2557573477        0.7672689102
C                0.0000000000       -0.0009475678        0.7090294890
C                0.5000000000        0.7509475678        0.7090294890
C                0.0000000000        0.2498456493        0.6491998922
C                0.5000000000        0.5001543507        0.6491998922
C                0.5000000000        0.7500160340        0.5895235800
C                0.0000000000       -0.0000160340        0.5895235800
C               -0.0000000000        0.2500325186        0.5298395572
C                0.5000000000        0.4999674814        0.5298395572
C                0.0000000000       -0.0000325186        0.4701604428
C                0.5000000000        0.7500325186        0.4701604428
C                0.0000000000        0.2500160340        0.4104764200
C                0.5000000000        0.4999839660        0.4104764200
C                0.5000000000        0.7498456493        0.3508001078
C               -0.0000000000        0.0001543507        0.3508001078
C               -0.0000000000        0.2509475678        0.2909705110
C                0.5000000000        0.4990524322        0.2909705110
C                0.5000000000        0.7557573477        0.2327310898
C               -0.0000000000       -0.0057573477        0.2327310898
H                0.5000000000        0.6599643186        0.8109571989
H               -0.0000000000        0.0900356814        0.8109571989
H                0.5000000000        0.5900356814        0.1890428011
H               -0.0000000000        0.1599643186        0.1890428011
End final coordinates



     Writing config-only to output data dir /tmp/qe/slab.save/ :
     XML data file

     Final scf calculation at the relaxed structure.
     The G-vectors are recalculated for the final unit cell
     Results may differ from those at the preceding step.

     Parallelization info
     --------------------
     sticks:   dense  smooth     PW     G-vecs:    dense   smooth      PW
     Min         233     117     34                53038    18753    2950
     Max         234     118     35                53050    18762    2958
     Sum        1871     937    273               424347   150061   23631

     Using Slab Decomposition



     bravais-lattice index     =            0
     lattice parameter (alat)  =       4.7740  a.u.
     unit-cell volume          =    1300.1223 (a.u.)^3
     number of atoms/cell      =           24
     number of atomic types    =            2
     number of electrons       =        84.00
     number of Kohn-Sham states=           50
     kinetic-energy cutoff     =      90.0000  Ry
     charge density cutoff     =     720.0000  Ry
     scf convergence threshold =      1.0E-11
     mixing beta               =       0.3000
     number of iterations used =            8  plain     mixing
     press convergence thresh. =      1.0E-01
     Exchange-correlation= PBE
                           (   1   4   3   4   0   0   0)

     celldm(1)=   4.773978  celldm(2)=   0.000000  celldm(3)=   0.000000
     celldm(4)=   0.000000  celldm(5)=   0.000000  celldm(6)=   0.000000

     crystal axes: (cart. coord. in units of alat)
               a(1) = (   1.002239   0.000000   0.000000 )  
               a(2) = (   0.000000  -1.424228   0.000000 )  
               a(3) = (   0.000000   0.000000   8.371289 )  

     reciprocal axes: (cart. coord. in units 2 pi/alat)
               b(1) = (  0.997766 -0.000000 -0.000000 )  
               b(2) = ( -0.000000 -0.702135 -0.000000 )  
               b(3) = ( -0.000000 -0.000000  0.119456 )  


     PseudoPot. # 1 for C  read from file:
     ./C.pbe-n-kjpaw_psl.1.0.0.UPF
     MD5 check sum: 5d2aebdfa2cae82b50a7e79e9516da0f
     Pseudo is Projector augmented-wave + core cor, Zval =  4.0
     Generated using "atomic" code by A. Dal Corso  v.5.1
     Shape of augmentation charge: PSQ
     Using radial grid of 1073 points,  4 beta functions with: 
                l(1) =   0
                l(2) =   0
                l(3) =   1
                l(4) =   1
     Q(r) pseudized with 0 coefficients 


     PseudoPot. # 2 for H  read from file:
     ./H_ONCV_PBE-1.0.oncvpsp.upf
     MD5 check sum: 1790becc920ee074925cf490c71280fe
     Pseudo is Norm-conserving, Zval =  1.0
     Generated using ONCVPSP code by D. R. Hamann
     Using radial grid of 1166 points,  2 beta functions with: 
                l(1) =   0
                l(2) =   0

     atomic species   valence    mass     pseudopotential
     C                 4.00    12.01100     C ( 1.00)
     H                 1.00     1.00800     H ( 1.00)

      8 Sym. Ops., with inversion, found ( 6 have fractional translation)



   Cartesian axes

     site n.     atom                  positions (alat units)
         1        C      tau(   1) = (   0.5011194  -0.7039140   6.4230301  )
         2        C      tau(   2) = (   0.0000000  -0.3642567   6.4230301  )
         3        C      tau(   3) = (   0.0000000   0.0013496   5.9354910  )
         4        C      tau(   4) = (   0.5011194  -1.0695202   5.9354910  )
         5        C      tau(   5) = (   0.0000000  -0.3558370   5.4346402  )
         6        C      tau(   6) = (   0.5011194  -0.7123336   5.4346402  )
         7        C      tau(   7) = (   0.5011194  -1.0681935   4.9350725  )
         8        C      tau(   8) = (   0.0000000   0.0000228   4.9350725  )
         9        C      tau(   9) = (  -0.0000000  -0.3561032   4.4354403  )
        10        C      tau(  10) = (   0.5011194  -0.7120674   4.4354403  )
        11        C      tau(  11) = (   0.0000000   0.0000463   3.9358491  )
        12        C      tau(  12) = (   0.5011194  -1.0682170   3.9358491  )
        13        C      tau(  13) = (   0.0000000  -0.3560797   3.4362169  )
        14        C      tau(  14) = (   0.5011194  -0.7120909   3.4362169  )
        15        C      tau(  15) = (   0.5011194  -1.0679508   2.9366492  )
        16        C      tau(  16) = (  -0.0000000  -0.0002198   2.9366492  )
        17        C      tau(  17) = (  -0.0000000  -0.3574064   2.4357984  )
        18        C      tau(  18) = (   0.5011194  -0.7107642   2.4357984  )
        19        C      tau(  19) = (   0.5011194  -1.0763704   1.9482593  )
        20        C      tau(  20) = (  -0.0000000   0.0081998   1.9482593  )
        21        H      tau(  21) = (   0.5011194  -0.9399393   6.7887574  )
        22        H      tau(  22) = (  -0.0000000  -0.1282313   6.7887574  )
        23        H      tau(  23) = (   0.5011194  -0.8403451   1.5825320  )
        24        H      tau(  24) = (  -0.0000000  -0.2278256   1.5825320  )

     number of k points=    24  Marzari-Vanderbilt smearing, width (Ry)=  0.0100
                       cart. coord. in units 2pi/alat
        k(    1) = (   0.0000000  -0.0000000   0.0000000), wk =   0.0285714
        k(    2) = (   0.0000000  -0.1003050   0.0000000), wk =   0.0571429
        k(    3) = (   0.0000000  -0.2006100   0.0000000), wk =   0.0571429
        k(    4) = (   0.0000000  -0.3009150   0.0000000), wk =   0.0571429
        k(    5) = (   0.0997766  -0.0000000   0.0000000), wk =   0.0571429
        k(    6) = (   0.0997766  -0.1003050   0.0000000), wk =   0.1142857
        k(    7) = (   0.0997766  -0.2006100   0.0000000), wk =   0.1142857
        k(    8) = (   0.0997766  -0.3009150   0.0000000), wk =   0.1142857
        k(    9) = (   0.1995532  -0.0000000   0.0000000), wk =   0.0571429
        k(   10) = (   0.1995532  -0.1003050   0.0000000), wk =   0.1142857
        k(   11) = (   0.1995532  -0.2006100   0.0000000), wk =   0.1142857
        k(   12) = (   0.1995532  -0.3009150   0.0000000), wk =   0.1142857
        k(   13) = (   0.2993299  -0.0000000   0.0000000), wk =   0.0571429
        k(   14) = (   0.2993299  -0.1003050   0.0000000), wk =   0.1142857
        k(   15) = (   0.2993299  -0.2006100   0.0000000), wk =   0.1142857
        k(   16) = (   0.2993299  -0.3009150   0.0000000), wk =   0.1142857
        k(   17) = (   0.3991065  -0.0000000   0.0000000), wk =   0.0571429
        k(   18) = (   0.3991065  -0.1003050   0.0000000), wk =   0.1142857
        k(   19) = (   0.3991065  -0.2006100   0.0000000), wk =   0.1142857
        k(   20) = (   0.3991065  -0.3009150   0.0000000), wk =   0.1142857
        k(   21) = (  -0.4988831   0.0000000   0.0000000), wk =   0.0285714
        k(   22) = (  -0.4988831  -0.1003050   0.0000000), wk =   0.0571429
        k(   23) = (  -0.4988831  -0.2006100   0.0000000), wk =   0.0571429
        k(   24) = (  -0.4988831  -0.3009150   0.0000000), wk =   0.0571429

     Dense  grid:   424347 G-vectors     FFT dimensions: (  48,  60, 360)

     Smooth grid:   150061 G-vectors     FFT dimensions: (  30,  48, 243)

     Estimated max dynamical RAM per process >     168.43 MB

     Estimated total dynamical RAM >       1.32 GB

     Check: negative core charge=   -0.000001

     Initial potential from superposition of free atoms

     starting charge      83.9991, renormalised to      84.0000
     Starting wfcs are   84 randomized atomic wfcs
     Checking if some PAW data can be deallocated... 

     total cpu time spent up to now is      919.5 secs

     Self-consistent Calculation

     iteration #  1     ecut=    90.00 Ry     beta= 0.30
     Davidson diagonalization with overlap
     c_bands:  5 eigenvalues not converged
     c_bands:  4 eigenvalues not converged
     c_bands:  3 eigenvalues not converged
     c_bands:  2 eigenvalues not converged
     c_bands:  4 eigenvalues not converged
     c_bands:  4 eigenvalues not converged
     c_bands:  5 eigenvalues not converged
     c_bands:  4 eigenvalues not converged
     c_bands:  1 eigenvalues not converged
     c_bands:  2 eigenvalues not converged
     c_bands:  4 eigenvalues not converged
     c_bands:  5 eigenvalues not converged
     c_bands:  2 eigenvalues not converged
     c_bands:  3 eigenvalues not converged
     c_bands:  5 eigenvalues not converged
     c_bands:  2 eigenvalues not converged
     c_bands:  2 eigenvalues not converged
     c_bands:  2 eigenvalues not converged
     c_bands:  2 eigenvalues not converged
     c_bands:  2 eigenvalues not converged
     c_bands:  4 eigenvalues not converged
     ethr =  1.00E-06,  avg # of iterations = 21.5

     total cpu time spent up to now is      934.7 secs

     total energy              =    -373.53392454 Ry
     estimated scf accuracy    <       1.69811531 Ry

     iteration #  2     ecut=    90.00 Ry     beta= 0.30
     Davidson diagonalization with overlap
     ethr =  2.02E-03,  avg # of iterations =  2.0

     negative rho (up, down):  7.433E-07 0.000E+00

     total cpu time spent up to now is      938.2 secs

     total energy              =    -373.38454303 Ry
     estimated scf accuracy    <       0.54148562 Ry

     iteration #  3     ecut=    90.00 Ry     beta= 0.30
     Davidson diagonalization with overlap
     ethr =  6.45E-04,  avg # of iterations =  5.7

     negative rho (up, down):  1.982E-06 0.000E+00

     total cpu time spent up to now is      942.6 secs

     total energy              =    -373.41298940 Ry
     estimated scf accuracy    <       0.05578269 Ry

     iteration #  4     ecut=    90.00 Ry     beta= 0.30
     Davidson diagonalization with overlap
     ethr =  6.64E-05,  avg # of iterations =  4.9

     negative rho (up, down):  2.735E-06 0.000E+00

     total cpu time spent up to now is      946.8 secs

     total energy              =    -373.41667913 Ry
     estimated scf accuracy    <       0.00581283 Ry

     iteration #  5     ecut=    90.00 Ry     beta= 0.30
     Davidson diagonalization with overlap
     ethr =  6.92E-06,  avg # of iterations =  7.0

     negative rho (up, down):  2.778E-06 0.000E+00

     total cpu time spent up to now is      951.6 secs

     total energy              =    -373.41716403 Ry
     estimated scf accuracy    <       0.00089556 Ry

     iteration #  6     ecut=    90.00 Ry     beta= 0.30
     Davidson diagonalization with overlap
     ethr =  1.07E-06,  avg # of iterations =  5.5

     negative rho (up, down):  2.645E-06 0.000E+00

     total cpu time spent up to now is      956.2 secs

     total energy              =    -373.41724085 Ry
     estimated scf accuracy    <       0.00019692 Ry

     iteration #  7     ecut=    90.00 Ry     beta= 0.30
     Davidson diagonalization with overlap
     ethr =  2.34E-07,  avg # of iterations =  2.1

     negative rho (up, down):  2.653E-06 0.000E+00

     total cpu time spent up to now is      960.2 secs

     total energy              =    -373.41726151 Ry
     estimated scf accuracy    <       0.00004623 Ry

     iteration #  8     ecut=    90.00 Ry     beta= 0.30
     Davidson diagonalization with overlap
     ethr =  5.50E-08,  avg # of iterations =  2.2

     negative rho (up, down):  2.562E-06 0.000E+00

     total cpu time spent up to now is      964.3 secs

     total energy              =    -373.41727275 Ry
     estimated scf accuracy    <       0.00001277 Ry

     iteration #  9     ecut=    90.00 Ry     beta= 0.30
     Davidson diagonalization with overlap
     ethr =  1.52E-08,  avg # of iterations =  2.2

     negative rho (up, down):  2.556E-06 0.000E+00

     total cpu time spent up to now is      968.4 secs

     total energy              =    -373.41727631 Ry
     estimated scf accuracy    <       0.00000246 Ry

     iteration # 10     ecut=    90.00 Ry     beta= 0.30
     Davidson diagonalization with overlap
     ethr =  2.93E-09,  avg # of iterations =  2.2

     negative rho (up, down):  2.555E-06 0.000E+00

     total cpu time spent up to now is      972.4 secs

     total energy              =    -373.41727673 Ry
     estimated scf accuracy    <       0.00000031 Ry

     iteration # 11     ecut=    90.00 Ry     beta= 0.30
     Davidson diagonalization with overlap
     ethr =  3.75E-10,  avg # of iterations =  2.2

     negative rho (up, down):  2.561E-06 0.000E+00

     total cpu time spent up to now is      976.3 secs

     total energy              =    -373.41727677 Ry
     estimated scf accuracy    <       0.00000005 Ry

     iteration # 12     ecut=    90.00 Ry     beta= 0.30
     Davidson diagonalization with overlap
     ethr =  6.11E-11,  avg # of iterations =  3.5

     negative rho (up, down):  2.568E-06 0.000E+00

     total cpu time spent up to now is      980.9 secs

     total energy              =    -373.41727678 Ry
     estimated scf accuracy    <       0.00000003 Ry

     iteration # 13     ecut=    90.00 Ry     beta= 0.30
     Davidson diagonalization with overlap
     ethr =  3.30E-11,  avg # of iterations =  2.2

     negative rho (up, down):  2.575E-06 0.000E+00

     total cpu time spent up to now is      985.0 secs

     total energy              =    -373.41727679 Ry
     estimated scf accuracy    <          8.6E-10 Ry

     iteration # 14     ecut=    90.00 Ry     beta= 0.30
     Davidson diagonalization with overlap
     ethr =  1.03E-12,  avg # of iterations =  3.8

     negative rho (up, down):  2.580E-06 0.000E+00

     total cpu time spent up to now is      989.8 secs

     total energy              =    -373.41727679 Ry
     estimated scf accuracy    <          3.3E-10 Ry

     iteration # 15     ecut=    90.00 Ry     beta= 0.30
     Davidson diagonalization with overlap
     ethr =  3.98E-13,  avg # of iterations =  2.0

     negative rho (up, down):  2.584E-06 0.000E+00

     total cpu time spent up to now is      993.9 secs

     total energy              =    -373.41727678 Ry
     estimated scf accuracy    <          3.6E-11 Ry

     iteration # 16     ecut=    90.00 Ry     beta= 0.30
     Davidson diagonalization with overlap
     ethr =  1.00E-13,  avg # of iterations =  2.1

     negative rho (up, down):  2.587E-06 0.000E+00

     total cpu time spent up to now is      997.9 secs

     total energy              =    -373.41727678 Ry
     estimated scf accuracy    <          1.4E-11 Ry

     iteration # 17     ecut=    90.00 Ry     beta= 0.30
     Davidson diagonalization with overlap
     ethr =  1.00E-13,  avg # of iterations =  1.5

     negative rho (up, down):  2.594E-06 0.000E+00

     total cpu time spent up to now is     1001.3 secs

     End of self-consistent calculation

          k = 0.0000-0.0000 0.0000 ( 18779 PWs)   bands (ev):

   -14.2119 -13.7704 -13.0389 -12.0205 -10.7500  -9.3076  -7.8124  -6.4833
    -5.7930  -5.7378  -5.6841  -5.2943  -4.6461  -3.7286  -2.6190  -2.5557
    -2.2464  -1.9697  -1.1879  -0.9468  -0.8843   0.3042   0.3103   0.4772
     0.8632   1.2055   1.7631   1.9327   2.0364   2.5230   3.4302   3.6343
     3.6548   4.3821   5.1394   5.2644   5.3038   5.9993   6.3513   6.5290
     6.5419   6.8626   8.7777   9.2058  11.4659  11.8418  12.1864  12.5760
    12.6059  12.7105

          k = 0.0000-0.1003 0.0000 ( 18761 PWs)   bands (ev):

   -14.0274 -13.5876 -12.8593 -11.8475 -10.5919  -9.1926  -7.8828  -7.8278
    -7.4637  -7.2222  -4.8040  -4.7638  -3.8458  -3.8391  -3.4789  -2.5374
    -1.5979  -1.5558  -0.8250  -0.5594  -0.5328   0.4863   0.5511   0.8174
     1.0411   1.3745   1.8874   1.9149   2.4562   2.6448   3.3604   3.5006
     4.0386   4.3675   4.8402   5.1216   5.3638   5.6888   6.0391   6.0491
     6.2233   6.2926   8.9918   9.4208  11.6478  11.6981  12.3248  12.8058
    12.8481  13.3885

          k = 0.0000-0.2006 0.0000 ( 18740 PWs)   bands (ev):

   -13.4760 -13.0418 -12.3253 -11.3384 -10.1510  -9.7146  -9.3117  -9.0060
    -8.6188  -8.2908  -5.5490  -5.3339  -4.3800  -4.0999  -2.7686  -2.5365
    -1.4282  -0.8890  -0.0298   0.2173   0.8697   1.1133   1.2026   1.5660
     1.5688   1.8734   2.3585   2.4843   2.7874   2.9924   3.5437   3.6867
     4.0909   4.2998   4.5881   4.7129   4.8990   4.9477   4.9692   5.0159
     5.4676   5.5110   9.6301   9.9958  11.7065  12.0247  12.4103  12.8556
    13.0096  13.2941

          k = 0.0000-0.3009 0.0000 ( 18720 PWs)   bands (ev):

   -12.5647 -12.1444 -11.4653 -11.3051 -10.8801 -10.5736 -10.1522  -9.6030
    -9.1868  -8.8178  -6.0126  -5.5831  -4.9403  -4.1727  -3.3004  -2.4531
    -1.4867  -0.5868   0.2400   1.2175   1.8704   1.8847   2.4252   2.5373
     2.6730   2.8532   3.0025   3.0490   3.3739   3.4764   3.5929   3.7094
     3.8003   3.8653   3.9516   3.9597   4.2000   4.2194   4.2490   4.2953
     4.4983   4.5106  10.6393  10.8319  11.7458  11.9400  12.1039  12.6165
    12.8423  13.3208

          k = 0.0998-0.0000 0.0000 ( 18781 PWs)   bands (ev):

   -14.0292 -13.5885 -12.8583 -11.8418 -10.5737  -9.1343  -7.6431  -6.3192
    -5.6315  -5.6258  -5.5739  -5.2389  -4.5956  -3.6853  -2.5219  -2.4595
    -2.0849  -1.8216  -1.1665  -0.8172  -0.7319   0.0077   0.3158   0.3632
     0.4596   0.5587   0.9414   1.7245   1.9188   2.0534   2.6544   3.5422
     3.6107   3.6184   4.4938   4.8646   5.1279   5.2815   5.6654   5.8141
     5.9415   6.4427   8.9594   9.3720  11.5757  12.3309  12.4937  12.7395
    12.9287  13.0127

          k = 0.0998-0.1003 0.0000 ( 18773 PWs)   bands (ev):

   -13.8451 -13.4061 -12.6792 -11.6694 -10.4165  -9.0207  -7.7181  -7.6799
    -7.3154  -7.0698  -4.6864  -4.6405  -3.7614  -3.7316  -3.4479  -2.4424
    -1.5395  -1.4785  -0.7715  -0.5555  -0.4297   0.2642   0.5290   0.5349
     0.6984   0.8675   1.1728   1.8367   1.9271   2.4456   2.7677   3.2799
     3.6119   3.8972   4.3412   4.5389   4.6719   4.8905   5.0700   5.5398
     6.0538   6.3640   9.1896   9.6016  11.8470  12.4977  12.9778  13.0068
    13.2976  13.4664

          k = 0.0998-0.2006 0.0000 ( 18725 PWs)   bands (ev):

   -13.2949 -12.8617 -12.1468 -11.1624  -9.9783  -9.5495  -9.1485  -8.8397
    -8.4572  -8.1304  -5.3935  -5.1862  -4.2312  -3.9644  -2.6546  -2.4192
    -1.5105  -0.8382  -0.1391  -0.0209   0.4989   1.0577   1.0608   1.2014
     1.2669   1.5996   1.9643   2.2162   2.5498   2.7223   3.1294   3.3037
     3.5155   3.5882   3.6192   3.7725   3.8185   4.1161   4.6125   5.1428
     5.7627   5.8593   9.8411  10.2103  12.4117  12.4544  13.0207  13.4571
    13.6188  14.1670

          k = 0.0998-0.3009 0.0000 ( 18715 PWs)   bands (ev):

   -12.3862 -11.9671 -11.2900 -11.1313 -10.7080 -10.4014  -9.9828  -9.4351
    -9.0214  -8.6544  -5.8498  -5.4223  -4.7868  -4.0209  -3.1622  -2.3156
    -1.3834  -0.4857   0.1300   1.0116   1.0416   1.4336   1.6657   1.9285
     2.2517   2.3105   2.3337   2.6744   2.7463   2.8849   3.1095   3.1446
     3.2323   3.3849   3.4759   3.6685   3.7897   4.0281   4.4183   4.4819
     4.7627   4.7770  10.8638  11.1101  12.2266  12.2714  12.7163  13.1832
    13.3138  13.9308

          k = 0.1996-0.0000 0.0000 ( 18769 PWs)   bands (ev):

   -13.4831 -13.0448 -12.3187 -11.3079 -10.0471  -8.6169  -7.1375  -5.8286
    -5.6345  -5.2533  -5.1479  -5.0834  -4.6192  -3.7223  -2.5767  -1.9935
    -1.6178  -1.5852  -1.3870  -1.2435  -1.2129  -0.6104  -0.4747  -0.2623
     0.1986   0.2124   0.7615   0.9186   1.1408   1.7806   2.0400   2.0883
     2.8878   3.1765   3.4381   3.4710   3.8268   3.9889   4.0029   4.4500
     4.9958   6.1137   9.5374   9.8832  11.7031  11.8868  12.1249  12.4182
    13.0194  13.2117

          k = 0.1996-0.1003 0.0000 ( 18735 PWs)   bands (ev):

   -13.3003 -12.8638 -12.1413 -11.1376  -9.8926  -8.5075  -7.2775  -7.2322
    -6.9034  -6.6344  -4.4220  -4.3762  -3.7354  -3.6869  -3.4847  -2.2436
    -1.7309  -1.5833  -1.0840  -0.9260  -0.7324  -0.3746  -0.1370   0.1522
     0.3486   0.7842   0.8327   1.1430   1.5384   1.5854   2.2487   2.2541
     2.6817   2.7359   2.8232   2.8770   3.1599   3.7264   4.5159   4.7649
     5.4114   5.7210   9.7796  10.1326  12.2441  12.4866  12.5642  12.8516
    13.1392  13.3412

          k = 0.1996-0.2006 0.0000 ( 18718 PWs)   bands (ev):

   -12.7545 -12.3242 -11.6144 -10.6372  -9.4633  -9.0685  -8.6727  -8.3470
    -7.9821  -7.6565  -4.9608  -4.7767  -3.8399  -3.5956  -2.6366  -2.5369
    -2.1349  -1.3525  -1.0719  -0.5079  -0.1755  -0.1391   0.6145   0.9413
     1.1304   1.1846   1.2316   1.7267   1.8027   1.8666   1.9123   1.9634
     2.1037   2.2791   2.5520   2.7112   3.2607   3.4413   4.5038   4.5073
     5.3292   5.5599  10.4442  10.7756  13.0103  13.5014  13.6184  13.6836
    13.9469  13.9813

          k = 0.1996-0.3009 0.0000 ( 18706 PWs)   bands (ev):

   -11.8546 -11.4391 -10.7682 -10.6165 -10.1980  -9.8890  -9.4809  -8.9358
    -8.5302  -8.1679  -5.3817  -4.9585  -4.3525  -3.5893  -2.8031  -1.9576
    -1.4783  -1.4718  -0.5196  -0.4300  -0.2432  -0.1542   0.4057   0.4404
     0.7534   0.9726   1.2219   1.3644   1.6048   1.8632   2.4014   2.9189
     3.0714   3.1173   3.2688   3.3949   3.4384   3.4694   3.8832   4.3374
     4.6989   4.7492  11.4448  11.6780  12.8936  12.9410  13.9331  14.0710
    14.3431  14.4823

          k = 0.2993-0.0000 0.0000 ( 18722 PWs)   bands (ev):

   -12.5811 -12.1470 -11.4281 -10.4272  -9.1787  -7.7637  -6.4117  -6.3031
    -6.0224  -5.3759  -5.0163  -4.4660  -4.3456  -4.2702  -3.3116  -2.3205
    -1.9778  -1.9584  -1.3814  -1.2628  -0.9151  -0.6860  -0.6179  -0.5360
    -0.0011   0.2422   0.4937   0.9213   0.9676   1.0490   1.6436   1.6618
     1.7906   1.8254   1.9313   2.1140   2.3992   2.6661   2.7366   3.0267
     4.4409   5.5124  10.4688  10.7092  11.4144  11.4830  12.1395  12.4988
    13.0778  13.3528

          k = 0.2993-0.1003 0.0000 ( 18721 PWs)   bands (ev):

   -12.4010 -11.9690 -11.2541 -10.2609  -9.0293  -7.6629  -6.9675  -6.6452
    -6.3519  -6.1285  -4.6803  -4.5851  -4.5168  -4.4046  -3.5853  -2.3460
    -2.2216  -1.7864  -1.5868  -1.1306  -1.0084  -0.7558  -0.0875   0.1652
     0.1907   0.4883   0.5958   0.6721   0.8014   0.8451   1.2079   1.3479
     1.5292   1.6927   1.8356   1.9492   2.7474   2.7626   3.4804   3.7902
     4.2495   5.2666  10.7311  10.9852  12.0378  12.0519  12.4473  12.6770
    13.1925  13.2804

          k = 0.2993-0.2006 0.0000 ( 18744 PWs)   bands (ev):

   -11.8646 -11.4395 -10.7385  -9.7737  -8.6179  -8.3571  -7.9666  -7.5677
    -7.2402  -6.9089  -4.5000  -4.4266  -4.3030  -4.0774  -3.8795  -3.2216
    -2.3512  -1.9772  -1.7730  -1.1201  -1.0358  -1.0067  -0.7759  -0.7538
     0.0250   0.2451   0.4985   0.5483   1.4627   1.6137   1.7567   1.7735
     1.9409   2.0981   2.1017   2.3912   2.4589   3.0207   3.6378   4.0656
     4.7018   4.7202  11.3805  11.6162  13.0655  13.1461  13.4891  13.6813
    13.7560  14.0365

          k = 0.2993-0.3009 0.0000 ( 18761 PWs)   bands (ev):

   -10.9851 -10.5758  -9.9156  -9.7911  -9.3808  -9.0538  -8.6753  -8.1242
    -7.7353  -7.3733  -4.7180  -4.2890  -3.8278  -3.6305  -3.2886  -3.0826
    -2.9565  -2.4780  -2.1681  -2.0305  -1.6016  -1.4272  -0.7972  -0.6996
    -0.5637  -0.3209   0.0480   0.6798   1.4826   1.7586   1.9873   2.3241
     2.5295   2.5526   2.9013   3.1148   3.3761   3.4529   3.6244   3.6295
     4.3316   4.5120  12.2391  12.3686  13.6599  13.6946  14.0998  14.1956
    14.6286  14.8088

          k = 0.3991-0.0000 0.0000 ( 18738 PWs)   bands (ev):

   -11.3398 -10.9121 -10.2037  -9.2173  -8.0480  -7.9865  -7.6419  -6.9689
    -6.5921  -6.0280  -5.1550  -4.8467  -3.8921  -3.4991  -3.2312  -3.1421
    -2.0903  -1.7617  -1.4421  -0.9425  -0.8097  -0.3521  -0.3133  -0.1277
    -0.1276  -0.0052   0.2510   0.3356   0.4587   0.8493   0.9684   1.0103
     1.1221   1.1448   1.2924   1.3064   1.4365   1.4846   2.2954   2.5806
     3.5994   4.6510  11.2297  11.3086  11.6468  12.0291  12.4223  12.6141
    12.8050  12.9507

          k = 0.3991-0.1003 0.0000 ( 18744 PWs)   bands (ev):

   -11.1658 -10.7405 -10.0369  -9.0591  -7.9780  -7.8477  -7.5762  -6.9214
    -6.4959  -6.0238  -5.0925  -4.7875  -4.4566  -4.2300  -4.2129  -3.4974
    -2.2091  -1.5655  -1.4827  -1.4262  -1.3019  -1.2465  -0.7632  -0.7017
    -0.3020   0.1980   0.5965   0.7326   0.7796   0.8358   0.9362   1.0573
     1.1447   1.3480   1.6998   1.9058   1.9158   2.3374   2.3882   2.7088
     3.5155   4.5700  11.8379  11.8424  11.9487  12.0060  12.4834  12.4963
    13.0596  13.4512

          k = 0.3991-0.2006 0.0000 ( 18765 PWs)   bands (ev):

   -10.6515 -10.2342  -9.5464  -8.6001  -8.0298  -7.6701  -7.4284  -7.0390
    -6.2909  -6.2467  -5.6214  -5.2968  -4.8595  -4.7587  -4.6146  -3.6112
    -3.0827  -2.8516  -2.5709  -2.4519  -2.1740  -1.6871  -1.4698  -0.6778
    -0.2960  -0.1355   0.4705   0.5486   0.9029   1.2306   1.2844   1.6479
     1.8277   2.0091   2.0689   2.3258   2.4446   3.0461   3.1205   3.2808
     3.6512   4.3287  12.3912  12.5157  12.9554  12.9936  13.3828  13.4347
    13.6385  13.8933

          k = 0.3991-0.3009 0.0000 ( 18793 PWs)   bands (ev):

    -9.8286  -9.4288  -8.8057  -8.7852  -8.4052  -7.9655  -7.6955  -7.0858
    -6.7247  -6.3268  -5.5103  -5.1479  -4.6811  -4.5219  -4.3461  -4.1966
    -4.1408  -3.9788  -3.5895  -3.3551  -2.0642  -1.8257  -1.4312  -1.3539
    -0.8330  -0.2981   0.3340   0.6015   0.6187   1.1244   1.4200   1.6358
     2.0912   2.3881   2.6817   2.8651   3.1239   3.4249   3.5796   3.5980
     3.9860   4.1312  12.9766  13.0014  14.0327  14.1108  14.3026  14.4649
    14.7572  14.8807

          k =-0.4989 0.0000 0.0000 ( 18718 PWs)   bands (ev):

    -9.7964  -9.7964  -9.3777  -9.3777  -8.6842  -8.6842  -7.7175  -7.7175
    -6.5094  -6.5094  -5.1393  -5.1393  -3.7245  -3.7245  -2.4751  -2.4751
    -1.8172  -1.8172  -1.7123  -1.7123  -0.5516  -0.5516  -0.3020  -0.3020
     0.0556   0.0556   0.4201   0.4201   0.5668   0.5668   0.6230   0.6230
     0.7902   0.7902   0.8021   0.8021   1.3143   1.3143   2.5563   2.5563
     3.6260   3.6260  11.7231  11.7231  11.8921  11.8921  12.3381  12.3381
    12.9539  12.9539

          k =-0.4989-0.1003 0.0000 ( 18764 PWs)   bands (ev):

    -9.6400  -9.6400  -9.2245  -9.2245  -8.5369  -8.5369  -7.5803  -7.5803
    -6.3911  -6.3911  -5.0635  -5.0635  -3.7771  -3.7771  -3.1541  -3.1541
    -2.9413  -2.9413  -2.9315  -2.9315  -0.4675  -0.4675  -0.4023  -0.4023
     0.0913   0.0913   0.4581   0.4581   0.7332   0.7332   0.9019   0.9019
     1.1844   1.1844   1.3943   1.3943   1.6815   1.6815   2.6432   2.6432
     3.6705   3.6705  12.0552  12.0552  12.2122  12.2122  12.6158  12.6158
    13.0658  13.0658

          k =-0.4989-0.2006 0.0000 ( 18762 PWs)   bands (ev):

    -9.2019  -9.2019  -8.7968  -8.7968  -8.1285  -8.1285  -7.2053  -7.2053
    -6.0805  -6.0805  -4.9378  -4.9378  -4.7622  -4.7622  -4.4903  -4.4903
    -4.0276  -4.0276  -4.0001  -4.0001  -1.1859  -1.1859  -0.8105  -0.8105
    -0.4206  -0.4206   0.1489   0.1489   0.9371   0.9371   1.2191   1.2191
     1.9713   1.9713   2.3829   2.3829   2.5912   2.5912   2.9672   2.9672
     3.7713   3.7713  12.8794  12.8794  13.0221  13.0221  13.3450  13.3450
    13.7430  13.7430

          k =-0.4989-0.3009 0.0000 ( 18782 PWs)   bands (ev):

    -8.6655  -8.6655  -8.2781  -8.2781  -7.6425  -7.6425  -6.7765  -6.7765
    -5.9642  -5.9642  -5.8123  -5.8123  -5.5143  -5.5143  -5.0987  -5.0987
    -4.6661  -4.6661  -4.4919  -4.4919  -1.3848  -1.3848  -1.3609  -1.3609
    -0.4071  -0.4071  -0.2680  -0.2680   0.8688   0.8688   1.2205   1.2205
     2.1260   2.1260   2.6991   2.6991   3.1566   3.1566   3.7294   3.7294
     3.8654   3.8654  13.5844  13.5844  13.6058  13.6058  14.7178  14.7178
    14.8790  14.8790

     the Fermi energy is     7.7907 ev

!    total energy              =    -373.41727678 Ry
     estimated scf accuracy    <          2.4E-12 Ry
     smearing contrib. (-TS)   =       0.00000000 Ry
     internal energy E=F+TS    =    -373.41727678 Ry

     The total energy is F=E-TS. E is the sum of the following terms:
     one-electron contribution =   -2448.91790306 Ry
     hartree contribution      =    1269.28199903 Ry
     xc contribution           =     -96.48055621 Ry
     ewald contribution        =    1025.95572620 Ry
     one-center paw contrib.   =    -123.25654275 Ry

     convergence has been achieved in  17 iterations

     negative rho (up, down):  2.594E-06 0.000E+00

     Forces acting on atoms (cartesian axes, Ry/au):

     atom    1 type  1   force =     0.00000000   -0.00002271    0.00001413
     atom    2 type  1   force =    -0.00000000    0.00002271    0.00001413
     atom    3 type  1   force =     0.00000000   -0.00000513   -0.00004322
     atom    4 type  1   force =    -0.00000000    0.00000513   -0.00004322
     atom    5 type  1   force =     0.00000000   -0.00001104   -0.00001661
     atom    6 type  1   force =    -0.00000000    0.00001104   -0.00001661
     atom    7 type  1   force =    -0.00000000   -0.00000850    0.00004764
     atom    8 type  1   force =    -0.00000000    0.00000850    0.00004764
     atom    9 type  1   force =    -0.00000000    0.00000748    0.00003502
     atom   10 type  1   force =     0.00000000   -0.00000748    0.00003502
     atom   11 type  1   force =    -0.00000000   -0.00000748   -0.00003502
     atom   12 type  1   force =     0.00000000    0.00000748   -0.00003502
     atom   13 type  1   force =     0.00000000   -0.00000850   -0.00004764
     atom   14 type  1   force =     0.00000000    0.00000850   -0.00004764
     atom   15 type  1   force =    -0.00000000   -0.00001104    0.00001661
     atom   16 type  1   force =     0.00000000    0.00001104    0.00001661
     atom   17 type  1   force =    -0.00000000    0.00000513    0.00004322
     atom   18 type  1   force =     0.00000000   -0.00000513    0.00004322
     atom   19 type  1   force =     0.00000000    0.00002271   -0.00001413
     atom   20 type  1   force =     0.00000000   -0.00002271   -0.00001413
     atom   21 type  2   force =    -0.00000000   -0.00001147    0.00003117
     atom   22 type  2   force =     0.00000000    0.00001147    0.00003117
     atom   23 type  2   force =    -0.00000000    0.00001147   -0.00003117
     atom   24 type  2   force =     0.00000000   -0.00001147   -0.00003117

     Total force =     0.000176     Total SCF correction =     0.000005


     Computing stress (Cartesian axis) and pressure


     negative rho (up, down):  2.594E-06 0.000E+00
          total   stress  (Ry/bohr**3)                   (kbar)     P=        0.00
   0.00000008   0.00000000   0.00000000            0.01        0.00        0.00
   0.00000000  -0.00000000   0.00000000            0.00       -0.00        0.00
   0.00000000   0.00000000  -0.00000005            0.00        0.00       -0.01


     Writing all to output data dir /tmp/qe/slab.save/ :
     XML data file, charge density, pseudopotentials, collected wavefunctions

     init_run     :      4.86s CPU      5.23s WALL (       2 calls)
     electrons    :    759.11s CPU    766.11s WALL (      18 calls)
     update_pot   :      2.85s CPU      2.87s WALL (      16 calls)
     forces       :     12.06s CPU     12.30s WALL (      18 calls)
     stress       :    222.98s CPU    223.62s WALL (      18 calls)

     Called by init_run:
     wfcinit      :      4.11s CPU      4.26s WALL (       2 calls)
     potinit      :      0.34s CPU      0.45s WALL (       2 calls)
     hinit0       :      0.13s CPU      0.20s WALL (       2 calls)

     Called by electrons:
     c_bands      :    604.64s CPU    609.66s WALL (     184 calls)
     sum_band     :    118.79s CPU    119.93s WALL (     184 calls)
     v_of_rho     :     12.16s CPU     12.34s WALL (     191 calls)
     newd         :      7.40s CPU      7.52s WALL (     191 calls)
     PAW_pot      :     19.05s CPU     19.11s WALL (     207 calls)
     mix_rho      :      1.03s CPU      1.07s WALL (     184 calls)

     Called by c_bands:
     init_us_2    :     20.13s CPU     20.33s WALL (   10128 calls)
     cegterg      :    574.28s CPU    578.97s WALL (    4418 calls)

     Called by *egterg:
     cdiaghg      :     31.53s CPU     31.81s WALL (   15894 calls)
     h_psi        :    425.59s CPU    429.60s WALL (   16592 calls)
     s_psi        :     31.37s CPU     31.51s WALL (   16592 calls)
     g_psi        :      2.74s CPU      2.76s WALL (   12126 calls)

     Called by h_psi:
     h_psi:calbec :     30.68s CPU     30.91s WALL (   16592 calls)
     vloc_psi     :    358.68s CPU    362.25s WALL (   16592 calls)
     add_vuspsi   :     33.27s CPU     33.46s WALL (   16592 calls)

     General routines
     calbec       :     49.37s CPU     49.72s WALL (   23552 calls)
     fft          :      5.92s CPU      6.23s WALL (    2924 calls)
     ffts         :      0.20s CPU      0.30s WALL (     375 calls)
     fftw         :    321.61s CPU    324.44s WALL ( 1342244 calls)
     interpolate  :      0.45s CPU      0.56s WALL (     191 calls)

     Parallel routines

     PWSCF        :  16m46.33s CPU  16m54.94s WALL


   This run was terminated on:  14:38:19   2Aug2026            

=------------------------------------------------------------------------------=
   JOB DONE.
=------------------------------------------------------------------------------=
Note: The following floating-point exceptions are signalling: IEEE_UNDERFLOW_FLAG IEEE_DENORMAL
Note: The following floating-point exceptions are signalling: IEEE_UNDERFLOW_FLAG IEEE_DENORMAL
Note: The following floating-point exceptions are signalling: IEEE_UNDERFLOW_FLAG IEEE_DENORMAL
Note: The following floating-point exceptions are signalling: IEEE_UNDERFLOW_FLAG IEEE_DENORMAL
Note: The following floating-point exceptions are signalling: IEEE_UNDERFLOW_FLAG IEEE_DENORMAL
Note: The following floating-point exceptions are signalling: IEEE_UNDERFLOW_FLAG IEEE_DENORMAL
Note: The following floating-point exceptions are signalling: IEEE_UNDERFLOW_FLAG IEEE_DENORMAL
Note: The following floating-point exceptions are signalling: IEEE_UNDERFLOW_FLAG IEEE_DENORMAL
