
     Program PWSCF v.7.3.1 starts on  1Aug2026 at 12:48: 4 

     This program is part of the open-source Quantum ESPRESSO suite
     for quantum simulation of materials; please cite
         "P. Giannozzi et al., J. Phys.:Condens. Matter 21 395502 (2009);
         "P. Giannozzi et al., J. Phys.:Condens. Matter 29 465901 (2017);
         "P. Giannozzi et al., J. Chem. Phys. 152 154105 (2020);
          URL http://www.quantum-espresso.org", 
     in publications or presentations arising from this work. More details at
     http://www.quantum-espresso.org/quote

     Parallel version (MPI), running on     8 processors

     MPI processes distributed on     1 nodes
     186178 MiB available memory on the printing compute node when the environment starts

     Reading input from pw.in

     Current dimensions of program PWSCF are:
     Max number of different atomic species (ntypx) = 10
     Max number of k-points (npk) =  40000
     Max angular momentum in pseudopotentials (lmaxx) =  4
     file C.pbe-n-kjpaw_psl.1.0.0.UPF: wavefunction(s)  2S 2P renormalized
     Message from routine volume:
     axis vectors are left-handed
     Found identity + (  0.5000  0.0000  0.0000) symmetry
     This is a supercell, fractional translations are disabled
     Message from routine setup:
     using ibrav=0 with symmetry is DISCOURAGED, use correct ibrav instead

     R & G space division:  proc/nbgrp/npool/nimage =       8
     Subspace diagonalization in iterative solution of the eigenvalue problem:
     a serial algorithm will be used


     Parallelization info
     --------------------
     sticks:   dense  smooth     PW     G-vecs:    dense   smooth      PW
     Min         651     325     87               186275    65839    9215
     Max         652     326     88               186300    65857    9234
     Sum        5209    2601    697              1490251   526767   73765

     Using Slab Decomposition



     bravais-lattice index     =            0
     lattice parameter (alat)  =       9.5505  a.u.
     unit-cell volume          =    4567.8898 (a.u.)^3
     number of atoms/cell      =           32
     number of atomic types    =            2
     number of electrons       =       104.00
     number of Kohn-Sham states=           62
     kinetic-energy cutoff     =      90.0000  Ry
     charge density cutoff     =     720.0000  Ry
     scf convergence threshold =      1.0E-08
     mixing beta               =       0.3000
     number of iterations used =            8  plain     mixing
     Exchange-correlation= PBE
                           (   1   4   3   4   0   0   0)

     celldm(1)=   9.550471  celldm(2)=   0.000000  celldm(3)=   0.000000
     celldm(4)=   0.000000  celldm(5)=   0.000000  celldm(6)=   0.000000

     crystal axes: (cart. coord. in units of alat)
               a(1) = (   1.000000   0.000000   0.000000 )  
               a(2) = (   0.000000  -1.000000   0.000000 )  
               a(3) = (   0.000000   0.000000   5.243741 )  

     reciprocal axes: (cart. coord. in units 2 pi/alat)
               b(1) = (  1.000000 -0.000000 -0.000000 )  
               b(2) = ( -0.000000 -1.000000 -0.000000 )  
               b(3) = ( -0.000000 -0.000000  0.190704 )  


     PseudoPot. # 1 for C  read from file:
     ./C.pbe-n-kjpaw_psl.1.0.0.UPF
     MD5 check sum: 5d2aebdfa2cae82b50a7e79e9516da0f
     Pseudo is Projector augmented-wave + core cor, Zval =  4.0
     Generated using "atomic" code by A. Dal Corso  v.5.1
     Shape of augmentation charge: PSQ
     Using radial grid of 1073 points,  4 beta functions with: 
                l(1) =   0
                l(2) =   0
                l(3) =   1
                l(4) =   1
     Q(r) pseudized with 0 coefficients 


     PseudoPot. # 2 for H  read from file:
     ./H_ONCV_PBE-1.0.oncvpsp.upf
     MD5 check sum: 1790becc920ee074925cf490c71280fe
     Pseudo is Norm-conserving, Zval =  1.0
     Generated using ONCVPSP code by D. R. Hamann
     Using radial grid of 1166 points,  2 beta functions with: 
                l(1) =   0
                l(2) =   0

     atomic species   valence    mass     pseudopotential
     C                 4.00    12.01100     C ( 1.00)
     H                 1.00     1.00800     H ( 1.00)

      4 Sym. Ops. (no inversion) found



   Cartesian axes

     site n.     atom                  positions (alat units)
         1        C      tau(   1) = (   0.0000000  -0.1582087   1.8592812  )
         2        C      tau(   2) = (   0.2500000  -0.2299149   1.6998931  )
         3        C      tau(   3) = (   0.2500000   0.0000000   1.4936626  )
         4        C      tau(   4) = (   0.0000000   0.0000000   1.3178300  )
         5        C      tau(   5) = (   0.0000000  -0.2700851   1.1694404  )
         6        C      tau(   6) = (   0.2500000  -0.3417913   1.0100523  )
         7        C      tau(   7) = (   0.0000000  -0.8417913   1.8592812  )
         8        C      tau(   8) = (   0.2500000  -0.7700851   1.6998931  )
         9        C      tau(   9) = (   0.2500000  -0.5000000   1.5515034  )
        10        C      tau(  10) = (   0.0000000  -0.5000000   1.3756708  )
        11        C      tau(  11) = (   0.0000000  -0.7299149   1.1694404  )
        12        C      tau(  12) = (   0.2500000  -0.6582087   1.0100523  )
        13        H      tau(  13) = (   0.0000000  -0.2449080   2.0590044  )
        14        H      tau(  14) = (   0.0000000  -0.7550920   2.0590044  )
        15        H      tau(  15) = (   0.2500000  -0.2550919   0.8103291  )
        16        H      tau(  16) = (   0.2500000  -0.7449081   0.8103291  )
        17        C      tau(  17) = (   0.5000000  -0.1582087   1.8592812  )
        18        C      tau(  18) = (   0.7500000  -0.2299149   1.6998931  )
        19        C      tau(  19) = (   0.7500000   0.0000000   1.4936626  )
        20        C      tau(  20) = (   0.5000000   0.0000000   1.3178300  )
        21        C      tau(  21) = (   0.5000000  -0.2700851   1.1694404  )
        22        C      tau(  22) = (   0.7500000  -0.3417913   1.0100523  )
        23        C      tau(  23) = (   0.5000000  -0.8417913   1.8592812  )
        24        C      tau(  24) = (   0.7500000  -0.7700851   1.6998931  )
        25        C      tau(  25) = (   0.7500000  -0.5000000   1.5515034  )
        26        C      tau(  26) = (   0.5000000  -0.5000000   1.3756708  )
        27        C      tau(  27) = (   0.5000000  -0.7299149   1.1694404  )
        28        C      tau(  28) = (   0.7500000  -0.6582087   1.0100523  )
        29        H      tau(  29) = (   0.5000000  -0.2449080   2.0590044  )
        30        H      tau(  30) = (   0.5000000  -0.7550920   2.0590044  )
        31        H      tau(  31) = (   0.7500000  -0.2550919   0.8103291  )
        32        H      tau(  32) = (   0.7500000  -0.7449081   0.8103291  )

     number of k points=     9  Marzari-Vanderbilt smearing, width (Ry)=  0.0100
                       cart. coord. in units 2pi/alat
        k(    1) = (   0.0000000  -0.0000000   0.0000000), wk =   0.0800000
        k(    2) = (   0.0000000  -0.2000000   0.0000000), wk =   0.1600000
        k(    3) = (   0.0000000  -0.4000000   0.0000000), wk =   0.1600000
        k(    4) = (   0.2000000  -0.2000000   0.0000000), wk =   0.3200000
        k(    5) = (   0.2000000  -0.4000000   0.0000000), wk =   0.3200000
        k(    6) = (   0.4000000  -0.4000000   0.0000000), wk =   0.3200000
        k(    7) = (  -0.2000000   0.0000000   0.0000000), wk =   0.1600000
        k(    8) = (  -0.4000000   0.0000000   0.0000000), wk =   0.1600000
        k(    9) = (  -0.4000000   0.2000000   0.0000000), wk =   0.3200000

     Dense  grid:  1490251 G-vectors     FFT dimensions: (  81,  81, 432)

     Smooth grid:   526767 G-vectors     FFT dimensions: (  60,  60, 320)

     Estimated max dynamical RAM per process >     534.42 MB

     Estimated total dynamical RAM >       4.18 GB

     Initial potential from superposition of free atoms

     starting charge     103.9989, renormalised to     104.0000

     negative rho (up, down):  1.615E-04 0.000E+00
     Starting wfcs are  104 randomized atomic wfcs
     Checking if some PAW data can be deallocated... 

     total cpu time spent up to now is        4.4 secs

     Self-consistent Calculation

     iteration #  1     ecut=    90.00 Ry     beta= 0.30
     Davidson diagonalization with overlap
     ethr =  1.00E-02,  avg # of iterations =  3.0

     negative rho (up, down):  1.707E-04 0.000E+00

     total cpu time spent up to now is       12.2 secs

     total energy              =    -451.92025318 Ry
     estimated scf accuracy    <       2.42304297 Ry

     iteration #  2     ecut=    90.00 Ry     beta= 0.30
     Davidson diagonalization with overlap
     ethr =  2.33E-03,  avg # of iterations =  4.2

     negative rho (up, down):  2.043E-04 0.000E+00

     total cpu time spent up to now is       18.7 secs

     total energy              =    -451.75310172 Ry
     estimated scf accuracy    <       0.72847237 Ry

     iteration #  3     ecut=    90.00 Ry     beta= 0.30
     Davidson diagonalization with overlap
     ethr =  7.00E-04,  avg # of iterations = 10.8

     negative rho (up, down):  2.181E-04 0.000E+00

     total cpu time spent up to now is       28.1 secs

     total energy              =    -451.78328981 Ry
     estimated scf accuracy    <       0.10716691 Ry

     iteration #  4     ecut=    90.00 Ry     beta= 0.30
     Davidson diagonalization with overlap
     ethr =  1.03E-04,  avg # of iterations =  5.4

     negative rho (up, down):  2.375E-04 0.000E+00

     total cpu time spent up to now is       35.4 secs

     total energy              =    -451.79299012 Ry
     estimated scf accuracy    <       0.01251493 Ry

     iteration #  5     ecut=    90.00 Ry     beta= 0.30
     Davidson diagonalization with overlap
     c_bands:  2 eigenvalues not converged
     c_bands:  1 eigenvalues not converged
     c_bands:  1 eigenvalues not converged
     c_bands:  1 eigenvalues not converged
     ethr =  1.20E-05,  avg # of iterations = 15.6

     negative rho (up, down):  2.305E-04 0.000E+00

     total cpu time spent up to now is       45.9 secs

     total energy              =    -451.79541797 Ry
     estimated scf accuracy    <       0.00381161 Ry

     iteration #  6     ecut=    90.00 Ry     beta= 0.30
     Davidson diagonalization with overlap
     ethr =  3.67E-06,  avg # of iterations = 10.6

     negative rho (up, down):  2.389E-04 0.000E+00

     total cpu time spent up to now is       54.0 secs

     total energy              =    -451.79571779 Ry
     estimated scf accuracy    <       0.00045780 Ry

     iteration #  7     ecut=    90.00 Ry     beta= 0.30
     Davidson diagonalization with overlap
     ethr =  4.40E-07,  avg # of iterations =  5.2

     negative rho (up, down):  2.390E-04 0.000E+00

     total cpu time spent up to now is       61.8 secs

     total energy              =    -451.79579925 Ry
     estimated scf accuracy    <       0.00013509 Ry

     iteration #  8     ecut=    90.00 Ry     beta= 0.30
     Davidson diagonalization with overlap
     ethr =  1.30E-07,  avg # of iterations =  2.7

     negative rho (up, down):  2.404E-04 0.000E+00

     total cpu time spent up to now is       68.5 secs

     total energy              =    -451.79583360 Ry
     estimated scf accuracy    <       0.00001717 Ry

     iteration #  9     ecut=    90.00 Ry     beta= 0.30
     Davidson diagonalization with overlap
     ethr =  1.65E-08,  avg # of iterations =  3.6

     negative rho (up, down):  2.413E-04 0.000E+00

     total cpu time spent up to now is       75.8 secs

     total energy              =    -451.79583605 Ry
     estimated scf accuracy    <       0.00000640 Ry

     iteration # 10     ecut=    90.00 Ry     beta= 0.30
     Davidson diagonalization with overlap
     ethr =  6.16E-09,  avg # of iterations =  2.8

     negative rho (up, down):  2.418E-04 0.000E+00

     total cpu time spent up to now is       82.9 secs

     total energy              =    -451.79583753 Ry
     estimated scf accuracy    <       0.00000128 Ry

     iteration # 11     ecut=    90.00 Ry     beta= 0.30
     Davidson diagonalization with overlap
     ethr =  1.23E-09,  avg # of iterations =  2.1

     negative rho (up, down):  2.422E-04 0.000E+00

     total cpu time spent up to now is       89.3 secs

     total energy              =    -451.79583765 Ry
     estimated scf accuracy    <       0.00000013 Ry

     iteration # 12     ecut=    90.00 Ry     beta= 0.30
     Davidson diagonalization with overlap
     ethr =  1.23E-10,  avg # of iterations =  3.8

     negative rho (up, down):  2.425E-04 0.000E+00

     total cpu time spent up to now is       96.6 secs

     total energy              =    -451.79583768 Ry
     estimated scf accuracy    <       0.00000001 Ry

     iteration # 13     ecut=    90.00 Ry     beta= 0.30
     Davidson diagonalization with overlap
     ethr =  1.09E-11,  avg # of iterations =  3.3

     negative rho (up, down):  2.427E-04 0.000E+00

     total cpu time spent up to now is      104.1 secs

     total energy              =    -451.79583768 Ry
     estimated scf accuracy    <       0.00000001 Ry

     iteration # 14     ecut=    90.00 Ry     beta= 0.30
     Davidson diagonalization with overlap
     ethr =  1.05E-11,  avg # of iterations =  3.1

     negative rho (up, down):  2.433E-04 0.000E+00

     total cpu time spent up to now is      111.4 secs

     End of self-consistent calculation

          k = 0.0000-0.0000 0.0000 ( 65919 PWs)   bands (ev):

   -20.6378 -18.9439 -16.2858 -16.2858 -16.0666 -15.8592 -15.7605 -14.7389
   -14.4632 -14.4632 -12.1949 -12.1949 -11.9388 -11.7375 -11.7375 -11.6030
   -11.0501 -11.0501 -10.7492 -10.6738 -10.6738  -8.3188  -8.2777  -8.0820
    -7.7130  -7.7130  -6.8155  -6.8155  -6.3831  -6.3831  -5.5873  -5.1188
    -5.1157  -5.1157  -5.0227  -5.0227  -4.8114  -4.6706  -4.5587  -4.1022
    -4.0753  -4.0753  -2.6789  -2.4965  -2.4965  -2.4675  -2.3622  -2.0931
    -2.0392  -1.9093  -1.5579  -1.2215   2.6996   2.7134   3.4253   3.8727
     4.5303   4.5663   4.7429   5.3413   5.7416   5.7653

          k = 0.0000-0.2000 0.0000 ( 65939 PWs)   bands (ev):

   -20.4729 -18.9601 -17.1572 -16.2619 -16.1291 -16.1291 -14.6177 -14.4807
   -14.4807 -14.4566 -13.2263 -13.2263 -12.0360 -11.4611 -11.4611 -11.0754
   -10.6730 -10.5281 -10.5281 -10.3656 -10.3656  -8.8232  -7.9495  -7.8232
    -7.8232  -7.6806  -6.7363  -6.7363  -6.1802  -6.1802  -6.1201  -5.4480
    -5.2063  -5.2063  -4.8251  -4.7802  -4.7802  -4.7507  -4.2335  -4.1228
    -4.0970  -4.0970  -3.2796  -3.2067  -3.2067  -3.1310  -2.5153  -2.3078
    -1.6772  -1.5792  -1.5576  -1.2762   2.9109   2.9478   3.6608   4.1044
     4.7215   5.0706   5.2215   5.3531   5.6983   5.9206

          k = 0.0000-0.4000 0.0000 ( 65785 PWs)   bands (ev):

   -19.9987 -19.3384 -17.5002 -17.0023 -15.6975 -15.6975 -14.8666 -14.8666
   -14.2602 -13.8893 -13.7321 -13.7321 -11.9026 -11.9026 -11.5185 -10.6924
   -10.1647 -10.0386 -10.0386  -9.7028  -9.7028  -9.2075  -7.9022  -7.5080
    -7.5080  -7.3763  -6.8890  -6.5920  -6.5920  -6.1299  -6.1299  -6.0355
    -5.0507  -4.9400  -4.9400  -4.8354  -4.8354  -4.5863  -4.4892  -4.3140
    -4.3140  -4.1841  -4.1841  -4.0203  -3.3968  -3.2346  -2.8420  -2.7967
    -2.0295  -1.6593  -1.1604  -1.0735   3.5272   3.5909   4.3479   4.5542
     4.5569   4.8299   5.2553   5.5082   5.5994   5.6543

          k = 0.2000-0.2000 0.0000 ( 65888 PWs)   bands (ev):

   -20.2900 -18.7803 -17.6061 -16.9832 -16.1942 -16.0910 -14.5747 -14.4542
   -14.2905 -13.9689 -13.7787 -12.8556 -11.9351 -11.8619 -11.5526 -10.9334
   -10.8396 -10.5313 -10.1693  -9.1673  -9.0431  -8.7452  -8.5047  -7.9715
    -7.8900  -7.5761  -7.2525  -6.5592  -6.4498  -6.0100  -5.9216  -5.5777
    -5.2779  -5.2418  -5.2136  -4.8182  -4.6559  -4.6508  -4.4164  -4.1987
    -4.0704  -3.9200  -3.8179  -3.4223  -3.3952  -3.0711  -2.7655  -2.5889
    -2.3326  -2.2052  -1.6431  -1.5249   3.1094   3.1130   3.8867   4.3448
     4.9425   5.2340   5.4286   5.4542   5.5209   5.8970

          k = 0.2000-0.4000 0.0000 ( 65832 PWs)   bands (ev):

   -19.8165 -19.1573 -17.3261 -17.1441 -16.8295 -16.5076 -14.9012 -14.4098
   -14.0988 -13.7302 -13.6740 -13.2697 -11.4283 -11.4138 -11.3297 -10.7970
   -10.5953 -10.4097 -10.0190  -9.0619  -8.6668  -8.3048  -8.2987  -7.8020
    -7.5908  -7.2925  -7.1041  -6.9006  -6.8281  -6.1489  -5.9980  -5.8808
    -5.6160  -5.5513  -5.3582  -4.8193  -4.7667  -4.6436  -4.4901  -4.1872
    -4.1747  -4.0160  -3.8454  -3.7896  -3.7450  -3.6993  -3.4090  -2.9083
    -1.9903  -1.8961  -1.8656  -1.5366   3.7290   3.7479   4.5695   4.7192
     4.7384   5.0603   5.1000   5.2890   5.3649   5.7224

          k = 0.4000-0.4000 0.0000 ( 65806 PWs)   bands (ev):

   -19.2724 -18.6165 -18.3745 -17.7248 -16.8082 -16.3158 -15.9659 -15.4807
   -13.6268 -13.2653 -12.9415 -12.6573 -11.6805 -11.2352 -11.0373 -10.4496
    -9.6383  -9.4062  -9.1569  -8.6777  -8.5867  -8.2766  -8.2330  -7.9321
    -7.7301  -7.7179  -7.3027  -7.0633  -6.8772  -6.8371  -6.4233  -6.1658
    -5.8329  -5.6833  -5.5954  -5.4067  -5.0868  -4.9301  -4.4042  -4.3789
    -4.1724  -4.1066  -3.9212  -3.7356  -3.5966  -3.4506  -3.0628  -2.9390
    -2.9387  -2.7682  -2.3026  -1.9690   4.1120   4.2488   4.5558   4.7369
     4.9450   5.1039   5.1736   5.2031   5.4524   5.6285

          k =-0.2000 0.0000 0.0000 ( 65939 PWs)   bands (ev):

   -20.4547 -18.7646 -17.7669 -16.2074 -15.8972 -15.6889 -15.5869 -14.5759
   -14.2441 -13.5832 -13.3842 -13.0601 -12.2317 -12.0259 -11.8530 -11.4491
   -10.5993 -10.4247  -9.8738  -9.7285  -9.6239  -8.2933  -8.2734  -8.2043
    -8.1150  -7.9489  -7.0676  -6.6786  -6.6038  -6.2290  -5.6184  -5.3909
    -5.3208  -5.1501  -5.0004  -4.6303  -4.6183  -4.5315  -4.5114  -4.4758
    -4.1018  -3.7089  -3.4203  -3.0640  -2.9629  -2.8872  -2.6759  -2.3377
    -2.1009  -2.0746  -2.0430  -1.3900   2.8779   2.8990   3.6519   4.1149
     4.7377   5.0689   5.0893   5.2704   5.2744   5.7602

          k =-0.4000 0.0000 0.0000 ( 65785 PWs)   bands (ev):

   -19.9077 -19.0047 -18.2299 -17.3540 -15.3924 -15.1847 -15.0693 -14.5684
   -14.3830 -14.2182 -14.0899 -13.2936 -12.5105 -11.7650 -11.0260 -10.7481
   -10.1744  -9.8389  -9.6131  -9.3332  -8.5143  -8.5103  -8.4690  -8.0941
    -7.5497  -7.4497  -7.3179  -6.8454  -6.7618  -6.6792  -6.2162  -5.6299
    -5.4567  -5.3802  -4.7188  -4.6694  -4.4767  -4.4506  -4.4442  -4.3971
    -4.2410  -4.1270  -4.1086  -3.7672  -3.3586  -3.3284  -3.2868  -2.7991
    -2.7209  -2.1529  -1.9487  -1.9124   3.3647   3.4056   4.1499   4.2045
     4.3360   4.7716   5.3649   5.4897   5.6618   5.8489

          k =-0.4000 0.2000 0.0000 ( 65832 PWs)   bands (ev):

   -19.7437 -18.8420 -18.2440 -17.3635 -16.4651 -15.6192 -15.5835 -14.7636
   -13.9711 -13.7950 -13.2149 -12.9829 -12.4057 -11.7809 -10.6746 -10.5706
   -10.1588  -9.8347  -9.5500  -9.0169  -8.7196  -8.6248  -8.3244  -7.9522
    -7.7000  -7.5433  -7.1359  -6.9188  -6.5936  -6.5228  -5.8913  -5.8738
    -5.6584  -5.5915  -5.4279  -5.0515  -4.6679  -4.5887  -4.4811  -4.2207
    -4.1748  -4.0950  -3.6854  -3.6805  -3.6321  -3.3763  -3.2606  -3.2092
    -2.9682  -2.2842  -2.2210  -1.8409   3.5620   3.6302   4.3435   4.3712
     4.5647   5.0059   5.4519   5.7050   5.8088   5.8429

     the Fermi energy is    -0.0387 ev

!    total energy              =    -451.79583768 Ry
     estimated scf accuracy    <          9.6E-09 Ry
     smearing contrib. (-TS)   =       0.00000000 Ry
     internal energy E=F+TS    =    -451.79583768 Ry

     The total energy is F=E-TS. E is the sum of the following terms:
     one-electron contribution =   -7436.84381239 Ry
     hartree contribution      =    3748.15457210 Ry
     xc contribution           =    -117.68307232 Ry
     ewald contribution        =    3502.49491670 Ry
     one-center paw contrib.   =    -147.91844177 Ry

     convergence has been achieved in  14 iterations

     negative rho (up, down):  2.433E-04 0.000E+00

     Forces acting on atoms (cartesian axes, Ry/au):

     atom    1 type  1   force =     0.00000000    0.00010689    0.00003545
     atom    2 type  1   force =    -0.00000374    0.00003718   -0.00006066
     atom    3 type  1   force =    -0.00000395    0.00000000    0.00005817
     atom    4 type  1   force =     0.00000000   -0.00000000    0.00003547
     atom    5 type  1   force =     0.00000000   -0.00003997    0.00005525
     atom    6 type  1   force =    -0.00000368   -0.00011042   -0.00004253
     atom    7 type  1   force =     0.00000000   -0.00010689    0.00003545
     atom    8 type  1   force =    -0.00000374   -0.00003718   -0.00006066
     atom    9 type  1   force =    -0.00000401    0.00000000   -0.00001873
     atom   10 type  1   force =     0.00000000    0.00000000   -0.00006173
     atom   11 type  1   force =     0.00000000    0.00003997    0.00005525
     atom   12 type  1   force =    -0.00000368    0.00011042   -0.00004253
     atom   13 type  2   force =     0.00000000    0.00004342   -0.00005801
     atom   14 type  2   force =     0.00000000   -0.00004342   -0.00005801
     atom   15 type  2   force =     0.00000000   -0.00004317    0.00006428
     atom   16 type  2   force =     0.00000000    0.00004317    0.00006428
     atom   17 type  1   force =     0.00000000    0.00010661    0.00003459
     atom   18 type  1   force =     0.00000374    0.00003718   -0.00006066
     atom   19 type  1   force =     0.00000395   -0.00000000    0.00005817
     atom   20 type  1   force =     0.00000000   -0.00000000    0.00003619
     atom   21 type  1   force =     0.00000000   -0.00004027    0.00005439
     atom   22 type  1   force =     0.00000368   -0.00011042   -0.00004253
     atom   23 type  1   force =     0.00000000   -0.00010661    0.00003459
     atom   24 type  1   force =     0.00000374   -0.00003718   -0.00006066
     atom   25 type  1   force =     0.00000401    0.00000000   -0.00001873
     atom   26 type  1   force =     0.00000000    0.00000000   -0.00006060
     atom   27 type  1   force =     0.00000000    0.00004027    0.00005439
     atom   28 type  1   force =     0.00000368    0.00011042   -0.00004253
     atom   29 type  2   force =     0.00000000    0.00004337   -0.00005795
     atom   30 type  2   force =     0.00000000   -0.00004337   -0.00005795
     atom   31 type  2   force =    -0.00000000   -0.00004317    0.00006428
     atom   32 type  2   force =    -0.00000000    0.00004317    0.00006428

     Total force =     0.000456     Total SCF correction =     0.000283
     SCF correction compared to forces is large: reduce conv_thr to get better values


     Computing stress (Cartesian axis) and pressure


     negative rho (up, down):  2.433E-04 0.000E+00
          total   stress  (Ry/bohr**3)                   (kbar)     P=       -7.41
   0.00003071   0.00000000   0.00000000            4.52        0.00        0.00
   0.00000000  -0.00018079   0.00000000            0.00      -26.59        0.00
   0.00000000   0.00000000  -0.00000101            0.00        0.00       -0.15


     Writing all to output data dir /tmp/qe/slab.save/ :
     XML data file, charge density, pseudopotentials, collected wavefunctions

     init_run     :      4.11s CPU      4.29s WALL (       1 calls)
     electrons    :    104.14s CPU    107.11s WALL (       1 calls)
     forces       :      1.89s CPU      1.97s WALL (       1 calls)
     stress       :     25.73s CPU     26.03s WALL (       1 calls)

     Called by init_run:
     wfcinit      :      3.11s CPU      3.20s WALL (       1 calls)
     potinit      :      0.36s CPU      0.39s WALL (       1 calls)
     hinit0       :      0.10s CPU      0.11s WALL (       1 calls)

     Called by electrons:
     c_bands      :     81.84s CPU     83.44s WALL (      14 calls)
     sum_band     :     15.12s CPU     15.74s WALL (      14 calls)
     v_of_rho     :      3.02s CPU      3.23s WALL (      15 calls)
     newd         :      2.11s CPU      2.61s WALL (      15 calls)
     PAW_pot      :      1.86s CPU      1.87s WALL (      15 calls)
     mix_rho      :      0.42s CPU      0.44s WALL (      14 calls)

     Called by c_bands:
     init_us_2    :      2.44s CPU      2.46s WALL (     279 calls)
     cegterg      :     78.12s CPU     79.63s WALL (     126 calls)

     Called by *egterg:
     cdiaghg      :      2.56s CPU      2.58s WALL (     811 calls)
     h_psi        :     55.51s CPU     56.51s WALL (     820 calls)
     s_psi        :      6.22s CPU      6.25s WALL (     820 calls)
     g_psi        :      0.39s CPU      0.39s WALL (     685 calls)

     Called by h_psi:
     h_psi:calbec :      5.39s CPU      5.44s WALL (     820 calls)
     vloc_psi     :     43.51s CPU     44.05s WALL (     820 calls)
     add_vuspsi   :      6.24s CPU      6.26s WALL (     820 calls)

     General routines
     calbec       :      7.65s CPU      7.72s WALL (     991 calls)
     fft          :      1.81s CPU      1.95s WALL (     218 calls)
     ffts         :      0.05s CPU      0.06s WALL (      29 calls)
     fftw         :     34.34s CPU     34.76s WALL (   52862 calls)
     interpolate  :      0.15s CPU      0.16s WALL (      15 calls)

     Parallel routines

     PWSCF        :   2m16.25s CPU   2m20.08s WALL


   This run was terminated on:  12:50:24   1Aug2026            

=------------------------------------------------------------------------------=
   JOB DONE.
=------------------------------------------------------------------------------=
Note: The following floating-point exceptions are signalling: IEEE_UNDERFLOW_FLAG IEEE_DENORMAL
Note: The following floating-point exceptions are signalling: IEEE_UNDERFLOW_FLAG IEEE_DENORMAL
Note: The following floating-point exceptions are signalling: IEEE_UNDERFLOW_FLAG IEEE_DENORMAL
Note: The following floating-point exceptions are signalling: IEEE_UNDERFLOW_FLAG IEEE_DENORMAL
Note: The following floating-point exceptions are signalling: IEEE_UNDERFLOW_FLAG IEEE_DENORMAL
Note: The following floating-point exceptions are signalling: IEEE_UNDERFLOW_FLAG IEEE_DENORMAL
Note: The following floating-point exceptions are signalling: IEEE_UNDERFLOW_FLAG IEEE_DENORMAL
Note: The following floating-point exceptions are signalling: IEEE_UNDERFLOW_FLAG IEEE_DENORMAL
