
     Program PWSCF v.7.3.1 starts on  2Aug2026 at 15:39:55 

     This program is part of the open-source Quantum ESPRESSO suite
     for quantum simulation of materials; please cite
         "P. Giannozzi et al., J. Phys.:Condens. Matter 21 395502 (2009);
         "P. Giannozzi et al., J. Phys.:Condens. Matter 29 465901 (2017);
         "P. Giannozzi et al., J. Chem. Phys. 152 154105 (2020);
          URL http://www.quantum-espresso.org", 
     in publications or presentations arising from this work. More details at
     http://www.quantum-espresso.org/quote

     Parallel version (MPI), running on     8 processors

     MPI processes distributed on     1 nodes
     767019 MiB available memory on the printing compute node when the environment starts

     Reading input from pw.in

     Current dimensions of program PWSCF are:
     Max number of different atomic species (ntypx) = 10
     Max number of k-points (npk) =  40000
     Max angular momentum in pseudopotentials (lmaxx) =  4
     file C.pbe-n-kjpaw_psl.1.0.0.UPF: wavefunction(s)  2S 2P renormalized
     Message from routine volume:
     axis vectors are left-handed
     Message from routine setup:
     using ibrav=0 with symmetry is DISCOURAGED, use correct ibrav instead

     R & G space division:  proc/nbgrp/npool/nimage =       8
     Subspace diagonalization in iterative solution of the eigenvalue problem:
     a serial algorithm will be used


     Parallelization info
     --------------------
     sticks:   dense  smooth     PW     G-vecs:    dense   smooth      PW
     Min         230     115     32                39990    14143    2184
     Max         231     116     33                40009    14162    2203
     Sum        1845     921    263               320011   113195   17569

     Using Slab Decomposition



     bravais-lattice index     =            0
     lattice parameter (alat)  =       4.7744  a.u.
     unit-cell volume          =     980.5505 (a.u.)^3
     number of atoms/cell      =           16
     number of atomic types    =            2
     number of electrons       =        52.00
     number of Kohn-Sham states=           31
     kinetic-energy cutoff     =      90.0000  Ry
     charge density cutoff     =     720.0000  Ry
     scf convergence threshold =      1.0E-08
     mixing beta               =       0.3000
     number of iterations used =            8  plain     mixing
     energy convergence thresh.=      1.0E-05
     force convergence thresh. =      1.0E-04
     Exchange-correlation= PBE
                           (   1   4   3   4   0   0   0)
     nstep                     =           50


     celldm(1)=   4.774375  celldm(2)=   0.000000  celldm(3)=   0.000000
     celldm(4)=   0.000000  celldm(5)=   0.000000  celldm(6)=   0.000000

     crystal axes: (cart. coord. in units of alat)
               a(1) = (   1.000000   0.000000   0.000000 )  
               a(2) = (   0.000000  -1.414214   0.000000 )  
               a(3) = (   0.000000   0.000000   6.370968 )  

     reciprocal axes: (cart. coord. in units 2 pi/alat)
               b(1) = (  1.000000 -0.000000 -0.000000 )  
               b(2) = ( -0.000000 -0.707107 -0.000000 )  
               b(3) = ( -0.000000 -0.000000  0.156962 )  


     PseudoPot. # 1 for C  read from file:
     ./C.pbe-n-kjpaw_psl.1.0.0.UPF
     MD5 check sum: 5d2aebdfa2cae82b50a7e79e9516da0f
     Pseudo is Projector augmented-wave + core cor, Zval =  4.0
     Generated using "atomic" code by A. Dal Corso  v.5.1
     Shape of augmentation charge: PSQ
     Using radial grid of 1073 points,  4 beta functions with: 
                l(1) =   0
                l(2) =   0
                l(3) =   1
                l(4) =   1
     Q(r) pseudized with 0 coefficients 


     PseudoPot. # 2 for H  read from file:
     ./H_ONCV_PBE-1.0.oncvpsp.upf
     MD5 check sum: 1790becc920ee074925cf490c71280fe
     Pseudo is Norm-conserving, Zval =  1.0
     Generated using ONCVPSP code by D. R. Hamann
     Using radial grid of 1166 points,  2 beta functions with: 
                l(1) =   0
                l(2) =   0

     atomic species   valence    mass     pseudopotential
     C                 4.00    12.01100     C ( 1.00)
     H                 1.00     1.00800     H ( 1.00)

      8 Sym. Ops., with inversion, found ( 6 have fractional translation)



   Cartesian axes

     site n.     atom                  positions (alat units)
         1        C      tau(   1) = (   0.0000000  -0.3535534   4.4354838  )
         2        C      tau(   2) = (   0.5000000  -0.7071068   4.4354838  )
         3        C      tau(   3) = (   0.5000000  -1.0606602   3.9354838  )
         4        C      tau(   4) = (   0.0000000   0.0000000   3.9354838  )
         5        C      tau(   5) = (   0.5000000  -0.7071068   3.4354838  )
         6        C      tau(   6) = (   0.0000000  -0.3535534   3.4354838  )
         7        C      tau(   7) = (   0.0000000   0.0000000   2.9354838  )
         8        C      tau(   8) = (   0.5000000  -1.0606602   2.9354838  )
         9        C      tau(   9) = (   0.0000000  -0.3535534   2.4354838  )
        10        C      tau(  10) = (   0.5000000  -0.7071068   2.4354838  )
        11        C      tau(  11) = (   0.0000000   0.0000000   1.9354838  )
        12        C      tau(  12) = (   0.5000000  -1.0606602   1.9354838  )
        13        H      tau(  13) = (   0.0000000  -0.1044680   4.7877437  )
        14        H      tau(  14) = (   0.5000000  -0.9561921   4.7877437  )
        15        H      tau(  15) = (   0.0000000  -0.2490854   1.5832239  )
        16        H      tau(  16) = (   0.5000000  -0.8115748   1.5832239  )

     number of k points=    20  Marzari-Vanderbilt smearing, width (Ry)=  0.0100
                       cart. coord. in units 2pi/alat
        k(    1) = (   0.0000000  -0.0000000   0.0000000), wk =   0.0317460
        k(    2) = (   0.0000000  -0.1010153   0.0000000), wk =   0.0634921
        k(    3) = (   0.0000000  -0.2020305   0.0000000), wk =   0.0634921
        k(    4) = (   0.0000000  -0.3030458   0.0000000), wk =   0.0634921
        k(    5) = (   0.1111111  -0.0000000   0.0000000), wk =   0.0634921
        k(    6) = (   0.1111111  -0.1010153   0.0000000), wk =   0.1269841
        k(    7) = (   0.1111111  -0.2020305   0.0000000), wk =   0.1269841
        k(    8) = (   0.1111111  -0.3030458   0.0000000), wk =   0.1269841
        k(    9) = (   0.2222222  -0.0000000   0.0000000), wk =   0.0634921
        k(   10) = (   0.2222222  -0.1010153   0.0000000), wk =   0.1269841
        k(   11) = (   0.2222222  -0.2020305   0.0000000), wk =   0.1269841
        k(   12) = (   0.2222222  -0.3030458   0.0000000), wk =   0.1269841
        k(   13) = (   0.3333333  -0.0000000   0.0000000), wk =   0.0634921
        k(   14) = (   0.3333333  -0.1010153   0.0000000), wk =   0.1269841
        k(   15) = (   0.3333333  -0.2020305   0.0000000), wk =   0.1269841
        k(   16) = (   0.3333333  -0.3030458   0.0000000), wk =   0.1269841
        k(   17) = (   0.4444444  -0.0000000   0.0000000), wk =   0.0634921
        k(   18) = (   0.4444444  -0.1010153   0.0000000), wk =   0.1269841
        k(   19) = (   0.4444444  -0.2020305   0.0000000), wk =   0.1269841
        k(   20) = (   0.4444444  -0.3030458   0.0000000), wk =   0.1269841

     Dense  grid:   320011 G-vectors     FFT dimensions: (  48,  60, 270)

     Smooth grid:   113195 G-vectors     FFT dimensions: (  30,  48, 192)

     Estimated max dynamical RAM per process >      93.29 MB

     Estimated total dynamical RAM >     746.34 MB

     Initial potential from superposition of free atoms

     starting charge      51.9995, renormalised to      52.0000
     Starting wfcs are   52 randomized atomic wfcs
     Checking if some PAW data can be deallocated... 

     total cpu time spent up to now is        1.5 secs

     Self-consistent Calculation

     iteration #  1     ecut=    90.00 Ry     beta= 0.30
     Davidson diagonalization with overlap
     ethr =  1.00E-02,  avg # of iterations =  2.8

     total cpu time spent up to now is        3.4 secs

     total energy              =    -226.01306457 Ry
     estimated scf accuracy    <       1.15975269 Ry

     iteration #  2     ecut=    90.00 Ry     beta= 0.30
     Davidson diagonalization with overlap
     ethr =  2.23E-03,  avg # of iterations =  4.0

     negative rho (up, down):  2.020E-07 0.000E+00

     total cpu time spent up to now is        5.1 secs

     total energy              =    -225.91829520 Ry
     estimated scf accuracy    <       0.37362048 Ry

     iteration #  3     ecut=    90.00 Ry     beta= 0.30
     Davidson diagonalization with overlap
     ethr =  7.19E-04,  avg # of iterations =  5.0

     negative rho (up, down):  1.284E-06 0.000E+00

     total cpu time spent up to now is        6.9 secs

     total energy              =    -225.93323052 Ry
     estimated scf accuracy    <       0.04746154 Ry

     iteration #  4     ecut=    90.00 Ry     beta= 0.30
     Davidson diagonalization with overlap
     ethr =  9.13E-05,  avg # of iterations =  4.5

     negative rho (up, down):  2.711E-06 0.000E+00

     total cpu time spent up to now is        8.6 secs

     total energy              =    -225.93615230 Ry
     estimated scf accuracy    <       0.00488388 Ry

     iteration #  5     ecut=    90.00 Ry     beta= 0.30
     Davidson diagonalization with overlap
     c_bands:  1 eigenvalues not converged
     ethr =  9.39E-06,  avg # of iterations =  6.7

     negative rho (up, down):  2.788E-06 0.000E+00

     total cpu time spent up to now is       10.6 secs

     total energy              =    -225.93673525 Ry
     estimated scf accuracy    <       0.00051558 Ry

     iteration #  6     ecut=    90.00 Ry     beta= 0.30
     Davidson diagonalization with overlap
     c_bands:  1 eigenvalues not converged
     ethr =  9.92E-07,  avg # of iterations =  6.3

     negative rho (up, down):  3.119E-06 0.000E+00

     total cpu time spent up to now is       12.6 secs

     total energy              =    -225.93683626 Ry
     estimated scf accuracy    <       0.00008006 Ry

     iteration #  7     ecut=    90.00 Ry     beta= 0.30
     Davidson diagonalization with overlap
     ethr =  1.54E-07,  avg # of iterations =  3.3

     negative rho (up, down):  3.113E-06 0.000E+00

     total cpu time spent up to now is       14.2 secs

     total energy              =    -225.93684213 Ry
     estimated scf accuracy    <       0.00002337 Ry

     iteration #  8     ecut=    90.00 Ry     beta= 0.30
     Davidson diagonalization with overlap
     ethr =  4.50E-08,  avg # of iterations =  2.2

     negative rho (up, down):  3.136E-06 0.000E+00

     total cpu time spent up to now is       15.8 secs

     total energy              =    -225.93684565 Ry
     estimated scf accuracy    <       0.00000276 Ry

     iteration #  9     ecut=    90.00 Ry     beta= 0.30
     Davidson diagonalization with overlap
     ethr =  5.32E-09,  avg # of iterations =  2.7

     negative rho (up, down):  3.142E-06 0.000E+00

     total cpu time spent up to now is       17.5 secs

     total energy              =    -225.93684631 Ry
     estimated scf accuracy    <       0.00000237 Ry

     iteration # 10     ecut=    90.00 Ry     beta= 0.30
     Davidson diagonalization with overlap
     ethr =  4.55E-09,  avg # of iterations =  2.0

     negative rho (up, down):  3.153E-06 0.000E+00

     total cpu time spent up to now is       19.1 secs

     total energy              =    -225.93684649 Ry
     estimated scf accuracy    <       0.00000028 Ry

     iteration # 11     ecut=    90.00 Ry     beta= 0.30
     Davidson diagonalization with overlap
     ethr =  5.41E-10,  avg # of iterations =  3.2

     negative rho (up, down):  3.166E-06 0.000E+00

     total cpu time spent up to now is       20.9 secs

     total energy              =    -225.93684660 Ry
     estimated scf accuracy    <       0.00000009 Ry

     iteration # 12     ecut=    90.00 Ry     beta= 0.30
     Davidson diagonalization with overlap
     ethr =  1.65E-10,  avg # of iterations =  2.4

     negative rho (up, down):  3.175E-06 0.000E+00

     total cpu time spent up to now is       22.5 secs

     total energy              =    -225.93684658 Ry
     estimated scf accuracy    <       0.00000007 Ry

     iteration # 13     ecut=    90.00 Ry     beta= 0.30
     Davidson diagonalization with overlap
     ethr =  1.27E-10,  avg # of iterations =  2.2

     negative rho (up, down):  3.202E-06 0.000E+00

     total cpu time spent up to now is       24.1 secs

     End of self-consistent calculation

          k = 0.0000-0.0000 0.0000 ( 14181 PWs)   bands (ev):

   -15.8875 -14.7499 -13.0242 -10.8783  -8.6754  -7.5999  -7.2686  -6.2878
    -4.7733  -4.3960  -3.9667  -2.9828  -2.7993  -2.1164  -0.8367  -0.8113
    -0.4454   0.1238   1.4488   1.6294   2.0965   2.9061   3.9452   4.1548
     4.2658   4.8984   6.9886   7.2911   9.8144  10.2292  10.7285

          k = 0.0000-0.1010 0.0000 ( 14153 PWs)   bands (ev):

   -15.7011 -14.5683 -12.8575 -10.7783  -9.4796  -9.1632  -6.7840  -5.9985
    -5.5188  -4.0805  -3.4982  -2.9954  -1.8816  -1.8815  -1.1116  -0.6353
     0.1522   0.2743   1.4275   1.5386   2.2855   2.8642   3.6954   3.8731
     4.1112   4.3328   7.1996   7.5193  10.0036  10.1808  11.2436

          k = 0.0000-0.2020 0.0000 ( 14130 PWs)   bands (ev):

   -15.1442 -14.0283 -12.3754 -11.3674 -10.5739 -10.4819  -7.3831  -6.6821
    -5.5659  -4.3196  -3.1147  -1.7487  -1.6731  -0.7486  -0.2417  -0.1144
     0.4149   0.7136   1.7857   1.9381   2.0172   2.7226   3.1266   3.1575
     3.2703   3.6210   7.8535   8.1024  10.3141  10.4555  10.9398

          k = 0.0000-0.3030 0.0000 ( 14112 PWs)   bands (ev):

   -14.2248 -13.1651 -12.9318 -12.0053 -11.5290 -10.8222  -7.7927  -7.0877
    -5.7320  -4.6770  -3.0502  -1.9282  -0.4788   0.1957   0.7278   0.7306
     1.2408   1.4021   1.8417   1.9982   2.1235   2.2121   2.2659   2.4686
     2.5697   2.7199   8.8963   8.9438   9.9827  10.3899  10.7956

          k = 0.1111-0.0000 0.0000 ( 14165 PWs)   bands (ev):

   -15.6613 -14.5259 -12.8039 -10.6634  -8.4687  -7.3987  -7.2029  -6.2318
    -4.7324  -4.2038  -3.7599  -2.8281  -2.7800  -1.9181  -1.8334  -0.8662
    -0.7564  -0.4584   0.4972   1.5428   1.9383   2.0643   3.1630   3.4782
     3.8100   4.1588   7.2197   7.5307   9.8525  10.8892  10.9432

          k = 0.1111-0.1010 0.0000 ( 14125 PWs)   bands (ev):

   -15.4754 -14.3450 -12.6382 -10.5653  -9.2972  -8.9685  -6.6318  -5.8654
    -5.4400  -3.9770  -3.3873  -2.9745  -1.8603  -1.7116  -1.5544  -1.1001
    -0.6112   0.1111   0.6510   1.4004   1.9319   2.0448   2.7937   2.9031
     3.6581   4.1594   7.4501   7.7611  10.1773  11.1679  11.3570

          k = 0.1111-0.2020 0.0000 ( 14130 PWs)   bands (ev):

   -14.9202 -13.8071 -12.1592 -11.1637 -10.3675 -10.2833  -7.2004  -6.4906
    -5.4102  -4.1908  -3.0451  -2.1319  -1.6655  -1.0698  -0.5709  -0.2540
    -0.0066   0.3168   1.1727   1.5192   1.7072   1.7475   1.7829   2.1451
     3.2838   3.9462   8.1137   8.3768  10.7741  11.2402  11.5343

          k = 0.1111-0.3030 0.0000 ( 14125 PWs)   bands (ev):

   -14.0042 -12.9479 -12.7174 -11.7942 -11.3202 -10.6186  -7.5926  -6.8947
    -5.5514  -4.5073  -2.9315  -1.8181  -1.0418  -0.4037  -0.1253   0.2270
     0.6042   0.8419   1.0008   1.1679   1.4351   1.7633   1.9962   2.2531
     2.8215   2.9253   9.1583   9.2769  10.4717  10.6806  11.5885

          k = 0.2222-0.0000 0.0000 ( 14140 PWs)   bands (ev):

   -14.9860 -13.8576 -12.1471 -10.0228  -7.8517  -7.3137  -6.7967  -6.3512
    -4.8662  -3.6474  -3.5297  -3.1564  -2.9403  -2.5393  -2.3972  -1.3387
    -1.1754  -0.6576  -0.5861   0.2314   1.1529   1.2431   1.6461   1.7704
     2.1602   3.7522   7.9556   8.2053  10.0536  10.2176  10.7574

          k = 0.2222-0.1010 0.0000 ( 14110 PWs)   bands (ev):

   -14.8019 -13.6789 -11.9844  -9.9309  -8.8180  -8.4108  -6.3418  -5.6885
    -5.5907  -3.8692  -3.4915  -3.4424  -2.3423  -2.2461  -1.6720  -1.2946
    -1.0717  -0.4457  -0.3657   0.3258   0.5333   0.7288   1.3616   1.6112
     3.0013   3.3759   8.1967   8.4491  10.6543  10.7055  10.9392

          k = 0.2222-0.2020 0.0000 ( 14113 PWs)   bands (ev):

   -14.2525 -13.1481 -11.5154 -10.5754  -9.7537  -9.7066  -6.7112  -5.9870
    -5.0240  -4.7047  -3.2198  -3.1709  -2.5693  -1.7065  -1.1048  -0.8600
    -0.5324  -0.3259  -0.2449   0.1820   0.2833   0.6383   1.0113   1.8594
     2.6673   3.3712   8.8624   9.0845  11.3670  11.8768  11.9550

          k = 0.2222-0.3030 0.0000 ( 14149 PWs)   bands (ev):

   -13.3481 -12.3030 -12.0842 -11.1704 -10.7011 -10.0145  -7.0272  -6.3506
    -5.0773  -4.0665  -3.6907  -2.5461  -2.3856  -2.1836  -1.3640  -1.1918
    -1.1373  -0.6402   0.1498   1.0105   1.1849   1.2285   1.4120   1.6954
     2.3988   2.8073   9.8491   9.9667  11.2607  11.3740  12.5836

          k = 0.3333-0.0000 0.0000 ( 14102 PWs)   bands (ev):

   -13.8736 -12.7575 -11.0672  -8.9701  -8.5431  -7.5274  -6.8342  -5.9779
    -5.7996  -4.0107  -3.8790  -2.9815  -2.7957  -2.2148  -1.9029  -1.8019
    -1.7241  -0.7626  -0.5791  -0.5372  -0.4297  -0.0670   0.2724   0.3987
     1.1607   2.9920   9.1043   9.1381   9.9404  10.1941  11.2859

          k = 0.3333-0.1010 0.0000 ( 14116 PWs)   bands (ev):

   -13.6933 -12.5836 -10.9109  -8.9035  -8.7474  -7.9051  -6.6310  -6.5302
    -6.0560  -4.2056  -3.9825  -3.0738  -2.9776  -2.2422  -1.8544  -1.6343
    -1.4770  -1.1775  -0.6245  -0.5830  -0.3618  -0.1956   0.5452   0.9442
     1.4035   2.8032   9.3546   9.4727  10.3940  10.5869  11.1841

          k = 0.3333-0.2020 0.0000 ( 14157 PWs)   bands (ev):

   -13.1572 -12.0688 -10.4624  -9.7766  -8.8954  -8.7590  -6.6794  -6.3266
    -6.1132  -4.8443  -4.1535  -3.5316  -3.4402  -3.1495  -2.3892  -1.9792
    -1.5352  -0.4701  -0.2030  -0.0615   0.0558   0.4198   0.5086   0.8591
     2.2612   2.3055   9.9836  10.0779  11.3608  11.6384  11.9412

          k = 0.3333-0.3030 0.0000 ( 14179 PWs)   bands (ev):

   -12.2826 -11.2603 -11.0855 -10.1836  -9.7026  -9.0417  -6.3279  -5.9779
    -5.6823  -5.3277  -4.8541  -4.3219  -3.6921  -3.2545  -2.7470  -2.5666
    -1.4481  -0.7455  -0.2100  -0.0367   0.5906   0.9875   1.2749   1.5172
     1.7361   2.3625  10.7173  10.7954  12.0774  12.1843  12.4203

          k = 0.4444-0.0000 0.0000 ( 14094 PWs)   bands (ev):

   -12.3523 -11.2559 -10.4954  -9.5960  -9.4294  -7.8139  -7.5365  -5.7990
    -5.4377  -4.4193  -3.7123  -2.9208  -2.6798  -2.2016  -1.7914  -1.4056
    -1.3921  -1.2989  -1.0250  -0.9347  -0.9340  -0.8348  -0.8038   0.1727
     0.7099   1.9197   9.6504  10.3390  10.4127  10.7155  10.8137

          k = 0.4444-0.1010 0.0000 ( 14140 PWs)   bands (ev):

   -12.1819 -11.0934 -10.3656  -9.4548  -9.3114  -7.7564  -7.4130  -5.7720
    -5.7154  -5.6570  -4.0543  -3.9501  -3.0436  -2.3814  -1.9203  -1.6871
    -1.3939  -1.0994  -0.7826  -0.6765  -0.5996  -0.3607  -0.1607   0.3302
     0.8201   1.9024  10.2708  10.2808  10.4472  10.9846  11.4176

          k = 0.4444-0.2020 0.0000 ( 14163 PWs)   bands (ev):

   -11.6838 -10.6217 -10.0744  -9.1042  -9.0115  -7.7014  -7.1689  -7.0050
    -6.4735  -5.7893  -5.5538  -5.0108  -3.3500  -3.2721  -2.2885  -2.0815
    -1.5746  -1.2896  -0.7930  -0.1004   0.0876   0.1255   0.6096   1.0696
     1.2537   1.8256  10.8485  11.0157  11.2828  11.4558  12.0093

          k = 0.4444-0.3030 0.0000 ( 14175 PWs)   bands (ev):

   -10.9197 -10.1628  -9.9018  -9.2033  -8.4518  -7.9143  -7.6914  -6.9584
    -6.7768  -6.5252  -6.0753  -5.9841  -3.6998  -3.3406  -2.7705  -2.3950
    -1.7711  -1.4796  -0.6280  -0.2731   0.1993   0.3112   1.3797   1.5588
     1.6774   1.7986  11.4458  11.4497  11.9775  12.0844  13.1918

     the Fermi energy is     5.6085 ev

!    total energy              =    -225.93684660 Ry
     estimated scf accuracy    <          2.4E-09 Ry
     smearing contrib. (-TS)   =       0.00000000 Ry
     internal energy E=F+TS    =    -225.93684660 Ry

     The total energy is F=E-TS. E is the sum of the following terms:
     one-electron contribution =   -1221.38545369 Ry
     hartree contribution      =     634.82703147 Ry
     xc contribution           =     -59.08223078 Ry
     ewald contribution        =     493.65914734 Ry
     one-center paw contrib.   =     -73.95534093 Ry

     convergence has been achieved in  13 iterations

     negative rho (up, down):  3.202E-06 0.000E+00

     Forces acting on atoms (cartesian axes, Ry/au):

     atom    1 type  1   force =     0.00000000   -0.04616861   -0.02069141
     atom    2 type  1   force =     0.00000000    0.04616861   -0.02069141
     atom    3 type  1   force =     0.00000000   -0.00265418    0.00944167
     atom    4 type  1   force =     0.00000000    0.00265418    0.00944167
     atom    5 type  1   force =     0.00000000    0.00083218    0.00065300
     atom    6 type  1   force =     0.00000000   -0.00083218    0.00065300
     atom    7 type  1   force =     0.00000000    0.00083218   -0.00065300
     atom    8 type  1   force =     0.00000000   -0.00083218   -0.00065300
     atom    9 type  1   force =     0.00000000   -0.00265418   -0.00944167
     atom   10 type  1   force =     0.00000000    0.00265418   -0.00944167
     atom   11 type  1   force =     0.00000000    0.04616861    0.02069141
     atom   12 type  1   force =     0.00000000   -0.04616861    0.02069141
     atom   13 type  2   force =     0.00000000   -0.00341159    0.00975338
     atom   14 type  2   force =     0.00000000    0.00341159    0.00975338
     atom   15 type  2   force =     0.00000000    0.00341159   -0.00975338
     atom   16 type  2   force =     0.00000000   -0.00341159   -0.00975338

     Total force =     0.105143     Total SCF correction =     0.000133

     BFGS Geometry Optimization
     Energy error            =      0.0E+00 Ry
     Gradient error          =      4.6E-02 Ry/Bohr

     number of scf cycles    =   1
     number of bfgs steps    =   0

     energy             new  =    -225.9368465954 Ry

     new trust radius        =       0.0505932321 bohr
     new conv_thr            =       0.0000000100 Ry


ATOMIC_POSITIONS (angstrom)
C                0.0000000000       -0.9176806261       11.1952578653
C                1.2632452000       -1.7620671239       11.1952578653
C                1.2632452000       -2.6811522814        9.9479584051
C                0.0000000000        0.0014045314        9.9479584051
C                1.2632452000       -1.7860581289        8.6800624414
C                0.0000000000       -0.8936896211        8.6800624314
C                0.0000000000        0.0004403711        7.4161261286
C                1.2632452000       -2.6801881211        7.4161261286
C                0.0000000000       -0.8946537814        6.1482301649
C                1.2632452000       -1.7850939686        6.1482301649
C                0.0000000000        0.0244313761        4.9009306947
C                1.2632452000       -2.7041791261        4.9009306947
H                0.0000000000       -0.2657427983       12.1013498389
H                1.2632452000       -2.4140049517       12.1013498389
H                0.0000000000       -0.6275064517        3.9948387311
H                1.2632452000       -2.0522412983        3.9948387311



     Writing config-only to output data dir /tmp/qe/slab.save/ :
     XML data file
     NEW-OLD atomic charge density approx. for the potential

     negative rho (up, down):  2.966E-06 0.000E+00

     total cpu time spent up to now is       24.7 secs

     Self-consistent Calculation

     iteration #  1     ecut=    90.00 Ry     beta= 0.30
     Davidson diagonalization with overlap
     c_bands:  1 eigenvalues not converged
     ethr =  1.00E-06,  avg # of iterations = 10.4

     negative rho (up, down):  2.630E-06 0.000E+00

     total cpu time spent up to now is       28.1 secs

     total energy              =    -225.93977438 Ry
     estimated scf accuracy    <       0.00140401 Ry

     iteration #  2     ecut=    90.00 Ry     beta= 0.30
     Davidson diagonalization with overlap
     ethr =  2.70E-06,  avg # of iterations =  1.0

     negative rho (up, down):  2.432E-06 0.000E+00

     total cpu time spent up to now is       29.4 secs

     total energy              =    -225.93964206 Ry
     estimated scf accuracy    <       0.00051562 Ry

     iteration #  3     ecut=    90.00 Ry     beta= 0.30
     Davidson diagonalization with overlap
     ethr =  9.92E-07,  avg # of iterations =  2.0

     negative rho (up, down):  2.433E-06 0.000E+00

     total cpu time spent up to now is       31.0 secs

     total energy              =    -225.93970693 Ry
     estimated scf accuracy    <       0.00002452 Ry

     iteration #  4     ecut=    90.00 Ry     beta= 0.30
     Davidson diagonalization with overlap
     ethr =  4.72E-08,  avg # of iterations =  1.9

     negative rho (up, down):  2.502E-06 0.000E+00

     total cpu time spent up to now is       32.5 secs

     total energy              =    -225.93970972 Ry
     estimated scf accuracy    <       0.00000627 Ry

     iteration #  5     ecut=    90.00 Ry     beta= 0.30
     Davidson diagonalization with overlap
     ethr =  1.21E-08,  avg # of iterations =  2.2

     negative rho (up, down):  2.502E-06 0.000E+00

     total cpu time spent up to now is       34.1 secs

     total energy              =    -225.93971062 Ry
     estimated scf accuracy    <       0.00000116 Ry

     iteration #  6     ecut=    90.00 Ry     beta= 0.30
     Davidson diagonalization with overlap
     ethr =  2.24E-09,  avg # of iterations =  2.6

     negative rho (up, down):  2.519E-06 0.000E+00

     total cpu time spent up to now is       35.8 secs

     total energy              =    -225.93971078 Ry
     estimated scf accuracy    <       0.00000047 Ry

     iteration #  7     ecut=    90.00 Ry     beta= 0.30
     Davidson diagonalization with overlap
     ethr =  9.12E-10,  avg # of iterations =  2.2

     negative rho (up, down):  2.511E-06 0.000E+00

     total cpu time spent up to now is       37.4 secs

     total energy              =    -225.93971087 Ry
     estimated scf accuracy    <       0.00000003 Ry

     iteration #  8     ecut=    90.00 Ry     beta= 0.30
     Davidson diagonalization with overlap
     ethr =  4.88E-11,  avg # of iterations =  2.4

     negative rho (up, down):  2.517E-06 0.000E+00

     total cpu time spent up to now is       39.1 secs

     End of self-consistent calculation

          k = 0.0000-0.0000 0.0000 ( 14181 PWs)   bands (ev):

   -15.9425 -14.8611 -13.1360 -10.9540  -8.7413  -7.6516  -7.2900  -6.3263
    -4.7657  -4.4597  -3.9727  -3.0069  -2.6983  -2.1039  -0.9036  -0.8188
    -0.2971  -0.1049   1.1249   1.6087   2.3033   2.5867   3.8731   3.9013
     4.3919   4.7684   7.0117   7.2709   9.7510  10.1383  10.6097

          k = 0.0000-0.1010 0.0000 ( 14153 PWs)   bands (ev):

   -15.7563 -14.6805 -12.9725 -10.8652  -9.5181  -9.2456  -6.8018  -5.9919
    -5.5375  -4.0341  -3.5277  -3.0322  -1.8699  -1.8296  -1.0600  -0.7287
     0.0427   0.2314   1.2105   1.5374   2.3358   2.5423   3.6286   3.7632
     4.1025   4.2169   7.2168   7.5122   9.9366  10.1077  11.0270

          k = 0.0000-0.2020 0.0000 ( 14130 PWs)   bands (ev):

   -15.2002 -14.1447 -12.5053 -11.4258 -10.6671 -10.5623  -7.3511  -6.7078
    -5.4857  -4.3399  -3.0504  -1.7411  -1.7050  -0.7543  -0.2117  -0.1187
     0.4215   0.4713   1.4424   1.9837   2.1177   2.3933   2.9382   3.0373
     3.2667   3.6243   7.8627   8.0887  10.2647  10.3437  10.9318

          k = 0.0000-0.3030 0.0000 ( 14112 PWs)   bands (ev):

   -14.2838 -13.3158 -12.9546 -12.1795 -11.5730 -10.9388  -7.7440  -7.0716
    -5.6875  -4.6708  -2.9821  -1.8960  -0.4009   0.1752   0.6186   0.8060
     1.1164   1.2122   1.6967   1.7502   2.0136   2.1444   2.1875   2.2112
     2.6208   2.7286   8.8805   8.8967   9.9199  10.3743  10.7615

          k = 0.1111-0.0000 0.0000 ( 14165 PWs)   bands (ev):

   -15.7163 -14.6375 -12.9166 -10.7401  -8.5356  -7.4511  -7.2231  -6.2670
    -4.7202  -4.2654  -3.7629  -2.8532  -2.6759  -1.9254  -1.9041  -1.0900
    -0.7439  -0.3105   0.1855   1.5164   1.6630   2.2376   2.9322   3.4180
     3.6967   4.2778   7.2244   7.5008   9.7420  10.8407  10.9489

          k = 0.1111-0.1010 0.0000 ( 14125 PWs)   bands (ev):

   -15.5306 -14.4575 -12.7540 -10.6534  -9.3350  -9.0512  -6.6475  -5.8555
    -5.4608  -3.9282  -3.4118  -3.0123  -1.8195  -1.7027  -1.6485  -1.0437
    -0.8310   0.1794   0.3434   1.5055   1.6361   2.0529   2.7188   2.7291
     3.7208   4.1121   7.4571   7.7423  10.0865  11.1557  11.3810

          k = 0.1111-0.2020 0.0000 ( 14130 PWs)   bands (ev):

   -14.9762 -13.9238 -12.2899 -11.2217 -10.4617 -10.3634  -7.1663  -6.5152
    -5.3278  -4.2091  -3.0062  -2.1137  -1.7296  -1.1211  -0.6554  -0.1300
    -0.1047   0.1448   0.9452   1.4225   1.5199   1.6491   1.7572   2.1887
     3.2333   3.9177   8.1184   8.3579  10.6859  11.2225  11.5199

          k = 0.1111-0.3030 0.0000 ( 14125 PWs)   bands (ev):

   -14.0631 -13.0990 -12.7400 -11.9687 -11.3647 -10.7357  -7.5424  -6.8767
    -5.5057  -4.4979  -2.8702  -1.7893  -1.0951  -0.3792  -0.2739   0.1975
     0.4608   0.6368   0.9533   1.1446   1.1742   1.6686   1.9337   2.2919
     2.7906   2.8830   9.1444   9.2332  10.4148  10.6652  11.5708

          k = 0.2222-0.0000 0.0000 ( 14140 PWs)   bands (ev):

   -15.0411 -13.9699 -12.2617 -10.1020  -7.9216  -7.3352  -6.8513  -6.3887
    -4.8594  -3.7022  -3.6175  -3.1496  -2.8471  -2.7488  -2.4251  -1.4527
    -1.3202  -0.5907  -0.5288  -0.0279   1.0473   1.1087   1.5498   1.9529
     2.1124   3.8611   7.9255   8.1397  10.0777  10.0891  10.7505

          k = 0.2222-0.1010 0.0000 ( 14110 PWs)   bands (ev):

   -14.8571 -13.7922 -12.1023 -10.0220  -8.8524  -8.4932  -6.3600  -5.7279
    -5.5791  -3.9024  -3.5228  -3.4451  -2.3920  -2.3763  -1.8174  -1.2050
    -1.0734  -0.6168  -0.4872   0.2670   0.4259   0.5817   1.4828   1.5723
     2.9591   3.4627   8.1772   8.3962  10.5393  10.7145  10.9231

          k = 0.2222-0.2020 0.0000 ( 14113 PWs)   bands (ev):

   -14.3084 -13.2655 -11.6483 -10.6314  -9.8515  -9.7850  -6.6712  -6.0109
    -4.9458  -4.7578  -3.3106  -3.2588  -2.4873  -1.8993  -1.1634  -0.9228
    -0.6249  -0.5105  -0.3461   0.1468   0.3198   0.5528   1.0338   1.9000
     2.6701   3.3317   8.8488   9.0424  11.2833  11.8553  11.9548

          k = 0.2222-0.3030 0.0000 ( 14149 PWs)   bands (ev):

   -13.4068 -12.4546 -12.1061 -11.3445 -10.7471 -10.1327  -6.9730  -6.3261
    -5.0364  -4.0527  -3.7526  -2.7206  -2.4250  -2.1437  -1.5886  -1.3316
    -1.0921  -0.9023   0.2271   1.0321   1.1598   1.2037   1.3996   1.6507
     2.3524   2.7703   9.8107   9.9005  11.2051  11.3512  12.5795

          k = 0.3333-0.0000 0.0000 ( 14102 PWs)   bands (ev):

   -13.9285 -12.8707 -11.1843  -9.0525  -8.5833  -7.6089  -6.9086  -6.0446
    -5.8578  -4.0230  -3.9444  -3.1331  -2.8378  -2.1905  -1.9910  -1.8442
    -1.8332  -0.8590  -0.6995  -0.5685  -0.4033  -0.1045   0.2030   0.3504
     1.3069   3.0792   9.0316   9.0560   9.9307  10.2297  11.1925

          k = 0.3333-0.1010 0.0000 ( 14116 PWs)   bands (ev):

   -13.7483 -12.6975 -11.0311  -9.0010  -8.7770  -7.9789  -6.7267  -6.6027
    -6.0968  -4.2674  -3.9864  -3.1472  -3.0763  -2.2683  -1.9268  -1.6714
    -1.6595  -1.2157  -0.7183  -0.5713  -0.3832  -0.1928   0.4662   1.0888
     1.3369   2.8871   9.3042   9.3798  10.3830  10.5648  11.2938

          k = 0.3333-0.2020 0.0000 ( 14157 PWs)   bands (ev):

   -13.2127 -12.1862 -10.5974  -9.8232  -8.9654  -8.8646  -6.7573  -6.3075
    -6.2299  -4.8651  -4.1370  -3.7532  -3.5037  -3.1854  -2.3809  -2.1966
    -1.4993  -0.4598  -0.2188  -0.1682   0.0437   0.4386   0.5712   0.8098
     2.1989   2.3748   9.9269   9.9977  11.3426  11.5561  11.8989

          k = 0.3333-0.3030 0.0000 ( 14179 PWs)   bands (ev):

   -12.3402 -11.4112 -11.1047 -10.3484  -9.7553  -9.1591  -6.3048  -6.0342
    -5.6637  -5.4675  -4.9034  -4.4639  -3.6781  -3.3751  -2.7932  -2.7866
    -1.3633  -0.6663  -0.2259  -0.0916   0.6429   0.9712   1.2261   1.4801
     1.7585   2.3115  10.5931  10.6582  12.0564  12.1670  12.3800

          k = 0.4444-0.0000 0.0000 ( 14094 PWs)   bands (ev):

   -12.4064 -11.3685 -10.5463  -9.7137  -9.5359  -7.9226  -7.6197  -5.8707
    -5.5158  -4.4822  -3.7853  -2.9716  -2.7473  -2.3123  -1.8162  -1.5114
    -1.4444  -1.3301  -1.0518  -1.0035  -0.9530  -0.8831  -0.8376   0.2714
     0.7512   1.9815   9.6612  10.2284  10.4255  10.6975  10.8266

          k = 0.4444-0.1010 0.0000 ( 14140 PWs)   bands (ev):

   -12.2359 -11.2062 -10.4153  -9.5757  -9.4139  -7.8608  -7.5088  -5.8495
    -5.8219  -5.7171  -4.1559  -4.0100  -3.0667  -2.4543  -1.9272  -1.6767
    -1.4504  -1.1774  -0.8549  -0.7374  -0.6024  -0.3759  -0.2168   0.3798
     0.8627   1.9643  10.2688  10.2768  10.3509  10.9075  11.3034

          k = 0.4444-0.2020 0.0000 ( 14163 PWs)   bands (ev):

   -11.7373 -10.7358 -10.1188  -9.2365  -9.0986  -7.8056  -7.3084  -7.0433
    -6.6157  -5.9089  -5.5807  -5.1363  -3.4016  -3.2538  -2.3247  -2.0209
    -1.6343  -1.2498  -0.8440  -0.0687  -0.0105   0.1343   0.5833   1.0528
     1.2367   1.8895  10.7599  10.8877  11.2288  11.3028  11.9794

          k = 0.4444-0.3030 0.0000 ( 14175 PWs)   bands (ev):

   -10.9721 -10.2266  -9.9926  -9.3103  -8.5583  -8.0238  -7.7764  -7.0799
    -6.8930  -6.6578  -6.1794  -6.0645  -3.7324  -3.3619  -2.7362  -2.3355
    -1.8116  -1.5064  -0.5784  -0.2018   0.1294   0.2690   1.4107   1.4998
     1.7368   1.7407  11.2512  11.2532  11.8441  11.9358  13.1590

     the Fermi energy is     5.5695 ev

!    total energy              =    -225.93971087 Ry
     estimated scf accuracy    <          1.6E-09 Ry
     smearing contrib. (-TS)   =       0.00000000 Ry
     internal energy E=F+TS    =    -225.93971087 Ry

     The total energy is F=E-TS. E is the sum of the following terms:
     one-electron contribution =   -1224.24649803 Ry
     hartree contribution      =     636.15485327 Ry
     xc contribution           =     -59.07452247 Ry
     ewald contribution        =     495.18200911 Ry
     one-center paw contrib.   =     -73.95555276 Ry

     convergence has been achieved in   8 iterations

     negative rho (up, down):  2.517E-06 0.000E+00

     Forces acting on atoms (cartesian axes, Ry/au):

     atom    1 type  1   force =     0.00000000    0.02515606    0.00654762
     atom    2 type  1   force =     0.00000000   -0.02515606    0.00654762
     atom    3 type  1   force =     0.00000000    0.00105495    0.00295519
     atom    4 type  1   force =     0.00000000   -0.00105495    0.00295519
     atom    5 type  1   force =     0.00000000   -0.00278828    0.00042767
     atom    6 type  1   force =     0.00000000    0.00278828    0.00042767
     atom    7 type  1   force =     0.00000000   -0.00278828   -0.00042767
     atom    8 type  1   force =     0.00000000    0.00278828   -0.00042767
     atom    9 type  1   force =     0.00000000    0.00105495   -0.00295519
     atom   10 type  1   force =     0.00000000   -0.00105495   -0.00295519
     atom   11 type  1   force =     0.00000000   -0.02515606   -0.00654762
     atom   12 type  1   force =     0.00000000    0.02515606   -0.00654762
     atom   13 type  2   force =     0.00000000   -0.01919089   -0.01127576
     atom   14 type  2   force =     0.00000000    0.01919089   -0.01127576
     atom   15 type  2   force =     0.00000000    0.01919089    0.01127576
     atom   16 type  2   force =     0.00000000   -0.01919089    0.01127576

     Total force =     0.068962     Total SCF correction =     0.000054
     Energy error            =      2.9E-03 Ry
     Gradient error          =      2.5E-02 Ry/Bohr

     number of scf cycles    =   2
     number of bfgs steps    =   1

     energy             old  =    -225.9368465954 Ry
     energy             new  =    -225.9397108713 Ry

     CASE: energy            _new < energy            _old

     new trust radius        =       0.0149138485 bohr
     new conv_thr            =       0.0000000100 Ry


ATOMIC_POSITIONS (angstrom)
C                0.0000000000       -0.9109372830       11.1965866128
C                1.2632452000       -1.7688104670       11.1965866128
C                1.2632452000       -2.6809047884        9.9494812910
C                0.0000000000        0.0011570384        9.9494812910
C                1.2632452000       -1.7870161931        8.6802477644
C                0.0000000000       -0.8927315569        8.6802477544
C                0.0000000000       -0.0005176931        7.4159408056
C                1.2632452000       -2.6792300569        7.4159408056
C                0.0000000000       -0.8944062884        6.1467072790
C                1.2632452000       -1.7853414616        6.1467072790
C                0.0000000000        0.0176880330        4.8996019472
C                1.2632452000       -2.6974357830        4.8996019472
H                0.0000000000       -0.2727861189       12.0977894480
H                1.2632452000       -2.4069616311       12.0977894480
H                0.0000000000       -0.6204631311        3.9983991220
H                1.2632452000       -2.0592846189        3.9983991220



     Writing config-only to output data dir /tmp/qe/slab.save/ :
     XML data file
     NEW-OLD atomic charge density approx. for the potential

     negative rho (up, down):  2.660E-06 0.000E+00

     total cpu time spent up to now is       39.7 secs

     Self-consistent Calculation

     iteration #  1     ecut=    90.00 Ry     beta= 0.30
     Davidson diagonalization with overlap
     ethr =  1.00E-06,  avg # of iterations =  5.6

     negative rho (up, down):  2.710E-06 0.000E+00

     total cpu time spent up to now is       42.1 secs

     total energy              =    -225.94145565 Ry
     estimated scf accuracy    <       0.00022752 Ry

     iteration #  2     ecut=    90.00 Ry     beta= 0.30
     Davidson diagonalization with overlap
     ethr =  4.38E-07,  avg # of iterations =  1.4

     negative rho (up, down):  2.688E-06 0.000E+00

     total cpu time spent up to now is       43.4 secs

     total energy              =    -225.94143582 Ry
     estimated scf accuracy    <       0.00007703 Ry

     iteration #  3     ecut=    90.00 Ry     beta= 0.30
     Davidson diagonalization with overlap
     ethr =  1.48E-07,  avg # of iterations =  2.0

     negative rho (up, down):  2.632E-06 0.000E+00

     total cpu time spent up to now is       45.0 secs

     total energy              =    -225.94144416 Ry
     estimated scf accuracy    <       0.00000591 Ry

     iteration #  4     ecut=    90.00 Ry     beta= 0.30
     Davidson diagonalization with overlap
     ethr =  1.14E-08,  avg # of iterations =  2.2

     negative rho (up, down):  2.595E-06 0.000E+00

     total cpu time spent up to now is       46.5 secs

     total energy              =    -225.94144499 Ry
     estimated scf accuracy    <       0.00000109 Ry

     iteration #  5     ecut=    90.00 Ry     beta= 0.30
     Davidson diagonalization with overlap
     ethr =  2.09E-09,  avg # of iterations =  2.1

     negative rho (up, down):  2.577E-06 0.000E+00

     total cpu time spent up to now is       48.1 secs

     total energy              =    -225.94144505 Ry
     estimated scf accuracy    <       0.00000028 Ry

     iteration #  6     ecut=    90.00 Ry     beta= 0.30
     Davidson diagonalization with overlap
     ethr =  5.39E-10,  avg # of iterations =  3.4

     negative rho (up, down):  2.568E-06 0.000E+00

     total cpu time spent up to now is       49.9 secs

     total energy              =    -225.94144505 Ry
     estimated scf accuracy    <       0.00000028 Ry

     iteration #  7     ecut=    90.00 Ry     beta= 0.30
     Davidson diagonalization with overlap
     ethr =  5.33E-10,  avg # of iterations =  2.7

     negative rho (up, down):  2.566E-06 0.000E+00

     total cpu time spent up to now is       51.5 secs

     total energy              =    -225.94144513 Ry
     estimated scf accuracy    <       0.00000004 Ry

     iteration #  8     ecut=    90.00 Ry     beta= 0.30
     Davidson diagonalization with overlap
     ethr =  7.05E-11,  avg # of iterations =  2.1

     negative rho (up, down):  2.566E-06 0.000E+00

     total cpu time spent up to now is       53.0 secs

     End of self-consistent calculation

          k = 0.0000-0.0000 0.0000 ( 14181 PWs)   bands (ev):

   -15.9136 -14.8356 -13.1110 -10.9254  -8.7244  -7.6247  -7.2740  -6.3321
    -4.7880  -4.4422  -3.9769  -2.9947  -2.7284  -2.1085  -0.8593  -0.8047
    -0.3604  -0.0397   1.2207   1.6375   2.2198   2.6958   3.9116   3.9816
     4.3428   4.8229   7.0004   7.2750   9.7739  10.1809  10.6993

          k = 0.0000-0.1010 0.0000 ( 14153 PWs)   bands (ev):

   -15.7273 -14.6548 -12.9466 -10.8348  -9.4935  -9.2268  -6.8044  -6.0062
    -5.5256  -4.0532  -3.5246  -3.0165  -1.8727  -1.8494  -1.0750  -0.6840
     0.1093   0.2089   1.3084   1.5050   2.3231   2.6507   3.7039   3.7413
     4.1104   4.2667   7.2072   7.5120   9.9612  10.1432  11.0886

          k = 0.0000-0.2020 0.0000 ( 14130 PWs)   bands (ev):

   -15.1711 -14.1179 -12.4754 -11.3986 -10.6346 -10.5457  -7.3654  -6.7039
    -5.5056  -4.3444  -3.0709  -1.7294  -1.7023  -0.7518  -0.1654  -0.1592
     0.4159   0.5435   1.5481   1.9788   2.0805   2.4994   3.0003   3.0782
     3.2715   3.6277   7.8561   8.0934  10.2872  10.3916  10.9328

          k = 0.0000-0.3030 0.0000 ( 14112 PWs)   bands (ev):

   -14.2540 -13.2785 -12.9369 -12.1398 -11.5632 -10.9079  -7.7554  -7.0716
    -5.7051  -4.6847  -2.9983  -1.9134  -0.4166   0.1924   0.6706   0.7803
     1.2108   1.2175   1.7898   1.8303   2.0107   2.1719   2.2127   2.2688
     2.6096   2.7188   8.8887   8.9203   9.9460  10.3782  10.7718

          k = 0.1111-0.0000 0.0000 ( 14165 PWs)   bands (ev):

   -15.6874 -14.6119 -12.8913 -10.7112  -8.5183  -7.4239  -7.2075  -6.2738
    -4.7440  -4.2489  -3.7683  -2.8406  -2.7074  -1.9093  -1.8814  -1.0264
    -0.7294  -0.3741   0.2777   1.5437   1.7637   2.1594   3.0054   3.4511
     3.7452   4.2314   7.2190   7.5085   9.7857  10.9160  10.9491

          k = 0.1111-0.1010 0.0000 ( 14125 PWs)   bands (ev):

   -15.5017 -14.4318 -12.7279 -10.6226  -9.3107  -9.0324  -6.6510  -5.8716
    -5.4471  -3.9486  -3.4109  -2.9965  -1.8354  -1.7048  -1.6049  -1.0609
    -0.7679   0.1610   0.4354   1.4745   1.7346   2.0531   2.7596   2.7747
     3.6991   4.1340   7.4509   7.7464  10.1207  11.1751  11.3935

          k = 0.1111-0.2020 0.0000 ( 14130 PWs)   bands (ev):

   -14.9471 -13.8970 -12.2598 -11.1946 -10.4289 -10.3469  -7.1815  -6.5117
    -5.3491  -4.2118  -3.0228  -2.1037  -1.7171  -1.1065  -0.6143  -0.1661
    -0.0747   0.1933   1.0127   1.4838   1.5742   1.6772   1.7592   2.1639
     3.2531   3.9326   8.1136   8.3643  10.7246  11.2329  11.5271

          k = 0.1111-0.3030 0.0000 ( 14125 PWs)   bands (ev):

   -14.0333 -13.0615 -12.7224 -11.9289 -11.3548 -10.7046  -7.5545  -6.8773
    -5.5242  -4.5128  -2.8847  -1.8056  -1.0654  -0.3724  -0.2322   0.2145
     0.5735   0.6295   0.9710   1.1760   1.2351   1.6930   1.9534   2.2766
     2.8109   2.8914   9.1512   9.2555  10.4397  10.6661  11.5768

          k = 0.2222-0.0000 0.0000 ( 14140 PWs)   bands (ev):

   -15.0121 -13.9443 -12.2360 -10.0723  -7.9033  -7.3190  -6.8232  -6.3936
    -4.8805  -3.6885  -3.5755  -3.1592  -2.8748  -2.6911  -2.4115  -1.3710
    -1.3273  -0.5870  -0.5747   0.0613   1.1091   1.1319   1.5937   1.8768
     2.1389   3.8189   7.9329   8.1620  10.0771  10.1485  10.7519

          k = 0.2222-0.1010 0.0000 ( 14110 PWs)   bands (ev):

   -14.8282 -13.7663 -12.0757  -9.9903  -8.8293  -8.4749  -6.3637  -5.7132
    -5.5886  -3.8966  -3.5124  -3.4428  -2.3716  -2.3402  -1.7765  -1.2351
    -1.0730  -0.5677  -0.4350   0.2948   0.4580   0.6246   1.4394   1.5863
     2.9788   3.4309   8.1809   8.4140  10.5901  10.7214  10.9325

          k = 0.2222-0.2020 0.0000 ( 14113 PWs)   bands (ev):

   -14.2793 -13.2386 -11.6175 -10.6049  -9.8178  -9.7692  -6.6896  -6.0080
    -4.9690  -4.7301  -3.2706  -3.2661  -2.5034  -1.8409  -1.1356  -0.9042
    -0.5866  -0.4431  -0.3199   0.1592   0.2926   0.5804   1.0321   1.8801
     2.6729   3.3502   8.8518   9.0586  11.3238  11.8718  11.9699

          k = 0.2222-0.3030 0.0000 ( 14149 PWs)   bands (ev):

   -13.3771 -12.4170 -12.0888 -11.3048 -10.7370 -10.1013  -6.9874  -6.3291
    -5.0557  -4.0689  -3.7213  -2.6636  -2.4088  -2.1556  -1.5036  -1.3106
    -1.1098  -0.8254   0.2076   1.0346   1.1751   1.2041   1.4119   1.6581
     2.3671   2.7892   9.8283   9.9324  11.2269  11.3534  12.5812

          k = 0.3333-0.0000 0.0000 ( 14102 PWs)   bands (ev):

   -13.8996 -12.8450 -11.1580  -9.0217  -8.5598  -7.5962  -6.8887  -6.0377
    -5.8282  -4.0130  -3.9114  -3.0983  -2.8294  -2.2081  -1.9363  -1.8499
    -1.8173  -0.8147  -0.6599  -0.5510  -0.4136  -0.1015   0.2224   0.3749
     1.2457   3.0454   9.0755   9.0796   9.9337  10.2290  11.2466

          k = 0.3333-0.1010 0.0000 ( 14116 PWs)   bands (ev):

   -13.7194 -12.6716 -11.0040  -8.9688  -8.7547  -7.9671  -6.7022  -6.5670
    -6.0971  -4.2426  -3.9935  -3.1103  -3.0572  -2.2673  -1.8886  -1.6543
    -1.6219  -1.1921  -0.6931  -0.5817  -0.3743  -0.2002   0.4936   1.0299
     1.3684   2.8549   9.3247   9.4200  10.3924  10.5883  11.2655

          k = 0.3333-0.2020 0.0000 ( 14157 PWs)   bands (ev):

   -13.1837 -12.1595 -10.5662  -9.7991  -8.9532  -8.8297  -6.7224  -6.3193
    -6.2004  -4.8576  -4.1466  -3.6886  -3.4703  -3.1791  -2.3953  -2.1234
    -1.5132  -0.4658  -0.2181  -0.1413   0.0650   0.4371   0.5385   0.8276
     2.2277   2.3496   9.9510  10.0346  11.3600  11.5935  11.9479

          k = 0.3333-0.3030 0.0000 ( 14179 PWs)   bands (ev):

   -12.3109 -11.3735 -11.0889 -10.3110  -9.7442  -9.1281  -6.3138  -6.0020
    -5.6685  -5.4306  -4.8748  -4.4269  -3.6888  -3.3373  -2.7944  -2.7178
    -1.3921  -0.7009  -0.2144  -0.0674   0.6223   0.9719   1.2443   1.5052
     1.7502   2.3356  10.6478  10.7187  12.0712  12.1799  12.4069

          k = 0.4444-0.0000 0.0000 ( 14094 PWs)   bands (ev):

   -12.3778 -11.3433 -10.5188  -9.6876  -9.5134  -7.9002  -7.5884  -5.8427
    -5.4944  -4.4504  -3.7648  -2.9444  -2.7127  -2.2891  -1.8147  -1.4837
    -1.4186  -1.3168  -1.0386  -0.9818  -0.9716  -0.8651  -0.8465   0.2286
     0.7356   1.9576   9.6726  10.2876  10.4437  10.7202  10.8430

          k = 0.4444-0.1010 0.0000 ( 14140 PWs)   bands (ev):

   -12.2074 -11.1811 -10.3884  -9.5488  -9.3927  -7.8384  -7.4761  -5.8177
    -5.7962  -5.6848  -4.1281  -3.9775  -3.0674  -2.4366  -1.9197  -1.6895
    -1.4354  -1.1518  -0.8432  -0.7243  -0.5997  -0.3672  -0.1994   0.3562
     0.8485   1.9405  10.2879  10.2931  10.4048  10.9447  11.3556

          k = 0.4444-0.2020 0.0000 ( 14163 PWs)   bands (ev):

   -11.7090 -10.7105 -10.0940  -9.2081  -9.0810  -7.7817  -7.2637  -7.0195
    -6.5768  -5.8745  -5.5540  -5.1030  -3.3882  -3.2662  -2.3153  -2.0513
    -1.6106  -1.2707  -0.8266  -0.0896   0.0258   0.1261   0.6008   1.0538
     1.2560   1.8658  10.8086  10.9525  11.2613  11.3784  11.9991

          k = 0.4444-0.3030 0.0000 ( 14175 PWs)   bands (ev):

   -10.9446 -10.1969  -9.9745  -9.2891  -8.5350  -7.9985  -7.7373  -7.0313
    -6.8627  -6.6200  -6.1513  -6.0379  -3.7222  -3.3560  -2.7545  -2.3652
    -1.7924  -1.4941  -0.6069  -0.2406   0.1627   0.2884   1.3953   1.5188
     1.7250   1.7750  11.3397  11.3416  11.9196  12.0196  13.1800

     the Fermi energy is     5.5927 ev

!    total energy              =    -225.94144513 Ry
     estimated scf accuracy    <          3.4E-09 Ry
     smearing contrib. (-TS)   =       0.00000000 Ry
     internal energy E=F+TS    =    -225.94144513 Ry

     The total energy is F=E-TS. E is the sum of the following terms:
     one-electron contribution =   -1223.78486968 Ry
     hartree contribution      =     635.96476465 Ry
     xc contribution           =     -59.09209233 Ry
     ewald contribution        =     494.92649389 Ry
     one-center paw contrib.   =     -73.95574167 Ry

     convergence has been achieved in   8 iterations

     negative rho (up, down):  2.566E-06 0.000E+00

     Forces acting on atoms (cartesian axes, Ry/au):

     atom    1 type  1   force =     0.00000000    0.00203779   -0.00234506
     atom    2 type  1   force =     0.00000000   -0.00203779   -0.00234506
     atom    3 type  1   force =     0.00000000   -0.00035569    0.00098335
     atom    4 type  1   force =     0.00000000    0.00035569    0.00098335
     atom    5 type  1   force =     0.00000000   -0.00009238    0.00115875
     atom    6 type  1   force =     0.00000000    0.00009238    0.00115875
     atom    7 type  1   force =     0.00000000   -0.00009238   -0.00115875
     atom    8 type  1   force =     0.00000000    0.00009238   -0.00115875
     atom    9 type  1   force =     0.00000000   -0.00035569   -0.00098335
     atom   10 type  1   force =     0.00000000    0.00035569   -0.00098335
     atom   11 type  1   force =     0.00000000   -0.00203779    0.00234506
     atom   12 type  1   force =     0.00000000    0.00203779    0.00234506
     atom   13 type  2   force =     0.00000000   -0.01102253   -0.00175319
     atom   14 type  2   force =     0.00000000    0.01102253   -0.00175319
     atom   15 type  2   force =     0.00000000    0.01102253    0.00175319
     atom   16 type  2   force =     0.00000000   -0.01102253    0.00175319

     Total force =     0.023381     Total SCF correction =     0.000218
     Energy error            =      1.7E-03 Ry
     Gradient error          =      1.1E-02 Ry/Bohr

     number of scf cycles    =   3
     number of bfgs steps    =   2

     energy             old  =    -225.9397108713 Ry
     energy             new  =    -225.9414451334 Ry

     CASE: energy            _new < energy            _old

     new trust radius        =       0.0186175915 bohr
     new conv_thr            =       0.0000000100 Ry


ATOMIC_POSITIONS (angstrom)
C                0.0000000000       -0.9100801608       11.1942338915
C                1.2632452000       -1.7696675892       11.1942338915
C                1.2632452000       -2.6812285873        9.9509782116
C                0.0000000000        0.0014808373        9.9509782116
C                1.2632452000       -1.7872626884        8.6811563542
C                0.0000000000       -0.8924850616        8.6811563442
C                0.0000000000       -0.0007641884        7.4150322158
C                1.2632452000       -2.6789835616        7.4150322158
C                0.0000000000       -0.8947300873        6.1452103584
C                1.2632452000       -1.7850176627        6.1452103584
C                0.0000000000        0.0168309108        4.9019546685
C                1.2632452000       -2.6965786608        4.9019546685
H                0.0000000000       -0.2825035840       12.0961668334
H                1.2632452000       -2.3972441660       12.0961668334
H                0.0000000000       -0.6107456660        4.0000217366
H                1.2632452000       -2.0690020840        4.0000217366



     Writing config-only to output data dir /tmp/qe/slab.save/ :
     XML data file
     NEW-OLD atomic charge density approx. for the potential

     negative rho (up, down):  2.704E-06 0.000E+00

     total cpu time spent up to now is       53.6 secs

     Self-consistent Calculation

     iteration #  1     ecut=    90.00 Ry     beta= 0.30
     Davidson diagonalization with overlap
     ethr =  1.00E-06,  avg # of iterations =  3.8

     negative rho (up, down):  2.670E-06 0.000E+00

     total cpu time spent up to now is       55.7 secs

     total energy              =    -225.94212254 Ry
     estimated scf accuracy    <       0.00011557 Ry

     iteration #  2     ecut=    90.00 Ry     beta= 0.30
     Davidson diagonalization with overlap
     ethr =  2.22E-07,  avg # of iterations =  2.0

     negative rho (up, down):  2.559E-06 0.000E+00

     total cpu time spent up to now is       57.1 secs

     total energy              =    -225.94211992 Ry
     estimated scf accuracy    <       0.00003359 Ry

     iteration #  3     ecut=    90.00 Ry     beta= 0.30
     Davidson diagonalization with overlap
     ethr =  6.46E-08,  avg # of iterations =  2.2

     negative rho (up, down):  2.512E-06 0.000E+00

     total cpu time spent up to now is       58.6 secs

     total energy              =    -225.94212442 Ry
     estimated scf accuracy    <       0.00000535 Ry

     iteration #  4     ecut=    90.00 Ry     beta= 0.30
     Davidson diagonalization with overlap
     ethr =  1.03E-08,  avg # of iterations =  2.0

     negative rho (up, down):  2.455E-06 0.000E+00

     total cpu time spent up to now is       60.1 secs

     total energy              =    -225.94212484 Ry
     estimated scf accuracy    <       0.00000147 Ry

     iteration #  5     ecut=    90.00 Ry     beta= 0.30
     Davidson diagonalization with overlap
     ethr =  2.82E-09,  avg # of iterations =  2.1

     negative rho (up, down):  2.457E-06 0.000E+00

     total cpu time spent up to now is       61.7 secs

     total energy              =    -225.94212490 Ry
     estimated scf accuracy    <       0.00000046 Ry

     iteration #  6     ecut=    90.00 Ry     beta= 0.30
     Davidson diagonalization with overlap
     ethr =  8.84E-10,  avg # of iterations =  2.2

     negative rho (up, down):  2.454E-06 0.000E+00

     total cpu time spent up to now is       63.3 secs

     total energy              =    -225.94212501 Ry
     estimated scf accuracy    <       0.00000004 Ry

     iteration #  7     ecut=    90.00 Ry     beta= 0.30
     Davidson diagonalization with overlap
     ethr =  6.77E-11,  avg # of iterations =  2.2

     negative rho (up, down):  2.457E-06 0.000E+00

     total cpu time spent up to now is       65.0 secs

     End of self-consistent calculation

          k = 0.0000-0.0000 0.0000 ( 14181 PWs)   bands (ev):

   -15.9041 -14.8411 -13.1092 -10.9202  -8.7244  -7.6172  -7.2674  -6.3500
    -4.7991  -4.4429  -3.9850  -2.9826  -2.7378  -2.1098  -0.8487  -0.7815
    -0.3850  -0.0393   1.2357   1.6671   2.1843   2.7199   3.9348   4.0003
     4.3287   4.8350   6.9920   7.2716   9.7760  10.1922  10.7559

          k = 0.0000-0.1010 0.0000 ( 14153 PWs)   bands (ev):

   -15.7179 -14.6604 -12.9449 -10.8303  -9.4842  -9.2299  -6.8132  -6.0112
    -5.5229  -4.0632  -3.5310  -3.0110  -1.8721  -1.8568  -1.0667  -0.6733
     0.1103   0.2048   1.3239   1.5015   2.3244   2.6741   3.7200   3.7420
     4.1172   4.2784   7.1989   7.5079   9.9643  10.1527  11.0892

          k = 0.0000-0.2020 0.0000 ( 14130 PWs)   bands (ev):

   -15.1618 -14.1237 -12.4740 -11.3911 -10.6290 -10.5509  -7.3650  -6.7100
    -5.5031  -4.3596  -3.0714  -1.7188  -1.7080  -0.7535  -0.1697  -0.1546
     0.4210   0.5460   1.5654   1.9909   2.0666   2.5203   3.0105   3.0898
     3.2824   3.6305   7.8487   8.0918  10.2920  10.4071  10.9295

          k = 0.0000-0.3030 0.0000 ( 14112 PWs)   bands (ev):

   -14.2450 -13.2835 -12.9289 -12.1444 -11.5627 -10.9055  -7.7526  -7.0711
    -5.7079  -4.6980  -2.9957  -1.9239  -0.4130   0.1978   0.6819   0.7776
     1.2157   1.2181   1.7983   1.8516   2.0163   2.1748   2.2121   2.2876
     2.6184   2.7166   8.8888   8.9285   9.9537  10.3748  10.7685

          k = 0.1111-0.0000 0.0000 ( 14165 PWs)   bands (ev):

   -15.6780 -14.6175 -12.8895 -10.7059  -8.5183  -7.4164  -7.2010  -6.2917
    -4.7554  -4.2499  -3.7770  -2.8286  -2.7173  -1.9108  -1.8707  -1.0256
    -0.7068  -0.3992   0.2925   1.5700   1.7847   2.1271   3.0221   3.4706
     3.7561   4.2187   7.2114   7.5059   9.8003  10.9414  10.9686

          k = 0.1111-0.1010 0.0000 ( 14125 PWs)   bands (ev):

   -15.4923 -14.4374 -12.7262 -10.6180  -9.3014  -9.0356  -6.6603  -5.8775
    -5.4432  -3.9594  -3.4186  -2.9913  -1.8418  -1.7045  -1.5946  -1.0545
    -0.7664   0.1587   0.4506   1.4688   1.7570   2.0559   2.7686   2.7861
     3.6997   4.1412   7.4430   7.7430  10.1289  11.1853  11.4170

          k = 0.1111-0.2020 0.0000 ( 14130 PWs)   bands (ev):

   -14.9378 -13.9028 -12.2584 -11.1872 -10.4232 -10.3522  -7.1815  -6.5179
    -5.3475  -4.2249  -3.0277  -2.0921  -1.7234  -1.1069  -0.6043  -0.1769
    -0.0663   0.1955   1.0274   1.4901   1.5937   1.6774   1.7736   2.1540
     3.2681   3.9366   8.1066   8.3628  10.7381  11.2364  11.5293

          k = 0.1111-0.3030 0.0000 ( 14125 PWs)   bands (ev):

   -14.0243 -13.0665 -12.7144 -11.9336 -11.3543 -10.7022  -7.5521  -6.8769
    -5.5277  -4.5263  -2.8830  -1.8166  -1.0568  -0.3708  -0.2289   0.2217
     0.5889   0.6264   0.9731   1.1800   1.2525   1.6955   1.9635   2.2794
     2.8189   2.8949   9.1508   9.2634  10.4478  10.6595  11.5752

          k = 0.2222-0.0000 0.0000 ( 14140 PWs)   bands (ev):

   -15.0027 -13.9499 -12.2342 -10.0669  -7.9031  -7.3121  -6.8155  -6.4105
    -4.8915  -3.6906  -3.5649  -3.1697  -2.8850  -2.6905  -2.3998  -1.3572
    -1.3294  -0.6119  -0.5545   0.0827   1.1241   1.1485   1.6038   1.8445
     2.1522   3.8074   7.9288   8.1638  10.0815  10.1812  10.7565

          k = 0.2222-0.1010 0.0000 ( 14110 PWs)   bands (ev):

   -14.8188 -13.7720 -12.0740  -9.9858  -8.8202  -8.4788  -6.3738  -5.7158
    -5.5854  -3.9074  -3.5165  -3.4392  -2.3723  -2.3331  -1.7769  -1.2411
    -1.0720  -0.5552  -0.4202   0.3060   0.4664   0.6316   1.4247   1.5944
     2.9851   3.4248   8.1758   8.4148  10.6133  10.7299  10.9427

          k = 0.2222-0.2020 0.0000 ( 14113 PWs)   bands (ev):

   -14.2701 -13.2445 -11.6162 -10.5974  -9.8121  -9.7749  -6.6914  -6.0145
    -4.9715  -4.7226  -3.2884  -3.2702  -2.5006  -1.8265  -1.1302  -0.9062
    -0.5781  -0.4282  -0.3177   0.1611   0.2818   0.5919   1.0434   1.8688
     2.6845   3.3549   8.8477   9.0608  11.3421  11.8823  11.9764

          k = 0.2222-0.3030 0.0000 ( 14149 PWs)   bands (ev):

   -13.3681 -12.4220 -12.0810 -11.3095 -10.7366 -10.0988  -6.9862  -6.3292
    -5.0620  -4.0831  -3.7124  -2.6613  -2.4040  -2.1615  -1.4894  -1.3071
    -1.1199  -0.8116   0.2079   1.0375   1.1852   1.2010   1.4202   1.6604
     2.3768   2.7947   9.8328   9.9449  11.2326  11.3465  12.5819

          k = 0.3333-0.0000 0.0000 ( 14102 PWs)   bands (ev):

   -13.8902 -12.8510 -11.1564  -9.0164  -8.5516  -7.6074  -6.8883  -6.0422
    -5.8203  -4.0150  -3.9020  -3.1028  -2.8334  -2.2223  -1.9302  -1.8559
    -1.8055  -0.8023  -0.6502  -0.5369  -0.4149  -0.1038   0.2274   0.3847
     1.2181   3.0361   9.0798   9.0963   9.9369  10.2368  11.2848

          k = 0.3333-0.1010 0.0000 ( 14116 PWs)   bands (ev):

   -13.7101 -12.6777 -11.0025  -8.9652  -8.7452  -7.9762  -6.7041  -6.5575
    -6.1018  -4.2439  -3.9997  -3.1108  -3.0474  -2.2751  -1.8775  -1.6584
    -1.6188  -1.1808  -0.6862  -0.5866  -0.3653  -0.2036   0.5058   1.0040
     1.3796   2.8464   9.3287   9.4323  10.4001  10.6046  11.2636

          k = 0.3333-0.2020 0.0000 ( 14157 PWs)   bands (ev):

   -13.1745 -12.1657 -10.5650  -9.7915  -8.9606  -8.8246  -6.7148  -6.3210
    -6.2040  -4.8621  -4.1507  -3.6790  -3.4597  -3.1835  -2.4129  -2.1044
    -1.5127  -0.4650  -0.2241  -0.1405   0.0789   0.4285   0.5367   0.8377
     2.2373   2.3451   9.9570  10.0486  11.3706  11.6084  11.9805

          k = 0.3333-0.3030 0.0000 ( 14179 PWs)   bands (ev):

   -12.3020 -11.3784 -11.0817 -10.3165  -9.7440  -9.1257  -6.3177  -5.9895
    -5.6718  -5.4338  -4.8644  -4.4307  -3.6965  -3.3307  -2.8025  -2.7009
    -1.3996  -0.7170  -0.2050  -0.0554   0.6143   0.9686   1.2549   1.5134
     1.7563   2.3435  10.6694  10.7443  12.0806  12.1863  12.4200

          k = 0.4444-0.0000 0.0000 ( 14094 PWs)   bands (ev):

   -12.3686 -11.3499 -10.5099  -9.6865  -9.5212  -7.9005  -7.5835  -5.8393
    -5.4941  -4.4423  -3.7657  -2.9355  -2.7043  -2.2950  -1.8216  -1.4775
    -1.4075  -1.3145  -1.0477  -0.9752  -0.9739  -0.8573  -0.8543   0.2076
     0.7316   1.9511   9.6877  10.3105  10.4646  10.7336  10.8621

          k = 0.4444-0.1010 0.0000 ( 14140 PWs)   bands (ev):

   -12.1982 -11.1877 -10.3795  -9.5480  -9.4006  -7.8388  -7.4718  -5.8149
    -5.7959  -5.6749  -4.1286  -3.9674  -3.0756  -2.4308  -1.9215  -1.7002
    -1.4298  -1.1436  -0.8447  -0.7259  -0.6000  -0.3665  -0.1922   0.3444
     0.8460   1.9342  10.3035  10.3085  10.4334  10.9604  11.3700

          k = 0.4444-0.2020 0.0000 ( 14163 PWs)   bands (ev):

   -11.7000 -10.7175 -10.0855  -9.2126  -9.0849  -7.7823  -7.2581  -7.0112
    -6.5763  -5.8741  -5.5421  -5.1037  -3.3814  -3.2772  -2.3086  -2.0684
    -1.5979  -1.2878  -0.8168  -0.1145   0.0414   0.1292   0.6081   1.0529
     1.2681   1.8600  10.8338  10.9833  11.2819  11.4181  12.0100

          k = 0.4444-0.3030 0.0000 ( 14175 PWs)   bands (ev):

   -10.9360 -10.1906  -9.9803  -9.2980  -8.5351  -7.9984  -7.7277  -7.0243
    -6.8605  -6.6184  -6.1510  -6.0348  -3.7162  -3.3567  -2.7604  -2.3811
    -1.7802  -1.4876  -0.6253  -0.2669   0.1838   0.3022   1.3918   1.5226
     1.7269   1.7901  11.3824  11.3829  11.9639  12.0699  13.1851

     the Fermi energy is     5.5990 ev

!    total energy              =    -225.94212501 Ry
     estimated scf accuracy    <          1.5E-09 Ry
     smearing contrib. (-TS)   =       0.00000000 Ry
     internal energy E=F+TS    =    -225.94212501 Ry

     The total energy is F=E-TS. E is the sum of the following terms:
     one-electron contribution =   -1224.69664487 Ry
     hartree contribution      =     636.43605240 Ry
     xc contribution           =     -59.11011134 Ry
     ewald contribution        =     495.38470643 Ry
     one-center paw contrib.   =     -73.95612763 Ry

     convergence has been achieved in   7 iterations

     negative rho (up, down):  2.457E-06 0.000E+00

     Forces acting on atoms (cartesian axes, Ry/au):

     atom    1 type  1   force =     0.00000000   -0.00379789   -0.00499437
     atom    2 type  1   force =     0.00000000    0.00379789   -0.00499437
     atom    3 type  1   force =     0.00000000   -0.00062447   -0.00133988
     atom    4 type  1   force =     0.00000000    0.00062447   -0.00133988
     atom    5 type  1   force =     0.00000000    0.00011944    0.00019037
     atom    6 type  1   force =     0.00000000   -0.00011944    0.00019037
     atom    7 type  1   force =     0.00000000    0.00011944   -0.00019037
     atom    8 type  1   force =     0.00000000   -0.00011944   -0.00019037
     atom    9 type  1   force =     0.00000000   -0.00062447    0.00133988
     atom   10 type  1   force =     0.00000000    0.00062447    0.00133988
     atom   11 type  1   force =     0.00000000    0.00379789    0.00499437
     atom   12 type  1   force =     0.00000000   -0.00379789    0.00499437
     atom   13 type  2   force =     0.00000000   -0.00594378    0.00284642
     atom   14 type  2   force =     0.00000000    0.00594378    0.00284642
     atom   15 type  2   force =     0.00000000    0.00594378   -0.00284642
     atom   16 type  2   force =     0.00000000   -0.00594378   -0.00284642

     Total force =     0.018443     Total SCF correction =     0.000085
     Energy error            =      6.8E-04 Ry
     Gradient error          =      5.9E-03 Ry/Bohr

     number of scf cycles    =   4
     number of bfgs steps    =   3

     energy             old  =    -225.9414451334 Ry
     energy             new  =    -225.9421250130 Ry

     CASE: energy            _new < energy            _old

     new trust radius        =       0.0204793507 bohr
     new conv_thr            =       0.0000000059 Ry


ATOMIC_POSITIONS (angstrom)
C                0.0000000000       -0.9106693032       11.1898885794
C                1.2632452000       -1.7690784468       11.1898885794
C                1.2632452000       -2.6817533158        9.9513574714
C                0.0000000000        0.0020055658        9.9513574714
C                1.2632452000       -1.7876285459        8.6817313589
C                0.0000000000       -0.8921192041        8.6817313489
C                0.0000000000       -0.0011300459        7.4144572111
C                1.2632452000       -2.6786177041        7.4144572111
C                0.0000000000       -0.8952548158        6.1448310986
C                1.2632452000       -1.7844929342        6.1448310986
C                0.0000000000        0.0174200532        4.9062999806
C                1.2632452000       -2.6971678032        4.9062999806
H                0.0000000000       -0.2933389534       12.0963663248
H                1.2632452000       -2.3864087966       12.0963663248
H                0.0000000000       -0.5999102966        3.9998222452
H                1.2632452000       -2.0798374534        3.9998222452



     Writing config-only to output data dir /tmp/qe/slab.save/ :
     XML data file
     NEW-OLD atomic charge density approx. for the potential

     negative rho (up, down):  2.553E-06 0.000E+00

     total cpu time spent up to now is       65.6 secs

     Self-consistent Calculation

     iteration #  1     ecut=    90.00 Ry     beta= 0.30
     Davidson diagonalization with overlap
     ethr =  1.00E-06,  avg # of iterations =  4.4

     negative rho (up, down):  2.499E-06 0.000E+00

     total cpu time spent up to now is       67.7 secs

     total energy              =    -225.94263969 Ry
     estimated scf accuracy    <       0.00010589 Ry

     iteration #  2     ecut=    90.00 Ry     beta= 0.30
     Davidson diagonalization with overlap
     ethr =  2.04E-07,  avg # of iterations =  2.0

     negative rho (up, down):  2.385E-06 0.000E+00

     total cpu time spent up to now is       69.1 secs

     total energy              =    -225.94264184 Ry
     estimated scf accuracy    <       0.00003093 Ry

     iteration #  3     ecut=    90.00 Ry     beta= 0.30
     Davidson diagonalization with overlap
     ethr =  5.95E-08,  avg # of iterations =  2.0

     negative rho (up, down):  2.321E-06 0.000E+00

     total cpu time spent up to now is       70.7 secs

     total energy              =    -225.94264589 Ry
     estimated scf accuracy    <       0.00000566 Ry

     iteration #  4     ecut=    90.00 Ry     beta= 0.30
     Davidson diagonalization with overlap
     ethr =  1.09E-08,  avg # of iterations =  2.0

     negative rho (up, down):  2.296E-06 0.000E+00

     total cpu time spent up to now is       72.3 secs

     total energy              =    -225.94264676 Ry
     estimated scf accuracy    <       0.00000127 Ry

     iteration #  5     ecut=    90.00 Ry     beta= 0.30
     Davidson diagonalization with overlap
     ethr =  2.44E-09,  avg # of iterations =  1.5

     negative rho (up, down):  2.299E-06 0.000E+00

     total cpu time spent up to now is       73.6 secs

     total energy              =    -225.94264683 Ry
     estimated scf accuracy    <       0.00000011 Ry

     iteration #  6     ecut=    90.00 Ry     beta= 0.30
     Davidson diagonalization with overlap
     ethr =  2.10E-10,  avg # of iterations =  3.4

     negative rho (up, down):  2.303E-06 0.000E+00

     total cpu time spent up to now is       75.4 secs

     total energy              =    -225.94264686 Ry
     estimated scf accuracy    <       0.00000003 Ry

     iteration #  7     ecut=    90.00 Ry     beta= 0.30
     Davidson diagonalization with overlap
     ethr =  6.63E-11,  avg # of iterations =  2.0

     negative rho (up, down):  2.306E-06 0.000E+00

     total cpu time spent up to now is       76.9 secs

     total energy              =    -225.94264686 Ry
     estimated scf accuracy    <       0.00000002 Ry

     iteration #  8     ecut=    90.00 Ry     beta= 0.30
     Davidson diagonalization with overlap
     ethr =  2.92E-11,  avg # of iterations =  3.0

     negative rho (up, down):  2.308E-06 0.000E+00

     total cpu time spent up to now is       78.6 secs

     total energy              =    -225.94264687 Ry
     estimated scf accuracy    <          7.5E-09 Ry

     iteration #  9     ecut=    90.00 Ry     beta= 0.30
     Davidson diagonalization with overlap
     ethr =  1.43E-11,  avg # of iterations =  2.1

     negative rho (up, down):  2.312E-06 0.000E+00

     total cpu time spent up to now is       80.2 secs

     End of self-consistent calculation

          k = 0.0000-0.0000 0.0000 ( 14181 PWs)   bands (ev):

   -15.9066 -14.8556 -13.1127 -10.9191  -8.7285  -7.6158  -7.2729  -6.3708
    -4.8047  -4.4490  -3.9967  -2.9719  -2.7370  -2.1119  -0.8512  -0.7553
    -0.3968  -0.0564   1.2313   1.6985   2.1626   2.7238   3.9520   4.0023
     4.3188   4.8404   6.9826   7.2617   9.7669  10.1913  10.8083

          k = 0.0000-0.1010 0.0000 ( 14153 PWs)   bands (ev):

   -15.7205 -14.6750 -12.9487 -10.8309  -9.4847  -9.2390  -6.8235  -6.0119
    -5.5262  -4.0659  -3.5430  -3.0094  -1.8723  -1.8575  -1.0541  -0.6758
     0.0934   0.2082   1.3198   1.5056   2.3316   2.6772   3.7196   3.7437
     4.1207   4.2827   7.1890   7.4981   9.9562  10.1531  11.0724

          k = 0.0000-0.2020 0.0000 ( 14130 PWs)   bands (ev):

   -15.1645 -14.1387 -12.4792 -11.3954 -10.6288 -10.5628  -7.3599  -6.7201
    -5.4884  -4.3773  -3.0626  -1.7156  -1.7138  -0.7577  -0.1711  -0.1569
     0.4271   0.5302   1.5618   2.0078   2.0580   2.5200   3.0055   3.0939
     3.2927   3.6281   7.8387   8.0838  10.2915  10.4092  10.9217

          k = 0.0000-0.3030 0.0000 ( 14112 PWs)   bands (ev):

   -14.2481 -13.3000 -12.9305 -12.1610 -11.5645 -10.9095  -7.7454  -7.0713
    -5.7014  -4.7081  -2.9851  -1.9298  -0.4048   0.1967   0.6797   0.7776
     1.2041   1.2090   1.7948   1.8452   2.0203   2.1699   2.2084   2.2913
     2.6291   2.7165   8.8834   8.9272   9.9521  10.3660  10.7618

          k = 0.1111-0.0000 0.0000 ( 14165 PWs)   bands (ev):

   -15.6805 -14.6320 -12.8930 -10.7049  -8.5224  -7.4149  -7.2064  -6.3124
    -4.7611  -4.2561  -3.7889  -2.8181  -2.7168  -1.9130  -1.8730  -1.0420
    -0.6815  -0.4116   0.2888   1.5975   1.7867   2.1078   3.0232   3.4835
     3.7605   4.2100   7.2008   7.4957   9.8003  10.9561  10.9878

          k = 0.1111-0.1010 0.0000 ( 14125 PWs)   bands (ev):

   -15.4948 -14.4521 -12.7300 -10.6187  -9.3019  -9.0448  -6.6708  -5.8787
    -5.4457  -3.9627  -3.4312  -2.9900  -1.8426  -1.7052  -1.5974  -1.0431
    -0.7817   0.1631   0.4474   1.4703   1.7610   2.0612   2.7706   2.7852
     3.7014   4.1447   7.4325   7.7328  10.1244  11.1938  11.4380

          k = 0.1111-0.2020 0.0000 ( 14130 PWs)   bands (ev):

   -14.9405 -13.9178 -12.2637 -11.1915 -10.4231 -10.3641  -7.1767  -6.5281
    -5.3335  -4.2409  -3.0262  -2.0838  -1.7341  -1.1131  -0.6064  -0.1782
    -0.0635   0.1840   1.0288   1.4845   1.6021   1.6696   1.7892   2.1461
     3.2797   3.9363   8.0965   8.3543  10.7393  11.2390  11.5267

          k = 0.1111-0.3030 0.0000 ( 14125 PWs)   bands (ev):

   -14.0274 -13.0831 -12.7161 -11.9501 -11.3561 -10.7062  -7.5451  -6.8770
    -5.5219  -4.5364  -2.8744  -1.8236  -1.0583  -0.3700  -0.2369   0.2217
     0.5781   0.6268   0.9684   1.1819   1.2525   1.6882   1.9682   2.2893
     2.8197   2.8968   9.1450   9.2617  10.4462  10.6477  11.5727

          k = 0.2222-0.0000 0.0000 ( 14140 PWs)   bands (ev):

   -15.0053 -13.9647 -12.2379 -10.0660  -7.9072  -7.3173  -6.8140  -6.4305
    -4.8975  -3.6974  -3.5671  -3.1823  -2.8856  -2.7062  -2.3897  -1.3596
    -1.3322  -0.6256  -0.5321   0.0881   1.1259   1.1645   1.6071   1.8243
     2.1574   3.7996   7.9184   8.1545  10.0893  10.2003  10.7588

          k = 0.2222-0.1010 0.0000 ( 14110 PWs)   bands (ev):

   -14.8214 -13.7869 -12.0780  -9.9866  -8.8211  -8.4887  -6.3854  -5.7221
    -5.5825  -3.9198  -3.5256  -3.4339  -2.3795  -2.3355  -1.7888  -1.2374
    -1.0731  -0.5531  -0.4132   0.3133   0.4685   0.6283   1.4173   1.6024
     2.9872   3.4214   8.1653   8.4054  10.6230  10.7406  10.9497

          k = 0.2222-0.2020 0.0000 ( 14113 PWs)   bands (ev):

   -14.2728 -13.2597 -11.6216 -10.6017  -9.8121  -9.7870  -6.6876  -6.0248
    -4.9625  -4.7253  -3.3130  -3.2804  -2.4902  -1.8231  -1.1344  -0.9133
    -0.5782  -0.4252  -0.3245   0.1619   0.2731   0.5975   1.0579   1.8612
     2.6951   3.3558   8.8385   9.0535  11.3493  11.8890  11.9804

          k = 0.2222-0.3030 0.0000 ( 14149 PWs)   bands (ev):

   -13.3713 -12.4386 -12.0829 -11.3262 -10.7386 -10.1027  -6.9800  -6.3290
    -5.0598  -4.0938  -3.7138  -2.6740  -2.4068  -2.1642  -1.4925  -1.3083
    -1.1253  -0.8131   0.2125   1.0427   1.1907   1.1940   1.4229   1.6630
     2.3851   2.7952   9.8298   9.9459  11.2291  11.3334  12.5799

          k = 0.3333-0.0000 0.0000 ( 14102 PWs)   bands (ev):

   -13.8929 -12.8660 -11.1604  -9.0157  -8.5555  -7.6254  -6.8925  -6.0480
    -5.8186  -4.0162  -3.9049  -3.1184  -2.8409  -2.2363  -1.9301  -1.8654
    -1.7967  -0.7950  -0.6480  -0.5242  -0.4145  -0.1071   0.2298   0.3853
     1.1991   3.0294   9.0760   9.0990   9.9380  10.2485  11.3148

          k = 0.3333-0.1010 0.0000 ( 14116 PWs)   bands (ev):

   -13.7128 -12.6928 -11.0067  -8.9682  -8.7459  -7.9913  -6.7129  -6.5576
    -6.1060  -4.2517  -4.0022  -3.1178  -3.0452  -2.2839  -1.8767  -1.6666
    -1.6271  -1.1721  -0.6806  -0.5940  -0.3553  -0.2067   0.5156   0.9869
     1.3838   2.8405   9.3240   9.4311  10.4051  10.6197  11.2705

          k = 0.3333-0.2020 0.0000 ( 14157 PWs)   bands (ev):

   -13.1774 -12.1812 -10.5706  -9.7956  -8.9738  -8.8257  -6.7182  -6.3189
    -6.2165  -4.8691  -4.1497  -3.6845  -3.4597  -3.1898  -2.4297  -2.0978
    -1.5054  -0.4607  -0.2325  -0.1468   0.0858   0.4192   0.5408   0.8484
     2.2420   2.3430   9.9539  10.0499  11.3779  11.6147  12.0060

          k = 0.3333-0.3030 0.0000 ( 14179 PWs)   bands (ev):

   -12.3052 -11.3950 -11.0841 -10.3333  -9.7464  -9.1297  -6.3182  -5.9876
    -5.6726  -5.4479  -4.8643  -4.4457  -3.7007  -3.3311  -2.8109  -2.6965
    -1.3984  -0.7239  -0.1991  -0.0478   0.6108   0.9665   1.2620   1.5160
     1.7633   2.3474  10.6773  10.7543  12.0843  12.1860  12.4305

          k = 0.4444-0.0000 0.0000 ( 14094 PWs)   bands (ev):

   -12.3714 -11.3655 -10.5130  -9.6909  -9.5376  -7.9055  -7.5832  -5.8396
    -5.4987  -4.4403  -3.7712  -2.9386  -2.7020  -2.3095  -1.8316  -1.4763
    -1.4073  -1.3160  -1.0618  -0.9751  -0.9664  -0.8597  -0.8488   0.1910
     0.7281   1.9461   9.7014  10.3238  10.4825  10.7441  10.8798

          k = 0.4444-0.1010 0.0000 ( 14140 PWs)   bands (ev):

   -12.2011 -11.2034 -10.3828  -9.5530  -9.4168  -7.8436  -7.4729  -5.8162
    -5.8031  -5.6739  -4.1364  -3.9664  -3.0858  -2.4273  -1.9276  -1.7104
    -1.4237  -1.1408  -0.8450  -0.7294  -0.6058  -0.3684  -0.1863   0.3337
     0.8442   1.9294  10.3172  10.3209  10.4522  10.9697  11.3710

          k = 0.4444-0.2020 0.0000 ( 14163 PWs)   bands (ev):

   -11.7030 -10.7335 -10.0890  -9.2256  -9.0940  -7.7876  -7.2660  -7.0058
    -6.5867  -5.8821  -5.5368  -5.1145  -3.3760  -3.2873  -2.3004  -2.0807
    -1.5864  -1.3014  -0.8079  -0.1389   0.0528   0.1361   0.6111   1.0494
     1.2771   1.8560  10.8508  11.0006  11.2971  11.4438  12.0153

          k = 0.4444-0.3030 0.0000 ( 14175 PWs)   bands (ev):

   -10.9394 -10.1971  -9.9939  -9.3149  -8.5403  -8.0037  -7.7302  -7.0317
    -6.8683  -6.6235  -6.1600  -6.0360  -3.7108  -3.3591  -2.7610  -2.3920
    -1.7674  -1.4796  -0.6405  -0.2893   0.2037   0.3165   1.3887   1.5219
     1.7306   1.8012  11.4062  11.4075  11.9969  12.1083  13.1911

     the Fermi energy is     5.6026 ev

!    total energy              =    -225.94264687 Ry
     estimated scf accuracy    <          5.6E-10 Ry
     smearing contrib. (-TS)   =       0.00000000 Ry
     internal energy E=F+TS    =    -225.94264687 Ry

     The total energy is F=E-TS. E is the sum of the following terms:
     one-electron contribution =   -1226.60226756 Ry
     hartree contribution      =     637.39475529 Ry
     xc contribution           =     -59.12606863 Ry
     ewald contribution        =     496.34747794 Ry
     one-center paw contrib.   =     -73.95654391 Ry

     convergence has been achieved in   9 iterations

     negative rho (up, down):  2.312E-06 0.000E+00

     Forces acting on atoms (cartesian axes, Ry/au):

     atom    1 type  1   force =     0.00000000   -0.00443484   -0.00429064
     atom    2 type  1   force =     0.00000000    0.00443484   -0.00429064
     atom    3 type  1   force =     0.00000000   -0.00063612   -0.00299196
     atom    4 type  1   force =     0.00000000    0.00063612   -0.00299196
     atom    5 type  1   force =    -0.00000000    0.00068805   -0.00080130
     atom    6 type  1   force =     0.00000000   -0.00068805   -0.00080130
     atom    7 type  1   force =    -0.00000000    0.00068805    0.00080130
     atom    8 type  1   force =     0.00000000   -0.00068805    0.00080130
     atom    9 type  1   force =     0.00000000   -0.00063612    0.00299196
     atom   10 type  1   force =     0.00000000    0.00063612    0.00299196
     atom   11 type  1   force =     0.00000000    0.00443484    0.00429064
     atom   12 type  1   force =     0.00000000   -0.00443484    0.00429064
     atom   13 type  2   force =     0.00000000   -0.00265471    0.00421502
     atom   14 type  2   force =     0.00000000    0.00265471    0.00421502
     atom   15 type  2   force =     0.00000000    0.00265471   -0.00421502
     atom   16 type  2   force =     0.00000000   -0.00265471   -0.00421502

     Total force =     0.017130     Total SCF correction =     0.000066
     Energy error            =      5.2E-04 Ry
     Gradient error          =      4.4E-03 Ry/Bohr

     number of scf cycles    =   5
     number of bfgs steps    =   4

     energy             old  =    -225.9421250130 Ry
     energy             new  =    -225.9426468650 Ry

     CASE: energy            _new < energy            _old

     new trust radius        =       0.0300733131 bohr
     new conv_thr            =       0.0000000044 Ry


ATOMIC_POSITIONS (angstrom)
C                0.0000000000       -0.9122097198       11.1827161928
C                1.2632452000       -1.7675380302       11.1827161928
C                1.2632452000       -2.6827358741        9.9495300315
C                0.0000000000        0.0029881241        9.9495300315
C                1.2632452000       -1.7875656781        8.6815565635
C                0.0000000000       -0.8921820719        8.6815565535
C                0.0000000000       -0.0010671781        7.4146320065
C                1.2632452000       -2.6786805719        7.4146320065
C                0.0000000000       -0.8962373741        6.1466585385
C                1.2632452000       -1.7835103759        6.1466585385
C                0.0000000000        0.0189604698        4.9134723672
C                1.2632452000       -2.6987082198        4.9134723672
H                0.0000000000       -0.3090761779       12.0987324876
H                1.2632452000       -2.3706715721       12.0987324876
H                0.0000000000       -0.5841730721        3.9974560824
H                1.2632452000       -2.0955746779        3.9974560824



     Writing config-only to output data dir /tmp/qe/slab.save/ :
     XML data file
     NEW-OLD atomic charge density approx. for the potential

     negative rho (up, down):  2.360E-06 0.000E+00

     total cpu time spent up to now is       80.8 secs

     Self-consistent Calculation

     iteration #  1     ecut=    90.00 Ry     beta= 0.30
     Davidson diagonalization with overlap
     ethr =  1.00E-06,  avg # of iterations =  5.2

     negative rho (up, down):  2.296E-06 0.000E+00

     total cpu time spent up to now is       83.2 secs

     total energy              =    -225.94306460 Ry
     estimated scf accuracy    <       0.00020388 Ry

     iteration #  2     ecut=    90.00 Ry     beta= 0.30
     Davidson diagonalization with overlap
     ethr =  3.92E-07,  avg # of iterations =  1.7

     negative rho (up, down):  2.148E-06 0.000E+00

     total cpu time spent up to now is       84.6 secs

     total energy              =    -225.94307114 Ry
     estimated scf accuracy    <       0.00006299 Ry

     iteration #  3     ecut=    90.00 Ry     beta= 0.30
     Davidson diagonalization with overlap
     ethr =  1.21E-07,  avg # of iterations =  2.0

     negative rho (up, down):  2.074E-06 0.000E+00

     total cpu time spent up to now is       86.1 secs

     total energy              =    -225.94307891 Ry
     estimated scf accuracy    <       0.00001137 Ry

     iteration #  4     ecut=    90.00 Ry     beta= 0.30
     Davidson diagonalization with overlap
     ethr =  2.19E-08,  avg # of iterations =  2.0

     negative rho (up, down):  2.072E-06 0.000E+00

     total cpu time spent up to now is       87.6 secs

     total energy              =    -225.94308017 Ry
     estimated scf accuracy    <       0.00000129 Ry

     iteration #  5     ecut=    90.00 Ry     beta= 0.30
     Davidson diagonalization with overlap
     ethr =  2.48E-09,  avg # of iterations =  2.4

     negative rho (up, down):  2.080E-06 0.000E+00

     total cpu time spent up to now is       89.1 secs

     total energy              =    -225.94308029 Ry
     estimated scf accuracy    <       0.00000029 Ry

     iteration #  6     ecut=    90.00 Ry     beta= 0.30
     Davidson diagonalization with overlap
     ethr =  5.59E-10,  avg # of iterations =  2.0

     negative rho (up, down):  2.088E-06 0.000E+00

     total cpu time spent up to now is       90.7 secs

     total energy              =    -225.94308034 Ry
     estimated scf accuracy    <       0.00000005 Ry

     iteration #  7     ecut=    90.00 Ry     beta= 0.30
     Davidson diagonalization with overlap
     ethr =  9.08E-11,  avg # of iterations =  2.2

     negative rho (up, down):  2.091E-06 0.000E+00

     total cpu time spent up to now is       92.3 secs

     total energy              =    -225.94308035 Ry
     estimated scf accuracy    <          6.3E-09 Ry

     iteration #  8     ecut=    90.00 Ry     beta= 0.30
     Davidson diagonalization with overlap
     ethr =  1.21E-11,  avg # of iterations =  2.4

     negative rho (up, down):  2.103E-06 0.000E+00

     total cpu time spent up to now is       93.9 secs

     End of self-consistent calculation

          k = 0.0000-0.0000 0.0000 ( 14181 PWs)   bands (ev):

   -15.9238 -14.8762 -13.1192 -10.9222  -8.7381  -7.6244  -7.2920  -6.3910
    -4.8026  -4.4585  -4.0151  -2.9575  -2.7266  -2.1137  -0.8720  -0.7181
    -0.4004  -0.0877   1.2118   1.7418   2.1453   2.7107   3.9704   3.9887
     4.3132   4.8316   6.9682   7.2429   9.7457  10.1740  10.8689

          k = 0.0000-0.1010 0.0000 ( 14153 PWs)   bands (ev):

   -15.7377 -14.6957 -12.9558 -10.8366  -9.4981  -9.2542  -6.8340  -6.0042
    -5.5390  -4.0612  -3.5634  -3.0067  -1.8719  -1.8536  -1.0306  -0.6964
     0.0624   0.2184   1.3002   1.5192   2.3462   2.6632   3.7040   3.7517
     4.1222   4.2724   7.1735   7.4802   9.9365  10.1413  11.0390

          k = 0.0000-0.2020 0.0000 ( 14130 PWs)   bands (ev):

   -15.1819 -14.1600 -12.4890 -11.4136 -10.6353 -10.5796  -7.3458  -6.7371
    -5.4557  -4.4024  -3.0440  -1.7261  -1.7141  -0.7610  -0.1772  -0.1654
     0.4387   0.4997   1.5420   2.0375   2.0519   2.5024   2.9861   3.0829
     3.3121   3.6188   7.8224   8.0672  10.2830  10.4011  10.9036

          k = 0.0000-0.3030 0.0000 ( 14112 PWs)   bands (ev):

   -14.2659 -13.3254 -12.9443 -12.1864 -11.5678 -10.9200  -7.7309  -7.0734
    -5.6816  -4.7168  -2.9656  -1.9345  -0.3898   0.1873   0.6598   0.7811
     1.1742   1.2015   1.7751   1.8200   2.0259   2.1533   2.2014   2.2793
     2.6469   2.7260   8.8708   8.9171   9.9408  10.3477  10.7482

          k = 0.1111-0.0000 0.0000 ( 14165 PWs)   bands (ev):

   -15.6977 -14.6526 -12.8996 -10.7080  -8.5322  -7.4235  -7.2254  -6.3324
    -4.7588  -4.2658  -3.8074  -2.8040  -2.7066  -1.9150  -1.8933  -1.0722
    -0.6455  -0.4162   0.2707   1.6360   1.7724   2.0932   3.0098   3.4952
     3.7514   4.2061   7.1836   7.4759   9.7897  10.9650  11.0106

          k = 0.1111-0.1010 0.0000 ( 14125 PWs)   bands (ev):

   -15.5121 -14.4728 -12.7372 -10.6245  -9.3154  -9.0601  -6.6814  -5.8712
    -5.4585  -3.9590  -3.4517  -2.9875  -1.8399  -1.7057  -1.6179  -1.0209
    -0.8104   0.1739   0.4298   1.4800   1.7501   2.0718   2.7611   2.7718
     3.7092   4.1424   7.4156   7.7136  10.1088  11.2007  11.4617

          k = 0.1111-0.2020 0.0000 ( 14130 PWs)   bands (ev):

   -14.9579 -13.9393 -12.2735 -11.2097 -10.4297 -10.3810  -7.1627  -6.5451
    -5.3017  -4.2646  -3.0201  -2.0784  -1.7488  -1.1232  -0.6241  -0.1728
    -0.0616   0.1626   1.0221   1.4673   1.5978   1.6545   1.8132   2.1371
     3.2970   3.9283   8.0797   8.3365  10.7312  11.2399  11.5164

          k = 0.1111-0.3030 0.0000 ( 14125 PWs)   bands (ev):

   -14.0453 -13.1085 -12.7300 -11.9756 -11.3596 -10.7166  -7.5306  -6.8787
    -5.5030  -4.5449  -2.8586  -1.8302  -1.0730  -0.3699  -0.2513   0.2117
     0.5506   0.6283   0.9549   1.1802   1.2390   1.6730   1.9707   2.3130
     2.8094   2.9028   9.1321   9.2509  10.4346  10.6256  11.5678

          k = 0.2222-0.0000 0.0000 ( 14140 PWs)   bands (ev):

   -15.0226 -13.9855 -12.2448 -10.0694  -7.9172  -7.3358  -6.8227  -6.4503
    -4.8966  -3.7073  -3.5868  -3.2008  -2.8780  -2.7345  -2.3768  -1.3743
    -1.3345  -0.6331  -0.5001   0.0809   1.1166   1.1886   1.5975   1.8074
     2.1564   3.7963   7.8994   8.1340  10.1034  10.2154  10.7607

          k = 0.2222-0.1010 0.0000 ( 14110 PWs)   bands (ev):

   -14.8388 -13.8079 -12.0855  -9.9927  -8.8349  -8.5043  -6.3972  -5.7321
    -5.5802  -3.9352  -3.5439  -3.4221  -2.4000  -2.3428  -1.8096  -1.2247
    -1.0744  -0.5562  -0.4121   0.3160   0.4656   0.6169   1.4136   1.6133
     2.9825   3.4233   8.1466   8.3850  10.6265  10.7571  10.9564

          k = 0.2222-0.2020 0.0000 ( 14113 PWs)   bands (ev):

   -14.2903 -13.2813 -11.6317 -10.6198  -9.8190  -9.8039  -6.6744  -6.0414
    -4.9382  -4.7418  -3.3451  -3.2975  -2.4747  -1.8237  -1.1518  -0.9255
    -0.5882  -0.4354  -0.3386   0.1633   0.2661   0.6001   1.0837   1.8537
     2.7133   3.3498   8.8213   9.0358  11.3508  11.8949  11.9851

          k = 0.2222-0.3030 0.0000 ( 14149 PWs)   bands (ev):

   -13.3892 -12.4641 -12.0970 -11.3515 -10.7424 -10.1131  -6.9659  -6.3293
    -5.0464  -4.1031  -3.7286  -2.7004  -2.4190  -2.1675  -1.5021  -1.3161
    -1.1302  -0.8273   0.2228   1.0516   1.1850   1.1946   1.4156   1.6732
     2.3992   2.7872   9.8194   9.9378  11.2155  11.3090  12.5713

          k = 0.3333-0.0000 0.0000 ( 14102 PWs)   bands (ev):

   -13.9104 -12.8873 -11.1676  -9.0195  -8.5738  -7.6468  -6.9030  -6.0528
    -5.8274  -4.0174  -3.9239  -3.1417  -2.8514  -2.2542  -1.9339  -1.8798
    -1.7870  -0.7902  -0.6577  -0.5071  -0.4106  -0.1109   0.2367   0.3766
     1.1808   3.0264   9.0648   9.0926   9.9385  10.2650  11.3486

          k = 0.3333-0.1010 0.0000 ( 14116 PWs)   bands (ev):

   -13.7303 -12.7142 -11.0145  -8.9778  -8.7592  -8.0102  -6.7286  -6.5717
    -6.1074  -4.2670  -3.9991  -3.1294  -3.0525  -2.2960  -1.8898  -1.6818
    -1.6432  -1.1644  -0.6700  -0.6066  -0.3403  -0.2059   0.5294   0.9715
     1.3794   2.8385   9.3110   9.4195  10.4097  10.6371  11.2864

          k = 0.3333-0.2020 0.0000 ( 14157 PWs)   bands (ev):

   -13.1950 -12.2031 -10.5809  -9.8133  -8.9909  -8.8337  -6.7359  -6.3114
    -6.2369  -4.8801  -4.1415  -3.7015  -3.4744  -3.1986  -2.4509  -2.0988
    -1.4890  -0.4516  -0.2451  -0.1579   0.0833   0.4135   0.5503   0.8644
     2.2401   2.3454   9.9425  10.0415  11.3866  11.6153  12.0375

          k = 0.3333-0.3030 0.0000 ( 14179 PWs)   bands (ev):

   -12.3232 -11.4204 -11.0984 -10.3581  -9.7509  -9.1398  -6.3137  -5.9997
    -5.6706  -5.4717  -4.8786  -4.4705  -3.7018  -3.3376  -2.8190  -2.6995
    -1.3904  -0.7264  -0.1930  -0.0402   0.6111   0.9656   1.2725   1.5102
     1.7763   2.3450  10.6784  10.7569  12.0793  12.1748  12.4452

          k = 0.4444-0.0000 0.0000 ( 14094 PWs)   bands (ev):

   -12.3891 -11.3871 -10.5310  -9.6984  -9.5596  -7.9128  -7.5874  -5.8437
    -5.5099  -4.4493  -3.7835  -2.9565  -2.7112  -2.3289  -1.8458  -1.4768
    -1.4200  -1.3229  -1.0763  -0.9702  -0.9549  -0.8613  -0.8327   0.1719
     0.7262   1.9435   9.7179  10.3328  10.5016  10.7540  10.9008

          k = 0.4444-0.1010 0.0000 ( 14140 PWs)   bands (ev):

   -12.2188 -11.2251 -10.4007  -9.5615  -9.4380  -7.8509  -7.4791  -5.8220
    -5.8184  -5.6864  -4.1524  -3.9790  -3.0973  -2.4214  -1.9430  -1.7213
    -1.4129  -1.1405  -0.8395  -0.7314  -0.6198  -0.3744  -0.1779   0.3183
     0.8443   1.9271  10.3329  10.3349  10.4702  10.9759  11.3620

          k = 0.4444-0.2020 0.0000 ( 14163 PWs)   bands (ev):

   -11.7208 -10.7555 -10.1067  -9.2440  -9.1060  -7.7965  -7.2867  -7.0080
    -6.6073  -5.8979  -5.5435  -5.1343  -3.3677  -3.2995  -2.2854  -2.0916
    -1.5705  -1.3182  -0.7924  -0.1672   0.0647   0.1466   0.6070   1.0448
     1.2825   1.8549  10.8685  11.0155  11.3134  11.4683  12.0156

          k = 0.4444-0.3030 0.0000 ( 14175 PWs)   bands (ev):

   -10.9574 -10.2174 -10.0132  -9.3369  -8.5492  -8.0135  -7.7486  -7.0549
    -6.8864  -6.6349  -6.1772  -6.0425  -3.7029  -3.3642  -2.7540  -2.4009
    -1.7487  -1.4674  -0.6552  -0.3135   0.2277   0.3344   1.3877   1.5162
     1.7362   1.8082  11.4258  11.4295  12.0320  12.1507  13.1981

     the Fermi energy is     5.6028 ev

!    total energy              =    -225.94308035 Ry
     estimated scf accuracy    <          1.4E-09 Ry
     smearing contrib. (-TS)   =       0.00000000 Ry
     internal energy E=F+TS    =    -225.94308035 Ry

     The total energy is F=E-TS. E is the sum of the following terms:
     one-electron contribution =   -1230.21568538 Ry
     hartree contribution      =     639.20099381 Ry
     xc contribution           =     -59.14438436 Ry
     ewald contribution        =     498.17308682 Ry
     one-center paw contrib.   =     -73.95709125 Ry

     convergence has been achieved in   8 iterations

     negative rho (up, down):  2.103E-06 0.000E+00

     Forces acting on atoms (cartesian axes, Ry/au):

     atom    1 type  1   force =     0.00000000   -0.00178173   -0.00135082
     atom    2 type  1   force =     0.00000000    0.00178173   -0.00135082
     atom    3 type  1   force =     0.00000000    0.00013530   -0.00321280
     atom    4 type  1   force =    -0.00000000   -0.00013530   -0.00321280
     atom    5 type  1   force =     0.00000000    0.00034965   -0.00163739
     atom    6 type  1   force =     0.00000000   -0.00034965   -0.00163739
     atom    7 type  1   force =     0.00000000    0.00034965    0.00163739
     atom    8 type  1   force =     0.00000000   -0.00034965    0.00163739
     atom    9 type  1   force =     0.00000000    0.00013530    0.00321280
     atom   10 type  1   force =    -0.00000000   -0.00013530    0.00321280
     atom   11 type  1   force =     0.00000000    0.00178173    0.00135082
     atom   12 type  1   force =     0.00000000   -0.00178173    0.00135082
     atom   13 type  2   force =     0.00000000    0.00042635    0.00307795
     atom   14 type  2   force =     0.00000000   -0.00042635    0.00307795
     atom   15 type  2   force =     0.00000000   -0.00042635   -0.00307795
     atom   16 type  2   force =     0.00000000    0.00042635   -0.00307795

     Total force =     0.010545     Total SCF correction =     0.000061
     Energy error            =      4.3E-04 Ry
     Gradient error          =      3.2E-03 Ry/Bohr

     number of scf cycles    =   6
     number of bfgs steps    =   5

     energy             old  =    -225.9426468650 Ry
     energy             new  =    -225.9430803475 Ry

     CASE: energy            _new < energy            _old

     new trust radius        =       0.0077974433 bohr
     new conv_thr            =       0.0000000032 Ry


ATOMIC_POSITIONS (angstrom)
C                0.0000000000       -0.9126024006       11.1807714021
C                1.2632452000       -1.7671453494       11.1807714021
C                1.2632452000       -2.6827852818        9.9474032561
C                0.0000000000        0.0030375318        9.9474032561
C                1.2632452000       -1.7874451482        8.6805947144
C                0.0000000000       -0.8923026018        8.6805947044
C                0.0000000000       -0.0009466482        7.4155938556
C                1.2632452000       -2.6788011018        7.4155938556
C                0.0000000000       -0.8962867818        6.1487853139
C                1.2632452000       -1.7834609682        6.1487853139
C                0.0000000000        0.0193531506        4.9154171579
C                1.2632452000       -2.6991009006        4.9154171579
H                0.0000000000       -0.3127924237       12.1005256092
H                1.2632452000       -2.3669553263       12.1005256092
H                0.0000000000       -0.5804568263        3.9956629608
H                1.2632452000       -2.0992909237        3.9956629608



     Writing config-only to output data dir /tmp/qe/slab.save/ :
     XML data file
     NEW-OLD atomic charge density approx. for the potential

     negative rho (up, down):  2.081E-06 0.000E+00

     total cpu time spent up to now is       94.5 secs

     Self-consistent Calculation

     iteration #  1     ecut=    90.00 Ry     beta= 0.30
     Davidson diagonalization with overlap
     ethr =  1.00E-06,  avg # of iterations =  3.0

     Threshold (ethr) on eigenvalues was too large:
     Diagonalizing with lowered threshold

     Davidson diagonalization with overlap
     ethr =  2.96E-08,  avg # of iterations =  3.8

     negative rho (up, down):  2.073E-06 0.000E+00

     total cpu time spent up to now is       98.1 secs

     total energy              =    -225.94315945 Ry
     estimated scf accuracy    <       0.00001980 Ry

     iteration #  2     ecut=    90.00 Ry     beta= 0.30
     Davidson diagonalization with overlap
     ethr =  3.81E-08,  avg # of iterations =  1.5

     negative rho (up, down):  2.049E-06 0.000E+00

     total cpu time spent up to now is       99.5 secs

     total energy              =    -225.94315956 Ry
     estimated scf accuracy    <       0.00000682 Ry

     iteration #  3     ecut=    90.00 Ry     beta= 0.30
     Davidson diagonalization with overlap
     ethr =  1.31E-08,  avg # of iterations =  1.6

     negative rho (up, down):  2.045E-06 0.000E+00

     total cpu time spent up to now is      100.8 secs

     total energy              =    -225.94316007 Ry
     estimated scf accuracy    <       0.00000114 Ry

     iteration #  4     ecut=    90.00 Ry     beta= 0.30
     Davidson diagonalization with overlap
     ethr =  2.19E-09,  avg # of iterations =  2.0

     negative rho (up, down):  2.054E-06 0.000E+00

     total cpu time spent up to now is      102.3 secs

     total energy              =    -225.94316019 Ry
     estimated scf accuracy    <       0.00000014 Ry

     iteration #  5     ecut=    90.00 Ry     beta= 0.30
     Davidson diagonalization with overlap
     ethr =  2.62E-10,  avg # of iterations =  2.1

     negative rho (up, down):  2.057E-06 0.000E+00

     total cpu time spent up to now is      103.9 secs

     total energy              =    -225.94316021 Ry
     estimated scf accuracy    <          9.2E-09 Ry

     iteration #  6     ecut=    90.00 Ry     beta= 0.30
     Davidson diagonalization with overlap
     ethr =  1.78E-11,  avg # of iterations =  2.9

     negative rho (up, down):  2.066E-06 0.000E+00

     total cpu time spent up to now is      105.6 secs

     End of self-consistent calculation

          k = 0.0000-0.0000 0.0000 ( 14181 PWs)   bands (ev):

   -15.9350 -14.8768 -13.1202 -10.9238  -8.7403  -7.6293  -7.3047  -6.3881
    -4.7988  -4.4594  -4.0216  -2.9536  -2.7221  -2.1146  -0.8828  -0.7088
    -0.3986  -0.0911   1.2055   1.7518   2.1441   2.7045   3.9722   3.9843
     4.3101   4.8293   6.9636   7.2358   9.7372  10.1643  10.8807

          k = 0.0000-0.1010 0.0000 ( 14153 PWs)   bands (ev):

   -15.7489 -14.6964 -12.9570 -10.8387  -9.5079  -9.2557  -6.8334  -5.9985
    -5.5462  -4.0553  -3.5709  -3.0052  -1.8729  -1.8517  -1.0246  -0.7071
     0.0589   0.2232   1.2938   1.5235   2.3515   2.6569   3.6998   3.7511
     4.1200   4.2684   7.1685   7.4734   9.9284  10.1344  11.0313

          k = 0.0000-0.2020 0.0000 ( 14130 PWs)   bands (ev):

   -15.1931 -14.1609 -12.4911 -11.4238 -10.6391 -10.5797  -7.3399  -6.7428
    -5.4420  -4.4067  -3.0388  -1.7294  -1.7205  -0.7601  -0.1874  -0.1616
     0.4413   0.4961   1.5354   2.0458   2.0512   2.4964   2.9824   3.0760
     3.3173   3.6120   7.8169   8.0605  10.2788  10.3950  10.8965

          k = 0.0000-0.3030 0.0000 ( 14112 PWs)   bands (ev):

   -14.2770 -13.3282 -12.9536 -12.1900 -11.5671 -10.9232  -7.7262  -7.0755
    -5.6713  -4.7149  -2.9612  -1.9353  -0.3866   0.1796   0.6502   0.7810
     1.1697   1.2012   1.7678   1.8128   2.0245   2.1502   2.1977   2.2725
     2.6500   2.7338   8.8650   8.9105   9.9340  10.3402  10.7445

          k = 0.1111-0.0000 0.0000 ( 14165 PWs)   bands (ev):

   -15.7089 -14.6533 -12.9007 -10.7097  -8.5344  -7.4284  -7.2382  -6.3295
    -4.7550  -4.2667  -3.8137  -2.8003  -2.7021  -1.9159  -1.9040  -1.0755
    -0.6365  -0.4146   0.2649   1.6455   1.7661   2.0923   3.0057   3.4947
     3.7485   4.2034   7.1780   7.4685   9.7827  10.9719  11.0080

          k = 0.1111-0.1010 0.0000 ( 14125 PWs)   bands (ev):

   -15.5233 -14.4735 -12.7385 -10.6267  -9.3253  -9.0615  -6.6807  -5.8651
    -5.4664  -3.9534  -3.4587  -2.9860  -1.8385  -1.7070  -1.6283  -1.0150
    -0.8137   0.1786   0.4239   1.4836   1.7449   2.0766   2.7552   2.7681
     3.7089   4.1407   7.4100   7.7063  10.1015  11.2007  11.4601

          k = 0.1111-0.2020 0.0000 ( 14130 PWs)   bands (ev):

   -14.9691 -13.9401 -12.2756 -11.2199 -10.4335 -10.3811  -7.1567  -6.5507
    -5.2881  -4.2691  -3.0183  -2.0824  -1.7509  -1.1255  -0.6336  -0.1692
    -0.0617   0.1596   1.0190   1.4629   1.5921   1.6532   1.8184   2.1351
     3.3009   3.9240   8.0739   8.3292  10.7251  11.2397  11.5104

          k = 0.1111-0.3030 0.0000 ( 14125 PWs)   bands (ev):

   -14.0564 -13.1113 -12.7392 -11.9791 -11.3589 -10.7199  -7.5258  -6.8807
    -5.4928  -4.5429  -2.8553  -1.8314  -1.0823  -0.3681  -0.2550   0.2053
     0.5431   0.6291   0.9515   1.1777   1.2340   1.6687   1.9682   2.3237
     2.8013   2.9076   9.1262   9.2439  10.4271  10.6176  11.5673

          k = 0.2222-0.0000 0.0000 ( 14140 PWs)   bands (ev):

   -15.0339 -13.9862 -12.2458 -10.0712  -7.9195  -7.3486  -6.8275  -6.4479
    -4.8932  -3.7082  -3.5975  -3.2067  -2.8742  -2.7372  -2.3736  -1.3790
    -1.3355  -0.6321  -0.4921   0.0768   1.1140   1.1966   1.5940   1.8055
     2.1516   3.7939   7.8927   8.1258  10.1100  10.2135  10.7591

          k = 0.2222-0.1010 0.0000 ( 14110 PWs)   bands (ev):

   -14.8500 -13.8086 -12.0868  -9.9950  -8.8453  -8.5056  -6.3966  -5.7340
    -5.5821  -3.9357  -3.5496  -3.4164  -2.4092  -2.3447  -1.8127  -1.2200
    -1.0757  -0.5582  -0.4133   0.3132   0.4661   0.6155   1.4134   1.6174
     2.9795   3.4222   8.1401   8.3768  10.6232  10.7632  10.9552

          k = 0.2222-0.2020 0.0000 ( 14113 PWs)   bands (ev):

   -14.3015 -13.2822 -11.6338 -10.6301  -9.8229  -9.8039  -6.6683  -6.0466
    -4.9266  -4.7513  -3.3496  -3.2983  -2.4725  -1.8239  -1.1604  -0.9293
    -0.5940  -0.4416  -0.3400   0.1641   0.2679   0.5981   1.0914   1.8537
     2.7166   3.3469   8.8148   9.0277  11.3474  11.8948  11.9869

          k = 0.2222-0.3030 0.0000 ( 14149 PWs)   bands (ev):

   -13.4004 -12.4669 -12.1062 -11.3549 -10.7418 -10.1163  -6.9611  -6.3307
    -5.0375  -4.1014  -3.7377  -2.7067  -2.4239  -2.1686  -1.5035  -1.3171
    -1.1314  -0.8323   0.2253   1.0531   1.1841   1.1917   1.4072   1.6817
     2.4046   2.7825   9.8137   9.9309  11.2081  11.3001  12.5667

          k = 0.3333-0.0000 0.0000 ( 14102 PWs)   bands (ev):

   -13.9217 -12.8879 -11.1688  -9.0213  -8.5859  -7.6462  -6.9054  -6.0523
    -5.8322  -4.0175  -3.9350  -3.1420  -2.8524  -2.2587  -1.9358  -1.8813
    -1.7857  -0.7898  -0.6615  -0.5001  -0.4130  -0.1099   0.2430   0.3696
     1.1775   3.0243   9.0593   9.0873   9.9381  10.2685  11.3527

          k = 0.3333-0.1010 0.0000 ( 14116 PWs)   bands (ev):

   -13.7416 -12.7149 -11.0158  -8.9812  -8.7699  -8.0099  -6.7308  -6.5795
    -6.1060  -4.2721  -3.9931  -3.1299  -3.0591  -2.2964  -1.8981  -1.6876
    -1.6448  -1.1632  -0.6657  -0.6104  -0.3377  -0.2029   0.5354   0.9692
     1.3752   2.8367   9.3049   9.4126  10.4094  10.6397  11.2942

          k = 0.3333-0.2020 0.0000 ( 14157 PWs)   bands (ev):

   -13.2063 -12.2039 -10.5830  -9.8241  -8.9905  -8.8376  -6.7445  -6.3087
    -6.2391  -4.8836  -4.1348  -3.7068  -3.4840  -3.1971  -2.4534  -2.1001
    -1.4837  -0.4485  -0.2488  -0.1586   0.0745   0.4170   0.5516   0.8705
     2.2381   2.3447   9.9365  10.0345  11.3887  11.6116  12.0417

          k = 0.3333-0.3030 0.0000 ( 14179 PWs)   bands (ev):

   -12.3344 -11.4233 -11.1075 -10.3609  -9.7507  -9.1430  -6.3098  -6.0099
    -5.6691  -5.4749  -4.8883  -4.4741  -3.6986  -3.3385  -2.8178  -2.7011
    -1.3874  -0.7246  -0.1937  -0.0400   0.6131   0.9681   1.2751   1.5050
     1.7783   2.3428  10.6747  10.7525  12.0742  12.1666  12.4486

          k = 0.4444-0.0000 0.0000 ( 14094 PWs)   bands (ev):

   -12.4005 -11.3877 -10.5426  -9.6996  -9.5599  -7.9137  -7.5892  -5.8453
    -5.5125  -4.4539  -3.7862  -2.9676  -2.7156  -2.3284  -1.8476  -1.4772
    -1.4314  -1.3241  -1.0783  -0.9657  -0.9504  -0.8578  -0.8249   0.1669
     0.7245   1.9415   9.7210  10.3315  10.5026  10.7546  10.9049

          k = 0.4444-0.1010 0.0000 ( 14140 PWs)   bands (ev):

   -12.2302 -11.2257 -10.4123  -9.5628  -9.4382  -7.8519  -7.4813  -5.8247
    -5.8203  -5.6945  -4.1550  -3.9871  -3.0974  -2.4183  -1.9490  -1.7223
    -1.4085  -1.1402  -0.8322  -0.7279  -0.6278  -0.3770  -0.1744   0.3127
     0.8429   1.9252  10.3350  10.3367  10.4716  10.9747  11.3555

          k = 0.4444-0.2020 0.0000 ( 14163 PWs)   bands (ev):

   -11.7322 -10.7561 -10.1183  -9.2452  -9.1064  -7.7981  -7.2942  -7.0123
    -6.6099  -5.9016  -5.5517  -5.1366  -3.3646  -3.3018  -2.2797  -2.0925
    -1.5651  -1.3202  -0.7864  -0.1699   0.0677   0.1490   0.6023   1.0423
     1.2810   1.8531  10.8705  11.0157  11.3151  11.4693  12.0114

          k = 0.4444-0.3030 0.0000 ( 14175 PWs)   bands (ev):

   -10.9687 -10.2277 -10.0150  -9.3374  -8.5508  -8.0159  -7.7582  -7.0632
    -6.8902  -6.6376  -6.1792  -6.0455  -3.7002  -3.3660  -2.7498  -2.4016
    -1.7421  -1.4621  -0.6559  -0.3160   0.2326   0.3382   1.3862   1.5135
     1.7352   1.8081  11.4257  11.4296  12.0360  12.1559  13.2030

     the Fermi energy is     5.6032 ev

!    total energy              =    -225.94316021 Ry
     estimated scf accuracy    <          1.4E-09 Ry
     smearing contrib. (-TS)   =       0.00000000 Ry
     internal energy E=F+TS    =    -225.94316021 Ry

     The total energy is F=E-TS. E is the sum of the following terms:
     one-electron contribution =   -1231.56602523 Ry
     hartree contribution      =     639.87378527 Ry
     xc contribution           =     -59.14594112 Ry
     ewald contribution        =     498.85219769 Ry
     one-center paw contrib.   =     -73.95717683 Ry

     convergence has been achieved in   6 iterations

     negative rho (up, down):  2.066E-06 0.000E+00

     Forces acting on atoms (cartesian axes, Ry/au):

     atom    1 type  1   force =    -0.00000000   -0.00020840   -0.00017290
     atom    2 type  1   force =    -0.00000000    0.00020840   -0.00017290
     atom    3 type  1   force =    -0.00000000    0.00005569   -0.00165006
     atom    4 type  1   force =    -0.00000000   -0.00005569   -0.00165006
     atom    5 type  1   force =    -0.00000000    0.00039660   -0.00102392
     atom    6 type  1   force =    -0.00000000   -0.00039660   -0.00102392
     atom    7 type  1   force =    -0.00000000    0.00039660    0.00102392
     atom    8 type  1   force =    -0.00000000   -0.00039660    0.00102392
     atom    9 type  1   force =    -0.00000000    0.00005569    0.00165006
     atom   10 type  1   force =    -0.00000000   -0.00005569    0.00165006
     atom   11 type  1   force =    -0.00000000    0.00020840    0.00017290
     atom   12 type  1   force =    -0.00000000   -0.00020840    0.00017290
     atom   13 type  2   force =     0.00000000    0.00051385    0.00130894
     atom   14 type  2   force =    -0.00000000   -0.00051385    0.00130894
     atom   15 type  2   force =     0.00000000   -0.00051385   -0.00130894
     atom   16 type  2   force =    -0.00000000    0.00051385   -0.00130894

     Total force =     0.004892     Total SCF correction =     0.000077
     Energy error            =      8.0E-05 Ry
     Gradient error          =      1.7E-03 Ry/Bohr

     number of scf cycles    =   7
     number of bfgs steps    =   6

     energy             old  =    -225.9430803475 Ry
     energy             new  =    -225.9431602078 Ry

     CASE: energy            _new < energy            _old

     new trust radius        =       0.0030216135 bohr
     new conv_thr            =       0.0000000008 Ry


ATOMIC_POSITIONS (angstrom)
C                0.0000000000       -0.9125111034       11.1804242391
C                1.2632452000       -1.7672366466       11.1804242391
C                1.2632452000       -2.6827399287        9.9458049304
C                0.0000000000        0.0029921787        9.9458049304
C                1.2632452000       -1.7871243006        8.6796824068
C                0.0000000000       -0.8926234494        8.6796823968
C                0.0000000000       -0.0006258006        7.4165061632
C                1.2632452000       -2.6791219494        7.4165061632
C                0.0000000000       -0.8962414287        6.1503836396
C                1.2632452000       -1.7835063213        6.1503836396
C                0.0000000000        0.0192618534        4.9157643209
C                1.2632452000       -2.6990096034        4.9157643209
H                0.0000000000       -0.3131972170       12.1016833882
H                1.2632452000       -2.3665505330       12.1016833882
H                0.0000000000       -0.5800520330        3.9945051818
H                1.2632452000       -2.0996957170        3.9945051818



     Writing config-only to output data dir /tmp/qe/slab.save/ :
     XML data file
     NEW-OLD atomic charge density approx. for the potential

     negative rho (up, down):  2.036E-06 0.000E+00

     total cpu time spent up to now is      106.2 secs

     Self-consistent Calculation

     iteration #  1     ecut=    90.00 Ry     beta= 0.30
     Davidson diagonalization with overlap
     ethr =  1.00E-06,  avg # of iterations =  2.0

     Threshold (ethr) on eigenvalues was too large:
     Diagonalizing with lowered threshold

     Davidson diagonalization with overlap
     ethr =  1.11E-08,  avg # of iterations =  4.1

     negative rho (up, down):  2.042E-06 0.000E+00

     total cpu time spent up to now is      109.8 secs

     total energy              =    -225.94318110 Ry
     estimated scf accuracy    <       0.00000851 Ry

     iteration #  2     ecut=    90.00 Ry     beta= 0.30
     Davidson diagonalization with overlap
     ethr =  1.64E-08,  avg # of iterations =  1.9

     negative rho (up, down):  2.050E-06 0.000E+00

     total cpu time spent up to now is      111.2 secs

     total energy              =    -225.94318132 Ry
     estimated scf accuracy    <       0.00000211 Ry

     iteration #  3     ecut=    90.00 Ry     beta= 0.30
     Davidson diagonalization with overlap
     ethr =  4.06E-09,  avg # of iterations =  1.9

     negative rho (up, down):  2.063E-06 0.000E+00

     total cpu time spent up to now is      112.6 secs

     total energy              =    -225.94318143 Ry
     estimated scf accuracy    <       0.00000046 Ry

     iteration #  4     ecut=    90.00 Ry     beta= 0.30
     Davidson diagonalization with overlap
     ethr =  8.84E-10,  avg # of iterations =  1.9

     negative rho (up, down):  2.070E-06 0.000E+00

     total cpu time spent up to now is      114.0 secs

     total energy              =    -225.94318146 Ry
     estimated scf accuracy    <       0.00000006 Ry

     iteration #  5     ecut=    90.00 Ry     beta= 0.30
     Davidson diagonalization with overlap
     ethr =  1.19E-10,  avg # of iterations =  2.1

     negative rho (up, down):  2.072E-06 0.000E+00

     total cpu time spent up to now is      115.6 secs

     total energy              =    -225.94318147 Ry
     estimated scf accuracy    <          6.6E-09 Ry

     iteration #  6     ecut=    90.00 Ry     beta= 0.30
     Davidson diagonalization with overlap
     ethr =  1.27E-11,  avg # of iterations =  3.0

     negative rho (up, down):  2.073E-06 0.000E+00

     total cpu time spent up to now is      117.4 secs

     total energy              =    -225.94318147 Ry
     estimated scf accuracy    <          1.6E-09 Ry

     iteration #  7     ecut=    90.00 Ry     beta= 0.30
     Davidson diagonalization with overlap
     ethr =  3.12E-12,  avg # of iterations =  2.0

     negative rho (up, down):  2.076E-06 0.000E+00

     total cpu time spent up to now is      118.9 secs

     End of self-consistent calculation

          k = 0.0000-0.0000 0.0000 ( 14181 PWs)   bands (ev):

   -15.9418 -14.8727 -13.1194 -10.9240  -8.7406  -7.6336  -7.3117  -6.3806
    -4.7952  -4.4576  -4.0231  -2.9528  -2.7192  -2.1142  -0.8898  -0.7076
    -0.3963  -0.0876   1.2040   1.7525   2.1457   2.7018   3.9709   3.9821
     4.3106   4.8248   6.9621   7.2331   9.7338  10.1578  10.8791

          k = 0.0000-0.1010 0.0000 ( 14153 PWs)   bands (ev):

   -15.7557 -14.6923 -12.9563 -10.8389  -9.5146  -9.2541  -6.8299  -5.9946
    -5.5503  -4.0506  -3.5729  -3.0032  -1.8731  -1.8511  -1.0229  -0.7140
     0.0623   0.2252   1.2923   1.5249   2.3530   2.6544   3.6982   3.7516
     4.1180   4.2631   7.1669   7.4709   9.9252  10.1297  11.0318

          k = 0.0000-0.2020 0.0000 ( 14130 PWs)   bands (ev):

   -15.1998 -14.1567 -12.4905 -11.4294 -10.6411 -10.5764  -7.3369  -6.7437
    -5.4358  -4.4056  -3.0380  -1.7295  -1.7257  -0.7574  -0.1941  -0.1603
     0.4422   0.4993   1.5338   2.0487   2.0517   2.4951   2.9820   3.0686
     3.3203   3.6081   7.8151   8.0577  10.2760  10.3917  10.8937

          k = 0.0000-0.3030 0.0000 ( 14112 PWs)   bands (ev):

   -14.2836 -13.3249 -12.9594 -12.1870 -11.5662 -10.9240  -7.7241  -7.0762
    -5.6657  -4.7111  -2.9616  -1.9354  -0.3862   0.1752   0.6442   0.7803
     1.1726   1.2038   1.7636   1.8133   2.0235   2.1483   2.1956   2.2675
     2.6508   2.7399   8.8623   8.9070   9.9305  10.3372  10.7430

          k = 0.1111-0.0000 0.0000 ( 14165 PWs)   bands (ev):

   -15.7157 -14.6491 -12.8999 -10.7099  -8.5347  -7.4327  -7.2451  -6.3220
    -4.7514  -4.2648  -3.8151  -2.7995  -2.6992  -1.9155  -1.9110  -1.0721
    -0.6353  -0.4122   0.2636   1.6467   1.7636   2.0939   3.0037   3.4925
     3.7439   4.2041   7.1762   7.4657   9.7795  10.9754  11.0034

          k = 0.1111-0.1010 0.0000 ( 14125 PWs)   bands (ev):

   -15.5301 -14.4694 -12.7377 -10.6268  -9.3320  -9.0599  -6.6772  -5.8609
    -5.4711  -3.9488  -3.4604  -2.9838  -1.8381  -1.7072  -1.6348  -1.0133
    -0.8105   0.1804   0.4224   1.4852   1.7426   2.0789   2.7500   2.7665
     3.7095   4.1381   7.4082   7.7036  10.0984  11.1997  11.4562

          k = 0.1111-0.2020 0.0000 ( 14130 PWs)   bands (ev):

   -14.9759 -13.9359 -12.2750 -11.2255 -10.4355 -10.3778  -7.1537  -6.5516
    -5.2819  -4.2686  -3.0180  -2.0872  -1.7491  -1.1246  -0.6393  -0.1678
    -0.0614   0.1619   1.0182   1.4621   1.5865   1.6546   1.8195   2.1349
     3.3027   3.9206   8.0719   8.3263  10.7219  11.2392  11.5076

          k = 0.1111-0.3030 0.0000 ( 14125 PWs)   bands (ev):

   -14.0630 -13.1080 -12.7450 -11.9761 -11.3581 -10.7207  -7.5238  -6.8812
    -5.4873  -4.5391  -2.8561  -1.8315  -1.0883  -0.3661  -0.2545   0.2004
     0.5442   0.6290   0.9508   1.1743   1.2325   1.6686   1.9666   2.3292
     2.7952   2.9113   9.1236   9.2401  10.4232  10.6146  11.5675

          k = 0.2222-0.0000 0.0000 ( 14140 PWs)   bands (ev):

   -15.0407 -13.9820 -12.2451 -10.0714  -7.9198  -7.3555  -6.8318  -6.4408
    -4.8898  -3.7064  -3.6045  -3.2077  -2.8715  -2.7336  -2.3731  -1.3801
    -1.3350  -0.6298  -0.4910   0.0748   1.1128   1.1994   1.5894   1.8067
     2.1479   3.7946   7.8905   8.1229  10.1125  10.2107  10.7577

          k = 0.2222-0.1010 0.0000 ( 14110 PWs)   bands (ev):

   -14.8568 -13.8044 -12.0860  -9.9951  -8.8522  -8.5036  -6.3928  -5.7348
    -5.5833  -3.9327  -3.5516  -3.4128  -2.4133  -2.3452  -1.8105  -1.2184
    -1.0757  -0.5585  -0.4142   0.3090   0.4668   0.6162   1.4137   1.6188
     2.9766   3.4229   8.1379   8.3738  10.6209  10.7650  10.9534

          k = 0.2222-0.2020 0.0000 ( 14113 PWs)   bands (ev):

   -14.3083 -13.2779 -11.6331 -10.6358  -9.8249  -9.8005  -6.6649  -6.0472
    -4.9206  -4.7573  -3.3473  -3.2950  -2.4740  -1.8233  -1.1655  -0.9292
    -0.5978  -0.4459  -0.3386   0.1656   0.2700   0.5966   1.0943   1.8545
     2.7181   3.3442   8.8124   9.0242  11.3450  11.8939  11.9880

          k = 0.2222-0.3030 0.0000 ( 14149 PWs)   bands (ev):

   -13.4069 -12.4636 -12.1119 -11.3517 -10.7410 -10.1171  -6.9588  -6.3310
    -5.0320  -4.0978  -3.7436  -2.7068  -2.4267  -2.1693  -1.5012  -1.3178
    -1.1322  -0.8338   0.2258   1.0535   1.1858   1.1899   1.4000   1.6876
     2.4076   2.7787   9.8109   9.9268  11.2047  11.2972  12.5645

          k = 0.3333-0.0000 0.0000 ( 14102 PWs)   bands (ev):

   -13.9285 -12.8836 -11.1680  -9.0215  -8.5928  -7.6406  -6.9058  -6.0503
    -5.8366  -4.0165  -3.9419  -3.1372  -2.8506  -2.2588  -1.9358  -1.8807
    -1.7861  -0.7902  -0.6653  -0.4967  -0.4153  -0.1083   0.2478   0.3655
     1.1780   3.0249   9.0570   9.0847   9.9375  10.2676  11.3517

          k = 0.3333-0.1010 0.0000 ( 14116 PWs)   bands (ev):

   -13.7484 -12.7106 -11.0151  -8.9814  -8.7768  -8.0054  -6.7296  -6.5852
    -6.1040  -4.2721  -3.9887  -3.1283  -3.0635  -2.2951  -1.9042  -1.6896
    -1.6421  -1.1639  -0.6639  -0.6105  -0.3381  -0.1991   0.5382   0.9699
     1.3714   2.8373   9.3022   9.4094  10.4084  10.6387  11.2966

          k = 0.3333-0.2020 0.0000 ( 14157 PWs)   bands (ev):

   -13.2130 -12.1996 -10.5823  -9.8301  -8.9865  -8.8392  -6.7497  -6.3072
    -6.2367  -4.8832  -4.1306  -3.7072  -3.4908  -3.1951  -2.4518  -2.1006
    -1.4821  -0.4471  -0.2496  -0.1563   0.0668   0.4216   0.5519   0.8727
     2.2353   2.3453   9.9337  10.0305  11.3891  11.6090  12.0398

          k = 0.3333-0.3030 0.0000 ( 14179 PWs)   bands (ev):

   -12.3410 -11.4201 -11.1129 -10.3573  -9.7501  -9.1437  -6.3064  -6.0177
    -5.6673  -5.4723  -4.8953  -4.4718  -3.6956  -3.3390  -2.8143  -2.7016
    -1.3868  -0.7231  -0.1943  -0.0401   0.6146   0.9699   1.2770   1.5010
     1.7787   2.3399  10.6719  10.7489  12.0714  12.1622  12.4485

          k = 0.4444-0.0000 0.0000 ( 14094 PWs)   bands (ev):

   -12.4074 -11.3833 -10.5495  -9.6987  -9.5552  -7.9125  -7.5894  -5.8452
    -5.5129  -4.4584  -3.7865  -2.9743  -2.7202  -2.3235  -1.8459  -1.4770
    -1.4396  -1.3235  -1.0773  -0.9615  -0.9481  -0.8540  -0.8203   0.1662
     0.7246   1.9419   9.7204  10.3293  10.5004  10.7535  10.9042

          k = 0.4444-0.1010 0.0000 ( 14140 PWs)   bands (ev):

   -12.2370 -11.2213 -10.4192  -9.5618  -9.4335  -7.8509  -7.4813  -5.8247
    -5.8197  -5.7007  -4.1546  -3.9935  -3.0945  -2.4164  -1.9521  -1.7206
    -1.4062  -1.1395  -0.8262  -0.7242  -0.6322  -0.3786  -0.1727   0.3105
     0.8431   1.9255  10.3341  10.3356  10.4701  10.9728  11.3523

          k = 0.4444-0.2020 0.0000 ( 14163 PWs)   bands (ev):

   -11.7390 -10.7516 -10.1250  -9.2417  -9.1041  -7.7973  -7.2963  -7.0171
    -6.6083  -5.9009  -5.5595  -5.1348  -3.3631  -3.3010  -2.2768  -2.0906
    -1.5631  -1.3193  -0.7831  -0.1671   0.0680   0.1491   0.5980   1.0415
     1.2785   1.8533  10.8695  11.0141  11.3138  11.4668  12.0081

          k = 0.4444-0.3030 0.0000 ( 14175 PWs)   bands (ev):

   -10.9753 -10.2326 -10.0121  -9.3325  -8.5501  -8.0157  -7.7642  -7.0665
    -6.8906  -6.6374  -6.1779  -6.0469  -3.6991  -3.3662  -2.7466  -2.3998
    -1.7396  -1.4596  -0.6536  -0.3137   0.2322   0.3380   1.3862   1.5113
     1.7344   1.8056  11.4230  11.4267  12.0335  12.1535  13.2046

     the Fermi energy is     5.6024 ev

!    total energy              =    -225.94318147 Ry
     estimated scf accuracy    <          2.0E-10 Ry
     smearing contrib. (-TS)   =       0.00000000 Ry
     internal energy E=F+TS    =    -225.94318147 Ry

     The total energy is F=E-TS. E is the sum of the following terms:
     one-electron contribution =   -1232.09284845 Ry
     hartree contribution      =     640.13529378 Ry
     xc contribution           =     -59.14400905 Ry
     ewald contribution        =     499.11553329 Ry
     one-center paw contrib.   =     -73.95715103 Ry

     convergence has been achieved in   7 iterations

     negative rho (up, down):  2.076E-06 0.000E+00

     Forces acting on atoms (cartesian axes, Ry/au):

     atom    1 type  1   force =     0.00000000    0.00024623    0.00012593
     atom    2 type  1   force =     0.00000000   -0.00024623    0.00012593
     atom    3 type  1   force =     0.00000000    0.00012781   -0.00022896
     atom    4 type  1   force =     0.00000000   -0.00012781   -0.00022896
     atom    5 type  1   force =     0.00000000   -0.00007341   -0.00020094
     atom    6 type  1   force =     0.00000000    0.00007341   -0.00020094
     atom    7 type  1   force =     0.00000000   -0.00007341    0.00020094
     atom    8 type  1   force =     0.00000000    0.00007341    0.00020094
     atom    9 type  1   force =     0.00000000    0.00012781    0.00022896
     atom   10 type  1   force =     0.00000000   -0.00012781    0.00022896
     atom   11 type  1   force =     0.00000000   -0.00024623   -0.00012593
     atom   12 type  1   force =     0.00000000    0.00024623   -0.00012593
     atom   13 type  2   force =    -0.00000000    0.00012578    0.00009238
     atom   14 type  2   force =    -0.00000000   -0.00012578    0.00009238
     atom   15 type  2   force =    -0.00000000   -0.00012578   -0.00009238
     atom   16 type  2   force =    -0.00000000    0.00012578   -0.00009238

     Total force =     0.000928     Total SCF correction =     0.000024
     Energy error            =      2.1E-05 Ry
     Gradient error          =      2.5E-04 Ry/Bohr

     number of scf cycles    =   8
     number of bfgs steps    =   7

     energy             old  =    -225.9431602078 Ry
     energy             new  =    -225.9431814676 Ry

     CASE: energy            _new < energy            _old

     new trust radius        =       0.0008179540 bohr
     new conv_thr            =       0.0000000002 Ry


ATOMIC_POSITIONS (angstrom)
C                0.0000000000       -0.9123982653       11.1806002527
C                1.2632452000       -1.7673494847       11.1806002527
C                1.2632452000       -2.6826468568        9.9456119326
C                0.0000000000        0.0028991068        9.9456119326
C                1.2632452000       -1.7871465360        8.6795293815
C                0.0000000000       -0.8926012140        8.6795293715
C                0.0000000000       -0.0006480360        7.4166591885
C                1.2632452000       -2.6790997140        7.4166591885
C                0.0000000000       -0.8961483568        6.1505766374
C                1.2632452000       -1.7835993932        6.1505766374
C                0.0000000000        0.0191490153        4.9155883073
C                1.2632452000       -2.6988967653        4.9155883073
H               -0.0000000000       -0.3127765303       12.1017852483
H                1.2632452000       -2.3669712197       12.1017852483
H               -0.0000000000       -0.5804727197        3.9944033217
H                1.2632452000       -2.0992750303        3.9944033217



     Writing config-only to output data dir /tmp/qe/slab.save/ :
     XML data file
     NEW-OLD atomic charge density approx. for the potential

     negative rho (up, down):  2.070E-06 0.000E+00

     total cpu time spent up to now is      119.5 secs

     Self-consistent Calculation

     iteration #  1     ecut=    90.00 Ry     beta= 0.30
     Davidson diagonalization with overlap
     ethr =  1.00E-06,  avg # of iterations =  2.0

     Threshold (ethr) on eigenvalues was too large:
     Diagonalizing with lowered threshold

     Davidson diagonalization with overlap
     ethr =  3.22E-10,  avg # of iterations =  5.0

     negative rho (up, down):  2.073E-06 0.000E+00

     total cpu time spent up to now is      123.2 secs

     total energy              =    -225.94318225 Ry
     estimated scf accuracy    <       0.00000047 Ry

     iteration #  2     ecut=    90.00 Ry     beta= 0.30
     Davidson diagonalization with overlap
     ethr =  8.96E-10,  avg # of iterations =  2.0

     negative rho (up, down):  2.078E-06 0.000E+00

     total cpu time spent up to now is      124.7 secs

     total energy              =    -225.94318227 Ry
     estimated scf accuracy    <       0.00000009 Ry

     iteration #  3     ecut=    90.00 Ry     beta= 0.30
     Davidson diagonalization with overlap
     ethr =  1.73E-10,  avg # of iterations =  2.0

     negative rho (up, down):  2.084E-06 0.000E+00

     total cpu time spent up to now is      126.3 secs

     total energy              =    -225.94318228 Ry
     estimated scf accuracy    <       0.00000002 Ry

     iteration #  4     ecut=    90.00 Ry     beta= 0.30
     Davidson diagonalization with overlap
     ethr =  4.01E-11,  avg # of iterations =  1.6

     negative rho (up, down):  2.085E-06 0.000E+00

     total cpu time spent up to now is      127.7 secs

     total energy              =    -225.94318228 Ry
     estimated scf accuracy    <          1.4E-09 Ry

     iteration #  5     ecut=    90.00 Ry     beta= 0.30
     Davidson diagonalization with overlap
     ethr =  2.78E-12,  avg # of iterations =  2.7

     negative rho (up, down):  2.084E-06 0.000E+00

     total cpu time spent up to now is      129.4 secs

     End of self-consistent calculation

          k = 0.0000-0.0000 0.0000 ( 14181 PWs)   bands (ev):

   -15.9421 -14.8711 -13.1189 -10.9236  -8.7399  -7.6332  -7.3125  -6.3790
    -4.7952  -4.4569  -4.0230  -2.9530  -2.7195  -2.1144  -0.8894  -0.7084
    -0.3966  -0.0851   1.2055   1.7515   2.1456   2.7032   3.9703   3.9838
     4.3094   4.8264   6.9622   7.2332   9.7340  10.1581  10.8783

          k = 0.0000-0.1010 0.0000 ( 14153 PWs)   bands (ev):

   -15.7560 -14.6907 -12.9558 -10.8384  -9.5150  -9.2530  -6.8292  -5.9945
    -5.5504  -4.0502  -3.5728  -3.0031  -1.8735  -1.8513  -1.0239  -0.7136
     0.0648   0.2252   1.2938   1.5241   2.3527   2.6559   3.7000   3.7503
     4.1175   4.2644   7.1670   7.4709   9.9254  10.1300  11.0336

          k = 0.0000-0.2020 0.0000 ( 14130 PWs)   bands (ev):

   -15.2001 -14.1551 -12.4899 -11.4295 -10.6408 -10.5750  -7.3372  -6.7434
    -5.4361  -4.4045  -3.0387  -1.7293  -1.7267  -0.7571  -0.1936  -0.1606
     0.4416   0.5017   1.5353   2.0478   2.0515   2.4968   2.9838   3.0693
     3.3195   3.6076   7.8151   8.0577  10.2764  10.3916  10.8939

          k = 0.0000-0.3030 0.0000 ( 14112 PWs)   bands (ev):

   -14.2838 -13.3233 -12.9596 -12.1855 -11.5656 -10.9234  -7.7245  -7.0763
    -5.6656  -4.7103  -2.9625  -1.9354  -0.3870   0.1748   0.6449   0.7795
     1.1750   1.2042   1.7647   1.8153   2.0227   2.1498   2.1954   2.2684
     2.6497   2.7401   8.8622   8.9067   9.9305  10.3373  10.7436

          k = 0.1111-0.0000 0.0000 ( 14165 PWs)   bands (ev):

   -15.7160 -14.6476 -12.8994 -10.7095  -8.5340  -7.4323  -7.2460  -6.3204
    -4.7514  -4.2642  -3.8150  -2.7997  -2.6995  -1.9157  -1.9106  -1.0697
    -0.6360  -0.4125   0.2649   1.6459   1.7649   2.0938   3.0053   3.4920
     3.7453   4.2029   7.1763   7.4658   9.7793  10.9766  11.0012

          k = 0.1111-0.1010 0.0000 ( 14125 PWs)   bands (ev):

   -15.5304 -14.4678 -12.7372 -10.6263  -9.3324  -9.0587  -6.6765  -5.8608
    -5.4713  -3.9483  -3.4602  -2.9837  -1.8382  -1.7076  -1.6344  -1.0142
    -0.8083   0.1804   0.4238   1.4846   1.7439   2.0789   2.7504   2.7678
     3.7082   4.1385   7.4084   7.7036  10.0985  11.1995  11.4543

          k = 0.1111-0.2020 0.0000 ( 14130 PWs)   bands (ev):

   -14.9762 -13.9343 -12.2744 -11.2256 -10.4352 -10.3764  -7.1539  -6.5513
    -5.2821  -4.2677  -3.0182  -2.0882  -1.7484  -1.1242  -0.6390  -0.1680
    -0.0613   0.1634   1.0189   1.4633   1.5871   1.6559   1.8185   2.1349
     3.3022   3.9208   8.0720   8.3263  10.7217  11.2393  11.5075

          k = 0.1111-0.3030 0.0000 ( 14125 PWs)   bands (ev):

   -14.0632 -13.1064 -12.7453 -11.9745 -11.3575 -10.7201  -7.5241  -6.8814
    -5.4872  -4.5383  -2.8568  -1.8314  -1.0884  -0.3655  -0.2538   0.2004
     0.5459   0.6291   0.9517   1.1740   1.2338   1.6692   1.9661   2.3291
     2.7950   2.9116   9.1235   9.2399  10.4230  10.6148  11.5680

          k = 0.2222-0.0000 0.0000 ( 14140 PWs)   bands (ev):

   -15.0410 -13.9804 -12.2446 -10.0710  -7.9191  -7.3563  -6.8314  -6.4393
    -4.8898  -3.7057  -3.6042  -3.2076  -2.8718  -2.7313  -2.3733  -1.3789
    -1.3352  -0.6299  -0.4916   0.0759   1.1141   1.1993   1.5905   1.8065
     2.1475   3.7936   7.8907   8.1231  10.1126  10.2099  10.7572

          k = 0.2222-0.1010 0.0000 ( 14110 PWs)   bands (ev):

   -14.8571 -13.8028 -12.0855  -9.9946  -8.8527  -8.5024  -6.3920  -5.7343
    -5.5839  -3.9316  -3.5511  -3.4127  -2.4130  -2.3446  -1.8090  -1.2189
    -1.0760  -0.5581  -0.4137   0.3088   0.4676   0.6176   1.4132   1.6189
     2.9769   3.4219   8.1380   8.3739  10.6204  10.7650  10.9528

          k = 0.2222-0.2020 0.0000 ( 14113 PWs)   bands (ev):

   -14.3085 -13.2763 -11.6325 -10.6359  -9.8246  -9.7991  -6.6651  -6.0468
    -4.9206  -4.7573  -3.3460  -3.2935  -2.4747  -1.8227  -1.1652  -0.9288
    -0.5975  -0.4452  -0.3374   0.1660   0.2703   0.5963   1.0936   1.8548
     2.7172   3.3446   8.8125   9.0242  11.3446  11.8937  11.9881

          k = 0.2222-0.3030 0.0000 ( 14149 PWs)   bands (ev):

   -13.4072 -12.4619 -12.1122 -11.3502 -10.7405 -10.1165  -6.9591  -6.3311
    -5.0318  -4.0970  -3.7436  -2.7054  -2.4262  -2.1692  -1.5001  -1.3169
    -1.1323  -0.8326   0.2253   1.0532   1.1861   1.1893   1.3994   1.6883
     2.4076   2.7789   9.8107   9.9264  11.2046  11.2974  12.5644

          k = 0.3333-0.0000 0.0000 ( 14102 PWs)   bands (ev):

   -13.9288 -12.8820 -11.1674  -9.0211  -8.5933  -7.6390  -6.9050  -6.0500
    -5.8361  -4.0163  -3.9419  -3.1352  -2.8499  -2.2585  -1.9352  -1.8800
    -1.7863  -0.7898  -0.6643  -0.4966  -0.4162  -0.1077   0.2485   0.3652
     1.1779   3.0240   9.0570   9.0846   9.9374  10.2671  11.3506

          k = 0.3333-0.1010 0.0000 ( 14116 PWs)   bands (ev):

   -13.7487 -12.7090 -11.0145  -8.9809  -8.7775  -8.0039  -6.7284  -6.5849
    -6.1037  -4.2716  -3.9880  -3.1273  -3.0636  -2.2942  -1.9040  -1.6895
    -1.6407  -1.1637  -0.6637  -0.6104  -0.3387  -0.1989   0.5386   0.9697
     1.3716   2.8365   9.3022   9.4093  10.4081  10.6382  11.2966

          k = 0.3333-0.2020 0.0000 ( 14157 PWs)   bands (ev):

   -13.2133 -12.1979 -10.5817  -9.8304  -8.9851  -8.8388  -6.7493  -6.3075
    -6.2352  -4.8829  -4.1301  -3.7062  -3.4908  -3.1940  -2.4508  -2.0997
    -1.4826  -0.4472  -0.2494  -0.1553   0.0658   0.4222   0.5511   0.8729
     2.2357   2.3445   9.9336  10.0302  11.3890  11.6088  12.0387

          k = 0.3333-0.3030 0.0000 ( 14179 PWs)   bands (ev):

   -12.3412 -11.4186 -11.1132 -10.3558  -9.7495  -9.1431  -6.3061  -6.0181
    -5.6672  -5.4707  -4.8954  -4.4702  -3.6950  -3.3381  -2.8136  -2.7008
    -1.3873  -0.7230  -0.1948  -0.0403   0.6146   0.9705   1.2768   1.5010
     1.7779   2.3403  10.6715  10.7485  12.0712  12.1619  12.4482

          k = 0.4444-0.0000 0.0000 ( 14094 PWs)   bands (ev):

   -12.4077 -11.3816 -10.5499  -9.6982  -9.5535  -7.9120  -7.5889  -5.8448
    -5.5121  -4.4578  -3.7857  -2.9746  -2.7194  -2.3219  -1.8451  -1.4767
    -1.4404  -1.3229  -1.0769  -0.9612  -0.9479  -0.8535  -0.8200   0.1661
     0.7241   1.9412   9.7199  10.3291  10.4995  10.7532  10.9038

          k = 0.4444-0.1010 0.0000 ( 14140 PWs)   bands (ev):

   -12.2373 -11.2196 -10.4195  -9.5612  -9.4319  -7.8504  -7.4807  -5.8241
    -5.8187  -5.7006  -4.1534  -3.9933  -3.0938  -2.4162  -1.9518  -1.7202
    -1.4061  -1.1391  -0.8252  -0.7233  -0.6327  -0.3785  -0.1724   0.3104
     0.8425   1.9248  10.3336  10.3351  10.4696  10.9726  11.3521

          k = 0.4444-0.2020 0.0000 ( 14163 PWs)   bands (ev):

   -11.7393 -10.7500 -10.1255  -9.2404  -9.1032  -7.7968  -7.2955  -7.0171
    -6.6067  -5.8999  -5.5598  -5.1333  -3.3630  -3.3007  -2.2769  -2.0904
    -1.5630  -1.3187  -0.7831  -0.1661   0.0683   0.1489   0.5978   1.0412
     1.2783   1.8525  10.8690  11.0136  11.3133  11.4660  12.0077

          k = 0.4444-0.3030 0.0000 ( 14175 PWs)   bands (ev):

   -10.9757 -10.2327 -10.0108  -9.3310  -8.5495  -8.0151  -7.7639  -7.0657
    -6.8894  -6.6366  -6.1766  -6.0465  -3.6990  -3.3660  -2.7467  -2.3998
    -1.7395  -1.4593  -0.6532  -0.3131   0.2319   0.3378   1.3856   1.5114
     1.7338   1.8058  11.4224  11.4259  12.0324  12.1522  13.2052

     the Fermi energy is     5.6028 ev

!    total energy              =    -225.94318228 Ry
     estimated scf accuracy    <          2.1E-10 Ry
     smearing contrib. (-TS)   =       0.00000000 Ry
     internal energy E=F+TS    =    -225.94318228 Ry

     The total energy is F=E-TS. E is the sum of the following terms:
     one-electron contribution =   -1232.06195508 Ry
     hartree contribution      =     640.11987602 Ry
     xc contribution           =     -59.14318148 Ry
     ewald contribution        =     499.09920879 Ry
     one-center paw contrib.   =     -73.95713053 Ry

     convergence has been achieved in   5 iterations

     negative rho (up, down):  2.084E-06 0.000E+00

     Forces acting on atoms (cartesian axes, Ry/au):

     atom    1 type  1   force =    -0.00000000    0.00007446    0.00005188
     atom    2 type  1   force =    -0.00000000   -0.00007446    0.00005188
     atom    3 type  1   force =     0.00000000   -0.00003982   -0.00000627
     atom    4 type  1   force =     0.00000000    0.00003982   -0.00000627
     atom    5 type  1   force =     0.00000000    0.00006423   -0.00001827
     atom    6 type  1   force =     0.00000000   -0.00006423   -0.00001827
     atom    7 type  1   force =     0.00000000    0.00006423    0.00001827
     atom    8 type  1   force =     0.00000000   -0.00006423    0.00001827
     atom    9 type  1   force =     0.00000000   -0.00003982    0.00000627
     atom   10 type  1   force =     0.00000000    0.00003982    0.00000627
     atom   11 type  1   force =    -0.00000000   -0.00007446   -0.00005188
     atom   12 type  1   force =     0.00000000    0.00007446   -0.00005188
     atom   13 type  2   force =     0.00000000    0.00000005   -0.00002667
     atom   14 type  2   force =     0.00000000   -0.00000005   -0.00002667
     atom   15 type  2   force =     0.00000000   -0.00000005    0.00002667
     atom   16 type  2   force =     0.00000000    0.00000005    0.00002667

     Total force =     0.000245     Total SCF correction =     0.000021
     Energy error            =      8.1E-07 Ry
     Gradient error          =      7.4E-05 Ry/Bohr

     bfgs converged in   9 scf cycles and   8 bfgs steps
     (criteria: energy <  1.0E-05 Ry, force <  1.0E-04 Ry/Bohr)

     End of BFGS Geometry Optimization

     Final energy             =    -225.9431822793 Ry

     File /tmp/qe/slab.bfgs deleted, as requested
Begin final coordinates

ATOMIC_POSITIONS (angstrom)
C                0.0000000000       -0.9123982653       11.1806002527
C                1.2632452000       -1.7673494847       11.1806002527
C                1.2632452000       -2.6826468568        9.9456119326
C                0.0000000000        0.0028991068        9.9456119326
C                1.2632452000       -1.7871465360        8.6795293815
C                0.0000000000       -0.8926012140        8.6795293715
C                0.0000000000       -0.0006480360        7.4166591885
C                1.2632452000       -2.6790997140        7.4166591885
C                0.0000000000       -0.8961483568        6.1505766374
C                1.2632452000       -1.7835993932        6.1505766374
C                0.0000000000        0.0191490153        4.9155883073
C                1.2632452000       -2.6988967653        4.9155883073
H               -0.0000000000       -0.3127765303       12.1017852483
H                1.2632452000       -2.3669712197       12.1017852483
H               -0.0000000000       -0.5804727197        3.9944033217
H                1.2632452000       -2.0992750303        3.9944033217
End final coordinates



     Writing all to output data dir /tmp/qe/slab.save/ :
     XML data file, charge density, pseudopotentials, collected wavefunctions

     init_run     :      1.07s CPU      1.30s WALL (       1 calls)
     electrons    :    121.80s CPU    123.35s WALL (       9 calls)
     update_pot   :      0.96s CPU      0.98s WALL (       8 calls)
     forces       :      2.64s CPU      2.78s WALL (       9 calls)

     Called by init_run:
     wfcinit      :      0.80s CPU      0.92s WALL (       1 calls)
     potinit      :      0.12s CPU      0.16s WALL (       1 calls)
     hinit0       :      0.06s CPU      0.10s WALL (       1 calls)

     Called by electrons:
     c_bands      :     92.04s CPU     93.03s WALL (      74 calls)
     sum_band     :     19.41s CPU     19.63s WALL (      74 calls)
     v_of_rho     :      3.82s CPU      3.93s WALL (      80 calls)
     newd         :      2.20s CPU      2.29s WALL (      80 calls)
     PAW_pot      :      5.42s CPU      5.44s WALL (      88 calls)
     mix_rho      :      0.29s CPU      0.32s WALL (      74 calls)

     Called by c_bands:
     init_us_2    :      2.81s CPU      2.88s WALL (    3320 calls)
     cegterg      :     87.41s CPU     88.32s WALL (    1480 calls)

     Called by *egterg:
     cdiaghg      :      4.64s CPU      4.78s WALL (    5338 calls)
     h_psi        :     67.31s CPU     68.09s WALL (    5578 calls)
     s_psi        :      3.51s CPU      3.54s WALL (    5578 calls)
     g_psi        :      0.45s CPU      0.45s WALL (    4078 calls)

     Called by h_psi:
     h_psi:calbec :      3.79s CPU      3.84s WALL (    5578 calls)
     vloc_psi     :     58.82s CPU     59.51s WALL (    5578 calls)
     add_vuspsi   :      4.23s CPU      4.27s WALL (    5578 calls)

     General routines
     calbec       :      5.68s CPU      5.76s WALL (    7938 calls)
     fft          :      1.81s CPU      1.99s WALL (    1132 calls)
     ffts         :      0.08s CPU      0.10s WALL (     154 calls)
     fftw         :     52.38s CPU     52.92s WALL (  286148 calls)
     interpolate  :      0.15s CPU      0.17s WALL (      80 calls)

     Parallel routines

     PWSCF        :   2m 7.68s CPU   2m 9.86s WALL


   This run was terminated on:  15:42: 5   2Aug2026            

=------------------------------------------------------------------------------=
   JOB DONE.
=------------------------------------------------------------------------------=
Note: The following floating-point exceptions are signalling: IEEE_UNDERFLOW_FLAG IEEE_DENORMAL
Note: The following floating-point exceptions are signalling: IEEE_UNDERFLOW_FLAG IEEE_DENORMAL
Note: The following floating-point exceptions are signalling: IEEE_UNDERFLOW_FLAG IEEE_DENORMAL
Note: The following floating-point exceptions are signalling: IEEE_UNDERFLOW_FLAG IEEE_DENORMAL
Note: The following floating-point exceptions are signalling: IEEE_UNDERFLOW_FLAG IEEE_DENORMAL
Note: The following floating-point exceptions are signalling: IEEE_UNDERFLOW_FLAG IEEE_DENORMAL
Note: The following floating-point exceptions are signalling: IEEE_UNDERFLOW_FLAG IEEE_DENORMAL
Note: The following floating-point exceptions are signalling: IEEE_UNDERFLOW_FLAG IEEE_DENORMAL
