
     Program PWSCF v.7.3.1 starts on  1Aug2026 at 12:48: 4 

     This program is part of the open-source Quantum ESPRESSO suite
     for quantum simulation of materials; please cite
         "P. Giannozzi et al., J. Phys.:Condens. Matter 21 395502 (2009);
         "P. Giannozzi et al., J. Phys.:Condens. Matter 29 465901 (2017);
         "P. Giannozzi et al., J. Chem. Phys. 152 154105 (2020);
          URL http://www.quantum-espresso.org", 
     in publications or presentations arising from this work. More details at
     http://www.quantum-espresso.org/quote

     Parallel version (MPI), running on     8 processors

     MPI processes distributed on     1 nodes
     186708 MiB available memory on the printing compute node when the environment starts

     Reading input from pw.in

     Current dimensions of program PWSCF are:
     Max number of different atomic species (ntypx) = 10
     Max number of k-points (npk) =  40000
     Max angular momentum in pseudopotentials (lmaxx) =  4
     file C.pbe-n-kjpaw_psl.1.0.0.UPF: wavefunction(s)  2S 2P renormalized
     Message from routine volume:
     axis vectors are left-handed
     Message from routine setup:
     using ibrav=0 with symmetry is DISCOURAGED, use correct ibrav instead

     R & G space division:  proc/nbgrp/npool/nimage =       8
     Subspace diagonalization in iterative solution of the eigenvalue problem:
     a serial algorithm will be used


     Parallelization info
     --------------------
     sticks:   dense  smooth     PW     G-vecs:    dense   smooth      PW
     Min         230     115     32                49934    17647    2720
     Max         231     116     33                49959    17672    2743
     Sum        1845     921    263               399593   141249   21881

     Using Slab Decomposition



     bravais-lattice index     =            0
     lattice parameter (alat)  =       4.7752  a.u.
     unit-cell volume          =    1224.7339 (a.u.)^3
     number of atoms/cell      =           16
     number of atomic types    =            2
     number of electrons       =        52.00
     number of Kohn-Sham states=           31
     kinetic-energy cutoff     =      90.0000  Ry
     charge density cutoff     =     720.0000  Ry
     scf convergence threshold =      1.0E-08
     mixing beta               =       0.3000
     number of iterations used =            8  plain     mixing
     Exchange-correlation= PBE
                           (   1   4   3   4   0   0   0)

     celldm(1)=   4.775235  celldm(2)=   0.000000  celldm(3)=   0.000000
     celldm(4)=   0.000000  celldm(5)=   0.000000  celldm(6)=   0.000000

     crystal axes: (cart. coord. in units of alat)
               a(1) = (   1.000000   0.000000   0.000000 )  
               a(2) = (   0.000000  -1.414214   0.000000 )  
               a(3) = (   0.000000   0.000000   7.953209 )  

     reciprocal axes: (cart. coord. in units 2 pi/alat)
               b(1) = (  1.000000 -0.000000 -0.000000 )  
               b(2) = ( -0.000000 -0.707107 -0.000000 )  
               b(3) = ( -0.000000 -0.000000  0.125735 )  


     PseudoPot. # 1 for C  read from file:
     ./C.pbe-n-kjpaw_psl.1.0.0.UPF
     MD5 check sum: 5d2aebdfa2cae82b50a7e79e9516da0f
     Pseudo is Projector augmented-wave + core cor, Zval =  4.0
     Generated using "atomic" code by A. Dal Corso  v.5.1
     Shape of augmentation charge: PSQ
     Using radial grid of 1073 points,  4 beta functions with: 
                l(1) =   0
                l(2) =   0
                l(3) =   1
                l(4) =   1
     Q(r) pseudized with 0 coefficients 


     PseudoPot. # 2 for H  read from file:
     ./H_ONCV_PBE-1.0.oncvpsp.upf
     MD5 check sum: 1790becc920ee074925cf490c71280fe
     Pseudo is Norm-conserving, Zval =  1.0
     Generated using ONCVPSP code by D. R. Hamann
     Using radial grid of 1166 points,  2 beta functions with: 
                l(1) =   0
                l(2) =   0

     atomic species   valence    mass     pseudopotential
     C                 4.00    12.01100     C ( 1.00)
     H                 1.00     1.00800     H ( 1.00)

      4 Sym. Ops. (no inversion) found ( 2 have fractional translation)



   Cartesian axes

     site n.     atom                  positions (alat units)
         1        C      tau(   1) = (  -0.0000000  -0.3611404   4.4247609  )
         2        C      tau(   2) = (   0.5000000  -0.6995197   4.4247609  )
         3        C      tau(   3) = (   0.0000000   0.0011500   3.9360405  )
         4        C      tau(   4) = (   0.5000000  -1.0618102   3.9360405  )
         5        C      tau(   5) = (   0.0000000  -0.3533013   3.4350066  )
         6        C      tau(   6) = (   0.5000000  -0.7073588   3.4350066  )
         7        C      tau(   7) = (   0.0000000  -0.0002520   2.9352634  )
         8        C      tau(   8) = (   0.5000000  -1.0604081   2.9352634  )
         9        C      tau(   9) = (  -0.0000000  -0.3547034   2.4342296  )
        10        C      tau(  10) = (   0.5000000  -0.7059567   2.4342296  )
        11        C      tau(  11) = (  -0.0000000   0.0075871   1.9455091  )
        12        C      tau(  12) = (   0.5000000  -1.0682472   1.9455091  )
        13        H      tau(  13) = (   0.0000000  -0.1238861   4.7893624  )
        14        H      tau(  14) = (   0.5000000  -0.9367741   4.7893624  )
        15        H      tau(  15) = (   0.0000000  -0.2296673   1.5809076  )
        16        H      tau(  16) = (   0.5000000  -0.8309929   1.5809076  )

     number of k points=    20  Marzari-Vanderbilt smearing, width (Ry)=  0.0100
                       cart. coord. in units 2pi/alat
        k(    1) = (   0.0000000  -0.0000000   0.0000000), wk =   0.0317460
        k(    2) = (   0.0000000  -0.1010153   0.0000000), wk =   0.0634921
        k(    3) = (   0.0000000  -0.2020305   0.0000000), wk =   0.0634921
        k(    4) = (   0.0000000  -0.3030458   0.0000000), wk =   0.0634921
        k(    5) = (   0.1111111  -0.0000000   0.0000000), wk =   0.0634921
        k(    6) = (   0.1111111  -0.1010153   0.0000000), wk =   0.1269841
        k(    7) = (   0.1111111  -0.2020305   0.0000000), wk =   0.1269841
        k(    8) = (   0.1111111  -0.3030458   0.0000000), wk =   0.1269841
        k(    9) = (   0.2222222  -0.0000000   0.0000000), wk =   0.0634921
        k(   10) = (   0.2222222  -0.1010153   0.0000000), wk =   0.1269841
        k(   11) = (   0.2222222  -0.2020305   0.0000000), wk =   0.1269841
        k(   12) = (   0.2222222  -0.3030458   0.0000000), wk =   0.1269841
        k(   13) = (   0.3333333  -0.0000000   0.0000000), wk =   0.0634921
        k(   14) = (   0.3333333  -0.1010153   0.0000000), wk =   0.1269841
        k(   15) = (   0.3333333  -0.2020305   0.0000000), wk =   0.1269841
        k(   16) = (   0.3333333  -0.3030458   0.0000000), wk =   0.1269841
        k(   17) = (   0.4444444  -0.0000000   0.0000000), wk =   0.0634921
        k(   18) = (   0.4444444  -0.1010153   0.0000000), wk =   0.1269841
        k(   19) = (   0.4444444  -0.2020305   0.0000000), wk =   0.1269841
        k(   20) = (   0.4444444  -0.3030458   0.0000000), wk =   0.1269841

     Dense  grid:   399593 G-vectors     FFT dimensions: (  48,  60, 360)

     Smooth grid:   141249 G-vectors     FFT dimensions: (  30,  48, 240)

     Estimated max dynamical RAM per process >     116.65 MB

     Estimated total dynamical RAM >     933.23 MB

     Initial potential from superposition of free atoms

     starting charge      51.9995, renormalised to      52.0000

     negative rho (up, down):  2.214E-05 0.000E+00
     Starting wfcs are   52 randomized atomic wfcs
     Checking if some PAW data can be deallocated... 

     total cpu time spent up to now is        1.4 secs

     Self-consistent Calculation

     iteration #  1     ecut=    90.00 Ry     beta= 0.30
     Davidson diagonalization with overlap
     ethr =  1.00E-02,  avg # of iterations =  2.8

     negative rho (up, down):  2.263E-05 0.000E+00

     total cpu time spent up to now is        3.8 secs

     total energy              =    -226.01521208 Ry
     estimated scf accuracy    <       1.19013133 Ry

     iteration #  2     ecut=    90.00 Ry     beta= 0.30
     Davidson diagonalization with overlap
     ethr =  2.29E-03,  avg # of iterations =  3.6

     negative rho (up, down):  2.894E-05 0.000E+00

     total cpu time spent up to now is        5.7 secs

     total energy              =    -225.92529870 Ry
     estimated scf accuracy    <       0.37628357 Ry

     iteration #  3     ecut=    90.00 Ry     beta= 0.30
     Davidson diagonalization with overlap
     ethr =  7.24E-04,  avg # of iterations =  6.2

     negative rho (up, down):  3.432E-05 0.000E+00

     total cpu time spent up to now is        8.0 secs

     total energy              =    -225.93946587 Ry
     estimated scf accuracy    <       0.05151611 Ry

     iteration #  4     ecut=    90.00 Ry     beta= 0.30
     Davidson diagonalization with overlap
     ethr =  9.91E-05,  avg # of iterations =  5.0

     negative rho (up, down):  3.914E-05 0.000E+00

     total cpu time spent up to now is       10.0 secs

     total energy              =    -225.94253444 Ry
     estimated scf accuracy    <       0.00522338 Ry

     iteration #  5     ecut=    90.00 Ry     beta= 0.30
     Davidson diagonalization with overlap
     c_bands:  1 eigenvalues not converged
     ethr =  1.00E-05,  avg # of iterations =  7.8

     negative rho (up, down):  4.057E-05 0.000E+00

     total cpu time spent up to now is       12.6 secs

     total energy              =    -225.94315078 Ry
     estimated scf accuracy    <       0.00055310 Ry

     iteration #  6     ecut=    90.00 Ry     beta= 0.30
     Davidson diagonalization with overlap
     c_bands:  1 eigenvalues not converged
     ethr =  1.06E-06,  avg # of iterations =  5.2

     negative rho (up, down):  4.129E-05 0.000E+00

     total cpu time spent up to now is       14.9 secs

     total energy              =    -225.94326715 Ry
     estimated scf accuracy    <       0.00007045 Ry

     iteration #  7     ecut=    90.00 Ry     beta= 0.30
     Davidson diagonalization with overlap
     ethr =  1.35E-07,  avg # of iterations =  3.0

     negative rho (up, down):  4.181E-05 0.000E+00

     total cpu time spent up to now is       16.9 secs

     total energy              =    -225.94327289 Ry
     estimated scf accuracy    <       0.00001558 Ry

     iteration #  8     ecut=    90.00 Ry     beta= 0.30
     Davidson diagonalization with overlap
     ethr =  3.00E-08,  avg # of iterations =  2.2

     negative rho (up, down):  4.200E-05 0.000E+00

     total cpu time spent up to now is       19.0 secs

     total energy              =    -225.94327474 Ry
     estimated scf accuracy    <       0.00000300 Ry

     iteration #  9     ecut=    90.00 Ry     beta= 0.30
     Davidson diagonalization with overlap
     ethr =  5.77E-09,  avg # of iterations =  3.4

     negative rho (up, down):  4.214E-05 0.000E+00

     total cpu time spent up to now is       21.4 secs

     total energy              =    -225.94327529 Ry
     estimated scf accuracy    <       0.00000458 Ry

     iteration # 10     ecut=    90.00 Ry     beta= 0.30
     Davidson diagonalization with overlap
     ethr =  5.77E-09,  avg # of iterations =  2.0

     negative rho (up, down):  4.224E-05 0.000E+00

     total cpu time spent up to now is       23.4 secs

     total energy              =    -225.94327568 Ry
     estimated scf accuracy    <       0.00000040 Ry

     iteration # 11     ecut=    90.00 Ry     beta= 0.30
     Davidson diagonalization with overlap
     ethr =  7.60E-10,  avg # of iterations =  3.3

     negative rho (up, down):  4.232E-05 0.000E+00

     total cpu time spent up to now is       25.5 secs

     total energy              =    -225.94327577 Ry
     estimated scf accuracy    <       0.00000004 Ry

     iteration # 12     ecut=    90.00 Ry     beta= 0.30
     Davidson diagonalization with overlap
     ethr =  8.60E-11,  avg # of iterations =  3.6

     negative rho (up, down):  4.238E-05 0.000E+00

     total cpu time spent up to now is       27.9 secs

     total energy              =    -225.94327579 Ry
     estimated scf accuracy    <       0.00000001 Ry

     iteration # 13     ecut=    90.00 Ry     beta= 0.30
     Davidson diagonalization with overlap
     ethr =  2.55E-11,  avg # of iterations =  1.7

     negative rho (up, down):  4.256E-05 0.000E+00

     total cpu time spent up to now is       29.6 secs

     End of self-consistent calculation

          k = 0.0000-0.0000 0.0000 ( 17669 PWs)   bands (ev):

   -17.5409 -16.4698 -14.7177 -12.5226 -10.3396  -9.2338  -8.9155  -7.9818
    -6.3980  -6.0575  -5.6227  -4.5538  -4.3222  -3.7134  -2.4917  -2.3093
    -1.9996  -1.6875  -0.3969   0.1497   0.5423   1.1007   2.3681   2.3809
     2.7063   3.2233   5.4137   5.5081   6.9104   7.9951   8.5517

          k = 0.0000-0.1010 0.0000 ( 17669 PWs)   bands (ev):

   -17.3548 -16.2895 -14.5547 -12.4376 -11.1160 -10.8532  -8.4299  -7.5958
    -7.1520  -5.6517  -5.1736  -4.6049  -3.4727  -3.4534  -2.6259  -2.3160
    -1.5376  -1.3771  -0.3087  -0.0782   0.7498   1.0533   2.0971   2.1476
     2.5140   2.6612   5.6533   5.7133   7.1325   8.1292   8.7127

          k = 0.0000-0.2020 0.0000 ( 17628 PWs)   bands (ev):

   -16.7991 -15.7542 -14.0891 -13.0300 -12.2403 -12.1753  -8.9373  -8.3434
    -7.0363  -6.0050  -4.6401  -3.3299  -3.3292  -2.3591  -1.7962  -1.7623
    -1.1616  -1.1008  -0.0673   0.4447   0.4495   0.8942   1.3809   1.4661
     1.7160   2.0030   6.2697   6.3587   7.8035   8.3947   9.1127

          k = 0.0000-0.3030 0.0000 ( 17636 PWs)   bands (ev):

   -15.8832 -14.9228 -14.5594 -13.7853 -13.1651 -12.5232  -9.3240  -8.6762
    -7.2654  -6.3106  -4.5628  -3.5362  -1.9871  -1.4286  -0.9579  -0.8218
    -0.4277  -0.3998   0.1616   0.2126   0.4186   0.5471   0.5909   0.6658
     1.0459   1.1361   7.1870   7.3864   8.2874   8.8298   8.9052

          k = 0.1111-0.0000 0.0000 ( 17683 PWs)   bands (ev):

   -17.3149 -16.2464 -14.4983 -12.3086 -10.1337  -9.0330  -8.8491  -7.9233
    -6.3543  -5.8648  -5.4148  -4.4006  -4.3023  -3.5148  -3.5124  -2.6715
    -2.2370  -2.0156  -1.3370   0.0441   0.1627   0.4905   1.4027   1.8890
     2.1423   2.5998   5.6569   5.7200   7.1428   8.2527   9.0166

          k = 0.1111-0.1010 0.0000 ( 17653 PWs)   bands (ev):

   -17.1293 -16.0667 -14.3362 -12.2256 -10.9336 -10.6591  -8.2774  -7.4622
    -7.0732  -5.5500  -5.0610  -4.5856  -3.4403  -3.3069  -3.2362  -2.6163
    -2.4101  -1.4219  -1.1782  -0.1178   0.1418   0.4761   1.1470   1.1652
     2.1056   2.5354   5.8956   5.9527   7.3888   8.4751   9.5719

          k = 0.1111-0.2020 0.0000 ( 17652 PWs)   bands (ev):

   -16.5753 -15.5335 -13.8737 -12.8262 -12.0348 -11.9767  -8.7542  -8.1514
    -6.8825  -5.8684  -4.6201  -3.6900  -3.3502  -2.7250  -2.2412  -1.7695
    -1.6641  -1.4389  -0.5835  -0.1399  -0.0153   0.0530   0.2155   0.5330
     1.6992   2.3171   6.5377   6.6138   8.0786   9.0001   9.7428

          k = 0.1111-0.3030 0.0000 ( 17637 PWs)   bands (ev):

   -15.6627 -14.7059 -14.3451 -13.5745 -12.9570 -12.3199  -9.1238  -8.4814
    -7.0871  -6.1387  -4.4575  -3.4325  -2.6912  -1.9675  -1.8552  -1.4023
    -1.0569  -0.9727  -0.6506  -0.4284  -0.3686   0.0659   0.3627   0.7257
     1.1913   1.3082   7.5052   7.6474   8.7436   9.1002   9.2718

          k = 0.2222-0.0000 0.0000 ( 17638 PWs)   bands (ev):

   -16.6401 -15.5795 -13.8437 -11.6703  -9.5190  -8.9599  -8.4322  -8.0425
    -6.4930  -5.3066  -5.2048  -4.8078  -4.4748  -4.3320  -3.9744  -2.9798
    -2.9346  -2.2332  -2.0928  -1.5253  -0.4878  -0.4028  -0.0121   0.2033
     0.5440   2.1907   6.3543   6.4227   7.9000   8.4213   8.9627

          k = 0.2222-0.1010 0.0000 ( 17640 PWs)   bands (ev):

   -16.4563 -15.4019 -13.6847 -11.5941 -10.4543 -10.1031  -7.9936  -7.3364
    -7.1860  -5.5333  -5.1513  -5.0141  -4.0144  -3.9461  -3.4104  -2.8211
    -2.6758  -2.1599  -2.0151  -1.2933  -1.1351  -0.9847  -0.1894   0.0166
     1.3738   1.8193   6.6013   6.6719   8.1627   9.0152   9.3205

          k = 0.2222-0.2020 0.0000 ( 17625 PWs)   bands (ev):

   -15.9079 -14.8757 -13.2320 -12.2368 -11.4244 -11.3997  -8.2659  -7.6475
    -6.5217  -6.3595  -4.9467  -4.8948  -4.0759  -3.4241  -2.7679  -2.5294
    -2.1999  -2.0467  -1.9395  -1.4358  -1.3317  -1.0062  -0.5089   0.2524
     1.1151   1.7415   7.2617   7.3434   8.8700   9.8752  10.2875

          k = 0.2222-0.3030 0.0000 ( 17643 PWs)   bands (ev):

   -15.0069 -14.0618 -13.7123 -12.9504 -12.3402 -11.7166  -8.5593  -7.9316
    -6.6323  -5.6980  -5.3459  -4.3075  -4.0284  -3.7701  -3.1016  -2.9186
    -2.7332  -2.4342  -1.3753  -0.5482  -0.4166  -0.4137  -0.2035   0.0856
     0.8050   1.1758   8.2122   8.3136   9.5267   9.7422  10.1144

          k = 0.3333-0.0000 0.0000 ( 17630 PWs)   bands (ev):

   -15.5284 -14.4815 -12.7670 -10.6209 -10.1958  -9.2413  -8.5053  -7.6523
    -7.4370  -5.6186  -5.5430  -4.7362  -4.4512  -3.8593  -3.5362  -3.4823
    -3.3877  -2.3910  -2.2665  -2.0981  -2.0163  -1.7097  -1.3539  -1.2379
    -0.4250   1.4216   7.3967   7.5498   8.3490   8.5754   9.2446

          k = 0.3333-0.1010 0.0000 ( 17636 PWs)   bands (ev):

   -15.3484 -14.3086 -12.6142 -10.5813 -10.3796  -9.6060  -8.3291  -8.1852
    -7.7061  -5.8734  -5.5887  -4.7282  -4.6640  -3.8964  -3.5063  -3.2910
    -3.2420  -2.7648  -2.2655  -2.2127  -1.9402  -1.7996  -1.0632  -0.6330
    -0.2310   1.2342   7.7016   7.8017   8.8082   9.0064   9.6263

          k = 0.3333-0.2020 0.0000 ( 17677 PWs)   bands (ev):

   -14.8132 -13.7978 -12.1816 -11.4322 -10.5865 -10.4390  -8.3500  -7.9092
    -7.8363  -6.4847  -5.7304  -5.3068  -5.0928  -4.7955  -4.0516  -3.7000
    -3.0841  -2.0493  -1.8507  -1.7577  -1.5365  -1.1800  -1.0502  -0.7288
     0.6333   0.7426   8.3290   8.4274   9.7704   9.9786  10.1692

          k = 0.3333-0.3030 0.0000 ( 17705 PWs)   bands (ev):

   -13.9415 -13.0189 -12.7139 -11.9565 -11.3498 -10.7436  -7.9073  -7.6192
    -7.2686  -7.0721  -6.4970  -6.0720  -5.2955  -4.9386  -4.4144  -4.3012
    -2.9883  -2.3246  -1.7966  -1.6423  -0.9868  -0.6314  -0.3248  -0.1014
     0.1763   0.7378   9.0941   9.1148  10.4826  10.5419  10.8461

          k = 0.4444-0.0000 0.0000 ( 17624 PWs)   bands (ev):

   -14.0079 -12.9818 -12.1510 -11.2984 -11.1546  -9.5131  -9.1893  -7.4460
    -7.1128  -6.0591  -5.3871  -4.5766  -4.3211  -3.9236  -3.4469  -3.0783
    -3.0430  -2.9247  -2.6786  -2.5629  -2.5495  -2.4556  -2.4216  -1.4361
    -0.8766   0.3396   8.1206   8.7215   8.8589   9.1479   9.2998

          k = 0.4444-0.1010 0.0000 ( 17660 PWs)   bands (ev):

   -13.8376 -12.8199 -12.0208 -11.1616 -11.0331  -9.4516  -9.0812  -7.4253
    -7.4195  -7.3015  -5.7548  -5.5950  -4.6949  -4.0172  -3.5535  -3.3223
    -3.0076  -2.7406  -2.4270  -2.3252  -2.2346  -1.9807  -1.7742  -1.2920
    -0.7584   0.3232   8.7262   8.7434   8.8459   9.3799   9.7958

          k = 0.4444-0.2020 0.0000 ( 17691 PWs)   bands (ev):

   -13.3399 -12.3505 -11.7273 -10.8417 -10.7042  -9.3982  -8.8961  -8.6174
    -8.2069  -7.5014  -7.1610  -6.7344  -4.9634  -4.9017  -3.8780  -3.6924
    -3.1637  -2.9200  -2.3845  -1.7682  -1.5330  -1.4529  -1.0045  -0.5602
    -0.3234   0.2509   9.2810   9.3863   9.7070   9.8670  10.4229

          k = 0.4444-0.3030 0.0000 ( 17712 PWs)   bands (ev):

   -12.5768 -11.8346 -11.6120 -10.9327 -10.1506  -9.6165  -9.3637  -8.6661
    -8.4894  -8.2376  -7.7773  -7.6479  -5.2992  -4.9667  -4.3480  -4.0016
    -3.3400  -3.0602  -2.2549  -1.9151  -1.3690  -1.2635  -0.2158  -0.0906
     0.1322   0.2040   9.8135   9.8275  10.4276  10.5504  11.4880

     the Fermi energy is     3.9189 ev

!    total energy              =    -225.94327578 Ry
     estimated scf accuracy    <          6.5E-09 Ry
     smearing contrib. (-TS)   =       0.00000000 Ry
     internal energy E=F+TS    =    -225.94327578 Ry

     The total energy is F=E-TS. E is the sum of the following terms:
     one-electron contribution =   -2281.76817932 Ry
     hartree contribution      =    1161.91085880 Ry
     xc contribution           =     -59.13949874 Ry
     ewald contribution        =    1027.01058250 Ry
     one-center paw contrib.   =     -73.95703902 Ry

     convergence has been achieved in  13 iterations

     negative rho (up, down):  4.256E-05 0.000E+00

     Forces acting on atoms (cartesian axes, Ry/au):

     atom    1 type  1   force =     0.00000000    0.00003386    0.00006095
     atom    2 type  1   force =     0.00000000   -0.00003386    0.00006095
     atom    3 type  1   force =     0.00000000    0.00006667    0.00001435
     atom    4 type  1   force =     0.00000000   -0.00006667    0.00001435
     atom    5 type  1   force =     0.00000000   -0.00006302    0.00001532
     atom    6 type  1   force =     0.00000000    0.00006302    0.00001532
     atom    7 type  1   force =     0.00000000    0.00006306   -0.00002077
     atom    8 type  1   force =     0.00000000   -0.00006306   -0.00002077
     atom    9 type  1   force =     0.00000000   -0.00006673   -0.00000947
     atom   10 type  1   force =     0.00000000    0.00006673   -0.00000947
     atom   11 type  1   force =     0.00000000   -0.00003405   -0.00005780
     atom   12 type  1   force =     0.00000000    0.00003405   -0.00005780
     atom   13 type  2   force =     0.00000000   -0.00002460   -0.00009637
     atom   14 type  2   force =     0.00000000    0.00002460   -0.00009637
     atom   15 type  2   force =     0.00000000    0.00002474    0.00009377
     atom   16 type  2   force =     0.00000000   -0.00002474    0.00009377

     Total force =     0.000305     Total SCF correction =     0.000180
     SCF correction compared to forces is large: reduce conv_thr to get better values


     Computing stress (Cartesian axis) and pressure


     negative rho (up, down):  4.256E-05 0.000E+00
          total   stress  (Ry/bohr**3)                   (kbar)     P=       20.99
   0.00013846   0.00000000   0.00000000           20.37        0.00        0.00
   0.00000000   0.00029145   0.00000000            0.00       42.87        0.00
   0.00000000   0.00000000  -0.00000185            0.00        0.00       -0.27


     Writing all to output data dir /tmp/qe/slab.save/ :
     XML data file, charge density, pseudopotentials, collected wavefunctions

     init_run     :      1.29s CPU      1.37s WALL (       1 calls)
     electrons    :     27.87s CPU     28.18s WALL (       1 calls)
     forces       :      0.37s CPU      0.39s WALL (       1 calls)
     stress       :      4.12s CPU      4.14s WALL (       1 calls)

     Called by init_run:
     wfcinit      :      0.98s CPU      1.01s WALL (       1 calls)
     potinit      :      0.13s CPU      0.15s WALL (       1 calls)
     hinit0       :      0.06s CPU      0.07s WALL (       1 calls)

     Called by electrons:
     c_bands      :     21.30s CPU     21.52s WALL (      13 calls)
     sum_band     :      4.34s CPU      4.40s WALL (      13 calls)
     v_of_rho     :      0.88s CPU      0.92s WALL (      14 calls)
     newd         :      0.48s CPU      0.49s WALL (      14 calls)
     PAW_pot      :      0.86s CPU      0.87s WALL (      14 calls)
     mix_rho      :      0.09s CPU      0.09s WALL (      13 calls)

     Called by c_bands:
     init_us_2    :      0.67s CPU      0.69s WALL (     580 calls)
     cegterg      :     20.26s CPU     20.46s WALL (     260 calls)

     Called by *egterg:
     cdiaghg      :      1.09s CPU      1.10s WALL (    1257 calls)
     h_psi        :     16.10s CPU     16.28s WALL (    1277 calls)
     s_psi        :      0.92s CPU      0.92s WALL (    1277 calls)
     g_psi        :      0.11s CPU      0.11s WALL (     997 calls)

     Called by h_psi:
     h_psi:calbec :      0.95s CPU      0.96s WALL (    1277 calls)
     vloc_psi     :     13.91s CPU     14.06s WALL (    1277 calls)
     add_vuspsi   :      1.14s CPU      1.15s WALL (    1277 calls)

     General routines
     calbec       :      1.33s CPU      1.34s WALL (    1637 calls)
     fft          :      0.42s CPU      0.46s WALL (     205 calls)
     ffts         :      0.02s CPU      0.02s WALL (      27 calls)
     fftw         :     12.07s CPU     12.19s WALL (   53252 calls)
     interpolate  :      0.04s CPU      0.04s WALL (      14 calls)

     Parallel routines

     PWSCF        :     33.82s CPU     34.34s WALL


   This run was terminated on:  12:48:39   1Aug2026            

=------------------------------------------------------------------------------=
   JOB DONE.
=------------------------------------------------------------------------------=
Note: The following floating-point exceptions are signalling: IEEE_UNDERFLOW_FLAG IEEE_DENORMAL
Note: The following floating-point exceptions are signalling: IEEE_UNDERFLOW_FLAG IEEE_DENORMAL
Note: The following floating-point exceptions are signalling: IEEE_UNDERFLOW_FLAG IEEE_DENORMAL
Note: The following floating-point exceptions are signalling: IEEE_UNDERFLOW_FLAG IEEE_DENORMAL
Note: The following floating-point exceptions are signalling: IEEE_UNDERFLOW_FLAG IEEE_DENORMAL
Note: The following floating-point exceptions are signalling: IEEE_UNDERFLOW_FLAG IEEE_DENORMAL
Note: The following floating-point exceptions are signalling: IEEE_UNDERFLOW_FLAG IEEE_DENORMAL
Note: The following floating-point exceptions are signalling: IEEE_UNDERFLOW_FLAG IEEE_DENORMAL
