
     Program PWSCF v.7.5 starts on  7Jul2026 at 14:37:47 

     This program is part of the open-source Quantum ESPRESSO suite
     for quantum simulation of materials; please cite
         "P. Giannozzi et al., J. Phys.:Condens. Matter 21 395502 (2009);
         "P. Giannozzi et al., J. Phys.:Condens. Matter 29 465901 (2017);
         "P. Giannozzi et al., J. Chem. Phys. 152 154105 (2020);
          URL http://www.quantum-espresso.org", 
     in publications or presentations arising from this work. More details at
     http://www.quantum-espresso.org/quote

     Serial version
     0 MiB available memory on the printing compute node when the environment starts

     Waiting for input...
     Reading input from standard input

     Current dimensions of program PWSCF are:
     Max number of different atomic species (ntypx) = 10
     Max number of k-points (npk) =  40000
     Max angular momentum in pseudopotentials (lmaxx) =  4
     file C.pbe-n-kjpaw_psl.1.0.0.UPF: wavefunction(s)  2S 2P renormalized
     Message from routine volume:
     axis vectors are left-handed
     Message from routine setup:
     using ibrav=0 with symmetry is DISCOURAGED, use correct ibrav instead


     G-vector sticks info
     --------------------
     sticks:   dense  smooth     PW     G-vecs:    dense   smooth      PW
     Sum        1227     615    187               174311    61625   10019

     Using Slab Decomposition



     bravais-lattice index     =            0
     lattice parameter (alat)  =       4.7752  a.u.
     unit-cell volume          =     980.9734 (a.u.)^3
     number of atoms/cell      =           16
     number of atomic types    =            2
     number of electrons       =        52.00
     number of Kohn-Sham states=           31
     kinetic-energy cutoff     =      60.0000  Ry
     charge density cutoff     =     480.0000  Ry
     scf convergence threshold =      1.0E-08
     mixing beta               =       0.3000
     number of iterations used =            8  plain     mixing
     Exchange-correlation= PBE
                           (   1   4   3   4   0   0   0)

     celldm(1)=   4.775235  celldm(2)=   0.000000  celldm(3)=   0.000000
     celldm(4)=   0.000000  celldm(5)=   0.000000  celldm(6)=   0.000000

     crystal axes: (cart. coord. in units of alat)
               a(1) = (   1.000000   0.000000   0.000000 )  
               a(2) = (   0.000000  -1.414214   0.000000 )  
               a(3) = (   0.000000   0.000000   6.370270 )  

     reciprocal axes: (cart. coord. in units 2 pi/alat)
               b(1) = (  1.000000 -0.000000 -0.000000 )  
               b(2) = ( -0.000000 -0.707107 -0.000000 )  
               b(3) = ( -0.000000 -0.000000  0.156979 )  


     PseudoPot. # 1 for C  read from file:
     ./C.pbe-n-kjpaw_psl.1.0.0.UPF
     MD5 check sum: 5d2aebdfa2cae82b50a7e79e9516da0f
     Pseudo is Projector augmented-wave + core cor, Zval =  4.0
     Generated using "atomic" code by A. Dal Corso  v.5.1
     Shape of augmentation charge: PSQ
     Using radial grid of 1073 points,  4 beta functions with: 
                l(1) =   0
                l(2) =   0
                l(3) =   1
                l(4) =   1
     Q(r) pseudized with 0 coefficients 


     PseudoPot. # 2 for H  read from file:
     ./H_ONCV_PBE-1.0.oncvpsp.upf
     MD5 check sum: 1790becc920ee074925cf490c71280fe
     Pseudo is Norm-conserving, Zval =  1.0
     Generated using ONCVPSP code by D. R. Hamann
     Using radial grid of 1166 points,  2 beta functions with: 
                l(1) =   0
                l(2) =   0

     atomic species   valence    mass     pseudopotential
     C                 4.00    12.01100     C ( 1.00)
     H                 1.00     1.00800     H ( 1.00)

      8 Sym. Ops., with inversion, found ( 6 have fractional translation)



   Cartesian axes

     site n.     atom                  positions (alat units)
         1        C      tau(   1) = (   0.0000000  -0.3611404   4.4247609  )
         2        C      tau(   2) = (   0.5000000  -0.6995197   4.4247609  )
         3        C      tau(   3) = (   0.0000000   0.0011500   3.9360405  )
         4        C      tau(   4) = (   0.5000000  -1.0618102   3.9360405  )
         5        C      tau(   5) = (   0.0000000  -0.3533013   3.4350066  )
         6        C      tau(   6) = (   0.5000000  -0.7073588   3.4350066  )
         7        C      tau(   7) = (   0.0000000  -0.0002520   2.9352634  )
         8        C      tau(   8) = (   0.5000000  -1.0604081   2.9352634  )
         9        C      tau(   9) = (   0.0000000  -0.3547034   2.4342296  )
        10        C      tau(  10) = (   0.5000000  -0.7059567   2.4342296  )
        11        C      tau(  11) = (   0.0000000   0.0075871   1.9455091  )
        12        C      tau(  12) = (   0.5000000  -1.0682472   1.9455091  )
        13        H      tau(  13) = (   0.0000000  -0.1238861   4.7893624  )
        14        H      tau(  14) = (   0.5000000  -0.9367741   4.7893624  )
        15        H      tau(  15) = (   0.0000000  -0.2296673   1.5809076  )
        16        H      tau(  16) = (   0.5000000  -0.8309929   1.5809076  )

     number of k points=    20  Marzari-Vanderbilt smearing, width (Ry)=  0.0100
                       cart. coord. in units 2pi/alat
        k(    1) = (   0.0000000  -0.0000000   0.0000000), wk =   0.0317460
        k(    2) = (   0.0000000  -0.1010153   0.0000000), wk =   0.0634921
        k(    3) = (   0.0000000  -0.2020305   0.0000000), wk =   0.0634921
        k(    4) = (   0.0000000  -0.3030458   0.0000000), wk =   0.0634921
        k(    5) = (   0.1111111  -0.0000000   0.0000000), wk =   0.0634921
        k(    6) = (   0.1111111  -0.1010153   0.0000000), wk =   0.1269841
        k(    7) = (   0.1111111  -0.2020305   0.0000000), wk =   0.1269841
        k(    8) = (   0.1111111  -0.3030458   0.0000000), wk =   0.1269841
        k(    9) = (   0.2222222  -0.0000000   0.0000000), wk =   0.0634921
        k(   10) = (   0.2222222  -0.1010153   0.0000000), wk =   0.1269841
        k(   11) = (   0.2222222  -0.2020305   0.0000000), wk =   0.1269841
        k(   12) = (   0.2222222  -0.3030458   0.0000000), wk =   0.1269841
        k(   13) = (   0.3333333  -0.0000000   0.0000000), wk =   0.0634921
        k(   14) = (   0.3333333  -0.1010153   0.0000000), wk =   0.1269841
        k(   15) = (   0.3333333  -0.2020305   0.0000000), wk =   0.1269841
        k(   16) = (   0.3333333  -0.3030458   0.0000000), wk =   0.1269841
        k(   17) = (   0.4444444  -0.0000000   0.0000000), wk =   0.0634921
        k(   18) = (   0.4444444  -0.1010153   0.0000000), wk =   0.1269841
        k(   19) = (   0.4444444  -0.2020305   0.0000000), wk =   0.1269841
        k(   20) = (   0.4444444  -0.3030458   0.0000000), wk =   0.1269841

     Dense  grid:   174311 G-vectors     FFT dimensions: (  36,  48, 216)

     Smooth grid:    61625 G-vectors     FFT dimensions: (  24,  36, 160)

     Estimated max dynamical RAM per process >     398.41 MB

     Check: negative core charge=   -0.000002

     Initial potential from superposition of free atoms

     starting charge      51.9995, renormalised to      52.0000

     negative rho (up, down):  1.120E-07 0.000E+00
     Starting wfcs are   52 randomized atomic wfcs

     total cpu time spent up to now is        2.0 secs

     Self-consistent Calculation

     iteration #  1     ecut=    60.00 Ry     beta= 0.30
     Davidson diagonalization with overlap
     ethr =  1.00E-02,  avg # of iterations =  2.8

     negative rho (up, down):  1.071E-06 0.000E+00

     total cpu time spent up to now is        5.7 secs

     total energy              =    -226.00846553 Ry
     estimated scf accuracy    <       1.20213518 Ry

     iteration #  2     ecut=    60.00 Ry     beta= 0.30
     Davidson diagonalization with overlap
     ethr =  2.31E-03,  avg # of iterations =  3.7

     negative rho (up, down):  7.825E-06 0.000E+00

     total cpu time spent up to now is        8.8 secs

     total energy              =    -225.92224875 Ry
     estimated scf accuracy    <       0.37320423 Ry

     iteration #  3     ecut=    60.00 Ry     beta= 0.30
     Davidson diagonalization with overlap
     ethr =  7.18E-04,  avg # of iterations =  5.6

     negative rho (up, down):  1.637E-05 0.000E+00

     total cpu time spent up to now is       12.3 secs

     total energy              =    -225.93506504 Ry
     estimated scf accuracy    <       0.05191433 Ry

     iteration #  4     ecut=    60.00 Ry     beta= 0.30
     Davidson diagonalization with overlap
     ethr =  9.98E-05,  avg # of iterations =  4.5

     negative rho (up, down):  2.174E-05 0.000E+00

     total cpu time spent up to now is       16.0 secs

     total energy              =    -225.93775368 Ry
     estimated scf accuracy    <       0.00519000 Ry

     iteration #  5     ecut=    60.00 Ry     beta= 0.30
     Davidson diagonalization with overlap
     c_bands:  1 eigenvalues not converged
     ethr =  9.98E-06,  avg # of iterations =  7.0

     negative rho (up, down):  2.125E-05 0.000E+00

     total cpu time spent up to now is       20.5 secs

     total energy              =    -225.93830125 Ry
     estimated scf accuracy    <       0.00053426 Ry

     iteration #  6     ecut=    60.00 Ry     beta= 0.30
     Davidson diagonalization with overlap
     ethr =  1.03E-06,  avg # of iterations =  4.7

     negative rho (up, down):  2.150E-05 0.000E+00

     total cpu time spent up to now is       24.4 secs

     total energy              =    -225.93840693 Ry
     estimated scf accuracy    <       0.00006799 Ry

     iteration #  7     ecut=    60.00 Ry     beta= 0.30
     Davidson diagonalization with overlap
     ethr =  1.31E-07,  avg # of iterations =  2.5

     negative rho (up, down):  2.119E-05 0.000E+00

     total cpu time spent up to now is       27.4 secs

     total energy              =    -225.93841215 Ry
     estimated scf accuracy    <       0.00001835 Ry

     iteration #  8     ecut=    60.00 Ry     beta= 0.30
     Davidson diagonalization with overlap
     ethr =  3.53E-08,  avg # of iterations =  2.0

     negative rho (up, down):  2.111E-05 0.000E+00

     total cpu time spent up to now is       30.5 secs

     total energy              =    -225.93841435 Ry
     estimated scf accuracy    <       0.00000266 Ry

     iteration #  9     ecut=    60.00 Ry     beta= 0.30
     Davidson diagonalization with overlap
     ethr =  5.11E-09,  avg # of iterations =  2.9

     negative rho (up, down):  2.107E-05 0.000E+00

     total cpu time spent up to now is       34.0 secs

     total energy              =    -225.93841497 Ry
     estimated scf accuracy    <       0.00000285 Ry

     iteration # 10     ecut=    60.00 Ry     beta= 0.30
     Davidson diagonalization with overlap
     ethr =  5.11E-09,  avg # of iterations =  2.0

     negative rho (up, down):  2.110E-05 0.000E+00

     total cpu time spent up to now is       36.8 secs

     total energy              =    -225.93841518 Ry
     estimated scf accuracy    <       0.00000024 Ry

     iteration # 11     ecut=    60.00 Ry     beta= 0.30
     Davidson diagonalization with overlap
     ethr =  4.69E-10,  avg # of iterations =  3.3

     negative rho (up, down):  2.115E-05 0.000E+00

     total cpu time spent up to now is       40.6 secs

     total energy              =    -225.93841529 Ry
     estimated scf accuracy    <       0.00000015 Ry

     iteration # 12     ecut=    60.00 Ry     beta= 0.30
     Davidson diagonalization with overlap
     ethr =  2.83E-10,  avg # of iterations =  2.0

     negative rho (up, down):  2.118E-05 0.000E+00

     total cpu time spent up to now is       43.5 secs

     total energy              =    -225.93841530 Ry
     estimated scf accuracy    <       0.00000003 Ry

     iteration # 13     ecut=    60.00 Ry     beta= 0.30
     Davidson diagonalization with overlap
     ethr =  5.00E-11,  avg # of iterations =  3.0

     negative rho (up, down):  2.130E-05 0.000E+00

     total cpu time spent up to now is       47.3 secs

     End of self-consistent calculation

          k = 0.0000-0.0000 0.0000 (  7693 PWs)   bands (ev):

   -15.9415 -14.8704 -13.1185 -10.9234  -8.7403  -7.6343  -7.3158  -6.3820
    -4.7982  -4.4572  -4.0225  -2.9537  -2.7222  -2.1131  -0.8913  -0.7093
    -0.3994  -0.0871   1.2032   1.7499   2.1428   2.7008   3.9673   3.9810
     4.3066   4.8233   6.9574   7.2294   9.7269  10.1513  10.8760

          k = 0.0000-0.1010 0.0000 (  7669 PWs)   bands (ev):

   -15.7554 -14.6900 -12.9554 -10.8384  -9.5164  -9.2538  -6.8300  -5.9959
    -5.5524  -4.0517  -3.5734  -3.0049  -1.8724  -1.8531  -1.0259  -0.7156
     0.0628   0.2232   1.2915   1.5220   2.3503   2.6534   3.6973   3.7480
     4.1140   4.2613   7.1621   7.4670   9.9183  10.1241  11.0273

          k = 0.0000-0.2020 0.0000 (  7677 PWs)   bands (ev):

   -15.1997 -14.1547 -12.4899 -11.4303 -10.6412 -10.5757  -7.3373  -6.7434
    -5.4367  -4.4051  -3.0403  -1.7298  -1.7292  -0.7588  -0.1958  -0.1622
     0.4385   0.4996   1.5328   2.0448   2.0499   2.4943   2.9813   3.0663
     3.3163   3.6033   7.8101   8.0535  10.2711  10.3856  10.8885

          k = 0.0000-0.3030 0.0000 (  7670 PWs)   bands (ev):

   -14.2837 -13.3233 -12.9598 -12.1859 -11.5657 -10.9240  -7.7241  -7.0762
    -5.6657  -4.7107  -2.9630  -1.9361  -0.3869   0.1714   0.6425   0.7785
     1.1726   1.2005   1.7620   1.8126   2.0189   2.1475   2.1911   2.2660
     2.6461   2.7364   8.8570   8.9024   9.9260  10.3317  10.7384

          k = 0.1111-0.0000 0.0000 (  7675 PWs)   bands (ev):

   -15.7155 -14.6469 -12.8990 -10.7094  -8.5344  -7.4335  -7.2495  -6.3236
    -4.7546  -4.2645  -3.8146  -2.8004  -2.7023  -1.9144  -1.9120  -1.0711
    -0.6370  -0.4154   0.2632   1.6443   1.7628   2.0911   3.0029   3.4889
     3.7424   4.2002   7.1715   7.4619   9.7724  10.9720  10.9949

          k = 0.1111-0.1010 0.0000 (  7677 PWs)   bands (ev):

   -15.5299 -14.4672 -12.7370 -10.6264  -9.3340  -9.0597  -6.6775  -5.8624
    -5.4736  -3.9500  -3.4607  -2.9856  -1.8401  -1.7066  -1.6357  -1.0163
    -0.8096   0.1784   0.4220   1.4823   1.7418   2.0766   2.7472   2.7654
     3.7060   4.1354   7.4034   7.6996  10.0914  11.1956  11.4762

          k = 0.1111-0.2020 0.0000 (  7666 PWs)   bands (ev):

   -14.9758 -13.9340 -12.2744 -11.2266 -10.4356 -10.3771  -7.1542  -6.5515
    -5.2828  -4.2685  -3.0202  -2.0899  -1.7501  -1.1247  -0.6409  -0.1692
    -0.0641   0.1614   1.0167   1.4604   1.5847   1.6533   1.8156   2.1334
     3.2995   3.9174   8.0669   8.3219  10.7147  11.2349  11.5024

          k = 0.1111-0.3030 0.0000 (  7662 PWs)   bands (ev):

   -14.0632 -13.1065 -12.7455 -11.9751 -11.3576 -10.7208  -7.5238  -6.8814
    -5.4874  -4.5388  -2.8577  -1.8324  -1.0910  -0.3674  -0.2549   0.1979
     0.5431   0.6275   0.9497   1.1718   1.2314   1.6663   1.9629   2.3260
     2.7916   2.9086   9.1181   9.2352  10.4181  10.6089  11.5632

          k = 0.2222-0.0000 0.0000 (  7664 PWs)   bands (ev):

   -15.0406 -13.9800 -12.2444 -10.0711  -7.9197  -7.3604  -6.8326  -6.4430
    -4.8934  -3.7062  -3.6042  -3.2075  -2.8750  -2.7315  -2.3741  -1.3795
    -1.3343  -0.6330  -0.4927   0.0749   1.1125   1.1975   1.5880   1.8039
     2.1443   3.7911   7.8856   8.1186  10.1073  10.2038  10.7504

          k = 0.2222-0.1010 0.0000 (  7697 PWs)   bands (ev):

   -14.8568 -13.8024 -12.0855  -9.9949  -8.8548  -8.5037  -6.3939  -5.7368
    -5.5863  -3.9331  -3.5510  -3.4142  -2.4140  -2.3459  -1.8100  -1.2211
    -1.0755  -0.5597  -0.4150   0.3070   0.4650   0.6157   1.4110   1.6169
     2.9741   3.4197   8.1329   8.3694  10.6136  10.7595  10.9466

          k = 0.2222-0.2020 0.0000 (  7713 PWs)   bands (ev):

   -14.3084 -13.2762 -11.6328 -10.6372  -9.8252  -9.8002  -6.6661  -6.0476
    -4.9220  -4.7596  -3.3465  -3.2946  -2.4759  -1.8242  -1.1678  -0.9292
    -0.5997  -0.4467  -0.3392   0.1646   0.2687   0.5941   1.0912   1.8529
     2.7153   3.3418   8.8071   9.0194  11.3372  11.8880  11.9825

          k = 0.2222-0.3030 0.0000 (  7698 PWs)   bands (ev):

   -13.4074 -12.4623 -12.1127 -11.3509 -10.7408 -10.1174  -6.9594  -6.3317
    -5.0326  -4.0981  -3.7460  -2.7075  -2.4283  -2.1699  -1.5016  -1.3185
    -1.1331  -0.8343   0.2250   1.0521   1.1838   1.1866   1.3968   1.6860
     2.4053   2.7761   9.8051   9.9213  11.1989  11.2913  12.5570

          k = 0.3333-0.0000 0.0000 (  7726 PWs)   bands (ev):

   -13.9289 -12.8820 -11.1677  -9.0216  -8.5963  -7.6418  -6.9059  -6.0529
    -5.8374  -4.0191  -3.9424  -3.1356  -2.8508  -2.2590  -1.9360  -1.8826
    -1.7873  -0.7907  -0.6666  -0.4978  -0.4160  -0.1092   0.2465   0.3624
     1.1755   3.0220   9.0513   9.0795   9.9318  10.2623  11.3443

          k = 0.3333-0.1010 0.0000 (  7732 PWs)   bands (ev):

   -13.7488 -12.7090 -11.0149  -8.9820  -8.7802  -8.0065  -6.7295  -6.5852
    -6.1066  -4.2735  -3.9885  -3.1281  -3.0637  -2.2966  -1.9064  -1.6908
    -1.6417  -1.1644  -0.6652  -0.6123  -0.3399  -0.1993   0.5371   0.9674
     1.3692   2.8346   9.2966   9.4041  10.4025  10.6329  11.2914

          k = 0.3333-0.2020 0.0000 (  7714 PWs)   bands (ev):

   -13.2137 -12.1982 -10.5824  -9.8327  -8.9870  -8.8398  -6.7499  -6.3096
    -6.2365  -4.8849  -4.1303  -3.7066  -3.4928  -3.1955  -2.4514  -2.0999
    -1.4839  -0.4490  -0.2504  -0.1573   0.0638   0.4203   0.5502   0.8716
     2.2336   2.3430   9.9278  10.0248  11.3833  11.6032  12.0342

          k = 0.3333-0.3030 0.0000 (  7690 PWs)   bands (ev):

   -12.3420 -11.4194 -11.1143 -10.3570  -9.7504  -9.1443  -6.3076  -6.0191
    -5.6688  -5.4722  -4.8970  -4.4721  -3.6952  -3.3383  -2.8143  -2.7012
    -1.3881  -0.7243  -0.1964  -0.0420   0.6137   0.9690   1.2755   1.4990
     1.7765   2.3382  10.6658  10.7429  12.0653  12.1563  12.4422

          k = 0.4444-0.0000 0.0000 (  7740 PWs)   bands (ev):

   -12.4083 -11.3822 -10.5514  -9.6991  -9.5550  -7.9137  -7.5900  -5.8466
    -5.5133  -4.4594  -3.7875  -2.9762  -2.7213  -2.3231  -1.8465  -1.4780
    -1.4427  -1.3242  -1.0782  -0.9626  -0.9491  -0.8551  -0.8213   0.1643
     0.7237   1.9400   9.7143  10.3241  10.4936  10.7477  10.8983

          k = 0.4444-0.1010 0.0000 (  7752 PWs)   bands (ev):

   -12.2381 -11.2203 -10.4213  -9.5623  -9.4336  -7.8523  -7.4819  -5.8259
    -5.8199  -5.7015  -4.1551  -3.9950  -3.0945  -2.4169  -1.9533  -1.7220
    -1.4073  -1.1403  -0.8267  -0.7248  -0.6343  -0.3806  -0.1738   0.3084
     0.8419   1.9235  10.3280  10.3291  10.4641  10.9673  11.3469

          k = 0.4444-0.2020 0.0000 (  7712 PWs)   bands (ev):

   -11.7403 -10.7510 -10.1278  -9.2424  -9.1047  -7.7989  -7.2962  -7.0177
    -6.6069  -5.9018  -5.5611  -5.1345  -3.3630  -3.3015  -2.2777  -2.0922
    -1.5634  -1.3197  -0.7842  -0.1679   0.0673   0.1475   0.5959   1.0400
     1.2769   1.8513  10.8632  11.0078  11.3073  11.4609  12.0017

          k = 0.4444-0.3030 0.0000 (  7718 PWs)   bands (ev):

   -10.9773 -10.2352 -10.0125  -9.3333  -8.5513  -8.0173  -7.7634  -7.0659
    -6.8893  -6.6381  -6.1773  -6.0485  -3.6988  -3.3663  -2.7479  -2.4014
    -1.7397  -1.4599  -0.6546  -0.3148   0.2313   0.3368   1.3845   1.5096
     1.7326   1.8044  11.4171  11.4208  12.0274  12.1474  13.2017

     the Fermi energy is     5.6004 ev

!    total energy              =    -225.93841531 Ry
     estimated scf accuracy    <          2.1E-09 Ry
     smearing contrib. (-TS)   =       0.00000000 Ry
     internal energy E=F+TS    =    -225.93841531 Ry

     The total energy is F=E-TS. E is the sum of the following terms:
     one-electron contribution =   -1231.91440737 Ry
     hartree contribution      =     640.04037399 Ry
     xc contribution           =     -59.13845577 Ry
     ewald contribution        =     499.03024464 Ry
     one-center paw contrib.   =     -73.95617079 Ry

     convergence has been achieved in  13 iterations

     negative rho (up, down):  2.130E-05 0.000E+00

     Forces acting on atoms (cartesian axes, Ry/au):

     atom    1 type  1   force =    -0.00000000    0.00007317    0.00003907
     atom    2 type  1   force =     0.00000000   -0.00007317    0.00003907
     atom    3 type  1   force =     0.00000000    0.00005573   -0.00000582
     atom    4 type  1   force =     0.00000000   -0.00005573   -0.00000582
     atom    5 type  1   force =     0.00000000   -0.00006730   -0.00001384
     atom    6 type  1   force =     0.00000000    0.00006730   -0.00001384
     atom    7 type  1   force =     0.00000000    0.00006730    0.00001384
     atom    8 type  1   force =     0.00000000   -0.00006730    0.00001384
     atom    9 type  1   force =     0.00000000   -0.00005573    0.00000582
     atom   10 type  1   force =     0.00000000    0.00005573    0.00000582
     atom   11 type  1   force =     0.00000000   -0.00007317   -0.00003907
     atom   12 type  1   force =     0.00000000    0.00007317   -0.00003907
     atom   13 type  2   force =     0.00000000   -0.00001002   -0.00005695
     atom   14 type  2   force =     0.00000000    0.00001002   -0.00005695
     atom   15 type  2   force =     0.00000000    0.00001002    0.00005695
     atom   16 type  2   force =     0.00000000   -0.00001002    0.00005695

     Total force =     0.000269     Total SCF correction =     0.000113
     SCF correction compared to forces is large: reduce conv_thr to get better values


     Computing stress (Cartesian axis) and pressure


     negative rho (up, down):  2.130E-05 0.000E+00
          total   stress  (Ry/bohr**3)                   (kbar)     P=       23.56
   0.00015431   0.00000000   0.00000000           22.70        0.00        0.00
   0.00000000   0.00034570   0.00000000            0.00       50.85        0.00
   0.00000000   0.00000000  -0.00001963            0.00        0.00       -2.89


     Writing all to output data dir ./tmp/slab.save/ :
     XML data file, charge density, pseudopotentials, collected wavefunctions

     init_run     :      1.82s CPU      1.98s WALL (       1 calls)
     electrons    :     40.35s CPU     45.28s WALL (       1 calls)
     forces       :      0.44s CPU      0.51s WALL (       1 calls)
     stress       :      1.27s CPU      1.46s WALL (       1 calls)

     Called by init_run:
     wfcinit      :      1.42s CPU      1.55s WALL (       1 calls)
     potinit      :      0.22s CPU      0.24s WALL (       1 calls)
     hinit0       :      0.11s CPU      0.12s WALL (       1 calls)

     Called by electrons:
     c_bands      :     32.07s CPU     36.27s WALL (      13 calls)
     sum_band     :      5.18s CPU      5.58s WALL (      13 calls)
     v_of_rho     :      0.75s CPU      0.82s WALL (      14 calls)
     newd         :      0.44s CPU      0.54s WALL (      14 calls)
     PAW_pot      :      1.98s CPU      2.14s WALL (      14 calls)
     mix_rho      :      0.10s CPU      0.11s WALL (      13 calls)

     Called by c_bands:
     init_us_2    :      0.55s CPU      0.59s WALL (     580 calls)
     cegterg      :     30.98s CPU     35.14s WALL (     260 calls)

     Called by *egterg:
     cdiaghg      :      0.71s CPU      0.77s WALL (    1178 calls)
     h_psi        :     23.80s CPU     25.65s WALL (    1198 calls)
     s_psi        :      2.00s CPU      2.54s WALL (    1198 calls)
     g_psi        :      0.12s CPU      0.12s WALL (     918 calls)

     Called by h_psi:
     h_psi:calbec :      2.39s CPU      3.16s WALL (    1198 calls)
     vloc_psi     :     19.07s CPU     19.43s WALL (    1198 calls)
                                        0.00s GPU  (    1198 calls)
     add_vuspsi   :      2.23s CPU      2.88s WALL (    1198 calls)

     General routines
     calbec       :      3.80s CPU      4.94s WALL (    1798 calls)
     fft          :      0.46s CPU      0.47s WALL (     205 calls)
     ffts         :      0.02s CPU      0.02s WALL (      27 calls)
     fftw         :     20.10s CPU     20.33s WALL (   52480 calls)
     interpolate  :      0.05s CPU      0.05s WALL (      14 calls)


     PWSCF        :     43.91s CPU     49.30s WALL


   This run was terminated on:  14:38:37   7Jul2026            

=------------------------------------------------------------------------------=
   JOB DONE.
=------------------------------------------------------------------------------=
Note: The following floating-point exceptions are signalling: IEEE_INVALID_FLAG IEEE_DIVIDE_BY_ZERO IEEE_OVERFLOW_FLAG IEEE_UNDERFLOW_FLAG
