
     Program PWSCF v.7.5 starts on 23Jun2026 at 11:32:12 

     This program is part of the open-source Quantum ESPRESSO suite
     for quantum simulation of materials; please cite
         "P. Giannozzi et al., J. Phys.:Condens. Matter 21 395502 (2009);
         "P. Giannozzi et al., J. Phys.:Condens. Matter 29 465901 (2017);
         "P. Giannozzi et al., J. Chem. Phys. 152 154105 (2020);
          URL http://www.quantum-espresso.org", 
     in publications or presentations arising from this work. More details at
     http://www.quantum-espresso.org/quote

     Serial version
     0 MiB available memory on the printing compute node when the environment starts

     Waiting for input...
     Reading input from standard input

     Current dimensions of program PWSCF are:
     Max number of different atomic species (ntypx) = 10
     Max number of k-points (npk) =  40000
     Max angular momentum in pseudopotentials (lmaxx) =  4
     file C.pbe-n-kjpaw_psl.1.0.0.UPF: wavefunction(s)  2S 2P renormalized
     Message from routine volume:
     axis vectors are left-handed
     Message from routine setup:
     using ibrav=0 with symmetry is DISCOURAGED, use correct ibrav instead


     G-vector sticks info
     --------------------
     sticks:   dense  smooth     PW     G-vecs:    dense   smooth      PW
     Sum        2299    1153    335               477785   169205   26073

     Using Slab Decomposition



     bravais-lattice index     =            0
     lattice parameter (alat)  =       4.7514  a.u.
     unit-cell volume          =    1747.7652 (a.u.)^3
     number of atoms/cell      =           14
     number of atomic types    =            2
     number of electrons       =        50.00
     number of Kohn-Sham states=           30
     kinetic-energy cutoff     =      80.0000  Ry
     charge density cutoff     =     640.0000  Ry
     scf convergence threshold =      1.0E-08
     mixing beta               =       0.3000
     number of iterations used =            8  plain     mixing
     Exchange-correlation= PBE
                           (   1   4   3   4   0   0   0)

     celldm(1)=   4.751359  celldm(2)=   0.000000  celldm(3)=   0.000000
     celldm(4)=   0.000000  celldm(5)=   0.000000  celldm(6)=   0.000000

     crystal axes: (cart. coord. in units of alat)
               a(1) = (   1.000000   0.000000   0.000000 )  
               a(2) = (   0.000000  -2.000000   0.000000 )  
               a(3) = (   0.000000   0.000000   8.147033 )  

     reciprocal axes: (cart. coord. in units 2 pi/alat)
               b(1) = (  1.000000 -0.000000 -0.000000 )  
               b(2) = ( -0.000000 -0.500000 -0.000000 )  
               b(3) = ( -0.000000 -0.000000  0.122744 )  


     PseudoPot. # 1 for C  read from file:
     ./C.pbe-n-kjpaw_psl.1.0.0.UPF
     MD5 check sum: 5d2aebdfa2cae82b50a7e79e9516da0f
     Pseudo is Projector augmented-wave + core cor, Zval =  4.0
     Generated using "atomic" code by A. Dal Corso  v.5.1
     Shape of augmentation charge: PSQ
     Using radial grid of 1073 points,  4 beta functions with: 
                l(1) =   0
                l(2) =   0
                l(3) =   1
                l(4) =   1
     Q(r) pseudized with 0 coefficients 


     PseudoPot. # 2 for H  read from file:
     ./H_ONCV_PBE-1.0.oncvpsp.upf
     MD5 check sum: 1790becc920ee074925cf490c71280fe
     Pseudo is Norm-conserving, Zval =  1.0
     Generated using ONCVPSP code by D. R. Hamann
     Using radial grid of 1166 points,  2 beta functions with: 
                l(1) =   0
                l(2) =   0

     atomic species   valence    mass     pseudopotential
     C                 4.00    12.01100     C ( 1.00)
     H                 1.00     1.00800     H ( 1.00)

      4 Sym. Ops. (no inversion) found



   Cartesian axes

     site n.     atom                  positions (alat units)
         1        C      tau(   1) = (   0.0000000  -0.3212366   4.7322187  )
         2        C      tau(   2) = (   0.5000000  -0.4642664   4.4097169  )
         3        C      tau(   3) = (   0.5000000   0.0000000   4.0132400  )
         4        C      tau(   4) = (   0.0000000   0.0000000   3.6760103  )
         5        C      tau(   5) = (   0.0000000  -0.5000000   3.3382545  )
         6        C      tau(   6) = (   0.5000000  -0.5000000   2.9829245  )
         7        C      tau(   7) = (   0.0000000  -1.6787634   4.7322187  )
         8        C      tau(   8) = (   0.5000000  -1.5357336   4.4097169  )
         9        C      tau(   9) = (   0.5000000  -1.0000000   4.0866462  )
        10        C      tau(  10) = (   0.0000000  -1.0000000   3.7184521  )
        11        C      tau(  11) = (   0.0000000  -1.5000000   3.3382545  )
        12        C      tau(  12) = (   0.5000000  -1.5000000   2.9829245  )
        13        H      tau(  13) = (   0.0000000  -0.4902796   5.1350419  )
        14        H      tau(  14) = (   0.0000000  -1.5097204   5.1350419  )

     number of k points=    15  Marzari-Vanderbilt smearing, width (Ry)=  0.0100
                       cart. coord. in units 2pi/alat
        k(    1) = (   0.0000000  -0.0000000   0.0000000), wk =   0.0444444
        k(    2) = (   0.0000000  -0.1000000   0.0000000), wk =   0.0888889
        k(    3) = (   0.0000000  -0.2000000   0.0000000), wk =   0.0888889
        k(    4) = (   0.1111111  -0.0000000   0.0000000), wk =   0.0888889
        k(    5) = (   0.1111111  -0.1000000   0.0000000), wk =   0.1777778
        k(    6) = (   0.1111111  -0.2000000   0.0000000), wk =   0.1777778
        k(    7) = (   0.2222222  -0.0000000   0.0000000), wk =   0.0888889
        k(    8) = (   0.2222222  -0.1000000   0.0000000), wk =   0.1777778
        k(    9) = (   0.2222222  -0.2000000   0.0000000), wk =   0.1777778
        k(   10) = (   0.3333333  -0.0000000   0.0000000), wk =   0.0888889
        k(   11) = (   0.3333333  -0.1000000   0.0000000), wk =   0.1777778
        k(   12) = (   0.3333333  -0.2000000   0.0000000), wk =   0.1777778
        k(   13) = (   0.4444444  -0.0000000   0.0000000), wk =   0.0888889
        k(   14) = (   0.4444444  -0.1000000   0.0000000), wk =   0.1777778
        k(   15) = (   0.4444444  -0.2000000   0.0000000), wk =   0.1777778

     Dense  grid:   477785 G-vectors     FFT dimensions: (  40,  80, 320)

     Smooth grid:   169205 G-vectors     FFT dimensions: (  27,  60, 225)

     Estimated max dynamical RAM per process >       1.01 GB

     Initial potential from superposition of free atoms

     starting charge      49.9995, renormalised to      50.0000

     negative rho (up, down):  7.363E-05 0.000E+00
     Starting wfcs are   50 randomized atomic wfcs

     total cpu time spent up to now is        4.0 secs

     Self-consistent Calculation

     iteration #  1     ecut=    80.00 Ry     beta= 0.30
     Davidson diagonalization with overlap
     ethr =  1.00E-02,  avg # of iterations =  2.5
     Minimization algorithm failed to find Fermi energy: reverting to bisection
     Possible cause: smearing is larger than the electronic band-gap.

     negative rho (up, down):  7.074E-05 0.000E+00

     total cpu time spent up to now is       11.8 secs

     total energy              =    -223.07331380 Ry
     estimated scf accuracy    <       0.91831435 Ry

     iteration #  2     ecut=    80.00 Ry     beta= 0.30
     Davidson diagonalization with overlap
     ethr =  1.84E-03,  avg # of iterations =  3.3

     negative rho (up, down):  7.659E-05 0.000E+00

     total cpu time spent up to now is       18.3 secs

     total energy              =    -223.02196190 Ry
     estimated scf accuracy    <       0.29687096 Ry

     iteration #  3     ecut=    80.00 Ry     beta= 0.30
     Davidson diagonalization with overlap
     ethr =  5.94E-04,  avg # of iterations =  5.5

     negative rho (up, down):  8.389E-05 0.000E+00

     total cpu time spent up to now is       25.7 secs

     total energy              =    -223.02547444 Ry
     estimated scf accuracy    <       0.06732760 Ry

     iteration #  4     ecut=    80.00 Ry     beta= 0.30
     Davidson diagonalization with overlap
     ethr =  1.35E-04,  avg # of iterations =  5.1

     negative rho (up, down):  8.825E-05 0.000E+00

     total cpu time spent up to now is       33.2 secs

     total energy              =    -223.03007039 Ry
     estimated scf accuracy    <       0.01050413 Ry

     iteration #  5     ecut=    80.00 Ry     beta= 0.30
     Davidson diagonalization with overlap
     ethr =  2.10E-05,  avg # of iterations =  5.1

     negative rho (up, down):  9.048E-05 0.000E+00

     total cpu time spent up to now is       41.0 secs

     total energy              =    -223.03138395 Ry
     estimated scf accuracy    <       0.00128304 Ry

     iteration #  6     ecut=    80.00 Ry     beta= 0.30
     Davidson diagonalization with overlap
     c_bands:  1 eigenvalues not converged
     ethr =  2.57E-06,  avg # of iterations =  6.7

     negative rho (up, down):  8.802E-05 0.000E+00

     total cpu time spent up to now is       50.4 secs

     total energy              =    -223.03153582 Ry
     estimated scf accuracy    <       0.00022663 Ry

     iteration #  7     ecut=    80.00 Ry     beta= 0.30
     Davidson diagonalization with overlap
     ethr =  4.53E-07,  avg # of iterations =  4.3

     negative rho (up, down):  8.828E-05 0.000E+00

     total cpu time spent up to now is       58.1 secs

     total energy              =    -223.03157217 Ry
     estimated scf accuracy    <       0.00006282 Ry

     iteration #  8     ecut=    80.00 Ry     beta= 0.30
     Davidson diagonalization with overlap
     ethr =  1.26E-07,  avg # of iterations =  2.0

     negative rho (up, down):  8.779E-05 0.000E+00

     total cpu time spent up to now is       64.7 secs

     total energy              =    -223.03157991 Ry
     estimated scf accuracy    <       0.00000892 Ry

     iteration #  9     ecut=    80.00 Ry     beta= 0.30
     Davidson diagonalization with overlap
     ethr =  1.78E-08,  avg # of iterations =  2.3

     negative rho (up, down):  8.751E-05 0.000E+00

     total cpu time spent up to now is       71.9 secs

     total energy              =    -223.03158150 Ry
     estimated scf accuracy    <       0.00000101 Ry

     iteration # 10     ecut=    80.00 Ry     beta= 0.30
     Davidson diagonalization with overlap
     ethr =  2.02E-09,  avg # of iterations =  4.0

     negative rho (up, down):  8.730E-05 0.000E+00

     total cpu time spent up to now is       80.4 secs

     total energy              =    -223.03158178 Ry
     estimated scf accuracy    <       0.00000053 Ry

     iteration # 11     ecut=    80.00 Ry     beta= 0.30
     Davidson diagonalization with overlap
     ethr =  1.06E-09,  avg # of iterations =  2.1

     negative rho (up, down):  8.724E-05 0.000E+00

     total cpu time spent up to now is       86.8 secs

     total energy              =    -223.03158183 Ry
     estimated scf accuracy    <       0.00000007 Ry

     iteration # 12     ecut=    80.00 Ry     beta= 0.30
     Davidson diagonalization with overlap
     ethr =  1.39E-10,  avg # of iterations =  4.2

     negative rho (up, down):  8.719E-05 0.000E+00

     total cpu time spent up to now is       95.5 secs

     total energy              =    -223.03158185 Ry
     estimated scf accuracy    <       0.00000002 Ry

     iteration # 13     ecut=    80.00 Ry     beta= 0.30
     Davidson diagonalization with overlap
     ethr =  4.05E-11,  avg # of iterations =  2.0

     negative rho (up, down):  8.717E-05 0.000E+00

     total cpu time spent up to now is      102.0 secs

     End of self-consistent calculation

          k = 0.0000-0.0000 0.0000 ( 21169 PWs)   bands (ev):

   -21.1682 -18.9041 -16.7061 -16.3197 -15.3196 -15.1749 -12.0903 -11.3694
   -11.0009  -8.1189  -7.9663  -7.2097  -6.0486  -5.6259  -4.2585  -4.0876
    -4.0302  -3.2527  -3.1867  -2.7341  -2.5249  -2.3899  -1.5171  -0.8982
    -0.4729  -0.0019   2.6693   3.2320   4.3941   4.4495

          k = 0.0000-0.1000 0.0000 ( 21135 PWs)   bands (ev):

   -21.0163 -18.8391 -17.8990 -15.9100 -15.0349 -14.9218 -11.6141 -11.2702
   -10.9356  -8.2637  -7.6611  -7.3224  -6.2134  -5.9352  -4.5554  -4.1415
    -3.9857  -3.6938  -3.5652  -2.8390  -2.5342  -2.0961  -1.4596  -0.9986
    -0.6456   0.3265   2.8583   2.9012   4.6997   5.1226

          k = 0.0000-0.2000 0.0000 ( 21153 PWs)   bands (ev):

   -20.6475 -19.1883 -18.3156 -16.6299 -14.7523 -14.0726 -11.4009 -10.5089
   -10.2017  -9.0205  -8.0384  -7.0929  -6.7800  -5.6796  -5.3164  -4.3681
    -4.3593  -3.7821  -3.4032  -3.2012  -2.7672  -1.7570  -1.3621  -1.0309
    -0.9327   1.0635   2.0432   3.4811   4.4158   5.0621

          k = 0.1111-0.0000 0.0000 ( 21109 PWs)   bands (ev):

   -20.9408 -18.6838 -16.4942 -16.1034 -15.1131 -14.9732 -11.9013 -11.2768
   -10.8178  -7.9960  -7.8999  -7.4865  -6.9140  -5.4725  -5.2217  -4.4051
    -4.1763  -3.8964  -3.4239  -3.4076  -3.3238  -2.6519  -2.3941  -1.0264
    -0.5003   0.0176   2.8846   3.3516   4.8837   5.0537

          k = 0.1111-0.1000 0.0000 ( 21122 PWs)   bands (ev):

   -20.7892 -18.6183 -17.6813 -15.7038 -14.8277 -14.7176 -11.4680 -11.1045
   -10.7855  -8.1922  -7.6205  -7.4248  -6.8516  -6.1105  -5.1637  -4.8508
    -4.3781  -4.1949  -3.4917  -3.3983  -3.0794  -2.9658  -2.2470  -1.0604
    -0.6271   0.3307   2.9522   3.1006   5.1271   5.5633

          k = 0.1111-0.2000 0.0000 ( 21122 PWs)   bands (ev):

   -20.4213 -18.9649 -18.0983 -16.4205 -14.5521 -13.8690 -11.2736 -10.3370
   -10.0806  -8.8544  -7.9085  -7.3254  -6.6997  -6.5145  -5.5530  -5.2866
    -4.9466  -4.3419  -3.8250  -3.3096  -3.0380  -2.6318  -2.3205  -1.0360
    -0.8621   1.0720   2.0677   3.6785   4.5823   5.2115

          k = 0.2222-0.0000 0.0000 ( 21117 PWs)   bands (ev):

   -20.2623 -18.0306 -15.8638 -15.4596 -14.5139 -14.3737 -11.4523 -11.3600
   -10.3100  -9.1351  -8.3373  -7.9326  -7.4723  -6.2979  -6.0849  -5.4262
    -5.2902  -5.1694  -5.0103  -4.1338  -4.0948  -3.0956  -2.5058  -1.3675
    -0.9193  -0.0970   3.4360   3.6360   5.5931   5.8027

          k = 0.2222-0.1000 0.0000 ( 21106 PWs)   bands (ev):

   -20.1117 -17.9632 -17.0341 -15.0962 -14.2223 -14.1117 -11.4007 -10.7447
   -10.3709  -9.0155  -8.4396  -8.0168  -7.2400  -6.5101  -6.1974  -5.7000
    -5.6398  -5.0471  -4.8294  -4.3846  -4.0825  -3.3092  -2.8315  -1.3004
    -0.8980   0.1645   3.0512   3.6625   5.6658   5.8750

          k = 0.2222-0.2000 0.0000 ( 21079 PWs)   bands (ev):

   -19.7463 -18.2994 -17.4541 -15.8042 -13.9756 -13.2613 -11.2134 -10.1340
    -9.7892  -8.8355  -8.5150  -7.8786  -7.6060  -7.1697  -6.5354  -6.1093
    -5.8607  -5.1794  -4.6093  -4.4171  -4.2136  -3.3727  -3.1438  -1.1718
    -0.9764   0.8885   1.9437   4.1710   4.8372   5.3324

          k = 0.3333-0.0000 0.0000 ( 21166 PWs)   bands (ev):

   -19.1473 -16.9895 -14.8446 -14.4069 -13.8607 -13.4019 -12.7275 -11.0482
   -10.6581  -9.8170  -9.0421  -8.9447  -8.1526  -7.6147  -7.2391  -6.8661
    -6.0560  -5.6577  -5.0955  -4.6532  -4.0398  -4.0259  -2.4575  -1.6445
    -1.3174  -0.3281   3.9000   4.3228   5.9189   6.5373

          k = 0.3333-0.1000 0.0000 ( 21111 PWs)   bands (ev):

   -18.9984 -16.9138 -15.9841 -14.1861 -13.5613 -13.1178 -12.5652 -10.9902
   -10.4940  -9.7836  -9.1530  -8.8045  -8.0635  -7.6585  -7.3646  -6.2294
    -6.1539  -5.5958  -5.3535  -4.8513  -4.4260  -3.9200  -3.1542  -1.5450
    -1.2900  -0.1023   3.2480   4.4978   5.5155   6.2168

          k = 0.3333-0.2000 0.0000 ( 21093 PWs)   bands (ev):

   -18.6367 -17.2109 -16.4249 -14.8563 -13.4358 -12.2686 -12.2434 -11.3029
   -10.3840  -9.4337  -8.8541  -8.4429  -7.8832  -7.3549  -7.2058  -7.1502
    -6.2454  -5.6267  -5.4650  -4.9562  -4.7002  -4.1234  -3.7929  -1.4038
    -1.3033   0.6488   1.9034   4.6591   5.0026   5.7357

          k = 0.4444-0.0000 0.0000 ( 21144 PWs)   bands (ev):

   -17.6442 -16.1556 -14.9676 -13.4182 -13.0126 -13.0080 -12.2434 -11.9958
   -11.5066 -10.9437 -10.1660  -9.9280  -8.2385  -7.8870  -7.4278  -7.1032
    -6.4249  -5.7910  -5.5852  -5.3194  -4.5130  -3.3265  -2.7191  -1.8119
    -1.5416  -0.5259   4.0385   5.4254   5.8346   6.4387

          k = 0.4444-0.1000 0.0000 ( 21131 PWs)   bands (ev):

   -17.4973 -16.0147 -14.9835 -14.4902 -13.3687 -12.8625 -11.8764 -11.6652
   -11.4822 -10.6302 -10.0583  -9.7411  -8.2234  -7.8198  -7.6515  -6.4498
    -6.3543  -5.8163  -5.5530  -5.1407  -4.6937  -3.9768  -3.4893  -1.6902
    -1.5457  -0.3065   3.3772   5.2853   5.8418   6.2119

          k = 0.4444-0.2000 0.0000 ( 21116 PWs)   bands (ev):

   -17.1389 -15.7981 -15.5309 -14.6311 -14.3198 -12.6090 -12.2886 -11.2376
   -11.2094 -10.7062  -9.5365  -9.1022  -8.0396  -7.4667  -7.1718  -6.4623
    -6.0055  -5.8387  -5.4812  -5.2870  -5.0644  -4.9508  -4.5890  -1.6085
    -1.5451   0.5579   1.9527   4.9181   5.7199   6.3252

     the Fermi energy is    -0.4831 ev

!    total energy              =    -223.03158185 Ry
     estimated scf accuracy    <          3.5E-09 Ry
     smearing contrib. (-TS)   =      -0.00000074 Ry
     internal energy E=F+TS    =    -223.03158112 Ry

     The total energy is F=E-TS. E is the sum of the following terms:
     one-electron contribution =   -2295.80914311 Ry
     hartree contribution      =    1161.77963236 Ry
     xc contribution           =     -56.80589370 Ry
     ewald contribution        =    1041.78433071 Ry
     one-center paw contrib.   =     -73.98050739 Ry

     convergence has been achieved in  13 iterations

     negative rho (up, down):  8.717E-05 0.000E+00

     Forces acting on atoms (cartesian axes, Ry/au):

     atom    1 type  1   force =     0.00000000   -0.00236447    0.00127511
     atom    2 type  1   force =     0.00000000   -0.00340505   -0.00013298
     atom    3 type  1   force =     0.00000000   -0.00000000    0.00060582
     atom    4 type  1   force =     0.00000000   -0.00000000    0.00128002
     atom    5 type  1   force =     0.00000000   -0.03158268   -0.09051766
     atom    6 type  1   force =     0.00000000   -0.00790645    0.08775056
     atom    7 type  1   force =     0.00000000    0.00236447    0.00127511
     atom    8 type  1   force =     0.00000000    0.00340505   -0.00013298
     atom    9 type  1   force =     0.00000000   -0.00000000    0.00012257
     atom   10 type  1   force =     0.00000000   -0.00000000    0.00000506
     atom   11 type  1   force =     0.00000000    0.03158268   -0.09051766
     atom   12 type  1   force =     0.00000000    0.00790645    0.08775056
     atom   13 type  2   force =     0.00000000   -0.00120222    0.00061824
     atom   14 type  2   force =     0.00000000    0.00120222    0.00061824

     Total force =     0.006583     Total SCF correction =     0.000122


     Computing stress (Cartesian axis) and pressure


     negative rho (up, down):  8.717E-05 0.000E+00
          total   stress  (Ry/bohr**3)                   (kbar)     P=      -25.00
   0.00006362   0.00000000   0.00000000            9.36        0.00        0.00
   0.00000000  -0.00041751   0.00000000            0.00      -61.42        0.00
   0.00000000   0.00000000  -0.00015596            0.00        0.00      -22.94


     Writing all to output data dir ./tmp/slab.save/ :
     XML data file, charge density, pseudopotentials, collected wavefunctions

     init_run     :      3.67s CPU      3.97s WALL (       1 calls)
     electrons    :     89.00s CPU     97.97s WALL (       1 calls)
     forces       :      1.05s CPU      1.21s WALL (       1 calls)
     stress       :      3.04s CPU      3.64s WALL (       1 calls)

     Called by init_run:
     wfcinit      :      3.02s CPU      3.24s WALL (       1 calls)
     potinit      :      0.33s CPU      0.35s WALL (       1 calls)
     hinit0       :      0.15s CPU      0.16s WALL (       1 calls)

     Called by electrons:
     c_bands      :     72.12s CPU     79.61s WALL (      13 calls)
     sum_band     :     11.35s CPU     12.09s WALL (      13 calls)
     v_of_rho     :      2.21s CPU      2.38s WALL (      14 calls)
     newd         :      1.21s CPU      1.55s WALL (      14 calls)
     PAW_pot      :      1.95s CPU      2.16s WALL (      14 calls)
     mix_rho      :      0.33s CPU      0.38s WALL (      13 calls)

     Called by c_bands:
     init_us_2    :      1.06s CPU      1.25s WALL (     435 calls)
     cegterg      :     70.03s CPU     77.41s WALL (     195 calls)

     Called by *egterg:
     cdiaghg      :      0.51s CPU      0.55s WALL (     931 calls)
     h_psi        :     53.74s CPU     56.97s WALL (     946 calls)
     s_psi        :      5.42s CPU      6.45s WALL (     946 calls)
     g_psi        :      0.23s CPU      0.23s WALL (     736 calls)

     Called by h_psi:
     h_psi:calbec :      4.77s CPU      5.99s WALL (     946 calls)
     vloc_psi     :     42.75s CPU     43.38s WALL (     946 calls)
                                        0.00s GPU  (     946 calls)
     add_vuspsi   :      6.02s CPU      7.24s WALL (     946 calls)

     General routines
     calbec       :      7.83s CPU      9.78s WALL (    1396 calls)
     fft          :      1.82s CPU      1.82s WALL (     205 calls)
     ffts         :      0.06s CPU      0.06s WALL (      27 calls)
     fftw         :     45.49s CPU     45.60s WALL (   37980 calls)
     interpolate  :      0.17s CPU      0.19s WALL (      14 calls)


     PWSCF        :   1m36.80s CPU   1m46.90s WALL


   This run was terminated on:  11:33:59  23Jun2026            

=------------------------------------------------------------------------------=
   JOB DONE.
=------------------------------------------------------------------------------=
Note: The following floating-point exceptions are signalling: IEEE_INVALID_FLAG IEEE_DIVIDE_BY_ZERO IEEE_OVERFLOW_FLAG IEEE_UNDERFLOW_FLAG
