
     Program PWSCF v.7.3.1 starts on  1Aug2026 at 12:48: 5 

     This program is part of the open-source Quantum ESPRESSO suite
     for quantum simulation of materials; please cite
         "P. Giannozzi et al., J. Phys.:Condens. Matter 21 395502 (2009);
         "P. Giannozzi et al., J. Phys.:Condens. Matter 29 465901 (2017);
         "P. Giannozzi et al., J. Chem. Phys. 152 154105 (2020);
          URL http://www.quantum-espresso.org", 
     in publications or presentations arising from this work. More details at
     http://www.quantum-espresso.org/quote

     Parallel version (MPI), running on     8 processors

     MPI processes distributed on     1 nodes
     188192 MiB available memory on the printing compute node when the environment starts

     Reading input from pw.in

     Current dimensions of program PWSCF are:
     Max number of different atomic species (ntypx) = 10
     Max number of k-points (npk) =  40000
     Max angular momentum in pseudopotentials (lmaxx) =  4
     file C.pbe-n-kjpaw_psl.1.0.0.UPF: wavefunction(s)  2S 2P renormalized
     Message from routine setup:
     using ibrav=0 with symmetry is DISCOURAGED, use correct ibrav instead

     R & G space division:  proc/nbgrp/npool/nimage =       8
     Subspace diagonalization in iterative solution of the eigenvalue problem:
     a serial algorithm will be used


     Parallelization info
     --------------------
     sticks:   dense  smooth     PW     G-vecs:    dense   smooth      PW
     Min         141      69     20                46915    16517    2688
     Max         142      70     21                46962    16580    2741
     Sum        1135     559    163               375611   132525   21655

     Using Slab Decomposition



     bravais-lattice index     =            0
     lattice parameter (alat)  =       4.7752  a.u.
     unit-cell volume          =    1150.2283 (a.u.)^3
     number of atoms/cell      =            8
     number of atomic types    =            2
     number of electrons       =        26.00
     number of Kohn-Sham states=           17
     kinetic-energy cutoff     =      90.0000  Ry
     charge density cutoff     =     720.0000  Ry
     scf convergence threshold =      1.0E-08
     mixing beta               =       0.3000
     number of iterations used =            8  plain     mixing
     Exchange-correlation= PBE
                           (   1   4   3   4   0   0   0)

     celldm(1)=   4.775235  celldm(2)=   0.000000  celldm(3)=   0.000000
     celldm(4)=   0.000000  celldm(5)=   0.000000  celldm(6)=   0.000000

     crystal axes: (cart. coord. in units of alat)
               a(1) = (   1.000000   0.000000   0.000000 )  
               a(2) = (   0.500000   0.866025   0.000000 )  
               a(3) = (   0.000000   0.000000  12.197450 )  

     reciprocal axes: (cart. coord. in units 2 pi/alat)
               b(1) = (  1.000000 -0.577350  0.000000 )  
               b(2) = (  0.000000  1.154701  0.000000 )  
               b(3) = (  0.000000  0.000000  0.081984 )  


     PseudoPot. # 1 for C  read from file:
     ./C.pbe-n-kjpaw_psl.1.0.0.UPF
     MD5 check sum: 5d2aebdfa2cae82b50a7e79e9516da0f
     Pseudo is Projector augmented-wave + core cor, Zval =  4.0
     Generated using "atomic" code by A. Dal Corso  v.5.1
     Shape of augmentation charge: PSQ
     Using radial grid of 1073 points,  4 beta functions with: 
                l(1) =   0
                l(2) =   0
                l(3) =   1
                l(4) =   1
     Q(r) pseudized with 0 coefficients 


     PseudoPot. # 2 for H  read from file:
     ./H_ONCV_PBE-1.0.oncvpsp.upf
     MD5 check sum: 1790becc920ee074925cf490c71280fe
     Pseudo is Norm-conserving, Zval =  1.0
     Generated using ONCVPSP code by D. R. Hamann
     Using radial grid of 1166 points,  2 beta functions with: 
                l(1) =   0
                l(2) =   0

     atomic species   valence    mass     pseudopotential
     C                 4.00    12.01100     C ( 1.00)
     H                 1.00     1.00800     H ( 1.00)

      6 Sym. Ops. (no inversion) found



   Cartesian axes

     site n.     atom                  positions (alat units)
         1        C      tau(   1) = (   0.5000000   0.2886751   3.8425963  )
         2        C      tau(   2) = (   1.0000000   0.5773503   3.6495395  )
         3        C      tau(   3) = (   1.0000000   0.5773503   3.0344995  )
         4        C      tau(   4) = (  -0.0000000   0.0000000   2.8311966  )
         5        C      tau(   5) = (   0.0000000   0.0000000   2.2161565  )
         6        C      tau(   6) = (   0.5000000   0.2886751   2.0230997  )
         7        H      tau(   7) = (   0.5000000   0.2886751   4.2814431  )
         8        H      tau(   8) = (   0.5000000   0.2886751   1.5842529  )

     number of k points=    12  Marzari-Vanderbilt smearing, width (Ry)=  0.0100
                       cart. coord. in units 2pi/alat
        k(    1) = (   0.0000000   0.0000000   0.0000000), wk =   0.0246914
        k(    2) = (   0.0000000   0.1283001   0.0000000), wk =   0.1481481
        k(    3) = (   0.0000000   0.2566001   0.0000000), wk =   0.1481481
        k(    4) = (   0.0000000   0.3849002   0.0000000), wk =   0.1481481
        k(    5) = (   0.0000000   0.5132002   0.0000000), wk =   0.1481481
        k(    6) = (   0.1111111   0.1924501   0.0000000), wk =   0.1481481
        k(    7) = (   0.1111111   0.3207501   0.0000000), wk =   0.2962963
        k(    8) = (   0.1111111   0.4490502   0.0000000), wk =   0.2962963
        k(    9) = (   0.1111111  -0.5773503   0.0000000), wk =   0.1481481
        k(   10) = (   0.2222222   0.3849002   0.0000000), wk =   0.1481481
        k(   11) = (   0.2222222  -0.6415003   0.0000000), wk =   0.2962963
        k(   12) = (   0.3333333  -0.5773503   0.0000000), wk =   0.0493827

     Dense  grid:   375611 G-vectors     FFT dimensions: (  45,  45, 500)

     Smooth grid:   132525 G-vectors     FFT dimensions: (  30,  30, 360)

     Estimated max dynamical RAM per process >      81.99 MB

     Estimated total dynamical RAM >     655.92 MB

     Initial potential from superposition of free atoms

     starting charge      25.9997, renormalised to      26.0000

     negative rho (up, down):  4.512E-05 0.000E+00
     Starting wfcs are   26 randomized atomic wfcs
     Checking if some PAW data can be deallocated... 

     total cpu time spent up to now is        0.9 secs

     Self-consistent Calculation

     iteration #  1     ecut=    90.00 Ry     beta= 0.30
     Davidson diagonalization with overlap
     ethr =  1.00E-02,  avg # of iterations =  2.9

     negative rho (up, down):  4.759E-05 0.000E+00

     total cpu time spent up to now is        1.8 secs

     total energy              =    -113.01964498 Ry
     estimated scf accuracy    <       0.59976401 Ry

     iteration #  2     ecut=    90.00 Ry     beta= 0.30
     Davidson diagonalization with overlap
     ethr =  2.31E-03,  avg # of iterations =  3.1

     negative rho (up, down):  5.567E-05 0.000E+00

     total cpu time spent up to now is        2.5 secs

     total energy              =    -112.97846421 Ry
     estimated scf accuracy    <       0.18657997 Ry

     iteration #  3     ecut=    90.00 Ry     beta= 0.30
     Davidson diagonalization with overlap
     ethr =  7.18E-04,  avg # of iterations =  6.7

     negative rho (up, down):  5.945E-05 0.000E+00

     total cpu time spent up to now is        3.3 secs

     total energy              =    -112.98504378 Ry
     estimated scf accuracy    <       0.02615816 Ry

     iteration #  4     ecut=    90.00 Ry     beta= 0.30
     Davidson diagonalization with overlap
     ethr =  1.01E-04,  avg # of iterations =  5.2

     negative rho (up, down):  6.364E-05 0.000E+00

     total cpu time spent up to now is        4.1 secs

     total energy              =    -112.98628864 Ry
     estimated scf accuracy    <       0.00316511 Ry

     iteration #  5     ecut=    90.00 Ry     beta= 0.30
     Davidson diagonalization with overlap
     ethr =  1.22E-05,  avg # of iterations =  6.5

     negative rho (up, down):  6.178E-05 0.000E+00

     total cpu time spent up to now is        4.9 secs

     total energy              =    -112.98673895 Ry
     estimated scf accuracy    <       0.00024005 Ry

     iteration #  6     ecut=    90.00 Ry     beta= 0.30
     Davidson diagonalization with overlap
     ethr =  9.23E-07,  avg # of iterations =  4.5

     negative rho (up, down):  6.363E-05 0.000E+00

     total cpu time spent up to now is        5.7 secs

     total energy              =    -112.98676759 Ry
     estimated scf accuracy    <       0.00007658 Ry

     iteration #  7     ecut=    90.00 Ry     beta= 0.30
     Davidson diagonalization with overlap
     ethr =  2.95E-07,  avg # of iterations =  2.2

     negative rho (up, down):  6.314E-05 0.000E+00

     total cpu time spent up to now is        6.5 secs

     total energy              =    -112.98678181 Ry
     estimated scf accuracy    <       0.00002882 Ry

     iteration #  8     ecut=    90.00 Ry     beta= 0.30
     Davidson diagonalization with overlap
     ethr =  1.11E-07,  avg # of iterations =  1.8

     negative rho (up, down):  6.342E-05 0.000E+00

     total cpu time spent up to now is        7.1 secs

     total energy              =    -112.98678406 Ry
     estimated scf accuracy    <       0.00000308 Ry

     iteration #  9     ecut=    90.00 Ry     beta= 0.30
     Davidson diagonalization with overlap
     ethr =  1.19E-08,  avg # of iterations =  2.9

     negative rho (up, down):  6.355E-05 0.000E+00

     total cpu time spent up to now is        7.9 secs

     total energy              =    -112.98678476 Ry
     estimated scf accuracy    <       0.00000098 Ry

     iteration # 10     ecut=    90.00 Ry     beta= 0.30
     Davidson diagonalization with overlap
     ethr =  3.76E-09,  avg # of iterations =  2.0

     negative rho (up, down):  6.362E-05 0.000E+00

     total cpu time spent up to now is        8.6 secs

     total energy              =    -112.98678484 Ry
     estimated scf accuracy    <       0.00000017 Ry

     iteration # 11     ecut=    90.00 Ry     beta= 0.30
     Davidson diagonalization with overlap
     ethr =  6.58E-10,  avg # of iterations =  2.0

     negative rho (up, down):  6.362E-05 0.000E+00

     total cpu time spent up to now is        9.2 secs

     total energy              =    -112.98678482 Ry
     estimated scf accuracy    <       0.00000007 Ry

     iteration # 12     ecut=    90.00 Ry     beta= 0.30
     Davidson diagonalization with overlap
     ethr =  2.56E-10,  avg # of iterations =  2.5

     negative rho (up, down):  6.370E-05 0.000E+00

     total cpu time spent up to now is        9.9 secs

     total energy              =    -112.98678483 Ry
     estimated scf accuracy    <       0.00000001 Ry

     iteration # 13     ecut=    90.00 Ry     beta= 0.30
     Davidson diagonalization with overlap
     ethr =  4.41E-11,  avg # of iterations =  3.5

     negative rho (up, down):  6.390E-05 0.000E+00

     total cpu time spent up to now is       10.7 secs

     End of self-consistent calculation

          k = 0.0000 0.0000 0.0000 ( 16441 PWs)   bands (ev):

   -20.6852 -19.1971 -16.9659 -12.1427  -9.0636  -5.1701  -2.2653  -2.2653
    -1.6820  -1.4076  -1.4076  -0.3225  -0.3225   2.5458   2.8525   3.3773
     3.6572

          k = 0.0000 0.1283 0.0000 ( 16611 PWs)   bands (ev):

   -20.3845 -18.9026 -16.6840 -11.8729  -8.8376  -5.0463  -3.6736  -2.8869
    -2.7560  -1.9350  -1.7919  -1.4631  -0.7628   2.8886   3.0931   3.7484
     4.0391

          k = 0.0000 0.2566 0.0000 ( 16559 PWs)   bands (ev):

   -19.4888 -18.0267 -15.8480 -11.1221  -8.2533  -6.6435  -5.5302  -4.7071
    -4.1063  -4.0570  -3.0132  -1.9976  -1.7388   3.7645   3.8702   4.8802
     5.1678

          k = 0.0000 0.3849 0.0000 ( 16598 PWs)   bands (ev):

   -18.0229 -16.6030 -14.5095 -10.6177  -9.5570  -8.2997  -7.6593  -6.4332
    -5.0507  -4.6332  -3.9664  -2.6944  -2.6431   4.7349   5.1851   5.7580
     6.6662

          k = 0.0000 0.5132 0.0000 ( 16612 PWs)   bands (ev):

   -16.0872 -14.8697 -13.4768 -12.0067 -11.8062  -9.9635  -7.6633  -6.3818
    -5.5920  -5.2248  -4.4925  -3.2285  -3.1505   5.1481   5.8738   6.5221
     7.0099

          k = 0.1111 0.1925 0.0000 ( 16603 PWs)   bands (ev):

   -19.7862 -18.3173 -16.1247 -11.3586  -8.4231  -5.4480  -4.8519  -4.7611
    -3.8465  -3.5579  -2.4525  -2.4362  -1.4697   3.5412   3.6039   4.5059
     4.7971

          k = 0.1111 0.3208 0.0000 ( 16530 PWs)   bands (ev):

   -18.6042 -17.1649 -15.0305 -10.5404  -8.2797  -7.7301  -6.8751  -6.1228
    -4.9997  -4.5789  -4.3423  -3.3777  -2.0895   4.6013   4.7301   6.0321
     6.2282

          k = 0.1111 0.4491 0.0000 ( 16566 PWs)   bands (ev):

   -16.8861 -15.5198 -13.5553 -11.4092 -10.5024  -8.7073  -8.1228  -6.4481
    -6.2306  -5.4534  -4.7619  -3.9434  -2.9564   5.5427   6.2194   6.8574
     7.6693

          k = 0.1111-0.5774 0.0000 ( 16616 PWs)   bands (ev):

   -15.1088 -14.5728 -13.3540 -12.4206 -11.2910 -10.7338  -7.1262  -6.8306
    -6.3956  -5.4671  -5.4098  -3.9857  -3.4539   5.8467   6.7219   7.5775
     7.8540

          k = 0.2222 0.3849 0.0000 ( 16543 PWs)   bands (ev):

   -17.1635 -15.7736 -13.7344 -10.6048  -9.4015  -8.6289  -7.7665  -7.2054
    -6.5276  -5.7081  -5.4854  -4.4344  -2.8659   5.7025   6.1239   7.3918
     7.7546

          k = 0.2222-0.6415 0.0000 ( 16631 PWs)   bands (ev):

   -15.2797 -14.1091 -12.7364 -11.7729 -11.2125  -9.9326  -8.2453  -7.8707
    -6.8259  -6.4313  -5.5268  -4.7068  -3.8491   6.3778   7.0278   8.2378
     8.4054

          k = 0.3333-0.5774 0.0000 ( 16653 PWs)   bands (ev):

   -13.6735 -13.6735 -12.5643 -12.2603 -10.8352 -10.8351  -8.7158  -8.4177
    -8.4177  -5.6757  -5.0952  -5.0952  -4.7871   6.9814   6.9814   7.6320
     9.3299

     the Fermi energy is     0.4604 ev

!    total energy              =    -112.98678483 Ry
     estimated scf accuracy    <          6.3E-09 Ry
     smearing contrib. (-TS)   =       0.00000000 Ry
     internal energy E=F+TS    =    -112.98678483 Ry

     The total energy is F=E-TS. E is the sum of the following terms:
     one-electron contribution =   -2546.94709111 Ry
     hartree contribution      =    1280.84994153 Ry
     xc contribution           =     -29.50877989 Ry
     ewald contribution        =    1219.59752502 Ry
     one-center paw contrib.   =     -36.97838038 Ry

     convergence has been achieved in  13 iterations

     negative rho (up, down):  6.390E-05 0.000E+00

     Forces acting on atoms (cartesian axes, Ry/au):

     atom    1 type  1   force =     0.00000000    0.00000000   -0.00004025
     atom    2 type  1   force =     0.00000000    0.00000000   -0.00001642
     atom    3 type  1   force =     0.00000000    0.00000000    0.00001931
     atom    4 type  1   force =     0.00000000    0.00000000   -0.00003605
     atom    5 type  1   force =     0.00000000    0.00000000    0.00004147
     atom    6 type  1   force =     0.00000000    0.00000000    0.00002940
     atom    7 type  2   force =     0.00000000    0.00000000    0.00000297
     atom    8 type  2   force =     0.00000000    0.00000000   -0.00000042

     Total force =     0.000078     Total SCF correction =     0.000132
     SCF correction compared to forces is large: reduce conv_thr to get better values


     Computing stress (Cartesian axis) and pressure


     negative rho (up, down):  6.390E-05 0.000E+00
          total   stress  (Ry/bohr**3)                   (kbar)     P=        1.77
   0.00001850   0.00000000   0.00000000            2.72        0.00        0.00
   0.00000000   0.00001850   0.00000000            0.00        2.72        0.00
   0.00000000   0.00000000  -0.00000090            0.00        0.00       -0.13


     Writing all to output data dir /tmp/qe/slab.save/ :
     XML data file, charge density, pseudopotentials, collected wavefunctions

     init_run     :      0.55s CPU      0.75s WALL (       1 calls)
     electrons    :      9.58s CPU      9.77s WALL (       1 calls)
     forces       :      0.19s CPU      0.19s WALL (       1 calls)
     stress       :      1.00s CPU      1.01s WALL (       1 calls)

     Called by init_run:
     wfcinit      :      0.27s CPU      0.36s WALL (       1 calls)
     potinit      :      0.11s CPU      0.13s WALL (       1 calls)
     hinit0       :      0.06s CPU      0.12s WALL (       1 calls)

     Called by electrons:
     c_bands      :      6.11s CPU      6.22s WALL (      13 calls)
     sum_band     :      1.71s CPU      1.75s WALL (      13 calls)
     v_of_rho     :      0.88s CPU      0.90s WALL (      14 calls)
     newd         :      0.43s CPU      0.45s WALL (      14 calls)
     PAW_pot      :      0.44s CPU      0.44s WALL (      14 calls)
     mix_rho      :      0.08s CPU      0.08s WALL (      13 calls)

     Called by c_bands:
     init_us_2    :      0.21s CPU      0.22s WALL (     348 calls)
     cegterg      :      5.81s CPU      5.91s WALL (     156 calls)

     Called by *egterg:
     cdiaghg      :      0.21s CPU      0.31s WALL (     706 calls)
     h_psi        :      4.97s CPU      5.04s WALL (     718 calls)
     s_psi        :      0.17s CPU      0.18s WALL (     718 calls)
     g_psi        :      0.03s CPU      0.03s WALL (     550 calls)

     Called by h_psi:
     h_psi:calbec :      0.21s CPU      0.23s WALL (     718 calls)
     vloc_psi     :      4.52s CPU      4.56s WALL (     718 calls)
     add_vuspsi   :      0.21s CPU      0.22s WALL (     718 calls)

     General routines
     calbec       :      0.30s CPU      0.32s WALL (     934 calls)
     fft          :      0.38s CPU      0.47s WALL (     205 calls)
     ffts         :      0.01s CPU      0.02s WALL (      27 calls)
     fftw         :      3.93s CPU      3.97s WALL (   17284 calls)
     interpolate  :      0.03s CPU      0.04s WALL (      14 calls)

     Parallel routines

     PWSCF        :     11.42s CPU     11.98s WALL


   This run was terminated on:  12:48:17   1Aug2026            

=------------------------------------------------------------------------------=
   JOB DONE.
=------------------------------------------------------------------------------=
Note: The following floating-point exceptions are signalling: IEEE_UNDERFLOW_FLAG IEEE_DENORMAL
Note: The following floating-point exceptions are signalling: IEEE_UNDERFLOW_FLAG IEEE_DENORMAL
Note: The following floating-point exceptions are signalling: IEEE_UNDERFLOW_FLAG IEEE_DENORMAL
Note: The following floating-point exceptions are signalling: IEEE_UNDERFLOW_FLAG IEEE_DENORMAL
Note: The following floating-point exceptions are signalling: IEEE_UNDERFLOW_FLAG IEEE_DENORMAL
Note: The following floating-point exceptions are signalling: IEEE_UNDERFLOW_FLAG IEEE_DENORMAL
Note: The following floating-point exceptions are signalling: IEEE_UNDERFLOW_FLAG IEEE_DENORMAL
Note: The following floating-point exceptions are signalling: IEEE_UNDERFLOW_FLAG IEEE_DENORMAL
