
     Program PWSCF v.7.3.1 starts on  1Aug2026 at 12:41:25 

     This program is part of the open-source Quantum ESPRESSO suite
     for quantum simulation of materials; please cite
         "P. Giannozzi et al., J. Phys.:Condens. Matter 21 395502 (2009);
         "P. Giannozzi et al., J. Phys.:Condens. Matter 29 465901 (2017);
         "P. Giannozzi et al., J. Chem. Phys. 152 154105 (2020);
          URL http://www.quantum-espresso.org", 
     in publications or presentations arising from this work. More details at
     http://www.quantum-espresso.org/quote

     Parallel version (MPI), running on     8 processors

     MPI processes distributed on     1 nodes
     187303 MiB available memory on the printing compute node when the environment starts

     Reading input from pw.in

     Current dimensions of program PWSCF are:
     Max number of different atomic species (ntypx) = 10
     Max number of k-points (npk) =  40000
     Max angular momentum in pseudopotentials (lmaxx) =  4
     file C.pbe-n-kjpaw_psl.1.0.0.UPF: wavefunction(s)  2S 2P renormalized
     Message from routine setup:
     using ibrav=0 with symmetry is DISCOURAGED, use correct ibrav instead

     R & G space division:  proc/nbgrp/npool/nimage =       8
     Subspace diagonalization in iterative solution of the eigenvalue problem:
     a serial algorithm will be used


     Parallelization info
     --------------------
     sticks:   dense  smooth     PW     G-vecs:    dense   smooth      PW
     Min         141      69     20                22561     7947    1312
     Max         142      70     21                22584     7978    1341
     Sum        1135     559    163               180617    63763   10587

     Using Slab Decomposition



     bravais-lattice index     =            0
     lattice parameter (alat)  =       4.7752  a.u.
     unit-cell volume          =     553.1394 (a.u.)^3
     number of atoms/cell      =            8
     number of atomic types    =            2
     number of electrons       =        26.00
     number of Kohn-Sham states=           17
     kinetic-energy cutoff     =      90.0000  Ry
     charge density cutoff     =     720.0000  Ry
     scf convergence threshold =      1.0E-08
     mixing beta               =       0.3000
     number of iterations used =            8  plain     mixing
     Exchange-correlation= PBE
                           (   1   4   3   4   0   0   0)

     celldm(1)=   4.775235  celldm(2)=   0.000000  celldm(3)=   0.000000
     celldm(4)=   0.000000  celldm(5)=   0.000000  celldm(6)=   0.000000

     crystal axes: (cart. coord. in units of alat)
               a(1) = (   1.000000   0.000000   0.000000 )  
               a(2) = (   0.500000   0.866025   0.000000 )  
               a(3) = (   0.000000   0.000000   5.865696 )  

     reciprocal axes: (cart. coord. in units 2 pi/alat)
               b(1) = (  1.000000 -0.577350  0.000000 )  
               b(2) = (  0.000000  1.154701  0.000000 )  
               b(3) = (  0.000000  0.000000  0.170483 )  


     PseudoPot. # 1 for C  read from file:
     ./C.pbe-n-kjpaw_psl.1.0.0.UPF
     MD5 check sum: 5d2aebdfa2cae82b50a7e79e9516da0f
     Pseudo is Projector augmented-wave + core cor, Zval =  4.0
     Generated using "atomic" code by A. Dal Corso  v.5.1
     Shape of augmentation charge: PSQ
     Using radial grid of 1073 points,  4 beta functions with: 
                l(1) =   0
                l(2) =   0
                l(3) =   1
                l(4) =   1
     Q(r) pseudized with 0 coefficients 


     PseudoPot. # 2 for H  read from file:
     ./H_ONCV_PBE-1.0.oncvpsp.upf
     MD5 check sum: 1790becc920ee074925cf490c71280fe
     Pseudo is Norm-conserving, Zval =  1.0
     Generated using ONCVPSP code by D. R. Hamann
     Using radial grid of 1166 points,  2 beta functions with: 
                l(1) =   0
                l(2) =   0

     atomic species   valence    mass     pseudopotential
     C                 4.00    12.01100     C ( 1.00)
     H                 1.00     1.00800     H ( 1.00)

     12 Sym. Ops., with inversion, found ( 6 have fractional translation)



   Cartesian axes

     site n.     atom                  positions (alat units)
         1        C      tau(   1) = (   0.5000000   0.2886751   3.8425963  )
         2        C      tau(   2) = (   1.0000000   0.5773503   3.6495395  )
         3        C      tau(   3) = (   1.0000000   0.5773503   3.0344995  )
         4        C      tau(   4) = (  -0.0000000   0.0000000   2.8311966  )
         5        C      tau(   5) = (   0.0000000   0.0000000   2.2161565  )
         6        C      tau(   6) = (   0.5000000   0.2886751   2.0230997  )
         7        H      tau(   7) = (   0.5000000   0.2886751   4.2814431  )
         8        H      tau(   8) = (   0.5000000   0.2886751   1.5842529  )

     number of k points=    27  Marzari-Vanderbilt smearing, width (Ry)=  0.0100
                       cart. coord. in units 2pi/alat
        k(    1) = (   0.0000000   0.0000000   0.0000000), wk =   0.0088889
        k(    2) = (   0.0000000   0.0769800   0.0000000), wk =   0.0533333
        k(    3) = (   0.0000000   0.1539601   0.0000000), wk =   0.0533333
        k(    4) = (   0.0000000   0.2309401   0.0000000), wk =   0.0533333
        k(    5) = (   0.0000000   0.3079201   0.0000000), wk =   0.0533333
        k(    6) = (   0.0000000   0.3849002   0.0000000), wk =   0.0533333
        k(    7) = (   0.0000000   0.4618802   0.0000000), wk =   0.0533333
        k(    8) = (   0.0000000   0.5388603   0.0000000), wk =   0.0533333
        k(    9) = (   0.0666667   0.1154701   0.0000000), wk =   0.0533333
        k(   10) = (   0.0666667   0.1924501   0.0000000), wk =   0.1066667
        k(   11) = (   0.0666667   0.2694301   0.0000000), wk =   0.1066667
        k(   12) = (   0.0666667   0.3464102   0.0000000), wk =   0.1066667
        k(   13) = (   0.0666667   0.4233902   0.0000000), wk =   0.1066667
        k(   14) = (   0.0666667   0.5003702   0.0000000), wk =   0.1066667
        k(   15) = (   0.0666667  -0.5773503   0.0000000), wk =   0.0533333
        k(   16) = (   0.1333333   0.2309401   0.0000000), wk =   0.0533333
        k(   17) = (   0.1333333   0.3079201   0.0000000), wk =   0.1066667
        k(   18) = (   0.1333333   0.3849002   0.0000000), wk =   0.1066667
        k(   19) = (   0.1333333   0.4618802   0.0000000), wk =   0.1066667
        k(   20) = (   0.1333333  -0.6158403   0.0000000), wk =   0.1066667
        k(   21) = (   0.2000000   0.3464102   0.0000000), wk =   0.0533333
        k(   22) = (   0.2000000   0.4233902   0.0000000), wk =   0.1066667
        k(   23) = (   0.2000000  -0.6543303   0.0000000), wk =   0.1066667
        k(   24) = (   0.2000000  -0.5773503   0.0000000), wk =   0.0533333
        k(   25) = (   0.2666667  -0.6928203   0.0000000), wk =   0.0533333
        k(   26) = (   0.2666667  -0.6158403   0.0000000), wk =   0.1066667
        k(   27) = (   0.3333333  -0.5773503   0.0000000), wk =   0.0177778

     Dense  grid:   180617 G-vectors     FFT dimensions: (  45,  45, 240)

     Smooth grid:    63763 G-vectors     FFT dimensions: (  30,  30, 180)

     Estimated max dynamical RAM per process >      43.90 MB

     Estimated total dynamical RAM >     351.20 MB

     Initial potential from superposition of free atoms

     starting charge      25.9997, renormalised to      26.0000
     Starting wfcs are   26 randomized atomic wfcs
     Checking if some PAW data can be deallocated... 

     total cpu time spent up to now is        0.6 secs

     Self-consistent Calculation

     iteration #  1     ecut=    90.00 Ry     beta= 0.30
     Davidson diagonalization with overlap
     ethr =  1.00E-02,  avg # of iterations =  2.9

     total cpu time spent up to now is        1.4 secs

     total energy              =    -113.01809188 Ry
     estimated scf accuracy    <       0.60620143 Ry

     iteration #  2     ecut=    90.00 Ry     beta= 0.30
     Davidson diagonalization with overlap
     ethr =  2.33E-03,  avg # of iterations =  3.1

     negative rho (up, down):  9.095E-08 0.000E+00

     total cpu time spent up to now is        2.1 secs

     total energy              =    -112.97924209 Ry
     estimated scf accuracy    <       0.18493145 Ry

     iteration #  3     ecut=    90.00 Ry     beta= 0.30
     Davidson diagonalization with overlap
     ethr =  7.11E-04,  avg # of iterations =  4.6

     negative rho (up, down):  5.317E-08 0.000E+00

     total cpu time spent up to now is        2.8 secs

     total energy              =    -112.98525198 Ry
     estimated scf accuracy    <       0.02658194 Ry

     iteration #  4     ecut=    90.00 Ry     beta= 0.30
     Davidson diagonalization with overlap
     ethr =  1.02E-04,  avg # of iterations =  5.1

     negative rho (up, down):  2.344E-08 0.000E+00

     total cpu time spent up to now is        3.6 secs

     total energy              =    -112.98636480 Ry
     estimated scf accuracy    <       0.00320684 Ry

     iteration #  5     ecut=    90.00 Ry     beta= 0.30
     Davidson diagonalization with overlap
     ethr =  1.23E-05,  avg # of iterations =  5.4

     negative rho (up, down):  1.060E-08 0.000E+00

     total cpu time spent up to now is        4.4 secs

     total energy              =    -112.98678447 Ry
     estimated scf accuracy    <       0.00024963 Ry

     iteration #  6     ecut=    90.00 Ry     beta= 0.30
     Davidson diagonalization with overlap
     ethr =  9.60E-07,  avg # of iterations =  4.8

     total cpu time spent up to now is        5.1 secs

     total energy              =    -112.98681592 Ry
     estimated scf accuracy    <       0.00007901 Ry

     iteration #  7     ecut=    90.00 Ry     beta= 0.30
     Davidson diagonalization with overlap
     ethr =  3.04E-07,  avg # of iterations =  2.7

     total cpu time spent up to now is        5.8 secs

     total energy              =    -112.98683090 Ry
     estimated scf accuracy    <       0.00003107 Ry

     iteration #  8     ecut=    90.00 Ry     beta= 0.30
     Davidson diagonalization with overlap
     ethr =  1.19E-07,  avg # of iterations =  1.9

     total cpu time spent up to now is        6.4 secs

     total energy              =    -112.98683459 Ry
     estimated scf accuracy    <       0.00000226 Ry

     iteration #  9     ecut=    90.00 Ry     beta= 0.30
     Davidson diagonalization with overlap
     ethr =  8.68E-09,  avg # of iterations =  2.4

     total cpu time spent up to now is        7.2 secs

     total energy              =    -112.98683494 Ry
     estimated scf accuracy    <       0.00000037 Ry

     iteration # 10     ecut=    90.00 Ry     beta= 0.30
     Davidson diagonalization with overlap
     ethr =  1.42E-09,  avg # of iterations =  2.1

     total cpu time spent up to now is        7.8 secs

     total energy              =    -112.98683499 Ry
     estimated scf accuracy    <       0.00000005 Ry

     iteration # 11     ecut=    90.00 Ry     beta= 0.30
     Davidson diagonalization with overlap
     ethr =  1.90E-10,  avg # of iterations =  2.4

     total cpu time spent up to now is        8.5 secs

     total energy              =    -112.98683500 Ry
     estimated scf accuracy    <       0.00000001 Ry

     iteration # 12     ecut=    90.00 Ry     beta= 0.30
     Davidson diagonalization with overlap
     ethr =  4.62E-11,  avg # of iterations =  2.1

     total cpu time spent up to now is        9.2 secs

     End of self-consistent calculation

          k = 0.0000 0.0000 0.0000 (  7951 PWs)   bands (ev):

   -16.9012 -15.4131 -13.1817  -8.3584  -5.2792  -1.3854   1.5187   1.5187
     2.1008   2.3763   2.3763   3.4616   3.4616   6.4012   6.6361   9.2021
    10.3597

          k = 0.0000 0.0770 0.0000 (  7973 PWs)   bands (ev):

   -16.7928 -15.3069 -13.0801  -8.2605  -5.1966  -1.3368   0.9655   1.2719
     1.8283   2.1095   2.1730   2.9915   3.2960   6.4915   6.7572   9.1949
    10.4013

          k = 0.0000 0.1540 0.0000 (  7983 PWs)   bands (ev):

   -16.4685 -14.9894 -12.7763  -7.9724  -4.9572  -1.2270  -0.3971   0.5331
     0.6748   1.6503   1.7023   2.1233   2.8475   6.7640   7.1018   9.2210
    10.3933

          k = 0.0000 0.2309 0.0000 (  7961 PWs)   bands (ev):

   -15.9307 -14.4634 -12.2740  -7.5170  -4.5966  -2.2549  -1.1771  -0.9375
    -0.0385   0.2072   0.9920   1.8875   2.2509   7.2199   7.6375   9.3078
    10.2845

          k = 0.0000 0.3079 0.0000 (  7966 PWs)   bands (ev):

   -15.1843 -13.7353 -11.5822  -6.9743  -4.4074  -3.9067  -2.8736  -1.4767
    -0.7784  -0.7135   0.3508   1.5339   1.6499   7.8573   8.2908   9.3688
    10.3765

          k = 0.0000 0.3849 0.0000 (  7984 PWs)   bands (ev):

   -14.2389 -12.8190 -10.7253  -6.8336  -5.7729  -4.5156  -3.8750  -2.6491
    -1.2667  -0.8488  -0.1824   1.0898   1.1410   8.5255   8.9150   9.6268
    10.4383

          k = 0.0000 0.4619 0.0000 (  7990 PWs)   bands (ev):

   -13.1165 -11.7582  -9.8360  -7.9348  -7.0796  -5.2124  -4.3836  -2.5936
    -1.6539  -1.2014  -0.5584   0.7192   0.7788   8.7768   9.7021  10.0423
    10.4484

          k = 0.0000 0.5389 0.0000 (  7978 PWs)   bands (ev):

   -11.9056 -10.9074  -9.7940  -8.4632  -7.9791  -6.6372  -3.6063  -2.7209
    -1.8524  -1.4916  -0.7518   0.5037   0.5917   9.0249   9.5450  10.3469
    10.9884

          k = 0.0667 0.1155 0.0000 (  7983 PWs)   bands (ev):

   -16.5765 -15.0951 -12.8773  -8.0674  -5.0354  -1.2525   0.1321   0.5628
     1.2829   1.4930   2.0146   2.4121   2.8917   6.6774   6.9900   9.2610
    10.4465

          k = 0.0667 0.1925 0.0000 (  7965 PWs)   bands (ev):

   -16.1454 -14.6732 -12.4742  -7.6943  -4.7327  -1.4640  -0.9730  -0.5897
     0.1512   0.6744   1.3010   1.8286   2.4117   7.0561   7.4320   9.4509
    10.4280

          k = 0.0667 0.2694 0.0000 (  7942 PWs)   bands (ev):

   -15.5032 -14.0459 -11.8766  -7.1840  -4.3689  -3.1443  -2.0883  -1.1862
    -0.7189  -0.3465   0.3069   1.3493   1.9941   7.6264   8.0381   9.6418
    10.4666

          k = 0.0667 0.3464 0.0000 (  7960 PWs)   bands (ev):

   -14.6567 -13.2225 -11.0986  -6.7279  -5.0258  -4.1105  -3.4736  -2.3030
    -1.2871  -0.7709  -0.3306   0.8375   1.5208   8.3722   8.6936   9.7542
    10.8160

          k = 0.0667 0.4234 0.0000 (  7984 PWs)   bands (ev):

   -13.6202 -12.2260 -10.1903  -7.2847  -6.3403  -4.6223  -4.4064  -2.6578
    -1.8805  -1.0682  -0.7075   0.4511   1.0247   8.9425   9.4391  10.1298
    10.8155

          k = 0.0667 0.5004 0.0000 (  7977 PWs)   bands (ev):

   -12.4332 -11.1625  -9.5867  -8.1940  -7.7475  -5.9026  -3.9692  -2.5264
    -2.2128  -1.4260  -1.0282   0.2650   0.6265   9.2098   9.9851  10.6069
    10.8865

          k = 0.0667-0.5774 0.0000 (  8000 PWs)   bands (ev):

   -11.4516 -10.9128  -9.6934  -8.7393  -7.5760  -7.0449  -3.3257  -2.8667
    -2.2876  -1.5172  -1.1588   0.2468   0.4334   9.5130   9.6652  10.8594
    11.1692

          k = 0.1333 0.2309 0.0000 (  7963 PWs)   bands (ev):

   -15.6098 -14.1499 -11.9753  -7.2608  -4.4087  -2.5027  -1.9310  -1.1967
    -0.6463  -0.3921   0.7167   0.7391   2.1224   7.5669   7.9485   9.9896
    10.5626

          k = 0.1333 0.3079 0.0000 (  7955 PWs)   bands (ev):

   -14.8670 -13.4262 -11.2888  -6.7700  -4.3182  -3.8385  -2.9760  -2.4025
    -1.2730  -0.6974  -0.5709   0.1424   1.7460   8.2846   8.5763  10.4327
    10.9199

          k = 0.1333 0.3849 0.0000 (  7956 PWs)   bands (ev):

   -13.9272 -12.5168 -10.4398  -6.7300  -5.5809  -4.4009  -3.8896  -2.9031
    -2.0814  -1.6339  -0.7129  -0.2879   1.2256   9.1061   9.2576  10.6177
    11.7118

          k = 0.1333 0.4619 0.0000 (  7986 PWs)   bands (ev):

   -12.8135 -11.4666  -9.5578  -7.7651  -6.9042  -5.1549  -4.1890  -3.0089
    -2.4420  -2.0211  -1.1406  -0.4390   0.6919   9.5293  10.2180  10.9726
    11.8126

          k = 0.1333-0.6158 0.0000 (  7988 PWs)   bands (ev):

   -11.6152 -10.6293  -9.5180  -8.2379  -7.7972  -6.4705  -3.5630  -3.2940
    -2.5395  -1.9594  -1.6532  -0.4365   0.3110   9.6920  10.8647  11.4065
    11.9913

          k = 0.2000 0.3464 0.0000 (  7949 PWs)   bands (ev):

   -14.0303 -12.6151 -10.5268  -6.5612  -4.9244  -4.5330  -3.5288  -3.2128
    -2.3428  -1.2779  -1.2393  -0.6042   1.3000   9.1515   9.1599  11.2643
    11.3626

          k = 0.2000 0.4234 0.0000 (  7983 PWs)   bands (ev):

   -13.0090 -11.6383  -9.6403  -7.1617  -6.1315  -4.9720  -4.1095  -3.5362
    -2.8051  -2.2965  -1.6052  -0.7014   0.7116   9.7065  10.1491  11.0642
    12.0869

          k = 0.2000-0.6543 0.0000 (  7984 PWs)   bands (ev):

   -11.8453 -10.6049  -9.0456  -7.9525  -7.3750  -5.8940  -4.1541  -3.9074
    -2.9711  -2.4461  -1.7544  -0.8554   0.1522  10.0349  10.7059  11.7591
    12.3487

          k = 0.2000-0.5774 0.0000 (  8006 PWs)   bands (ev):

   -10.8876 -10.3710  -9.1529  -8.3726  -7.3546  -6.6993  -4.3900  -3.9745
    -2.5854  -2.2842  -2.2502  -0.7965  -0.1324   9.9970  11.4484  11.5776
    12.5460

          k = 0.2667-0.6928 0.0000 (  7987 PWs)   bands (ev):

   -11.9299 -10.6423  -8.8224  -7.8667  -6.8215  -5.9704  -4.4699  -3.6654
    -3.5699  -2.8602  -1.6376  -0.9284   0.0631  10.3749  10.4572  11.6770
    12.0182

          k = 0.2667-0.6158 0.0000 (  8003 PWs)   bands (ev):

   -10.7819  -9.8822  -8.7866  -8.2866  -7.2611  -6.6212  -4.9317  -4.4836
    -3.7042  -2.3706  -1.6129  -1.0289  -0.5342  10.3580  11.1275  11.4682
    12.6662

          k = 0.3333-0.5774 0.0000 (  8007 PWs)   bands (ev):

    -9.8895  -9.8895  -8.7802  -8.4762  -7.0511  -7.0511  -4.9316  -4.6336
    -4.6336  -1.8912  -1.3111  -1.3111  -1.0027  10.7657  10.7657  11.4174
    13.1181

     the Fermi energy is     4.2473 ev

!    total energy              =    -112.98683499 Ry
     estimated scf accuracy    <          4.5E-09 Ry
     smearing contrib. (-TS)   =       0.00000000 Ry
     internal energy E=F+TS    =    -112.98683499 Ry

     The total energy is F=E-TS. E is the sum of the following terms:
     one-electron contribution =    -588.52489542 Ry
     hartree contribution      =     305.25422795 Ry
     xc contribution           =     -29.50861971 Ry
     ewald contribution        =     236.77085212 Ry
     one-center paw contrib.   =     -36.97839992 Ry

     convergence has been achieved in  12 iterations

     Forces acting on atoms (cartesian axes, Ry/au):

     atom    1 type  1   force =     0.00000000    0.00000000   -0.00002298
     atom    2 type  1   force =     0.00000000    0.00000000   -0.00000574
     atom    3 type  1   force =     0.00000000    0.00000000   -0.00000137
     atom    4 type  1   force =    -0.00000000    0.00000000    0.00000137
     atom    5 type  1   force =     0.00000000   -0.00000000    0.00000574
     atom    6 type  1   force =     0.00000000    0.00000000    0.00002298
     atom    7 type  2   force =     0.00000000    0.00000000   -0.00000464
     atom    8 type  2   force =     0.00000000    0.00000000    0.00000464

     Total force =     0.000034     Total SCF correction =     0.000043
     SCF correction compared to forces is large: reduce conv_thr to get better values


     Computing stress (Cartesian axis) and pressure

          total   stress  (Ry/bohr**3)                   (kbar)     P=        3.66
   0.00003823   0.00000000   0.00000000            5.62        0.00        0.00
   0.00000000   0.00003823   0.00000000            0.00        5.62        0.00
   0.00000000   0.00000000  -0.00000179            0.00        0.00       -0.26


     Writing all to output data dir /tmp/qe/slab.save/ :
     XML data file, charge density, pseudopotentials, collected wavefunctions

     init_run     :      0.47s CPU      0.54s WALL (       1 calls)
     electrons    :      8.38s CPU      8.58s WALL (       1 calls)
     forces       :      0.11s CPU      0.11s WALL (       1 calls)
     stress       :      0.84s CPU      0.85s WALL (       1 calls)

     Called by init_run:
     wfcinit      :      0.30s CPU      0.32s WALL (       1 calls)
     potinit      :      0.07s CPU      0.09s WALL (       1 calls)
     hinit0       :      0.05s CPU      0.07s WALL (       1 calls)

     Called by electrons:
     c_bands      :      6.03s CPU      6.16s WALL (      12 calls)
     sum_band     :      1.41s CPU      1.45s WALL (      12 calls)
     v_of_rho     :      0.37s CPU      0.39s WALL (      13 calls)
     newd         :      0.19s CPU      0.20s WALL (      13 calls)
     PAW_pot      :      0.40s CPU      0.41s WALL (      13 calls)
     mix_rho      :      0.02s CPU      0.03s WALL (      12 calls)

     Called by c_bands:
     init_us_2    :      0.19s CPU      0.20s WALL (     729 calls)
     cegterg      :      5.73s CPU      5.85s WALL (     324 calls)

     Called by *egterg:
     cdiaghg      :      0.37s CPU      0.39s WALL (    1394 calls)
     h_psi        :      4.92s CPU      5.02s WALL (    1421 calls)
     s_psi        :      0.13s CPU      0.13s WALL (    1421 calls)
     g_psi        :      0.03s CPU      0.03s WALL (    1070 calls)

     Called by h_psi:
     h_psi:calbec :      0.19s CPU      0.19s WALL (    1421 calls)
     vloc_psi     :      4.57s CPU      4.66s WALL (    1421 calls)
     add_vuspsi   :      0.13s CPU      0.14s WALL (    1421 calls)

     General routines
     calbec       :      0.28s CPU      0.29s WALL (    1880 calls)
     fft          :      0.16s CPU      0.21s WALL (     192 calls)
     ffts         :      0.01s CPU      0.01s WALL (      25 calls)
     fftw         :      4.18s CPU      4.26s WALL (   35460 calls)
     interpolate  :      0.02s CPU      0.02s WALL (      13 calls)

     Parallel routines

     PWSCF        :      9.93s CPU     10.24s WALL


   This run was terminated on:  12:41:36   1Aug2026            

=------------------------------------------------------------------------------=
   JOB DONE.
=------------------------------------------------------------------------------=
Note: The following floating-point exceptions are signalling: IEEE_UNDERFLOW_FLAG IEEE_DENORMAL
Note: The following floating-point exceptions are signalling: IEEE_UNDERFLOW_FLAG IEEE_DENORMAL
Note: The following floating-point exceptions are signalling: IEEE_UNDERFLOW_FLAG IEEE_DENORMAL
Note: The following floating-point exceptions are signalling: IEEE_UNDERFLOW_FLAG IEEE_DENORMAL
Note: The following floating-point exceptions are signalling: IEEE_UNDERFLOW_FLAG IEEE_DENORMAL
Note: The following floating-point exceptions are signalling: IEEE_UNDERFLOW_FLAG IEEE_DENORMAL
Note: The following floating-point exceptions are signalling: IEEE_UNDERFLOW_FLAG IEEE_DENORMAL
Note: The following floating-point exceptions are signalling: IEEE_UNDERFLOW_FLAG IEEE_DENORMAL
