
     Program PWSCF v.7.5 starts on 22Jun2026 at 14:32:34 

     This program is part of the open-source Quantum ESPRESSO suite
     for quantum simulation of materials; please cite
         "P. Giannozzi et al., J. Phys.:Condens. Matter 21 395502 (2009);
         "P. Giannozzi et al., J. Phys.:Condens. Matter 29 465901 (2017);
         "P. Giannozzi et al., J. Chem. Phys. 152 154105 (2020);
          URL http://www.quantum-espresso.org", 
     in publications or presentations arising from this work. More details at
     http://www.quantum-espresso.org/quote

     Serial version
     0 MiB available memory on the printing compute node when the environment starts

     Waiting for input...
     Reading input from standard input

     Current dimensions of program PWSCF are:
     Max number of different atomic species (ntypx) = 10
     Max number of k-points (npk) =  40000
     Max angular momentum in pseudopotentials (lmaxx) =  4
     file C.pbe-n-kjpaw_psl.1.0.0.UPF: wavefunction(s)  2S 2P renormalized
     Message from routine setup:
     using ibrav=0 with symmetry is DISCOURAGED, use correct ibrav instead


     G-vector sticks info
     --------------------
     sticks:   dense  smooth     PW     G-vecs:    dense   smooth      PW
     Sum        1003     499    151               209313    74197   12417

     Using Slab Decomposition



     bravais-lattice index     =            0
     lattice parameter (alat)  =       4.7514  a.u.
     unit-cell volume          =     765.9715 (a.u.)^3
     number of atoms/cell      =            7
     number of atomic types    =            2
     number of electrons       =        25.00
     number of Kohn-Sham states=           17
     kinetic-energy cutoff     =      80.0000  Ry
     charge density cutoff     =     640.0000  Ry
     scf convergence threshold =      1.0E-08
     mixing beta               =       0.3000
     number of iterations used =            8  plain     mixing
     Exchange-correlation= PBE
                           (   1   4   3   4   0   0   0)

     celldm(1)=   4.751359  celldm(2)=   0.000000  celldm(3)=   0.000000
     celldm(4)=   0.000000  celldm(5)=   0.000000  celldm(6)=   0.000000

     crystal axes: (cart. coord. in units of alat)
               a(1) = (   1.000000   0.000000   0.000000 )  
               a(2) = (   0.500000   0.866025   0.000000 )  
               a(3) = (   0.000000   0.000000   8.245716 )  

     reciprocal axes: (cart. coord. in units 2 pi/alat)
               b(1) = (  1.000000 -0.577350  0.000000 )  
               b(2) = (  0.000000  1.154701  0.000000 )  
               b(3) = (  0.000000  0.000000  0.121275 )  


     PseudoPot. # 1 for C  read from file:
     ./C.pbe-n-kjpaw_psl.1.0.0.UPF
     MD5 check sum: 5d2aebdfa2cae82b50a7e79e9516da0f
     Pseudo is Projector augmented-wave + core cor, Zval =  4.0
     Generated using "atomic" code by A. Dal Corso  v.5.1
     Shape of augmentation charge: PSQ
     Using radial grid of 1073 points,  4 beta functions with: 
                l(1) =   0
                l(2) =   0
                l(3) =   1
                l(4) =   1
     Q(r) pseudized with 0 coefficients 


     PseudoPot. # 2 for H  read from file:
     ./H_ONCV_PBE-1.0.oncvpsp.upf
     MD5 check sum: 1790becc920ee074925cf490c71280fe
     Pseudo is Norm-conserving, Zval =  1.0
     Generated using ONCVPSP code by D. R. Hamann
     Using radial grid of 1166 points,  2 beta functions with: 
                l(1) =   0
                l(2) =   0

     atomic species   valence    mass     pseudopotential
     C                 4.00    12.01100     C ( 1.00)
     H                 1.00     1.00800     H ( 1.00)

      6 Sym. Ops. (no inversion) found



   Cartesian axes

     site n.     atom                  positions (alat units)
         1        C      tau(   1) = (   0.5000000   0.2886751   4.8310055  )
         2        C      tau(   2) = (   1.0000000   0.5773503   4.6378573  )
         3        C      tau(   3) = (   1.0000000   0.5773503   4.0157721  )
         4        C      tau(   4) = (   0.0000000   0.0000000   3.8178152  )
         5        C      tau(   5) = (   0.0000000   0.0000000   3.1880744  )
         6        C      tau(   6) = (   0.5000000   0.2886751   2.9829245  )
         7        H      tau(   7) = (   0.5000000   0.2886751   5.2716237  )

     number of k points=    12  Marzari-Vanderbilt smearing, width (Ry)=  0.0100
                       cart. coord. in units 2pi/alat
        k(    1) = (   0.0000000   0.0000000   0.0000000), wk =   0.0246914
        k(    2) = (   0.0000000   0.1283001   0.0000000), wk =   0.1481481
        k(    3) = (   0.0000000   0.2566001   0.0000000), wk =   0.1481481
        k(    4) = (   0.0000000   0.3849002   0.0000000), wk =   0.1481481
        k(    5) = (   0.0000000   0.5132002   0.0000000), wk =   0.1481481
        k(    6) = (   0.1111111   0.1924501   0.0000000), wk =   0.1481481
        k(    7) = (   0.1111111   0.3207501   0.0000000), wk =   0.2962963
        k(    8) = (   0.1111111   0.4490502   0.0000000), wk =   0.2962963
        k(    9) = (   0.1111111  -0.5773503   0.0000000), wk =   0.1481481
        k(   10) = (   0.2222222   0.3849002   0.0000000), wk =   0.1481481
        k(   11) = (   0.2222222  -0.6415003   0.0000000), wk =   0.2962963
        k(   12) = (   0.3333333  -0.5773503   0.0000000), wk =   0.0493827

     Dense  grid:   209313 G-vectors     FFT dimensions: (  40,  40, 320)

     Smooth grid:    74197 G-vectors     FFT dimensions: (  27,  27, 225)

     Estimated max dynamical RAM per process >     357.02 MB

     Initial potential from superposition of free atoms

     starting charge      24.9997, renormalised to      25.0000

     negative rho (up, down):  3.538E-05 0.000E+00
     Starting wfcs are   25 randomized atomic wfcs

     total cpu time spent up to now is        1.0 secs

     Self-consistent Calculation

     iteration #  1     ecut=    80.00 Ry     beta= 0.30
     Davidson diagonalization with overlap
     ethr =  1.00E-02,  avg # of iterations =  2.8

     negative rho (up, down):  3.422E-05 0.000E+00

     total cpu time spent up to now is        2.5 secs

     total energy              =    -111.64825533 Ry
     estimated scf accuracy    <       0.46011208 Ry

     iteration #  2     ecut=    80.00 Ry     beta= 0.30
     Davidson diagonalization with overlap
     ethr =  1.84E-03,  avg # of iterations =  3.5

     negative rho (up, down):  3.978E-05 0.000E+00

     total cpu time spent up to now is        3.9 secs

     total energy              =    -111.60168506 Ry
     estimated scf accuracy    <       0.15889483 Ry

     iteration #  3     ecut=    80.00 Ry     beta= 0.30
     Davidson diagonalization with overlap
     ethr =  6.36E-04,  avg # of iterations =  6.3

     negative rho (up, down):  3.928E-05 0.000E+00

     total cpu time spent up to now is        5.5 secs

     total energy              =    -111.60865121 Ry
     estimated scf accuracy    <       0.03329920 Ry

     iteration #  4     ecut=    80.00 Ry     beta= 0.30
     Davidson diagonalization with overlap
     ethr =  1.33E-04,  avg # of iterations =  6.2

     negative rho (up, down):  3.388E-05 0.000E+00

     total cpu time spent up to now is        7.1 secs

     total energy              =    -111.61064394 Ry
     estimated scf accuracy    <       0.02617106 Ry

     iteration #  5     ecut=    80.00 Ry     beta= 0.30
     Davidson diagonalization with overlap
     ethr =  1.05E-04,  avg # of iterations =  2.5

     negative rho (up, down):  3.472E-05 0.000E+00

     total cpu time spent up to now is        8.3 secs

     total energy              =    -111.61330114 Ry
     estimated scf accuracy    <       0.00189509 Ry

     iteration #  6     ecut=    80.00 Ry     beta= 0.30
     Davidson diagonalization with overlap
     ethr =  7.58E-06,  avg # of iterations =  5.1

     negative rho (up, down):  3.405E-05 0.000E+00

     total cpu time spent up to now is        9.8 secs

     total energy              =    -111.61350908 Ry
     estimated scf accuracy    <       0.00022383 Ry

     iteration #  7     ecut=    80.00 Ry     beta= 0.30
     Davidson diagonalization with overlap
     ethr =  8.95E-07,  avg # of iterations =  6.7

     negative rho (up, down):  3.498E-05 0.000E+00

     total cpu time spent up to now is       11.5 secs

     total energy              =    -111.61352903 Ry
     estimated scf accuracy    <       0.00009660 Ry

     iteration #  8     ecut=    80.00 Ry     beta= 0.30
     Davidson diagonalization with overlap
     ethr =  3.86E-07,  avg # of iterations =  3.8

     negative rho (up, down):  3.457E-05 0.000E+00

     total cpu time spent up to now is       12.9 secs

     total energy              =    -111.61354224 Ry
     estimated scf accuracy    <       0.00008197 Ry

     iteration #  9     ecut=    80.00 Ry     beta= 0.30
     Davidson diagonalization with overlap
     ethr =  3.28E-07,  avg # of iterations =  1.5

     negative rho (up, down):  3.452E-05 0.000E+00

     total cpu time spent up to now is       14.0 secs

     total energy              =    -111.61355276 Ry
     estimated scf accuracy    <       0.00000099 Ry

     iteration # 10     ecut=    80.00 Ry     beta= 0.30
     Davidson diagonalization with overlap
     ethr =  3.95E-09,  avg # of iterations =  4.2

     negative rho (up, down):  3.455E-05 0.000E+00

     total cpu time spent up to now is       15.7 secs

     total energy              =    -111.61355337 Ry
     estimated scf accuracy    <       0.00000049 Ry

     iteration # 11     ecut=    80.00 Ry     beta= 0.30
     Davidson diagonalization with overlap
     ethr =  1.94E-09,  avg # of iterations =  1.9

     negative rho (up, down):  3.453E-05 0.000E+00

     total cpu time spent up to now is       17.0 secs

     total energy              =    -111.61355341 Ry
     estimated scf accuracy    <       0.00000004 Ry

     iteration # 12     ecut=    80.00 Ry     beta= 0.30
     Davidson diagonalization with overlap
     ethr =  1.62E-10,  avg # of iterations =  3.3

     negative rho (up, down):  3.451E-05 0.000E+00

     total cpu time spent up to now is       18.5 secs

     total energy              =    -111.61355343 Ry
     estimated scf accuracy    <       0.00000001 Ry

     iteration # 13     ecut=    80.00 Ry     beta= 0.30
     Davidson diagonalization with overlap
     ethr =  4.86E-11,  avg # of iterations =  1.8

     negative rho (up, down):  3.451E-05 0.000E+00

     total cpu time spent up to now is       19.7 secs

     End of self-consistent calculation

          k = 0.0000 0.0000 0.0000 (  9231 PWs)   bands (ev):

   -20.1986 -18.2670 -15.9363 -11.0285  -7.1276  -2.8562  -1.7276  -1.7276
    -0.5391  -0.5391   0.8206   0.8206   1.4837   3.5254   5.3245   6.2422
     6.7281

          k = 0.0000 0.1283 0.0000 (  9273 PWs)   bands (ev):

   -19.8954 -17.9701 -15.6522 -10.7598  -6.9102  -3.1761  -2.7333  -2.3458
    -1.8417  -1.0488  -0.4790   0.3358   1.6465   3.7380   5.6750   6.5042
     7.0759

          k = 0.0000 0.2566 0.0000 (  9224 PWs)   bands (ev):

   -18.9922 -17.0874 -14.8085 -10.0139  -6.4402  -6.0129  -4.5925  -3.5205
    -3.1950  -2.4580  -2.1148  -0.6898   1.6227   4.4406   6.4430   6.9057
     7.6333

          k = 0.0000 0.3849 0.0000 (  9266 PWs)   bands (ev):

   -17.5137 -15.6538 -13.4541  -9.8004  -8.6435  -7.4214  -6.2335  -5.1990
    -4.5223  -3.0681  -2.7895  -1.6199   1.5079   5.5023   6.3471   7.6690
     8.5127

          k = 0.0000 0.5132 0.0000 (  9268 PWs)   bands (ev):

   -15.5639 -13.9681 -12.5764 -11.3098 -10.7135  -8.8627  -6.7614  -5.2322
    -5.0687  -3.5963  -3.2754  -2.1383   1.4848   5.8967   6.6551   7.6030
     8.4872

          k = 0.1111 0.1925 0.0000 (  9251 PWs)   bands (ev):

   -19.2922 -17.3802 -15.0880 -10.2480  -6.5249  -4.8711  -4.1235  -2.9432
    -2.9058  -2.4957  -1.6069  -0.8283   1.7185   4.2335   6.3916   7.1788
     7.4889

          k = 0.1111 0.3208 0.0000 (  9239 PWs)   bands (ev):

   -18.1001 -16.2191 -13.9822  -9.4657  -7.5338  -6.5323  -5.5748  -5.1928
    -4.3286  -3.5863  -2.6377  -1.9278   1.6429   5.2619   7.1482   7.8949
     8.6479

          k = 0.1111 0.4491 0.0000 (  9253 PWs)   bands (ev):

   -16.3672 -14.5680 -12.4974 -10.7887  -9.4848  -7.5810  -7.1875  -5.8428
    -5.0667  -4.3650  -3.3100  -2.6186   1.5502   6.3303   7.3873   8.4315
     8.9647

          k = 0.1111-0.5774 0.0000 (  9294 PWs)   bands (ev):

   -14.6113 -13.8266 -12.3095 -11.6103 -10.2768  -9.6332  -6.3660  -6.1414
    -5.4415  -4.5070  -3.6232  -2.9068   1.5116   6.6901   7.4868   8.6628
     8.8505

          k = 0.2222 0.3849 0.0000 (  9207 PWs)   bands (ev):

   -16.6469 -14.8195 -12.6709  -9.8228  -8.5684  -7.6672  -6.8184  -6.4058
    -5.3429  -4.6250  -4.4688  -2.6609   1.6043   6.4331   8.1778   8.5214
     9.7080

          k = 0.2222-0.6415 0.0000 (  9263 PWs)   bands (ev):

   -14.7501 -13.2032 -11.9508 -10.6585 -10.4163  -8.8812  -7.6255  -7.0121
    -5.8575  -5.3421  -4.5027  -3.3936   1.5414   7.1819   8.2074   9.3163
     9.9930

          k = 0.3333-0.5774 0.0000 (  9225 PWs)   bands (ev):

   -13.3013 -12.7736 -12.1426 -10.3725 -10.3051  -9.8606  -7.9727  -7.9393
    -6.9468  -4.8769  -4.5485  -4.0600   1.5333   7.4733   8.4032   8.7976
    10.6029

     the Fermi energy is     1.5911 ev

!    total energy              =    -111.61355343 Ry
     estimated scf accuracy    <          3.0E-09 Ry
     smearing contrib. (-TS)   =      -0.00202199 Ry
     internal energy E=F+TS    =    -111.61153143 Ry

     The total energy is F=E-TS. E is the sum of the following terms:
     one-electron contribution =   -1231.58619402 Ry
     hartree contribution      =     623.74366665 Ry
     xc contribution           =     -28.62628312 Ry
     ewald contribution        =     561.84341835 Ry
     one-center paw contrib.   =     -36.98613929 Ry

     convergence has been achieved in  13 iterations

     negative rho (up, down):  3.451E-05 0.000E+00

     Forces acting on atoms (cartesian axes, Ry/au):

     atom    1 type  1   force =     0.00000000    0.00000000    0.00096008
     atom    2 type  1   force =     0.00000000    0.00000000   -0.00058472
     atom    3 type  1   force =     0.00000000    0.00000000    0.00021119
     atom    4 type  1   force =     0.00000000    0.00000000    0.00007563
     atom    5 type  1   force =     0.00000000    0.00000000   -0.16319379
     atom    6 type  1   force =     0.00000000    0.00000000    0.16206214
     atom    7 type  2   force =     0.00000000    0.00000000    0.00046947

     Total force =     0.001239     Total SCF correction =     0.000057


     Computing stress (Cartesian axis) and pressure


     negative rho (up, down):  3.451E-05 0.000E+00
          total   stress  (Ry/bohr**3)                   (kbar)     P=        1.37
   0.00011289   0.00000000   0.00000000           16.61        0.00        0.00
   0.00000000   0.00011289   0.00000000            0.00       16.61        0.00
   0.00000000   0.00000000  -0.00019793            0.00        0.00      -29.12


     Writing all to output data dir ./tmp/slab.save/ :
     XML data file, charge density, pseudopotentials, collected wavefunctions

     init_run     :      0.86s CPU      0.93s WALL (       1 calls)
     electrons    :     17.26s CPU     18.75s WALL (       1 calls)
     forces       :      0.26s CPU      0.30s WALL (       1 calls)
     stress       :      0.74s CPU      0.81s WALL (       1 calls)

     Called by init_run:
     wfcinit      :      0.49s CPU      0.52s WALL (       1 calls)
     potinit      :      0.17s CPU      0.19s WALL (       1 calls)
     hinit0       :      0.13s CPU      0.14s WALL (       1 calls)

     Called by electrons:
     c_bands      :     12.25s CPU     13.35s WALL (      13 calls)
     sum_band     :      2.46s CPU      2.63s WALL (      13 calls)
     v_of_rho     :      1.00s CPU      1.07s WALL (      14 calls)
     newd         :      0.52s CPU      0.62s WALL (      14 calls)
     PAW_pot      :      0.97s CPU      1.03s WALL (      14 calls)
     mix_rho      :      0.14s CPU      0.15s WALL (      13 calls)

     Called by c_bands:
     init_us_2    :      0.24s CPU      0.26s WALL (     348 calls)
     cegterg      :     11.86s CPU     12.93s WALL (     156 calls)

     Called by *egterg:
     cdiaghg      :      0.11s CPU      0.13s WALL (     754 calls)
     h_psi        :      9.40s CPU      9.87s WALL (     766 calls)
     s_psi        :      0.52s CPU      0.64s WALL (     766 calls)
     g_psi        :      0.05s CPU      0.05s WALL (     598 calls)

     Called by h_psi:
     h_psi:calbec :      0.77s CPU      0.96s WALL (     766 calls)
     vloc_psi     :      7.99s CPU      8.10s WALL (     766 calls)
                                        0.00s GPU  (     766 calls)
     add_vuspsi   :      0.60s CPU      0.75s WALL (     766 calls)

     General routines
     calbec       :      1.22s CPU      1.52s WALL (    1126 calls)
     fft          :      0.74s CPU      0.74s WALL (     205 calls)
     ffts         :      0.02s CPU      0.02s WALL (      27 calls)
     fftw         :      8.45s CPU      8.48s WALL (   17130 calls)
     interpolate  :      0.07s CPU      0.08s WALL (      14 calls)


     PWSCF        :     19.15s CPU     20.87s WALL


   This run was terminated on:  14:32:54  22Jun2026            

=------------------------------------------------------------------------------=
   JOB DONE.
=------------------------------------------------------------------------------=
Note: The following floating-point exceptions are signalling: IEEE_INVALID_FLAG IEEE_DIVIDE_BY_ZERO IEEE_OVERFLOW_FLAG IEEE_UNDERFLOW_FLAG
