
     Program PWSCF v.7.3.1 starts on  1Aug2026 at 18:41:56 

     This program is part of the open-source Quantum ESPRESSO suite
     for quantum simulation of materials; please cite
         "P. Giannozzi et al., J. Phys.:Condens. Matter 21 395502 (2009);
         "P. Giannozzi et al., J. Phys.:Condens. Matter 29 465901 (2017);
         "P. Giannozzi et al., J. Chem. Phys. 152 154105 (2020);
          URL http://www.quantum-espresso.org", 
     in publications or presentations arising from this work. More details at
     http://www.quantum-espresso.org/quote

     Parallel version (MPI), running on     8 processors

     MPI processes distributed on     1 nodes
     187573 MiB available memory on the printing compute node when the environment starts

     Reading input from pw.in

     Current dimensions of program PWSCF are:
     Max number of different atomic species (ntypx) = 10
     Max number of k-points (npk) =  40000
     Max angular momentum in pseudopotentials (lmaxx) =  4
     file C.pbe-n-kjpaw_psl.1.0.0.UPF: wavefunction(s)  2S 2P renormalized
     Message from routine setup:
     using ibrav=0 with symmetry is DISCOURAGED, use correct ibrav instead

     R & G space division:  proc/nbgrp/npool/nimage =       8
     Subspace diagonalization in iterative solution of the eigenvalue problem:
     a serial algorithm will be used


     Parallelization info
     --------------------
     sticks:   dense  smooth     PW     G-vecs:    dense   smooth      PW
     Min         141      69     20                31969    11267    1828
     Max         142      70     21                32002    11308    1863
     Sum        1135     559    163               255933    90377   14729

     Using Slab Decomposition



     bravais-lattice index     =            0
     lattice parameter (alat)  =       4.7752  a.u.
     unit-cell volume          =     784.1280 (a.u.)^3
     number of atoms/cell      =           14
     number of atomic types    =            2
     number of electrons       =        50.00
     number of Kohn-Sham states=           30
     kinetic-energy cutoff     =      90.0000  Ry
     charge density cutoff     =     720.0000  Ry
     scf convergence threshold =      1.0E-08
     mixing beta               =       0.3000
     number of iterations used =            8  plain     mixing
     Exchange-correlation= PBE
                           (   1   4   3   4   0   0   0)

     celldm(1)=   4.775235  celldm(2)=   0.000000  celldm(3)=   0.000000
     celldm(4)=   0.000000  celldm(5)=   0.000000  celldm(6)=   0.000000

     crystal axes: (cart. coord. in units of alat)
               a(1) = (   1.000000   0.000000   0.000000 )  
               a(2) = (   0.500000   0.866025   0.000000 )  
               a(3) = (   0.000000   0.000000   8.315186 )  

     reciprocal axes: (cart. coord. in units 2 pi/alat)
               b(1) = (  1.000000 -0.577350  0.000000 )  
               b(2) = (  0.000000  1.154701  0.000000 )  
               b(3) = (  0.000000  0.000000  0.120262 )  


     PseudoPot. # 1 for C  read from file:
     ./C.pbe-n-kjpaw_psl.1.0.0.UPF
     MD5 check sum: 5d2aebdfa2cae82b50a7e79e9516da0f
     Pseudo is Projector augmented-wave + core cor, Zval =  4.0
     Generated using "atomic" code by A. Dal Corso  v.5.1
     Shape of augmentation charge: PSQ
     Using radial grid of 1073 points,  4 beta functions with: 
                l(1) =   0
                l(2) =   0
                l(3) =   1
                l(4) =   1
     Q(r) pseudized with 0 coefficients 


     PseudoPot. # 2 for H  read from file:
     ./H_ONCV_PBE-1.0.oncvpsp.upf
     MD5 check sum: 1790becc920ee074925cf490c71280fe
     Pseudo is Norm-conserving, Zval =  1.0
     Generated using ONCVPSP code by D. R. Hamann
     Using radial grid of 1166 points,  2 beta functions with: 
                l(1) =   0
                l(2) =   0

     atomic species   valence    mass     pseudopotential
     C                 4.00    12.01100     C ( 1.00)
     H                 1.00     1.00800     H ( 1.00)

     12 Sym. Ops., with inversion, found ( 6 have fractional translation)



   Cartesian axes

     site n.     atom                  positions (alat units)
         1        C      tau(   1) = (   0.5000000   0.2886751   6.2918143  )
         2        C      tau(   2) = (   1.0000000   0.5773503   6.0987469  )
         3        C      tau(   3) = (   1.0000000   0.5773503   5.4838041  )
         4        C      tau(   4) = (   0.0000000  -0.0000000   5.2801572  )
         5        C      tau(   5) = (   0.0000000   0.0000000   4.6677310  )
         6        C      tau(   6) = (   0.5000000   0.2886751   4.4637419  )
         7        C      tau(   7) = (   0.5000000   0.2886751   3.8514438  )
         8        C      tau(   8) = (   1.0000000   0.5773503   3.6474548  )
         9        C      tau(   9) = (   1.0000000   0.5773503   3.0350285  )
        10        C      tau(  10) = (   0.0000000   0.0000000   2.8313816  )
        11        C      tau(  11) = (   0.0000000  -0.0000000   2.2164388  )
        12        C      tau(  12) = (   0.5000000   0.2886751   2.0233715  )
        13        H      tau(  13) = (   0.5000000   0.2886751   6.7307238  )
        14        H      tau(  14) = (   0.5000000   0.2886751   1.5844620  )

     number of k points=    12  Marzari-Vanderbilt smearing, width (Ry)=  0.0100
                       cart. coord. in units 2pi/alat
        k(    1) = (   0.0000000   0.0000000   0.0000000), wk =   0.0246914
        k(    2) = (   0.0000000   0.1283001   0.0000000), wk =   0.1481481
        k(    3) = (   0.0000000   0.2566001   0.0000000), wk =   0.1481481
        k(    4) = (   0.0000000   0.3849002   0.0000000), wk =   0.1481481
        k(    5) = (   0.0000000   0.5132002   0.0000000), wk =   0.1481481
        k(    6) = (   0.1111111   0.1924501   0.0000000), wk =   0.1481481
        k(    7) = (   0.1111111   0.3207501   0.0000000), wk =   0.2962963
        k(    8) = (   0.1111111   0.4490502   0.0000000), wk =   0.2962963
        k(    9) = (   0.1111111  -0.5773503   0.0000000), wk =   0.1481481
        k(   10) = (   0.2222222   0.3849002   0.0000000), wk =   0.1481481
        k(   11) = (   0.2222222  -0.6415003   0.0000000), wk =   0.2962963
        k(   12) = (   0.3333333  -0.5773503   0.0000000), wk =   0.0493827

     Dense  grid:   255933 G-vectors     FFT dimensions: (  45,  45, 360)

     Smooth grid:    90377 G-vectors     FFT dimensions: (  30,  30, 240)

     Estimated max dynamical RAM per process >      70.02 MB

     Estimated total dynamical RAM >     560.17 MB

     Check: negative core charge=   -0.000001

     Initial potential from superposition of free atoms

     starting charge      49.9995, renormalised to      50.0000
     Starting wfcs are   50 randomized atomic wfcs
     Checking if some PAW data can be deallocated... 

     total cpu time spent up to now is        0.7 secs

     Self-consistent Calculation

     iteration #  1     ecut=    90.00 Ry     beta= 0.30
     Davidson diagonalization with overlap
     ethr =  1.00E-02,  avg # of iterations =  2.5

     total cpu time spent up to now is        1.7 secs

     total energy              =    -223.66600158 Ry
     estimated scf accuracy    <       0.93348340 Ry

     iteration #  2     ecut=    90.00 Ry     beta= 0.30
     Davidson diagonalization with overlap
     ethr =  1.87E-03,  avg # of iterations =  4.0

     negative rho (up, down):  2.423E-07 0.000E+00

     total cpu time spent up to now is        2.6 secs

     total energy              =    -223.57438591 Ry
     estimated scf accuracy    <       0.32582357 Ry

     iteration #  3     ecut=    90.00 Ry     beta= 0.30
     Davidson diagonalization with overlap
     ethr =  6.52E-04,  avg # of iterations =  4.8

     negative rho (up, down):  1.128E-07 0.000E+00

     total cpu time spent up to now is        3.4 secs

     total energy              =    -223.58804776 Ry
     estimated scf accuracy    <       0.03577997 Ry

     iteration #  4     ecut=    90.00 Ry     beta= 0.30
     Davidson diagonalization with overlap
     ethr =  7.16E-05,  avg # of iterations =  5.9

     negative rho (up, down):  3.571E-08 0.000E+00

     total cpu time spent up to now is        4.5 secs

     total energy              =    -223.59072183 Ry
     estimated scf accuracy    <       0.00445078 Ry

     iteration #  5     ecut=    90.00 Ry     beta= 0.30
     Davidson diagonalization with overlap
     c_bands:  1 eigenvalues not converged
     ethr =  8.90E-06,  avg # of iterations =  6.0

     negative rho (up, down):  2.485E-08 0.000E+00

     total cpu time spent up to now is        5.5 secs

     total energy              =    -223.59123392 Ry
     estimated scf accuracy    <       0.00056398 Ry

     iteration #  6     ecut=    90.00 Ry     beta= 0.30
     Davidson diagonalization with overlap
     ethr =  1.13E-06,  avg # of iterations =  4.3

     negative rho (up, down):  1.273E-08 0.000E+00

     total cpu time spent up to now is        6.5 secs

     total energy              =    -223.59128985 Ry
     estimated scf accuracy    <       0.00013210 Ry

     iteration #  7     ecut=    90.00 Ry     beta= 0.30
     Davidson diagonalization with overlap
     ethr =  2.64E-07,  avg # of iterations =  3.0

     negative rho (up, down):  1.530E-08 0.000E+00

     total cpu time spent up to now is        7.4 secs

     total energy              =    -223.59130137 Ry
     estimated scf accuracy    <       0.00007108 Ry

     iteration #  8     ecut=    90.00 Ry     beta= 0.30
     Davidson diagonalization with overlap
     ethr =  1.42E-07,  avg # of iterations =  2.0

     negative rho (up, down):  1.249E-08 0.000E+00

     total cpu time spent up to now is        8.2 secs

     total energy              =    -223.59131806 Ry
     estimated scf accuracy    <       0.00000891 Ry

     iteration #  9     ecut=    90.00 Ry     beta= 0.30
     Davidson diagonalization with overlap
     ethr =  1.78E-08,  avg # of iterations =  2.0

     negative rho (up, down):  1.277E-08 0.000E+00

     total cpu time spent up to now is        9.0 secs

     total energy              =    -223.59131996 Ry
     estimated scf accuracy    <       0.00000066 Ry

     iteration # 10     ecut=    90.00 Ry     beta= 0.30
     Davidson diagonalization with overlap
     ethr =  1.31E-09,  avg # of iterations =  3.1

     negative rho (up, down):  1.278E-08 0.000E+00

     total cpu time spent up to now is        9.9 secs

     total energy              =    -223.59132015 Ry
     estimated scf accuracy    <       0.00000033 Ry

     iteration # 11     ecut=    90.00 Ry     beta= 0.30
     Davidson diagonalization with overlap
     ethr =  6.58E-10,  avg # of iterations =  2.2

     negative rho (up, down):  1.287E-08 0.000E+00

     total cpu time spent up to now is       10.7 secs

     total energy              =    -223.59132018 Ry
     estimated scf accuracy    <       0.00000005 Ry

     iteration # 12     ecut=    90.00 Ry     beta= 0.30
     Davidson diagonalization with overlap
     ethr =  9.08E-11,  avg # of iterations =  2.9

     negative rho (up, down):  1.323E-08 0.000E+00

     total cpu time spent up to now is       11.6 secs

     End of self-consistent calculation

          k = 0.0000 0.0000 0.0000 ( 11213 PWs)   bands (ev):

   -14.5422 -14.0746 -13.3133 -12.2708 -10.9984  -9.6704  -6.1123  -4.6088
    -2.5831  -0.3165   2.0053   4.0140   4.0140   4.1543   4.3059   4.3059
     4.7611   4.7611   5.3480   5.3480   5.8795   5.9836   5.9836   6.5003
     6.5003   9.0376   9.5639  11.6910  12.5918  12.5918

          k = 0.0000 0.1283 0.0000 ( 11317 PWs)   bands (ev):

   -14.2403 -13.7742 -13.0157 -11.9777 -10.7121  -9.3944  -5.8404  -4.3561
    -2.3633  -0.1494   2.0729   2.5734   2.9183   3.3698   3.3980   3.7000
     3.9332   4.2110   4.2648   4.7100   4.8578   5.2531   5.5411   5.7400
     6.0836   9.3101   9.8237  11.8270  12.4295  13.1113

          k = 0.0000 0.2566 0.0000 ( 11303 PWs)   bands (ev):

   -13.3406 -12.8794 -12.1300 -11.1066  -9.8631  -8.5770  -5.0809  -3.6662
    -1.8193  -0.4523  -0.1188   0.4078   0.5272   1.3072   2.1206   2.1799
     2.3235   2.5434   2.7983   3.1074   3.8177   3.9689   4.5586   5.0770
     5.1383  10.1710  10.5262  11.7026  12.3012  12.8639

          k = 0.0000 0.3849 0.0000 ( 11306 PWs)   bands (ev):

   -11.8668 -11.4160 -10.6867  -9.6966  -8.5035  -7.2835  -4.4537  -3.8202
    -3.3209  -2.6340  -2.2091  -1.4870  -1.2120  -0.1732  -0.0649   1.0919
     1.1780   1.5554   2.1037   2.1423   2.8812   3.3387   3.6500   4.2340
     4.2494  11.0595  11.5111  11.7587  12.2795  12.7592

          k = 0.0000 0.5132 0.0000 ( 11320 PWs)   bands (ev):

    -9.9046  -9.4965  -8.8719  -8.1326  -7.3884  -6.5764  -5.9585  -5.6757
    -5.0859  -4.8057  -3.8840  -2.8210  -1.4620  -0.5323   0.2897   0.3349
     0.6337   1.0162   1.5051   1.6116   2.3613   2.7906   3.1407   3.6836
     3.7479  11.2989  11.8462  12.1828  12.5375  12.8655

          k = 0.1111 0.1925 0.0000 ( 11299 PWs)   bands (ev):

   -13.6395 -13.1765 -12.4239 -11.3954 -10.1441  -8.8473  -5.3209  -3.8793
    -1.9669   0.0826   0.9801   1.1462   1.2858   1.7858   2.0844   2.5763
     2.5804   2.9443   3.1480   3.7347   4.0227   4.0295   4.4511   4.7865
     5.6727   9.9054  10.3383  12.4283  12.7651  12.8357

          k = 0.1111 0.3208 0.0000 ( 11276 PWs)   bands (ev):

   -12.4517 -11.9960 -11.2573 -10.2512  -9.0332  -7.7808  -4.4799  -3.2074
    -2.0892  -1.5067  -1.2936  -0.9143  -0.2002  -0.0610   0.6540   0.9275
     1.1429   1.5722   2.1065   2.1574   2.4868   2.9052   3.4845   3.9829
     4.8982  11.0474  11.3172  12.2812  13.2216  13.5929

          k = 0.1111 0.4491 0.0000 ( 11298 PWs)   bands (ev):

   -10.7209 -10.2833  -9.5810  -8.6405  -7.5343  -6.4337  -4.9710  -4.9301
    -4.4093  -3.5761  -2.6112  -1.9380  -1.6496  -0.9383  -0.1335   0.1561
     0.3641   0.6097   1.0609   1.3601   1.9989   2.2684   2.9479   3.1499
     3.9446  11.8436  12.3717  12.9068  13.3644  13.8239

          k = 0.1111-0.5774 0.0000 ( 11338 PWs)   bands (ev):

    -8.7703  -8.6970  -8.4423  -8.0020  -7.3529  -6.5648  -6.0293  -5.7836
    -5.0747  -4.7251  -3.9704  -3.7660  -0.7899  -0.5317  -0.4501  -0.0838
     0.1402   0.3186   0.5999   1.2259   1.4528   2.3663   2.3819   3.0800
     3.3848  12.0102  12.7346  13.2755  13.3230  13.8964

          k = 0.2222 0.3849 0.0000 ( 11295 PWs)   bands (ev):

   -11.0018 -10.5587  -9.8443  -8.8787  -7.7210  -6.5366  -4.4141  -3.7404
    -3.2837  -2.8045  -2.2502  -1.7047  -1.6146  -1.2791  -0.6686  -0.3932
     0.0728   0.3765   0.7494   0.9215   1.2920   1.6696   2.2854   3.2434
     4.0101  12.3072  12.4387  13.2960  13.5094  14.1805

          k = 0.2222-0.6415 0.0000 ( 11329 PWs)   bands (ev):

    -9.0882  -8.6935  -8.0938  -7.3925  -6.7080  -5.9042  -5.5008  -5.2037
    -4.5788  -4.4747  -3.7733  -3.1198  -1.9804  -1.7560  -1.3106  -1.1372
    -0.6311  -0.2766   0.3123   0.6156   1.0816   1.2778   2.0452   2.4056
     2.9364  12.5928  13.2487  13.7568  14.1368  14.4504

          k = 0.3333-0.5774 0.0000 ( 11349 PWs)   bands (ev):

    -7.2608  -7.2608  -7.2575  -7.1573  -7.1573  -5.9337  -5.9007  -4.7295
    -4.7295  -4.5888  -4.2056  -4.2056  -2.4169  -2.2971  -2.2971  -1.6712
    -1.4890  -1.4890   0.8257   1.1257   1.1257   1.3388   1.7578   1.7578
     1.8853  13.2621  13.2621  13.5601  14.1687  14.1689

     the Fermi energy is     7.8825 ev

!    total energy              =    -223.59132019 Ry
     estimated scf accuracy    <          5.3E-09 Ry
     smearing contrib. (-TS)   =      -0.00000000 Ry
     internal energy E=F+TS    =    -223.59132019 Ry

     The total energy is F=E-TS. E is the sum of the following terms:
     one-electron contribution =   -1538.52929482 Ry
     hartree contribution      =     795.53332987 Ry
     xc contribution           =     -57.60977883 Ry
     ewald contribution        =     650.96971790 Ry
     one-center paw contrib.   =     -73.95529431 Ry

     convergence has been achieved in  12 iterations

     negative rho (up, down):  1.323E-08 0.000E+00

     Forces acting on atoms (cartesian axes, Ry/au):

     atom    1 type  1   force =     0.00000000    0.00000000    0.00002739
     atom    2 type  1   force =     0.00000000    0.00000000    0.00000105
     atom    3 type  1   force =     0.00000000    0.00000000    0.00000745
     atom    4 type  1   force =     0.00000000    0.00000000   -0.00000002
     atom    5 type  1   force =     0.00000000   -0.00000000   -0.00000746
     atom    6 type  1   force =     0.00000000    0.00000000   -0.00000165
     atom    7 type  1   force =     0.00000000    0.00000000    0.00000165
     atom    8 type  1   force =     0.00000000    0.00000000    0.00000746
     atom    9 type  1   force =     0.00000000   -0.00000000    0.00000002
     atom   10 type  1   force =    -0.00000000   -0.00000000   -0.00000745
     atom   11 type  1   force =     0.00000000    0.00000000   -0.00000105
     atom   12 type  1   force =     0.00000000    0.00000000   -0.00002739
     atom   13 type  2   force =     0.00000000    0.00000000   -0.00001669
     atom   14 type  2   force =     0.00000000    0.00000000    0.00001669

     Total force =     0.000048     Total SCF correction =     0.000063
     SCF correction compared to forces is large: reduce conv_thr to get better values


     Computing stress (Cartesian axis) and pressure


     negative rho (up, down):  1.323E-08 0.000E+00
          total   stress  (Ry/bohr**3)                   (kbar)     P=        1.99
   0.00002066   0.00000000   0.00000000            3.04        0.00        0.00
   0.00000000   0.00002066  -0.00000000            0.00        3.04       -0.00
   0.00000000   0.00000000  -0.00000079            0.00        0.00       -0.12


     Writing all to output data dir /tmp/qe/slab.save/ :
     XML data file, charge density, pseudopotentials, collected wavefunctions

     init_run     :      0.63s CPU      0.66s WALL (       1 calls)
     electrons    :     10.74s CPU     10.92s WALL (       1 calls)
     forces       :      0.19s CPU      0.20s WALL (       1 calls)
     stress       :      1.64s CPU      1.66s WALL (       1 calls)

     Called by init_run:
     wfcinit      :      0.38s CPU      0.39s WALL (       1 calls)
     potinit      :      0.12s CPU      0.13s WALL (       1 calls)
     hinit0       :      0.06s CPU      0.06s WALL (       1 calls)

     Called by electrons:
     c_bands      :      7.45s CPU      7.56s WALL (      12 calls)
     sum_band     :      1.66s CPU      1.69s WALL (      12 calls)
     v_of_rho     :      0.57s CPU      0.59s WALL (      13 calls)
     newd         :      0.29s CPU      0.30s WALL (      13 calls)
     PAW_pot      :      0.81s CPU      0.81s WALL (      13 calls)
     mix_rho      :      0.05s CPU      0.05s WALL (      12 calls)

     Called by c_bands:
     init_us_2    :      0.21s CPU      0.22s WALL (     324 calls)
     cegterg      :      7.10s CPU      7.20s WALL (     144 calls)

     Called by *egterg:
     cdiaghg      :      0.53s CPU      0.53s WALL (     657 calls)
     h_psi        :      5.66s CPU      5.74s WALL (     669 calls)
     s_psi        :      0.27s CPU      0.27s WALL (     669 calls)
     g_psi        :      0.03s CPU      0.04s WALL (     513 calls)

     Called by h_psi:
     h_psi:calbec :      0.31s CPU      0.32s WALL (     669 calls)
     vloc_psi     :      4.99s CPU      5.06s WALL (     669 calls)
     add_vuspsi   :      0.32s CPU      0.32s WALL (     669 calls)

     General routines
     calbec       :      0.46s CPU      0.47s WALL (     873 calls)
     fft          :      0.25s CPU      0.27s WALL (     192 calls)
     ffts         :      0.01s CPU      0.01s WALL (      25 calls)
     fftw         :      4.37s CPU      4.43s WALL (   27720 calls)
     interpolate  :      0.02s CPU      0.02s WALL (      13 calls)

     Parallel routines

     PWSCF        :     13.31s CPU     13.60s WALL


   This run was terminated on:  18:42:10   1Aug2026            

=------------------------------------------------------------------------------=
   JOB DONE.
=------------------------------------------------------------------------------=
Note: The following floating-point exceptions are signalling: IEEE_UNDERFLOW_FLAG IEEE_DENORMAL
Note: The following floating-point exceptions are signalling: IEEE_UNDERFLOW_FLAG IEEE_DENORMAL
Note: The following floating-point exceptions are signalling: IEEE_UNDERFLOW_FLAG IEEE_DENORMAL
Note: The following floating-point exceptions are signalling: IEEE_UNDERFLOW_FLAG IEEE_DENORMAL
Note: The following floating-point exceptions are signalling: IEEE_UNDERFLOW_FLAG IEEE_DENORMAL
Note: The following floating-point exceptions are signalling: IEEE_UNDERFLOW_FLAG IEEE_DENORMAL
Note: The following floating-point exceptions are signalling: IEEE_UNDERFLOW_FLAG IEEE_DENORMAL
Note: The following floating-point exceptions are signalling: IEEE_UNDERFLOW_FLAG IEEE_DENORMAL
