
     Program PWSCF v.7.5 starts on  7Jul2026 at 14:51:45 

     This program is part of the open-source Quantum ESPRESSO suite
     for quantum simulation of materials; please cite
         "P. Giannozzi et al., J. Phys.:Condens. Matter 21 395502 (2009);
         "P. Giannozzi et al., J. Phys.:Condens. Matter 29 465901 (2017);
         "P. Giannozzi et al., J. Chem. Phys. 152 154105 (2020);
          URL http://www.quantum-espresso.org", 
     in publications or presentations arising from this work. More details at
     http://www.quantum-espresso.org/quote

     Serial version
     0 MiB available memory on the printing compute node when the environment starts

     Waiting for input...
     Reading input from standard input

     Current dimensions of program PWSCF are:
     Max number of different atomic species (ntypx) = 10
     Max number of k-points (npk) =  40000
     Max angular momentum in pseudopotentials (lmaxx) =  4
     file C.pbe-n-kjpaw_psl.1.0.0.UPF: wavefunction(s)  2S 2P renormalized
     Message from routine volume:
     axis vectors are left-handed
     Found identity + (  0.5000  0.0000  0.0000) symmetry
     This is a supercell, fractional translations are disabled
     Message from routine setup:
     using ibrav=0 with symmetry is DISCOURAGED, use correct ibrav instead


     G-vector sticks info
     --------------------
     sticks:   dense  smooth     PW     G-vecs:    dense   smooth      PW
     Sum        3509    1753    485               446327   157827   22719

     Using Slab Decomposition



     bravais-lattice index     =            0
     lattice parameter (alat)  =       9.5505  a.u.
     unit-cell volume          =    2512.0105 (a.u.)^3
     number of atoms/cell      =           32
     number of atomic types    =            2
     number of electrons       =       104.00
     number of Kohn-Sham states=           62
     kinetic-energy cutoff     =      60.0000  Ry
     charge density cutoff     =     480.0000  Ry
     scf convergence threshold =      1.0E-08
     mixing beta               =       0.3000
     number of iterations used =            8  plain     mixing
     Exchange-correlation= PBE
                           (   1   4   3   4   0   0   0)

     celldm(1)=   9.550471  celldm(2)=   0.000000  celldm(3)=   0.000000
     celldm(4)=   0.000000  celldm(5)=   0.000000  celldm(6)=   0.000000

     crystal axes: (cart. coord. in units of alat)
               a(1) = (   1.000000   0.000000   0.000000 )  
               a(2) = (   0.000000  -1.005000   0.000000 )  
               a(3) = (   0.000000   0.000000   2.869333 )  

     reciprocal axes: (cart. coord. in units 2 pi/alat)
               b(1) = (  1.000000 -0.000000 -0.000000 )  
               b(2) = ( -0.000000 -0.995025 -0.000000 )  
               b(3) = ( -0.000000 -0.000000  0.348513 )  


     PseudoPot. # 1 for C  read from file:
     ./C.pbe-n-kjpaw_psl.1.0.0.UPF
     MD5 check sum: 5d2aebdfa2cae82b50a7e79e9516da0f
     Pseudo is Projector augmented-wave + core cor, Zval =  4.0
     Generated using "atomic" code by A. Dal Corso  v.5.1
     Shape of augmentation charge: PSQ
     Using radial grid of 1073 points,  4 beta functions with: 
                l(1) =   0
                l(2) =   0
                l(3) =   1
                l(4) =   1
     Q(r) pseudized with 0 coefficients 


     PseudoPot. # 2 for H  read from file:
     ./H_ONCV_PBE-1.0.oncvpsp.upf
     MD5 check sum: 1790becc920ee074925cf490c71280fe
     Pseudo is Norm-conserving, Zval =  1.0
     Generated using ONCVPSP code by D. R. Hamann
     Using radial grid of 1166 points,  2 beta functions with: 
                l(1) =   0
                l(2) =   0

     atomic species   valence    mass     pseudopotential
     C                 4.00    12.01100     C ( 1.00)
     H                 1.00     1.00800     H ( 1.00)

      4 Sym. Ops. (no inversion) found



   Cartesian axes

     site n.     atom                  positions (alat units)
         1        C      tau(   1) = (   0.0000000  -0.1589998   1.8592812  )
         2        C      tau(   2) = (   0.2500000  -0.2310644   1.6998931  )
         3        C      tau(   3) = (   0.2500000   0.0000000   1.4936626  )
         4        C      tau(   4) = (   0.0000000   0.0000000   1.3178300  )
         5        C      tau(   5) = (   0.0000000  -0.2714356   1.1694404  )
         6        C      tau(   6) = (   0.2500000  -0.3435002   1.0100523  )
         7        C      tau(   7) = (   0.0000000  -0.8460002   1.8592812  )
         8        C      tau(   8) = (   0.2500000  -0.7739356   1.6998931  )
         9        C      tau(   9) = (   0.2500000  -0.5025000   1.5515034  )
        10        C      tau(  10) = (   0.0000000  -0.5025000   1.3756708  )
        11        C      tau(  11) = (   0.0000000  -0.7335644   1.1694404  )
        12        C      tau(  12) = (   0.2500000  -0.6614998   1.0100523  )
        13        H      tau(  13) = (   0.0000000  -0.2461326   2.0590044  )
        14        H      tau(  14) = (   0.0000000  -0.7588674   2.0590044  )
        15        H      tau(  15) = (   0.2500000  -0.2563674   0.8103291  )
        16        H      tau(  16) = (   0.2500000  -0.7486326   0.8103291  )
        17        C      tau(  17) = (   0.5000000  -0.1589998   1.8592812  )
        18        C      tau(  18) = (   0.7500000  -0.2310644   1.6998931  )
        19        C      tau(  19) = (   0.7500000   0.0000000   1.4936626  )
        20        C      tau(  20) = (   0.5000000   0.0000000   1.3178300  )
        21        C      tau(  21) = (   0.5000000  -0.2714356   1.1694404  )
        22        C      tau(  22) = (   0.7500000  -0.3435002   1.0100523  )
        23        C      tau(  23) = (   0.5000000  -0.8460002   1.8592812  )
        24        C      tau(  24) = (   0.7500000  -0.7739356   1.6998931  )
        25        C      tau(  25) = (   0.7500000  -0.5025000   1.5515034  )
        26        C      tau(  26) = (   0.5000000  -0.5025000   1.3756708  )
        27        C      tau(  27) = (   0.5000000  -0.7335644   1.1694404  )
        28        C      tau(  28) = (   0.7500000  -0.6614998   1.0100523  )
        29        H      tau(  29) = (   0.5000000  -0.2461326   2.0590044  )
        30        H      tau(  30) = (   0.5000000  -0.7588674   2.0590044  )
        31        H      tau(  31) = (   0.7500000  -0.2563674   0.8103291  )
        32        H      tau(  32) = (   0.7500000  -0.7486326   0.8103291  )

     number of k points=     9  Marzari-Vanderbilt smearing, width (Ry)=  0.0100
                       cart. coord. in units 2pi/alat
        k(    1) = (   0.0000000  -0.0000000   0.0000000), wk =   0.0800000
        k(    2) = (   0.0000000  -0.1990050   0.0000000), wk =   0.1600000
        k(    3) = (   0.0000000  -0.3980100   0.0000000), wk =   0.1600000
        k(    4) = (   0.2000000  -0.0000000   0.0000000), wk =   0.1600000
        k(    5) = (   0.2000000  -0.1990050   0.0000000), wk =   0.3200000
        k(    6) = (   0.2000000  -0.3980100   0.0000000), wk =   0.3200000
        k(    7) = (   0.4000000  -0.0000000   0.0000000), wk =   0.1600000
        k(    8) = (   0.4000000  -0.1990050   0.0000000), wk =   0.3200000
        k(    9) = (   0.4000000  -0.3980100   0.0000000), wk =   0.3200000

     Dense  grid:   446327 G-vectors     FFT dimensions: (  72,  72, 192)

     Smooth grid:   157827 G-vectors     FFT dimensions: (  48,  48, 135)

     Estimated max dynamical RAM per process >       1.26 GB

     Check: negative core charge=   -0.000002

     Initial potential from superposition of free atoms

     starting charge     103.9989, renormalised to     104.0000

     negative rho (up, down):  4.540E-06 0.000E+00
     Starting wfcs are  104 randomized atomic wfcs

     total cpu time spent up to now is        5.9 secs

     Self-consistent Calculation

     iteration #  1     ecut=    60.00 Ry     beta= 0.30
     Davidson diagonalization with overlap
     ethr =  1.00E-02,  avg # of iterations =  3.0

     negative rho (up, down):  1.465E-05 0.000E+00

     total cpu time spent up to now is       18.0 secs

     total energy              =    -451.89748222 Ry
     estimated scf accuracy    <       2.43434188 Ry

     iteration #  2     ecut=    60.00 Ry     beta= 0.30
     Davidson diagonalization with overlap
     ethr =  2.34E-03,  avg # of iterations =  4.4

     negative rho (up, down):  4.799E-05 0.000E+00

     total cpu time spent up to now is       28.4 secs

     total energy              =    -451.74586707 Ry
     estimated scf accuracy    <       0.71240537 Ry

     iteration #  3     ecut=    60.00 Ry     beta= 0.30
     Davidson diagonalization with overlap
     ethr =  6.85E-04,  avg # of iterations =  7.4

     negative rho (up, down):  6.562E-05 0.000E+00

     total cpu time spent up to now is       41.5 secs

     total energy              =    -451.77040521 Ry
     estimated scf accuracy    <       0.10642281 Ry

     iteration #  4     ecut=    60.00 Ry     beta= 0.30
     Davidson diagonalization with overlap
     ethr =  1.02E-04,  avg # of iterations =  3.8

     negative rho (up, down):  8.346E-05 0.000E+00

     total cpu time spent up to now is       52.1 secs

     total energy              =    -451.77905568 Ry
     estimated scf accuracy    <       0.01027005 Ry

     iteration #  5     ecut=    60.00 Ry     beta= 0.30
     Davidson diagonalization with overlap
     c_bands:  1 eigenvalues not converged
     ethr =  9.88E-06,  avg # of iterations =  9.2

     negative rho (up, down):  6.913E-05 0.000E+00

     total cpu time spent up to now is       67.3 secs

     total energy              =    -451.78073178 Ry
     estimated scf accuracy    <       0.00261642 Ry

     iteration #  6     ecut=    60.00 Ry     beta= 0.30
     Davidson diagonalization with overlap
     ethr =  2.52E-06,  avg # of iterations =  7.6

     negative rho (up, down):  6.946E-05 0.000E+00

     total cpu time spent up to now is       81.4 secs

     total energy              =    -451.78112497 Ry
     estimated scf accuracy    <       0.00029764 Ry

     iteration #  7     ecut=    60.00 Ry     beta= 0.30
     Davidson diagonalization with overlap
     ethr =  2.86E-07,  avg # of iterations =  2.9

     negative rho (up, down):  6.806E-05 0.000E+00

     total cpu time spent up to now is       92.1 secs

     total energy              =    -451.78116407 Ry
     estimated scf accuracy    <       0.00003433 Ry

     iteration #  8     ecut=    60.00 Ry     beta= 0.30
     Davidson diagonalization with overlap
     ethr =  3.30E-08,  avg # of iterations =  3.2

     negative rho (up, down):  6.735E-05 0.000E+00

     total cpu time spent up to now is      103.7 secs

     total energy              =    -451.78116899 Ry
     estimated scf accuracy    <       0.00001607 Ry

     iteration #  9     ecut=    60.00 Ry     beta= 0.30
     Davidson diagonalization with overlap
     ethr =  1.54E-08,  avg # of iterations =  2.0

     negative rho (up, down):  6.718E-05 0.000E+00

     total cpu time spent up to now is      114.7 secs

     total energy              =    -451.78117246 Ry
     estimated scf accuracy    <       0.00000169 Ry

     iteration # 10     ecut=    60.00 Ry     beta= 0.30
     Davidson diagonalization with overlap
     ethr =  1.62E-09,  avg # of iterations =  3.8

     negative rho (up, down):  6.706E-05 0.000E+00

     total cpu time spent up to now is      126.7 secs

     total energy              =    -451.78117253 Ry
     estimated scf accuracy    <       0.00000119 Ry

     iteration # 11     ecut=    60.00 Ry     beta= 0.30
     Davidson diagonalization with overlap
     ethr =  1.14E-09,  avg # of iterations =  2.8

     negative rho (up, down):  6.715E-05 0.000E+00

     total cpu time spent up to now is      137.5 secs

     total energy              =    -451.78117282 Ry
     estimated scf accuracy    <       0.00000003 Ry

     iteration # 12     ecut=    60.00 Ry     beta= 0.30
     Davidson diagonalization with overlap
     ethr =  2.72E-11,  avg # of iterations =  4.0

     negative rho (up, down):  6.727E-05 0.000E+00

     total cpu time spent up to now is      150.3 secs

     total energy              =    -451.78117283 Ry
     estimated scf accuracy    <       0.00000002 Ry

     iteration # 13     ecut=    60.00 Ry     beta= 0.30
     Davidson diagonalization with overlap
     ethr =  2.07E-11,  avg # of iterations =  4.4

     negative rho (up, down):  6.736E-05 0.000E+00

     total cpu time spent up to now is      164.6 secs

     total energy              =    -451.78117284 Ry
     estimated scf accuracy    <       0.00000004 Ry

     iteration # 14     ecut=    60.00 Ry     beta= 0.30
     Davidson diagonalization with overlap
     ethr =  2.07E-11,  avg # of iterations =  2.6

     negative rho (up, down):  6.767E-05 0.000E+00

     total cpu time spent up to now is      173.9 secs

     End of self-consistent calculation

          k = 0.0000-0.0000 0.0000 ( 19731 PWs)   bands (ev):

   -17.7207 -16.0286 -13.3655 -13.3655 -13.2023 -12.9525 -12.8941 -11.8897
   -11.5483 -11.5483  -9.3176  -9.3176  -9.0185  -8.8634  -8.8634  -8.7001
    -8.1574  -8.1574  -7.8722  -7.8249  -7.8249  -5.4243  -5.4033  -5.1913
    -4.8116  -4.8116  -3.9125  -3.9125  -3.5072  -3.5072  -2.6801  -2.3091
    -2.2174  -2.2174  -2.1609  -2.1609  -1.9177  -1.8167  -1.6612  -1.2003
    -1.1997  -1.1997   0.1797   0.3286   0.3286   0.4293   0.5159   0.7300
     0.8170   0.9460   1.3154   1.6573   5.4121   5.8703   7.3434   7.6721
     7.7481   8.3550   8.4752   8.9592   8.9593   9.1472

          k = 0.0000-0.1990 0.0000 ( 19672 PWs)   bands (ev):

   -17.5574 -16.0483 -14.2707 -13.3635 -13.2105 -13.2105 -11.7488 -11.6143
   -11.5689 -11.5689 -10.3315 -10.3315  -9.1158  -8.5792  -8.5792  -8.1874
    -7.7872  -7.6690  -7.6690  -7.5063  -7.5063  -5.9379  -5.0723  -4.9184
    -4.9184  -4.8004  -3.8391  -3.8391  -3.2956  -3.2956  -3.2841  -2.5430
    -2.3408  -2.3408  -1.9478  -1.8933  -1.8918  -1.8918  -1.3531  -1.2320
    -1.2320  -1.2252  -0.4019  -0.3686  -0.3686  -0.2576   0.3705   0.5624
     1.1969   1.2683   1.3156   1.5830   5.6432   6.0696   7.7326   8.0912
     8.1387   8.4521   8.5498   8.7509   8.8677   8.8677

          k = 0.0000-0.3980 0.0000 ( 19728 PWs)   bands (ev):

   -17.0878 -16.4319 -14.5990 -14.1024 -12.7834 -12.7834 -11.9598 -11.9598
   -11.3854 -11.0340 -10.8218 -10.8218  -9.0201  -9.0201  -8.6193  -7.8058
    -7.2878  -7.1704  -7.1704  -6.8520  -6.8520  -6.3508  -5.0445  -4.6156
    -4.6156  -4.5082  -4.0032  -3.7087  -3.7087  -3.2370  -3.2370  -3.1731
    -2.1515  -2.0738  -2.0738  -1.9720  -1.9720  -1.7202  -1.5966  -1.4466
    -1.4466  -1.3153  -1.3153  -1.1486  -0.4964  -0.3484   0.0391   0.0963
     0.8477   1.2231   1.6845   1.7764   6.2842   6.6237   7.3261   7.5319
     8.1811   8.5605   8.5605   8.5664   8.7993   8.9004

          k = 0.2000-0.0000 0.0000 ( 19721 PWs)   bands (ev):

   -17.5376 -15.8493 -14.8486 -13.2896 -13.0328 -12.7822 -12.7205 -11.7264
   -11.3278 -10.6691 -10.5158 -10.1913  -9.3760  -9.1246  -8.9320  -8.5459
    -7.7219  -7.5394  -7.0065  -6.8265  -6.7596  -5.3877  -5.3780  -5.3290
    -5.2339  -5.0574  -4.2041  -3.7771  -3.6969  -3.3325  -2.7493  -2.4854
    -2.4182  -2.2836  -2.1891  -1.7758  -1.7559  -1.6321  -1.6138  -1.5865
    -1.2205  -0.8372  -0.5620  -0.2416  -0.1014   0.0126   0.1783   0.5329
     0.7537   0.7693   0.7809   1.4908   5.5810   6.0622   7.7283   8.0153
     8.0902   8.1012   8.2571   8.6306   9.1358   9.1980

          k = 0.2000-0.1990 0.0000 ( 19710 PWs)   bands (ev):

   -17.3745 -15.8685 -14.6894 -14.0966 -13.2798 -13.1926 -11.6798 -11.5851
   -11.4481 -11.0585 -10.8726  -9.9585  -9.0159  -9.0141  -8.6802  -8.0449
    -7.9546  -7.6456  -7.2829  -6.2863  -6.1793  -5.8588  -5.5981  -5.0923
    -5.0114  -4.6939  -4.3687  -3.6675  -3.5464  -3.1722  -3.0371  -2.7025
    -2.3805  -2.3710  -2.3233  -1.9381  -1.7988  -1.7748  -1.5510  -1.3204
    -1.1940  -1.0431  -0.9548  -0.5680  -0.5077  -0.2067   0.0735   0.2922
     0.5171   0.6589   1.2306   1.3372   5.8105   6.2643   7.9460   8.1409
     8.2474   8.5399   8.5925   8.7377   8.7765   8.9516

          k = 0.2000-0.3980 0.0000 ( 19711 PWs)   bands (ev):

   -16.9056 -16.2508 -14.4248 -14.2320 -13.9295 -13.5997 -11.9956 -11.5062
   -11.2237 -10.8745 -10.7614 -10.3590  -8.5624  -8.5138  -8.4717  -7.9067
    -7.7079  -7.5328  -7.1424  -6.2045  -5.7853  -5.4427  -5.4092  -4.9425
    -4.7204  -4.4212  -4.2248  -4.0293  -3.9432  -3.2683  -3.1058  -2.9993
    -2.7331  -2.6564  -2.4902  -1.9400  -1.8968  -1.7789  -1.6255  -1.3088
    -1.2864  -1.1481  -0.9772  -0.9044  -0.8873  -0.8277  -0.5087  -0.0131
     0.8805   0.9629   0.9810   1.3296   6.4497   6.8188   7.4886   7.7039
     7.9534   8.1257   8.2507   8.7719   8.8931   9.1784

          k = 0.4000-0.0000 0.0000 ( 19684 PWs)   bands (ev):

   -16.9903 -16.0870 -15.3144 -14.4379 -12.5275 -12.2778 -12.2026 -11.7020
   -11.4751 -11.3509 -11.2397 -10.4419  -9.5894  -8.8421  -8.1220  -7.8432
    -7.2965  -6.9304  -6.7358  -6.4263  -5.6337  -5.6107  -5.5626  -5.2162
    -4.6818  -4.5587  -4.4215  -3.9471  -3.8662  -3.7910  -3.3650  -2.7740
    -2.5890  -2.4802  -1.8922  -1.8159  -1.6316  -1.6055  -1.5839  -1.4912
    -1.3856  -1.2483  -1.2230  -0.8692  -0.4818  -0.4631  -0.4185   0.0723
     0.1518   0.7362   0.8775   0.9160   6.0912   6.4986   6.9697   7.1467
     8.3247   8.6032   9.0222   9.0783   9.1079   9.3763

          k = 0.4000-0.1990 0.0000 ( 19698 PWs)   bands (ev):

   -16.8280 -15.9260 -15.3320 -14.4509 -13.5782 -12.7315 -12.6849 -11.8640
   -11.1012 -10.9521 -10.3419 -10.1384  -9.4848  -8.8575  -7.7797  -7.6808
    -7.2732  -6.9427  -6.6500  -6.1204  -5.8254  -5.7408  -5.4203  -5.0669
    -4.8064  -4.6712  -4.2539  -4.0261  -3.7078  -3.6510  -3.0271  -3.0256
    -2.7988  -2.6987  -2.5687  -2.2101  -1.8062  -1.7197  -1.6081  -1.3610
    -1.2797  -1.2060  -0.8230  -0.8179  -0.7797  -0.5121  -0.3802  -0.3259
    -0.0873   0.5637   0.6583   1.0156   6.2923   6.7172   7.1176   7.3614
     8.2778   8.6978   8.7826   8.8374   8.8517   9.1609

          k = 0.4000-0.3980 0.0000 ( 19745 PWs)   bands (ev):

   -16.3613 -15.7099 -15.4631 -14.8178 -13.9065 -13.4155 -13.0633 -12.5796
   -10.7504 -10.4072 -10.0575  -9.7773  -8.7963  -8.3334  -8.1471  -7.5590
    -6.7626  -6.5272  -6.2651  -5.8169  -5.6953  -5.3933  -5.3365  -5.0343
    -4.8606  -4.8442  -4.4086  -4.1805  -4.0310  -3.9666  -3.5581  -3.2982
    -2.9454  -2.8093  -2.7087  -2.5418  -2.2133  -2.0640  -1.5340  -1.5114
    -1.2887  -1.2214  -1.0559  -0.8610  -0.7173  -0.5819  -0.1887  -0.0717
    -0.0686   0.0959   0.5699   0.8997   6.8621   7.2983   7.3728   7.6171
     7.7366   8.0286   8.1079   8.1765   8.4494   8.7022

     the Fermi energy is     3.2823 ev

!    total energy              =    -451.78117284 Ry
     estimated scf accuracy    <          4.6E-09 Ry
     smearing contrib. (-TS)   =       0.00000000 Ry
     internal energy E=F+TS    =    -451.78117284 Ry

     The total energy is F=E-TS. E is the sum of the following terms:
     one-electron contribution =   -2308.88973779 Ry
     hartree contribution      =    1195.12136201 Ry
     xc contribution           =    -117.58105053 Ry
     ewald contribution        =     927.48266906 Ry
     one-center paw contrib.   =    -147.91441558 Ry

     convergence has been achieved in  14 iterations

     negative rho (up, down):  6.767E-05 0.000E+00

     Forces acting on atoms (cartesian axes, Ry/au):

     atom    1 type  1   force =     0.00000000    0.00253381   -0.00002977
     atom    2 type  1   force =    -0.00000001    0.00282984   -0.00025772
     atom    3 type  1   force =    -0.00000002    0.00000000   -0.00069774
     atom    4 type  1   force =     0.00000000    0.00000000   -0.00120213
     atom    5 type  1   force =     0.00000000   -0.00282984    0.00025790
     atom    6 type  1   force =     0.00000004   -0.00253374    0.00002949
     atom    7 type  1   force =     0.00000000   -0.00253381   -0.00002977
     atom    8 type  1   force =    -0.00000001   -0.00282984   -0.00025772
     atom    9 type  1   force =    -0.00000002    0.00000000    0.00120198
     atom   10 type  1   force =     0.00000000   -0.00000000    0.00069776
     atom   11 type  1   force =     0.00000000    0.00282984    0.00025790
     atom   12 type  1   force =     0.00000004    0.00253374    0.00002949
     atom   13 type  2   force =     0.00000000    0.00116224   -0.00060469
     atom   14 type  2   force =     0.00000000   -0.00116224   -0.00060469
     atom   15 type  2   force =     0.00000001   -0.00116234    0.00060489
     atom   16 type  2   force =     0.00000001    0.00116234    0.00060489
     atom   17 type  1   force =     0.00000000    0.00253382   -0.00002976
     atom   18 type  1   force =     0.00000001    0.00282984   -0.00025772
     atom   19 type  1   force =     0.00000002    0.00000000   -0.00069774
     atom   20 type  1   force =     0.00000000    0.00000000   -0.00120214
     atom   21 type  1   force =     0.00000000   -0.00282985    0.00025787
     atom   22 type  1   force =    -0.00000004   -0.00253374    0.00002949
     atom   23 type  1   force =     0.00000000   -0.00253382   -0.00002976
     atom   24 type  1   force =     0.00000001   -0.00282984   -0.00025772
     atom   25 type  1   force =     0.00000002   -0.00000000    0.00120198
     atom   26 type  1   force =     0.00000000   -0.00000000    0.00069770
     atom   27 type  1   force =     0.00000000    0.00282985    0.00025787
     atom   28 type  1   force =    -0.00000004    0.00253374    0.00002949
     atom   29 type  2   force =     0.00000000    0.00116224   -0.00060470
     atom   30 type  2   force =     0.00000000   -0.00116224   -0.00060470
     atom   31 type  2   force =    -0.00000001   -0.00116234    0.00060489
     atom   32 type  2   force =    -0.00000001    0.00116234    0.00060489

     Total force =     0.011723     Total SCF correction =     0.000190


     Computing stress (Cartesian axis) and pressure


     negative rho (up, down):  6.767E-05 0.000E+00
          total   stress  (Ry/bohr**3)                   (kbar)     P=      -23.06
   0.00003741   0.00000000   0.00000000            5.50        0.00        0.00
   0.00000000  -0.00048064   0.00000000            0.00      -70.70        0.00
   0.00000000   0.00000000  -0.00002711            0.00        0.00       -3.99


     Writing all to output data dir ./tmp/slab.save/ :
     XML data file, charge density, pseudopotentials, collected wavefunctions

     init_run     :      5.47s CPU      5.83s WALL (       1 calls)
     electrons    :    150.85s CPU    168.00s WALL (       1 calls)
     forces       :      1.49s CPU      1.72s WALL (       1 calls)
     stress       :      3.67s CPU      4.31s WALL (       1 calls)

     Called by init_run:
     wfcinit      :      4.48s CPU      4.77s WALL (       1 calls)
     potinit      :      0.60s CPU      0.63s WALL (       1 calls)
     hinit0       :      0.19s CPU      0.19s WALL (       1 calls)

     Called by electrons:
     c_bands      :    124.01s CPU    138.52s WALL (      14 calls)
     sum_band     :     17.67s CPU     19.10s WALL (      14 calls)
     v_of_rho     :      2.62s CPU      2.83s WALL (      15 calls)
     newd         :      1.59s CPU      2.14s WALL (      15 calls)
     PAW_pot      :      5.06s CPU      5.49s WALL (      15 calls)
     mix_rho      :      0.34s CPU      0.40s WALL (      14 calls)

     Called by c_bands:
     init_us_2    :      1.36s CPU      1.47s WALL (     279 calls)
     cegterg      :    121.06s CPU    135.51s WALL (     126 calls)

     Called by *egterg:
     cdiaghg      :      2.06s CPU      2.19s WALL (     676 calls)
     h_psi        :     88.33s CPU     94.44s WALL (     685 calls)
     s_psi        :      9.80s CPU     12.00s WALL (     685 calls)
     g_psi        :      0.37s CPU      0.38s WALL (     550 calls)

     Called by h_psi:
     h_psi:calbec :      8.89s CPU     11.38s WALL (     685 calls)
     vloc_psi     :     68.68s CPU     69.63s WALL (     685 calls)
                                        0.00s GPU  (     685 calls)
     add_vuspsi   :     10.47s CPU     12.92s WALL (     685 calls)

     General routines
     calbec       :     13.45s CPU     17.09s WALL (     964 calls)
     fft          :      1.65s CPU      1.66s WALL (     218 calls)
     ffts         :      0.09s CPU      0.09s WALL (      29 calls)
     fftw         :     73.73s CPU     74.49s WALL (   52238 calls)
     interpolate  :      0.18s CPU      0.20s WALL (      15 calls)


     PWSCF        :   2m41.54s CPU   2m59.97s WALL


   This run was terminated on:  14:54:45   7Jul2026            

=------------------------------------------------------------------------------=
   JOB DONE.
=------------------------------------------------------------------------------=
Note: The following floating-point exceptions are signalling: IEEE_INVALID_FLAG IEEE_DIVIDE_BY_ZERO IEEE_OVERFLOW_FLAG IEEE_UNDERFLOW_FLAG
