
     Program PWSCF v.7.5 starts on 20Jun2026 at 12:16:38 

     This program is part of the open-source Quantum ESPRESSO suite
     for quantum simulation of materials; please cite
         "P. Giannozzi et al., J. Phys.:Condens. Matter 21 395502 (2009);
         "P. Giannozzi et al., J. Phys.:Condens. Matter 29 465901 (2017);
         "P. Giannozzi et al., J. Chem. Phys. 152 154105 (2020);
          URL http://www.quantum-espresso.org", 
     in publications or presentations arising from this work. More details at
     http://www.quantum-espresso.org/quote

     Serial version
     0 MiB available memory on the printing compute node when the environment starts

     Waiting for input...
     Reading input from standard input

     Current dimensions of program PWSCF are:
     Max number of different atomic species (ntypx) = 10
     Max number of k-points (npk) =  40000
     Max angular momentum in pseudopotentials (lmaxx) =  4
     file C.pbe-n-kjpaw_psl.1.0.0.UPF: wavefunction(s)  2S 2P renormalized
     Found identity + ( -0.5000 -0.5000  0.0000) symmetry
     This is a supercell, fractional translations are disabled
     Message from routine setup:
     using ibrav=0 with symmetry is DISCOURAGED, use correct ibrav instead


     G-vector sticks info
     --------------------
     sticks:   dense  smooth     PW     G-vecs:    dense   smooth      PW
     Sum        2289    1137    341                82519    29039    4729

     Using Slab Decomposition



     bravais-lattice index     =            0
     lattice parameter (alat)  =       6.7069  a.u.
     unit-cell volume          =     301.6999 (a.u.)^3
     number of atoms/cell      =            8
     number of atomic types    =            1
     number of electrons       =        32.00
     number of Kohn-Sham states=           16
     kinetic-energy cutoff     =      80.0000  Ry
     charge density cutoff     =     640.0000  Ry
     scf convergence threshold =      1.0E-10
     mixing beta               =       0.4000
     number of iterations used =            8  plain     mixing
     Exchange-correlation= SLA  PW   PBX  PBC
                           (   1   4   3   4   0   0   0)

     celldm(1)=   6.706950  celldm(2)=   0.000000  celldm(3)=   0.000000
     celldm(4)=   0.000000  celldm(5)=   0.000000  celldm(6)=   0.000000

     crystal axes: (cart. coord. in units of alat)
               a(1) = (   1.000000   0.000000   0.000000 )  
               a(2) = (   0.000000   1.000000   0.000000 )  
               a(3) = (   0.000000   0.000000   1.000000 )  

     reciprocal axes: (cart. coord. in units 2 pi/alat)
               b(1) = (  1.000000  0.000000  0.000000 )  
               b(2) = (  0.000000  1.000000  0.000000 )  
               b(3) = (  0.000000  0.000000  1.000000 )  


     PseudoPot. # 1 for C  read from file:
     ./C.pbe-n-kjpaw_psl.1.0.0.UPF
     MD5 check sum: 5d2aebdfa2cae82b50a7e79e9516da0f
     Pseudo is Projector augmented-wave + core cor, Zval =  4.0
     Generated using "atomic" code by A. Dal Corso  v.5.1
     Shape of augmentation charge: PSQ
     Using radial grid of 1073 points,  4 beta functions with: 
                l(1) =   0
                l(2) =   0
                l(3) =   1
                l(4) =   1
     Q(r) pseudized with 0 coefficients 


     atomic species   valence    mass     pseudopotential
     C                 4.00    12.01100     C ( 1.00)

     24 Sym. Ops. (no inversion) found



   Cartesian axes

     site n.     atom                  positions (alat units)
         1        C      tau(   1) = (   0.0000000   0.0000000   0.0000000  )
         2        C      tau(   2) = (   0.2500000   0.2500000   0.2500000  )
         3        C      tau(   3) = (   0.5000000   0.5000000   0.0000000  )
         4        C      tau(   4) = (   0.7500000   0.7500000   0.2500000  )
         5        C      tau(   5) = (   0.5000000   0.0000000   0.5000000  )
         6        C      tau(   6) = (   0.7500000   0.2500000   0.7500000  )
         7        C      tau(   7) = (   0.0000000   0.5000000   0.5000000  )
         8        C      tau(   8) = (   0.2500000   0.7500000   0.7500000  )

     number of k points=    35
                       cart. coord. in units 2pi/alat
        k(    1) = (   0.0000000   0.0000000   0.0000000), wk =   0.0039062
        k(    2) = (   0.0000000   0.0000000   0.1250000), wk =   0.0234375
        k(    3) = (   0.0000000   0.0000000   0.2500000), wk =   0.0234375
        k(    4) = (   0.0000000   0.0000000   0.3750000), wk =   0.0234375
        k(    5) = (   0.0000000   0.0000000  -0.5000000), wk =   0.0117188
        k(    6) = (   0.0000000   0.1250000   0.1250000), wk =   0.0468750
        k(    7) = (   0.0000000   0.1250000   0.2500000), wk =   0.0937500
        k(    8) = (   0.0000000   0.1250000   0.3750000), wk =   0.0937500
        k(    9) = (   0.0000000   0.1250000  -0.5000000), wk =   0.0468750
        k(   10) = (   0.0000000   0.2500000   0.2500000), wk =   0.0468750
        k(   11) = (   0.0000000   0.2500000   0.3750000), wk =   0.0937500
        k(   12) = (   0.0000000   0.2500000  -0.5000000), wk =   0.0468750
        k(   13) = (   0.0000000   0.3750000   0.3750000), wk =   0.0468750
        k(   14) = (   0.0000000   0.3750000  -0.5000000), wk =   0.0468750
        k(   15) = (   0.0000000  -0.5000000  -0.5000000), wk =   0.0117188
        k(   16) = (   0.1250000   0.1250000   0.1250000), wk =   0.0312500
        k(   17) = (   0.1250000   0.1250000   0.2500000), wk =   0.0937500
        k(   18) = (   0.1250000   0.1250000   0.3750000), wk =   0.0937500
        k(   19) = (   0.1250000   0.1250000  -0.5000000), wk =   0.0468750
        k(   20) = (   0.1250000   0.2500000   0.2500000), wk =   0.0937500
        k(   21) = (   0.1250000   0.2500000   0.3750000), wk =   0.1875000
        k(   22) = (   0.1250000   0.2500000  -0.5000000), wk =   0.0937500
        k(   23) = (   0.1250000   0.3750000   0.3750000), wk =   0.0937500
        k(   24) = (   0.1250000   0.3750000  -0.5000000), wk =   0.0937500
        k(   25) = (   0.1250000  -0.5000000  -0.5000000), wk =   0.0234375
        k(   26) = (   0.2500000   0.2500000   0.2500000), wk =   0.0312500
        k(   27) = (   0.2500000   0.2500000   0.3750000), wk =   0.0937500
        k(   28) = (   0.2500000   0.2500000  -0.5000000), wk =   0.0468750
        k(   29) = (   0.2500000   0.3750000   0.3750000), wk =   0.0937500
        k(   30) = (   0.2500000   0.3750000  -0.5000000), wk =   0.0937500
        k(   31) = (   0.2500000  -0.5000000  -0.5000000), wk =   0.0234375
        k(   32) = (   0.3750000   0.3750000   0.3750000), wk =   0.0312500
        k(   33) = (   0.3750000   0.3750000  -0.5000000), wk =   0.0468750
        k(   34) = (   0.3750000  -0.5000000  -0.5000000), wk =   0.0234375
        k(   35) = (  -0.5000000  -0.5000000  -0.5000000), wk =   0.0039062

     Dense  grid:    82519 G-vectors     FFT dimensions: (  60,  60,  60)

     Smooth grid:    29039 G-vectors     FFT dimensions: (  40,  40,  40)

     Estimated max dynamical RAM per process >     167.40 MB

     Initial potential from superposition of free atoms

     starting charge      31.9997, renormalised to      32.0000
     Starting wfcs are   32 randomized atomic wfcs

     total cpu time spent up to now is        1.0 secs

     Self-consistent Calculation

     iteration #  1     ecut=    80.00 Ry     beta= 0.40
     Davidson diagonalization with overlap
     ethr =  1.00E-02,  avg # of iterations =  2.0

     total cpu time spent up to now is        2.4 secs

     total energy              =    -147.50280758 Ry
     estimated scf accuracy    <       0.46107954 Ry

     iteration #  2     ecut=    80.00 Ry     beta= 0.40
     Davidson diagonalization with overlap
     ethr =  1.44E-03,  avg # of iterations =  1.0

     total cpu time spent up to now is        3.5 secs

     total energy              =    -147.45627891 Ry
     estimated scf accuracy    <       0.12862024 Ry

     iteration #  3     ecut=    80.00 Ry     beta= 0.40
     Davidson diagonalization with overlap
     ethr =  4.02E-04,  avg # of iterations =  2.0

     total cpu time spent up to now is        4.8 secs

     total energy              =    -147.46998401 Ry
     estimated scf accuracy    <       0.00133938 Ry

     iteration #  4     ecut=    80.00 Ry     beta= 0.40
     Davidson diagonalization with overlap
     ethr =  4.19E-06,  avg # of iterations =  3.4

     total cpu time spent up to now is        6.5 secs

     total energy              =    -147.47059326 Ry
     estimated scf accuracy    <       0.00021471 Ry

     iteration #  5     ecut=    80.00 Ry     beta= 0.40
     Davidson diagonalization with overlap
     ethr =  6.71E-07,  avg # of iterations =  2.2

     total cpu time spent up to now is        8.0 secs

     total energy              =    -147.47062588 Ry
     estimated scf accuracy    <       0.00000236 Ry

     iteration #  6     ecut=    80.00 Ry     beta= 0.40
     Davidson diagonalization with overlap
     ethr =  7.37E-09,  avg # of iterations =  5.6

     total cpu time spent up to now is       10.5 secs

     total energy              =    -147.47062521 Ry
     estimated scf accuracy    <       0.00001719 Ry

     iteration #  7     ecut=    80.00 Ry     beta= 0.40
     Davidson diagonalization with overlap
     ethr =  7.37E-09,  avg # of iterations =  2.0

     total cpu time spent up to now is       12.1 secs

     total energy              =    -147.47062639 Ry
     estimated scf accuracy    <       0.00000025 Ry

     iteration #  8     ecut=    80.00 Ry     beta= 0.40
     Davidson diagonalization with overlap
     ethr =  7.87E-10,  avg # of iterations =  2.1

     total cpu time spent up to now is       13.6 secs

     total energy              =    -147.47062646 Ry
     estimated scf accuracy    <       0.00000001 Ry

     iteration #  9     ecut=    80.00 Ry     beta= 0.40
     Davidson diagonalization with overlap
     ethr =  4.61E-11,  avg # of iterations =  3.3

     total cpu time spent up to now is       15.0 secs

     total energy              =    -147.47062646 Ry
     estimated scf accuracy    <          7.2E-09 Ry

     iteration # 10     ecut=    80.00 Ry     beta= 0.40
     Davidson diagonalization with overlap
     ethr =  2.24E-11,  avg # of iterations =  1.0

     total cpu time spent up to now is       16.0 secs

     total energy              =    -147.47062646 Ry
     estimated scf accuracy    <          2.5E-09 Ry

     iteration # 11     ecut=    80.00 Ry     beta= 0.40
     Davidson diagonalization with overlap
     ethr =  7.97E-12,  avg # of iterations =  2.0

     total cpu time spent up to now is       17.5 secs

     End of self-consistent calculation

          k = 0.0000 0.0000 0.0000 (  3743 PWs)   bands (ev):

    -8.0584   0.7477   0.7477   0.7478   0.7478   0.7478   0.7478   7.2270
     7.2270   7.2270   7.2271   7.2271   7.2271  13.6211  13.6211  13.6211

          k = 0.0000 0.0000 0.1250 (  3687 PWs)   bands (ev):

    -7.9127  -1.1978   0.8410   0.8410   0.8410   0.8410   2.8305   6.9163
     6.9163   6.9163   6.9163   7.3696   7.3696  13.0576  13.0576  13.2703

          k = 0.0000 0.0000 0.2500 (  3675 PWs)   bands (ev):

    -7.4768  -2.9523   1.0944   1.0944   1.0944   1.0944   4.9767   6.1955
     6.1955   6.1955   6.1955   7.7940   7.7940  11.8666  11.8666  12.2959

          k = 0.0000 0.0000 0.3750 (  3639 PWs)   bands (ev):

    -6.7542  -4.4784   1.4066   1.4066   1.4066   1.4066   5.4767   5.4767
     5.4767   5.4767   7.0952   8.4894   8.4894  10.5883  10.5883  10.8557

          k = 0.0000 0.0000-0.5000 (  3588 PWs)   bands (ev):

    -5.7512  -5.7512   1.5634   1.5634   1.5634   1.5634   5.1652   5.1652
     5.1652   5.1652   9.0872   9.0872   9.4344   9.4344   9.4344   9.4344

          k = 0.0000 0.1250 0.1250 (  3677 PWs)   bands (ev):

    -7.7673  -1.0798  -1.0798   0.8376   1.0085   2.8700   2.8700   5.9411
     7.0199   7.0199   7.1271   7.1271   7.4705  12.1838  12.5308  13.4385

          k = 0.0000 0.1250 0.2500 (  3665 PWs)   bands (ev):

    -7.3321  -2.8218  -0.7374   0.9010   1.3596   2.9265   4.8884   4.9620
     6.1917   6.6181   7.4039   7.4176   7.6925  10.9002  11.3892  12.8436

          k = 0.0000 0.1250 0.3750 (  3622 PWs)   bands (ev):

    -6.6107  -4.3412  -0.2142   0.8064   1.8617   2.8164   4.4167   5.2700
     6.2960   6.7042   6.9325   8.0912   8.6967   9.5504  10.1445  11.6318

          k = 0.0000 0.1250-0.5000 (  3636 PWs)   bands (ev):

    -5.6101  -5.6100   0.3774   0.3774   2.4128   2.4128   4.5745   4.5745
     6.4470   6.4470   8.1982   8.1982   9.0150   9.0150  10.1247  10.1247

          k = 0.0000 0.2500 0.2500 (  3650 PWs)   bands (ev):

    -6.8991  -2.4362  -2.4362   0.5534   1.7874   4.1569   4.5461   4.5461
     6.5263   6.5263   7.5872   7.5872   8.1755   9.5988  10.3198  12.8536

          k = 0.0000 0.2500 0.3750 (  3645 PWs)   bands (ev):

    -6.1821  -3.9328  -1.8161  -0.1412   2.3900   3.9068   4.0876   5.5062
     5.8592   7.1549   7.7309   8.2926   8.3264   9.0685   9.1279  12.0683

          k = 0.0000 0.2500-0.5000 (  3628 PWs)   bands (ev):

    -5.1888  -5.1888  -1.0115  -1.0114   3.1294   3.1294   4.6236   4.6236
     7.0543   7.0543   8.0397   8.0397   8.0640   8.0640  10.6960  10.6960

          k = 0.0000 0.3750 0.3750 (  3648 PWs)   bands (ev):

    -5.4734  -3.2646  -3.2646  -1.2790   3.0733   4.3949   4.8757   4.8757
     6.0792   6.0792   7.0528   7.9775   9.2593   9.4120   9.4120  11.8484

          k = 0.0000 0.3750-0.5000 (  3634 PWs)   bands (ev):

    -4.4948  -4.4948  -2.3618  -2.3618   3.9162   3.9162   5.1097   5.1097
     5.9064   5.9064   6.9248   6.9248   9.5626   9.5626  10.9025  10.9025

          k = 0.0000-0.5000-0.5000 (  3628 PWs)   bands (ev):

    -3.5428  -3.5428  -3.5428  -3.5428   4.8435   4.8435   4.8435   4.8435
     5.9072   5.9072   5.9072   5.9072  10.5636  10.5636  10.5636  10.5636

          k = 0.1250 0.1250 0.1250 (  3659 PWs)   bands (ev):

    -7.6221  -0.9669  -0.9669  -0.9669   2.8695   2.8695   2.8695   6.1662
     6.1662   6.1662   7.6092   7.6092   7.6092  11.1784  12.9581  12.9581

          k = 0.1250 0.1250 0.2500 (  3656 PWs)   bands (ev):

    -7.1876  -2.6932  -0.6471  -0.6471   2.7538   2.7538   4.6514   5.3731
     5.3731   6.9294   7.5601   7.5601   8.0213   9.8231  11.8902  12.6506

          k = 0.1250 0.1250 0.3750 (  3640 PWs)   bands (ev):

    -6.4676  -4.2048  -0.2080  -0.2080   2.3536   2.3536   5.0920   5.0920
     6.0383   7.1741   7.1741   8.3346   8.4779   8.6942  10.6997  11.5726

          k = 0.1250 0.1250-0.5000 (  3650 PWs)   bands (ev):

    -5.4694  -5.4694   0.0520   0.0520   2.0557   2.0557   5.1093   5.1093
     6.9414   6.9414   7.2298   7.2298   9.6027   9.6027  10.0295  10.0295

          k = 0.1250 0.2500 0.2500 (  3650 PWs)   bands (ev):

    -6.7554  -2.3149  -2.3149  -0.4404   2.1850   3.9144   3.9144   5.0257
     6.5820   6.5821   8.0632   8.0632   8.3006   8.4286  11.2454  12.5682

          k = 0.1250 0.2500 0.3750 (  3640 PWs)   bands (ev):

    -6.0400  -3.7994  -1.7170  -0.4370   1.7375   2.9396   4.8622   5.2768
     6.2883   7.0899   7.9730   8.0370   8.4581   9.0979  10.1699  11.8897

          k = 0.1250 0.2500-0.5000 (  3654 PWs)   bands (ev):

    -5.0498  -5.0498  -0.9908  -0.9908   2.0867   2.0867   5.7898   5.7898
     5.8944   5.8944   8.2428   8.2428   9.0828   9.0828  10.5912  10.5912

          k = 0.1250 0.3750 0.3750 (  3637 PWs)   bands (ev):

    -5.3335  -3.1392  -3.1392  -1.2543   1.9035   3.6721   3.6721   5.7733
     5.7828   7.2663   7.2663   9.1990   9.3537   9.4796   9.4796  11.7551

          k = 0.1250 0.3750-0.5000 (  3618 PWs)   bands (ev):

    -4.3595  -4.3594  -2.2588  -2.2588   2.6403   2.6403   4.6193   4.6193
     6.4832   6.4832   8.2021   8.2021   9.6430   9.6430  10.8819  10.8819

          k = 0.1250-0.5000-0.5000 (  3616 PWs)   bands (ev):

    -3.4161  -3.4161  -3.4161  -3.4161   3.5116   3.5116   3.5116   3.5116
     7.2969   7.2969   7.2969   7.2969  10.5940  10.5940  10.5940  10.5940

          k = 0.2500 0.2500 0.2500 (  3635 PWs)   bands (ev):

    -6.3260  -1.9681  -1.9681  -1.9681   2.7233   2.7233   2.7233   6.7994
     6.7994   6.7994   6.9569   8.6697   8.6697   8.6697  11.8484  11.8484

          k = 0.2500 0.2500 0.3750 (  3639 PWs)   bands (ev):

    -5.6160  -3.4059  -1.4797  -1.4797   1.6234   1.6234   3.4485   5.5898
     7.0875   7.0875   8.7037   8.8711   8.8711   9.2634  10.9436  11.5420

          k = 0.2500 0.2500-0.5000 (  3656 PWs)   bands (ev):

    -4.6360  -4.6359  -1.1785  -1.1785   1.1063   1.1063   4.4075   4.4075
     7.2373   7.2373   8.8598   8.8598  10.0436  10.0436  10.3889  10.3889

          k = 0.2500 0.3750 0.3750 (  3649 PWs)   bands (ev):

    -4.9172  -2.7789  -2.7789  -1.4314   0.8606   2.1610   2.1610   4.2183
     7.6826   8.6409   8.6409   9.6262   9.6809   9.6809  10.4688  11.4807

          k = 0.2500 0.3750-0.5000 (  3634 PWs)   bands (ev):

    -3.9595  -3.9595  -2.0079  -2.0079   1.1775   1.1775   3.0563   3.0563
     8.2254   8.2254   9.6537   9.6537   9.8777   9.8777  10.8016  10.8016

          k = 0.2500-0.5000-0.5000 (  3656 PWs)   bands (ev):

    -3.0516  -3.0516  -3.0516  -3.0516   1.9406   1.9406   1.9406   1.9406
     8.9826   8.9826   8.9826   8.9826  10.6690  10.6690  10.6690  10.6690

          k = 0.3750 0.3750 0.3750 (  3638 PWs)   bands (ev):

    -4.2359  -2.2651  -2.2651  -2.2651   0.9173   0.9173   0.9173   2.8288
     9.4217   9.4217   9.4217  10.0434  10.0434  10.0434  11.0555  11.0555

          k = 0.3750 0.3750-0.5000 (  3648 PWs)   bands (ev):

    -3.3201  -3.3201  -1.9409  -1.9409   0.3450   0.3450   1.6908   1.6908
     9.6023   9.6023  10.2746  10.2746  10.5469  10.5469  10.6658  10.6658

          k = 0.3750-0.5000-0.5000 (  3636 PWs)   bands (ev):

    -2.5296  -2.5296  -2.5296  -2.5296   0.6642   0.6642   0.6642   0.6642
    10.2772  10.2772  10.2772  10.2772  10.7466  10.7466  10.7466  10.7466

          k =-0.5000-0.5000-0.5000 (  3648 PWs)   bands (ev):

    -2.1976  -2.1976  -2.1976  -2.1976   0.0770   0.0770   0.0770   0.0770
    10.7796  10.7796  10.7796  10.7796  10.7796  10.7796  10.7796  10.7796

     highest occupied level (ev):    13.6211

!    total energy              =    -147.47062646 Ry
     total all-electron energy =      -609.583409 Ry
     estimated scf accuracy    <          9.7E-11 Ry

     The total energy is the sum of the following terms:
     one-electron contribution =      34.54761087 Ry
     hartree contribution      =       7.70085320 Ry
     xc contribution           =     -37.60777714 Ry
     ewald contribution        =    -102.80532404 Ry
     one-center paw contrib.   =     -49.30598936 Ry

     convergence has been achieved in  11 iterations

     Forces acting on atoms (cartesian axes, Ry/au):

     atom    1 type  1   force =     0.00000000    0.00000000    0.00000000
     atom    2 type  1   force =    -0.00000008   -0.00000008   -0.00000008
     atom    3 type  1   force =     0.00000000    0.00000000    0.00000000
     atom    4 type  1   force =     0.00000008    0.00000008   -0.00000008
     atom    5 type  1   force =     0.00000000    0.00000000    0.00000000
     atom    6 type  1   force =     0.00000008   -0.00000008    0.00000008
     atom    7 type  1   force =     0.00000000    0.00000000    0.00000000
     atom    8 type  1   force =    -0.00000008    0.00000008    0.00000008

     Total force =     0.000000     Total SCF correction =     0.000009
     SCF correction compared to forces is large: reduce conv_thr to get better values


     Computing stress (Cartesian axis) and pressure

          total   stress  (Ry/bohr**3)                   (kbar)     P=       89.94
   0.00061139   0.00000000   0.00000000           89.94        0.00        0.00
   0.00000000   0.00061139   0.00000000            0.00       89.94        0.00
   0.00000000   0.00000000   0.00061139            0.00        0.00       89.94


     Writing all to output data dir ./tmp/diamond.save/ :
     XML data file, charge density, pseudopotentials, collected wavefunctions

     init_run     :      0.93s CPU      0.98s WALL (       1 calls)
     electrons    :     15.07s CPU     16.47s WALL (       1 calls)
     forces       :      0.18s CPU      0.20s WALL (       1 calls)
     stress       :      0.57s CPU      0.63s WALL (       1 calls)

     Called by init_run:
     wfcinit      :      0.68s CPU      0.70s WALL (       1 calls)
     potinit      :      0.13s CPU      0.14s WALL (       1 calls)
     hinit0       :      0.09s CPU      0.09s WALL (       1 calls)

     Called by electrons:
     c_bands      :     11.58s CPU     12.75s WALL (      11 calls)
     sum_band     :      1.87s CPU      1.98s WALL (      11 calls)
     v_of_rho     :      0.36s CPU      0.39s WALL (      12 calls)
     newd         :      0.18s CPU      0.21s WALL (      12 calls)
     PAW_pot      :      1.13s CPU      1.21s WALL (      12 calls)
     mix_rho      :      0.04s CPU      0.04s WALL (      11 calls)

     Called by c_bands:
     init_us_2    :      0.26s CPU      0.30s WALL (     875 calls)
     cegterg      :     11.10s CPU     12.25s WALL (     385 calls)

     Called by *egterg:
     cdiaghg      :      0.15s CPU      0.15s WALL (    1316 calls)
     h_psi        :      9.38s CPU      9.85s WALL (    1351 calls)
     s_psi        :      0.62s CPU      0.79s WALL (    1351 calls)
     g_psi        :      0.05s CPU      0.05s WALL (     931 calls)

     Called by h_psi:
     h_psi:calbec :      0.66s CPU      0.83s WALL (    1351 calls)
     vloc_psi     :      8.04s CPU      8.16s WALL (    1351 calls)
                                        0.00s GPU  (    1351 calls)
     add_vuspsi   :      0.64s CPU      0.81s WALL (    1351 calls)

     General routines
     calbec       :      1.18s CPU      1.44s WALL (    2331 calls)
     fft          :      0.22s CPU      0.22s WALL (     179 calls)
     ffts         :      0.01s CPU      0.01s WALL (      23 calls)
     fftw         :      8.38s CPU      8.45s WALL (   43698 calls)
     interpolate  :      0.02s CPU      0.02s WALL (      12 calls)


     PWSCF        :     16.78s CPU     18.33s WALL


   This run was terminated on:  12:16:56  20Jun2026            

=------------------------------------------------------------------------------=
   JOB DONE.
=------------------------------------------------------------------------------=
Note: The following floating-point exceptions are signalling: IEEE_INVALID_FLAG IEEE_DIVIDE_BY_ZERO IEEE_OVERFLOW_FLAG IEEE_UNDERFLOW_FLAG
