
     Program PWSCF v.7.3.1 starts on  2Aug2026 at 14:21:24 

     This program is part of the open-source Quantum ESPRESSO suite
     for quantum simulation of materials; please cite
         "P. Giannozzi et al., J. Phys.:Condens. Matter 21 395502 (2009);
         "P. Giannozzi et al., J. Phys.:Condens. Matter 29 465901 (2017);
         "P. Giannozzi et al., J. Chem. Phys. 152 154105 (2020);
          URL http://www.quantum-espresso.org", 
     in publications or presentations arising from this work. More details at
     http://www.quantum-espresso.org/quote

     Parallel version (MPI), running on     8 processors

     MPI processes distributed on     1 nodes
     188191 MiB available memory on the printing compute node when the environment starts

     Reading input from pw.in

     Current dimensions of program PWSCF are:
     Max number of different atomic species (ntypx) = 10
     Max number of k-points (npk) =  40000
     Max angular momentum in pseudopotentials (lmaxx) =  4
     file C.pbe-n-kjpaw_psl.1.0.0.UPF: wavefunction(s)  2S 2P renormalized
     Message from routine volume:
     axis vectors are left-handed
     Message from routine setup:
     using ibrav=0 with symmetry is DISCOURAGED, use correct ibrav instead

     R & G space division:  proc/nbgrp/npool/nimage =       8
     Subspace diagonalization in iterative solution of the eigenvalue problem:
     a serial algorithm will be used


     Parallelization info
     --------------------
     sticks:   dense  smooth     PW     G-vecs:    dense   smooth      PW
     Min         326     163     46                69790    24665    3818
     Max         327     164     47                69809    24677    3839
     Sum        2609    1305    373               558365   197391   30641

     Using Slab Decomposition



     bravais-lattice index     =            0
     lattice parameter (alat)  =       4.7740  a.u.
     unit-cell volume          =    1710.5976 (a.u.)^3
     number of atoms/cell      =           28
     number of atomic types    =            2
     number of electrons       =       100.00
     number of Kohn-Sham states=           60
     kinetic-energy cutoff     =      90.0000  Ry
     charge density cutoff     =     720.0000  Ry
     scf convergence threshold =      1.0E-09
     mixing beta               =       0.3000
     number of iterations used =            8  plain     mixing
     energy convergence thresh.=      1.0E-05
     force convergence thresh. =      1.0E-04
     press convergence thresh. =      1.0E-01
     Exchange-correlation= PBE
                           (   1   4   3   4   0   0   0)
     nstep                     =           50


     celldm(1)=   4.773978  celldm(2)=   0.000000  celldm(3)=   0.000000
     celldm(4)=   0.000000  celldm(5)=   0.000000  celldm(6)=   0.000000

     crystal axes: (cart. coord. in units of alat)
               a(1) = (   1.000000   0.000000   0.000000 )  
               a(2) = (   0.000000  -2.000000   0.000000 )  
               a(3) = (   0.000000   0.000000   7.860979 )  

     reciprocal axes: (cart. coord. in units 2 pi/alat)
               b(1) = (  1.000000 -0.000000 -0.000000 )  
               b(2) = ( -0.000000 -0.500000 -0.000000 )  
               b(3) = ( -0.000000 -0.000000  0.127211 )  


     PseudoPot. # 1 for C  read from file:
     ./C.pbe-n-kjpaw_psl.1.0.0.UPF
     MD5 check sum: 5d2aebdfa2cae82b50a7e79e9516da0f
     Pseudo is Projector augmented-wave + core cor, Zval =  4.0
     Generated using "atomic" code by A. Dal Corso  v.5.1
     Shape of augmentation charge: PSQ
     Using radial grid of 1073 points,  4 beta functions with: 
                l(1) =   0
                l(2) =   0
                l(3) =   1
                l(4) =   1
     Q(r) pseudized with 0 coefficients 


     PseudoPot. # 2 for H  read from file:
     ./H_ONCV_PBE-1.0.oncvpsp.upf
     MD5 check sum: 1790becc920ee074925cf490c71280fe
     Pseudo is Norm-conserving, Zval =  1.0
     Generated using ONCVPSP code by D. R. Hamann
     Using radial grid of 1166 points,  2 beta functions with: 
                l(1) =   0
                l(2) =   0

     atomic species   valence    mass     pseudopotential
     C                 4.00    12.01100     C ( 1.00)
     H                 1.00     1.00800     H ( 1.00)

      4 Sym. Ops., with inversion, found ( 2 have fractional translation)



   Cartesian axes

     site n.     atom                  positions (alat units)
         1        C      tau(   1) = (   0.0000000  -0.3166711   5.8750329  )
         2        C      tau(   2) = (   0.5000000  -0.5000000   5.5214795  )
         3        C      tau(   3) = (   0.5000000   0.0000000   5.1679261  )
         4        C      tau(   4) = (   0.0000000   0.0000000   4.8143727  )
         5        C      tau(   5) = (   0.0000000  -0.5000000   4.4608193  )
         6        C      tau(   6) = (   0.5000000  -0.5000000   4.1072659  )
         7        C      tau(   7) = (   0.5000000   0.0000000   3.7537126  )
         8        C      tau(   8) = (   0.0000000   0.0000000   3.4001592  )
         9        C      tau(   9) = (   0.0000000  -0.5000000   3.0466058  )
        10        C      tau(  10) = (   0.5000000  -0.5000000   2.6930524  )
        11        C      tau(  11) = (   0.5000000   0.0000000   2.3394990  )
        12        C      tau(  12) = (   0.0000000   0.1833289   1.9859456  )
        13        C      tau(  13) = (   0.0000000  -1.6833289   5.8750329  )
        14        C      tau(  14) = (   0.5000000  -1.5000000   5.5214795  )
        15        C      tau(  15) = (   0.5000000  -1.0000000   5.1679261  )
        16        C      tau(  16) = (   0.0000000  -1.0000000   4.8143727  )
        17        C      tau(  17) = (   0.0000000  -1.5000000   4.4608193  )
        18        C      tau(  18) = (   0.5000000  -1.5000000   4.1072659  )
        19        C      tau(  19) = (   0.5000000  -1.0000000   3.7537126  )
        20        C      tau(  20) = (   0.0000000  -1.0000000   3.4001592  )
        21        C      tau(  21) = (   0.0000000  -1.5000000   3.0466058  )
        22        C      tau(  22) = (   0.5000000  -1.5000000   2.6930524  )
        23        C      tau(  23) = (   0.5000000  -1.0000000   2.3394990  )
        24        C      tau(  24) = (   0.0000000  -1.1833289   1.9859456  )
        25        H      tau(  25) = (   0.0000000  -0.4718572   6.2776230  )
        26        H      tau(  26) = (   0.0000000  -1.5281428   6.2776230  )
        27        H      tau(  27) = (   0.0000000   0.0281428   1.5833555  )
        28        H      tau(  28) = (   0.0000000  -1.0281428   1.5833555  )

     number of k points=    18  Marzari-Vanderbilt smearing, width (Ry)=  0.0100
                       cart. coord. in units 2pi/alat
        k(    1) = (   0.0000000  -0.0000000   0.0000000), wk =   0.0400000
        k(    2) = (   0.0000000  -0.1000000   0.0000000), wk =   0.0800000
        k(    3) = (   0.0000000  -0.2000000   0.0000000), wk =   0.0800000
        k(    4) = (   0.1000000  -0.0000000   0.0000000), wk =   0.0800000
        k(    5) = (   0.1000000  -0.1000000   0.0000000), wk =   0.1600000
        k(    6) = (   0.1000000  -0.2000000   0.0000000), wk =   0.1600000
        k(    7) = (   0.2000000  -0.0000000   0.0000000), wk =   0.0800000
        k(    8) = (   0.2000000  -0.1000000   0.0000000), wk =   0.1600000
        k(    9) = (   0.2000000  -0.2000000   0.0000000), wk =   0.1600000
        k(   10) = (   0.3000000  -0.0000000   0.0000000), wk =   0.0800000
        k(   11) = (   0.3000000  -0.1000000   0.0000000), wk =   0.1600000
        k(   12) = (   0.3000000  -0.2000000   0.0000000), wk =   0.1600000
        k(   13) = (   0.4000000  -0.0000000   0.0000000), wk =   0.0800000
        k(   14) = (   0.4000000  -0.1000000   0.0000000), wk =   0.1600000
        k(   15) = (   0.4000000  -0.2000000   0.0000000), wk =   0.1600000
        k(   16) = (  -0.5000000   0.0000000   0.0000000), wk =   0.0400000
        k(   17) = (  -0.5000000  -0.1000000   0.0000000), wk =   0.0800000
        k(   18) = (  -0.5000000  -0.2000000   0.0000000), wk =   0.0800000

     Dense  grid:   558365 G-vectors     FFT dimensions: (  45,  96, 324)

     Smooth grid:   197391 G-vectors     FFT dimensions: (  30,  60, 240)

     Estimated max dynamical RAM per process >     229.36 MB

     Estimated total dynamical RAM >       1.79 GB

     Initial potential from superposition of free atoms

     starting charge      99.9990, renormalised to     100.0000
     Starting wfcs are  100 randomized atomic wfcs
     Checking if some PAW data can be deallocated... 

     total cpu time spent up to now is        3.5 secs

     Self-consistent Calculation

     iteration #  1     ecut=    90.00 Ry     beta= 0.30
     Davidson diagonalization with overlap
     ethr =  1.00E-02,  avg # of iterations =  2.7

     negative rho (up, down):  2.033E-08 0.000E+00

     total cpu time spent up to now is        9.3 secs

     total energy              =    -447.10760199 Ry
     estimated scf accuracy    <       1.79731776 Ry

     iteration #  2     ecut=    90.00 Ry     beta= 0.30
     Davidson diagonalization with overlap
     ethr =  1.80E-03,  avg # of iterations =  4.6

     negative rho (up, down):  1.022E-06 0.000E+00

     total cpu time spent up to now is       14.3 secs

     total energy              =    -446.92934349 Ry
     estimated scf accuracy    <       0.62340631 Ry

     iteration #  3     ecut=    90.00 Ry     beta= 0.30
     Davidson diagonalization with overlap
     ethr =  6.23E-04,  avg # of iterations =  5.4

     negative rho (up, down):  1.173E-06 0.000E+00

     total cpu time spent up to now is       19.5 secs

     total energy              =    -446.95556230 Ry
     estimated scf accuracy    <       0.07124338 Ry

     iteration #  4     ecut=    90.00 Ry     beta= 0.30
     Davidson diagonalization with overlap
     ethr =  7.12E-05,  avg # of iterations =  8.4

     negative rho (up, down):  1.286E-06 0.000E+00

     total cpu time spent up to now is       25.7 secs

     total energy              =    -446.96086659 Ry
     estimated scf accuracy    <       0.00925769 Ry

     iteration #  5     ecut=    90.00 Ry     beta= 0.30
     Davidson diagonalization with overlap
     c_bands:  1 eigenvalues not converged
     ethr =  9.26E-06,  avg # of iterations =  8.7

     negative rho (up, down):  1.899E-06 0.000E+00

     total cpu time spent up to now is       32.3 secs

     total energy              =    -446.96227682 Ry
     estimated scf accuracy    <       0.00141965 Ry

     iteration #  6     ecut=    90.00 Ry     beta= 0.30
     Davidson diagonalization with overlap
     c_bands:  1 eigenvalues not converged
     c_bands:  1 eigenvalues not converged
     c_bands:  2 eigenvalues not converged
     ethr =  1.42E-06,  avg # of iterations =  9.6

     negative rho (up, down):  1.716E-06 0.000E+00

     total cpu time spent up to now is       39.3 secs

     total energy              =    -446.96236211 Ry
     estimated scf accuracy    <       0.00058115 Ry

     iteration #  7     ecut=    90.00 Ry     beta= 0.30
     Davidson diagonalization with overlap
     c_bands:  1 eigenvalues not converged
     ethr =  5.81E-07,  avg # of iterations =  7.2

     negative rho (up, down):  1.879E-06 0.000E+00

     total cpu time spent up to now is       45.5 secs

     total energy              =    -446.96250245 Ry
     estimated scf accuracy    <       0.00014276 Ry

     iteration #  8     ecut=    90.00 Ry     beta= 0.30
     Davidson diagonalization with overlap
     ethr =  1.43E-07,  avg # of iterations =  2.4

     negative rho (up, down):  1.881E-06 0.000E+00

     total cpu time spent up to now is       50.2 secs

     total energy              =    -446.96252816 Ry
     estimated scf accuracy    <       0.00000405 Ry

     iteration #  9     ecut=    90.00 Ry     beta= 0.30
     Davidson diagonalization with overlap
     ethr =  4.05E-09,  avg # of iterations =  3.8

     negative rho (up, down):  1.879E-06 0.000E+00

     total cpu time spent up to now is       56.0 secs

     total energy              =    -446.96252862 Ry
     estimated scf accuracy    <       0.00000316 Ry

     iteration # 10     ecut=    90.00 Ry     beta= 0.30
     Davidson diagonalization with overlap
     ethr =  3.16E-09,  avg # of iterations =  2.1

     negative rho (up, down):  1.893E-06 0.000E+00

     total cpu time spent up to now is       60.9 secs

     total energy              =    -446.96252942 Ry
     estimated scf accuracy    <       0.00000027 Ry

     iteration # 11     ecut=    90.00 Ry     beta= 0.30
     Davidson diagonalization with overlap
     ethr =  2.69E-10,  avg # of iterations =  2.0

     negative rho (up, down):  1.902E-06 0.000E+00

     total cpu time spent up to now is       65.7 secs

     total energy              =    -446.96252946 Ry
     estimated scf accuracy    <       0.00000002 Ry

     iteration # 12     ecut=    90.00 Ry     beta= 0.30
     Davidson diagonalization with overlap
     ethr =  2.26E-11,  avg # of iterations =  2.8

     negative rho (up, down):  1.911E-06 0.000E+00

     total cpu time spent up to now is       70.9 secs

     total energy              =    -446.96252947 Ry
     estimated scf accuracy    <          6.8E-09 Ry

     iteration # 13     ecut=    90.00 Ry     beta= 0.30
     Davidson diagonalization with overlap
     ethr =  6.81E-12,  avg # of iterations =  2.1

     negative rho (up, down):  1.935E-06 0.000E+00

     total cpu time spent up to now is       76.2 secs

     End of self-consistent calculation

          k = 0.0000-0.0000 0.0000 ( 24643 PWs)   bands (ev):

   -15.3969 -14.7167 -13.6640 -12.3509 -11.1662 -10.9394 -10.7343 -10.3767
   -10.0395  -9.1963  -9.1680  -8.7083  -7.0398  -6.6766  -6.4604  -5.2126
    -5.1395  -4.5817  -3.4566  -3.4538  -2.3783  -1.3885  -1.3881  -0.2586
    -0.2463  -0.1272   0.2698   0.4739   0.4799   0.7348   1.5083   1.5806
     1.9078   2.0105   2.3965   2.6738   2.7138   2.7874   2.8842   2.9084
     2.9280   3.1084   3.5738   3.9051   4.3398   4.8193   4.8193   4.9887
     5.2326   5.3566   8.2029   8.7454  10.1161  10.1313  10.4396  10.6676
    11.1089  11.1856  11.3610  11.4500

          k = 0.0000-0.1000 0.0000 ( 24675 PWs)   bands (ev):

   -15.2150 -14.5428 -13.5203 -12.5861 -12.2475 -11.6928 -10.8793 -10.1766
    -9.4720  -8.9993  -8.7633  -8.4437  -6.7531  -6.3671  -6.2135  -5.0362
    -4.9236  -4.4688  -3.5430  -3.0035  -2.4037  -1.5290  -1.1712  -0.9843
    -0.4250  -0.2987  -0.0964   0.5047   0.5858   0.6126   1.2026   1.3289
     1.6910   1.8985   2.1063   2.2857   2.3160   2.7383   2.8414   2.9441
     3.1516   3.2762   3.5651   3.7471   4.3488   4.5458   4.8216   4.9035
     4.9419   5.3842   8.4235   8.9604  10.5711  10.7847  10.7880  11.1122
    11.1520  11.5132  11.5989  11.7274

          k = 0.0000-0.2000 0.0000 ( 24637 PWs)   bands (ev):

   -14.6734 -14.0474 -13.7760 -13.2810 -12.8625 -12.0982 -11.3638 -10.4742
    -9.6192  -8.7972  -8.0313  -7.7526  -6.0772  -5.5698  -5.5087  -4.9595
    -4.4650  -4.0120  -3.3232  -2.7034  -2.6838  -2.3045  -2.0695  -1.2211
    -1.0177  -0.6299  -0.3237   0.3413   0.6138   0.9772   1.0044   1.0384
     1.1460   1.6108   1.8369   2.0014   2.0230   2.5350   2.7195   2.9681
     3.2596   3.2678   3.4825   3.7585   4.1072   4.2301   4.4684   4.8661
     5.1526   5.3706   9.0408   9.4990  10.0203  10.3265  10.9782  11.1815
    11.2462  11.6698  11.8490  12.0293

          k = 0.1000-0.0000 0.0000 ( 24655 PWs)   bands (ev):

   -15.2134 -14.5341 -13.4833 -12.1737 -10.9930 -10.7656 -10.5622 -10.2086
    -9.8730  -9.0275  -8.9998  -8.5509  -6.9285  -6.5190  -6.3353  -5.0785
    -5.0049  -4.5046  -3.3596  -3.3568  -2.4821  -1.3229  -1.3220  -0.9888
    -0.9324  -0.1182   0.2269   0.2996   0.4267   0.4839   0.7895   1.4511
     1.6393   1.8566   1.9127   2.0549   2.1299   2.2018   2.3134   2.5018
     2.5591   2.8127   3.3236   3.5491   4.0035   4.0306   4.0704   4.5940
     4.9519   5.0336   8.3902   8.9222  10.6581  10.7198  10.9585  11.0809
    11.3254  11.5663  11.6154  11.7402

          k = 0.1000-0.1000 0.0000 ( 24646 PWs)   bands (ev):

   -15.0317 -14.3605 -13.3397 -12.4076 -12.0705 -11.5189 -10.7094 -10.0108
    -9.3093  -8.8308  -8.5982  -8.2842  -6.6513  -6.2130  -6.0836  -4.9114
    -4.7983  -4.3816  -3.4612  -2.8818  -2.4541  -1.4713  -1.1003  -0.9403
    -0.8564  -0.8363  -0.1699  -0.0063   0.4043   0.5359   0.5493   1.1323
     1.3151   1.3863   1.4776   1.8221   2.0206   2.2275   2.3566   2.5797
     2.8547   3.0037   3.1892   3.4004   3.8520   4.0301   4.1294   4.3407
     4.8244   4.9006   8.6082   9.1292  10.8401  11.2391  11.3318  11.5581
    11.5724  11.6158  11.8708  12.0717

          k = 0.1000-0.2000 0.0000 ( 24657 PWs)   bands (ev):

   -14.4909 -13.8655 -13.5952 -13.1005 -12.6849 -11.9228 -11.1922 -10.3073
    -9.4573  -8.6393  -7.8750  -7.5892  -5.9953  -5.4577  -5.3761  -4.8476
    -4.3561  -3.8701  -3.2049  -2.5826  -2.5685  -2.2133  -1.9543  -1.3099
    -0.9741  -0.7140  -0.4859  -0.2667  -0.1162   0.3761   0.4013   0.6405
     0.9097   1.2258   1.3272   1.5043   1.8657   2.0182   2.2417   2.5268
     2.8298   2.9377   3.2885   3.4575   3.7414   4.0878   4.2936   4.3503
     4.4901   4.5365   9.2211   9.6516  10.1840  10.4451  10.9531  11.2444
    11.8368  12.0227  12.2611  12.4600

          k = 0.2000-0.0000 0.0000 ( 24607 PWs)   bands (ev):

   -14.6649 -13.9892 -12.9452 -11.6480 -10.4782 -10.2476 -10.0510  -9.7086
    -9.3830  -8.5266  -8.5000  -8.0997  -6.7488  -6.0681  -5.9854  -4.7491
    -4.6495  -4.4744  -3.4763  -3.1536  -3.1531  -2.6167  -2.2704  -1.2358
    -1.2013  -1.0256  -0.8259  -0.2286  -0.0334   0.2256   0.3212   0.3920
     0.8024   0.8573   0.8644   1.0227   1.1122   1.5478   1.7709   1.8093
     1.9331   2.1790   2.4265   2.6387   2.7339   2.8891   3.6731   4.0337
     4.0345   4.7813   8.9260   9.3444  11.0862  11.1331  11.4105  11.4409
    11.8855  12.0671  12.2851  12.5793

          k = 0.2000-0.1000 0.0000 ( 24634 PWs)   bands (ev):

   -14.4840 -13.8162 -12.8017 -11.8749 -11.5440 -11.0023 -10.2064  -9.5246
    -8.8307  -8.3318  -8.1101  -7.8229  -6.5038  -5.7821  -5.7245  -4.6166
    -4.5734  -4.2293  -3.4299  -3.1805  -2.5717  -2.4558  -2.1669  -1.4813
    -1.2500  -1.0406  -0.8970  -0.6527  -0.3708  -0.1339  -0.0178   0.1965
     0.4783   0.6228   0.9230   1.0328   1.1990   1.4348   1.7163   1.8280
     1.9566   2.1673   2.2830   2.6046   2.7224   2.9760   3.2064   3.7997
     4.1740   4.3841   9.1250   9.5323  10.9645  11.2581  11.3549  11.6842
    11.8301  12.0101  12.4447  12.5292

          k = 0.2000-0.2000 0.0000 ( 24642 PWs)   bands (ev):

   -13.9457 -13.3224 -13.0552 -12.5620 -12.1557 -11.4014 -10.6847  -9.8166
    -8.9870  -8.1848  -7.4246  -7.1053  -5.9048  -5.2675  -5.0443  -4.5872
    -4.1525  -3.4990  -3.0873  -2.4365  -2.3823  -2.2903  -2.2389  -1.9225
    -1.6825  -1.6296  -1.3929  -1.2147  -0.8115  -0.5708  -0.3363  -0.2988
    -0.0561   0.4273   0.6194   0.9227   1.2404   1.3987   1.5905   1.8041
     1.9746   2.2114   2.3961   2.7382   2.8295   2.9644   3.2420   3.3747
     3.8316   3.9838   9.6546  10.0130  10.4038  10.6214  10.6842  11.1590
    11.4579  11.9080  12.1430  12.4701

          k = 0.3000-0.0000 0.0000 ( 24668 PWs)   bands (ev):

   -13.7592 -13.0918 -12.0653 -10.8020  -9.6500  -9.3983  -9.2276  -8.8987
    -8.6364  -7.7300  -7.6930  -7.5152  -7.2656  -5.5805  -5.4636  -5.4451
    -4.9625  -4.3877  -4.3812  -3.7286  -3.5996  -3.2890  -3.2863  -2.2988
    -1.9986  -1.6223  -1.6031  -1.4725  -1.4163  -0.7509  -0.7358  -0.3190
    -0.2418   0.2610   0.3213   0.8498   0.8600   0.9105   1.0570   1.1796
     1.3417   1.4450   1.5546   1.9226   2.3821   2.7537   3.0793   3.2832
     3.6612   4.3921   9.7381   9.9732  10.9218  10.9786  11.6137  11.6759
    12.0031  12.0324  12.1818  12.3650

          k = 0.3000-0.1000 0.0000 ( 24678 PWs)   bands (ev):

   -13.5799 -12.9202 -11.9215 -10.9997 -10.6878 -10.1646  -9.4059  -8.7935
    -8.1103  -7.5500  -7.3917  -7.1697  -7.0030  -5.4562  -5.4283  -5.2621
    -4.8685  -4.5257  -3.9578  -3.5516  -3.4290  -3.2199  -2.6148  -2.4817
    -2.2557  -2.1783  -1.7299  -1.5258  -1.2472  -0.7532  -0.3818  -0.2400
    -0.0012   0.1785   0.2647   0.5461   0.7050   0.9125   0.9991   1.0248
     1.2064   1.4146   1.5275   1.6844   2.2187   2.3857   2.7378   3.3554
     3.4323   3.6848   9.8700  10.0592  10.7401  10.9054  11.1972  11.8467
    12.0540  12.2067  12.4051  12.7846

          k = 0.3000-0.2000 0.0000 ( 24664 PWs)   bands (ev):

   -13.0459 -12.4281 -12.1646 -11.6767 -11.2904 -10.5537  -9.8748  -9.0529
    -8.3110  -7.5915  -6.8938  -6.5602  -6.2289  -5.6690  -5.1902  -4.9724
    -4.4021  -3.9838  -3.3253  -3.1842  -3.0656  -2.9990  -2.8539  -2.4061
    -2.1364  -1.9444  -1.7967  -1.7151  -1.3160  -1.0304  -0.8353  -0.7245
    -0.5181  -0.2935   0.1085   0.4350   0.4868   0.8122   1.0148   1.1326
     1.3252   1.4328   1.6934   1.7424   2.0056   2.0631   2.4991   2.8426
     2.8551   3.1462   9.8764  10.0774  10.4238  10.7854  11.0948  11.6041
    11.7860  12.1575  12.2988  12.4980

          k = 0.4000-0.0000 0.0000 ( 24732 PWs)   bands (ev):

   -12.5145 -11.8690 -10.9018  -9.8317  -9.3497  -8.4369  -8.4184  -8.0983
    -8.0577  -7.6055  -7.5161  -6.6248  -6.6198  -6.4499  -6.0239  -5.5832
    -5.3794  -5.2619  -5.2605  -4.8080  -4.1804  -3.8461  -3.8453  -2.7451
    -2.6725  -2.5936  -2.5846  -1.8479  -1.8470  -1.4281  -0.9359  -0.8777
    -0.7975  -0.5089  -0.1957   0.0936   0.1089   0.6932   0.7524   0.7702
     1.0178   1.4210   1.4849   1.9413   2.4254   2.5979   2.6688   2.9998
     3.4799   3.7371  10.3285  10.3741  11.0047  11.0239  11.2793  11.3961
    11.9521  11.9799  12.7593  12.7621

          k = 0.4000-0.1000 0.0000 ( 24696 PWs)   bands (ev):

   -12.3375 -11.6995 -10.7552  -9.8446  -9.6157  -9.2135  -9.0505  -8.4157
    -7.9649  -7.6067  -7.1156  -6.7422  -6.4275  -6.2774  -6.0329  -5.8941
    -5.4499  -4.9955  -4.6929  -4.1316  -3.8331  -3.5310  -3.4616  -3.0399
    -2.9770  -2.5784  -2.5442  -2.0201  -1.8122  -1.1787  -0.9501  -0.4625
    -0.4186  -0.2467  -0.1919   0.2167   0.3237   0.6441   0.6954   0.8493
     1.0053   1.1676   1.2675   1.6042   1.8704   2.0303   2.5863   2.7200
     2.8008   3.0048  10.0269  10.2548  11.0072  11.3132  11.5465  11.6972
    11.9126  12.4014  12.5780  12.9834

          k = 0.4000-0.2000 0.0000 ( 24655 PWs)   bands (ev):

   -11.8103 -11.2094 -10.9434 -10.4779 -10.1406  -9.4613  -8.9718  -8.6576
    -8.2821  -7.8522  -7.5894  -7.4998  -6.0034  -5.8521  -5.6528  -5.3570
    -5.2135  -5.0551  -4.6035  -4.0694  -3.4902  -2.9301  -2.7503  -2.6267
    -2.3563  -2.2027  -2.0652  -1.8544  -1.5904  -1.2692  -0.8664  -0.7193
    -0.5583  -0.3036  -0.0457   0.2420   0.3563   0.4726   0.6442   0.8890
     0.9275   1.0072   1.0867   1.2643   1.2909   1.5350   1.7258   1.8313
     2.2517   2.2573   9.8773  10.0595  10.9463  11.3785  11.9011  12.0310
    12.1125  12.1925  12.3884  12.5540

          k =-0.5000 0.0000 0.0000 ( 24782 PWs)   bands (ev):

   -10.9795 -10.9732 -10.4467 -10.4048  -9.9699  -8.5314  -8.2563  -7.1218
    -6.9025  -6.8152  -6.7697  -6.6887  -6.5524  -6.5000  -6.3858  -6.3164
    -6.1786  -5.7758  -5.7711  -5.0730  -4.6362  -4.4993  -4.4988  -3.6308
    -2.3740  -2.2106  -2.1505  -2.1005  -2.0071  -1.4003  -1.3186  -1.2090
    -1.1711  -0.8527  -0.3269  -0.1843  -0.1304   0.5851   0.6104   0.6899
     0.8974   1.1776   1.2279   2.4333   2.4462   2.8392   2.8608   2.9443
     3.1275   3.1497  10.2750  10.3056  11.1858  11.1902  11.4694  11.4732
    12.4558  12.4821  12.5015  12.5127

          k =-0.5000-0.1000 0.0000 ( 24712 PWs)   bands (ev):

   -10.8057 -10.7998 -10.2802 -10.2381  -9.8113  -8.5091  -8.3445  -8.2568
    -8.0608  -7.8190  -7.6370  -7.4444  -6.5548  -6.2816  -5.4483  -5.3498
    -5.2584  -5.0922  -4.8357  -4.7730  -4.6706  -4.6080  -4.2837  -3.6301
    -2.6120  -2.5191  -2.2415  -1.9768  -1.7817  -1.1308  -1.0706  -0.8285
    -0.8203  -0.6661  -0.2642  -0.0051   0.0267   0.5318   0.6355   0.7633
     1.0576   1.1272   1.2561   2.0537   2.0852   2.1470   2.2127   2.2846
     2.4369   2.5853  10.0198  10.2748  10.9844  11.6192  11.7076  11.8499
    12.4927  12.5600  12.6836  12.7072

          k =-0.5000-0.2000 0.0000 ( 24638 PWs)   bands (ev):

   -10.2883 -10.2833  -9.7992  -9.7442  -9.4572  -9.4381  -9.3273  -8.9590
    -8.8781  -8.4715  -8.1810  -7.9622  -6.2308  -6.1523  -5.7075  -5.4652
    -5.1376  -4.6785  -4.6054  -4.1479  -4.1075  -3.8609  -3.6068  -3.3695
    -2.0087  -1.6797  -1.6423  -1.5661  -1.4917  -1.1388  -1.1029  -0.6295
    -0.4250  -0.3735   0.1135   0.1463   0.1926   0.3525   0.5708   0.5997
     0.7311   0.8603   1.0371   1.0951   1.1043   1.3511   1.4006   1.5102
     1.6282   1.9031  10.0348  10.1062  11.2910  11.6444  11.7935  12.1117
    12.2722  12.4083  12.4792  12.5644

     the Fermi energy is     6.5686 ev

!    total energy              =    -446.96252947 Ry
     estimated scf accuracy    <          9.8E-10 Ry
     smearing contrib. (-TS)   =       0.00000000 Ry
     internal energy E=F+TS    =    -446.96252947 Ry

     The total energy is F=E-TS. E is the sum of the following terms:
     one-electron contribution =   -3118.88031359 Ry
     hartree contribution      =    1608.91243006 Ry
     xc contribution           =    -114.73777834 Ry
     ewald contribution        =    1325.65180775 Ry
     one-center paw contrib.   =    -147.90867535 Ry

     convergence has been achieved in  13 iterations

     negative rho (up, down):  1.935E-06 0.000E+00

     Forces acting on atoms (cartesian axes, Ry/au):

     atom    1 type  1   force =     0.00000000   -0.05643123   -0.08415397
     atom    2 type  1   force =     0.00000000    0.15807266    0.08058402
     atom    3 type  1   force =     0.00000000    0.00013374   -0.08709303
     atom    4 type  1   force =     0.00000000   -0.00015203   -0.00942847
     atom    5 type  1   force =     0.00000000    0.00369185    0.00030391
     atom    6 type  1   force =    -0.00000000   -0.00390523    0.00123510
     atom    7 type  1   force =     0.00000000   -0.00389057    0.00136792
     atom    8 type  1   force =     0.00000000    0.00368741   -0.00005110
     atom    9 type  1   force =     0.00000000   -0.00014865   -0.00576611
     atom   10 type  1   force =     0.00000000    0.00011934   -0.08470158
     atom   11 type  1   force =     0.00000000    0.15807998   -0.08067639
     atom   12 type  1   force =     0.00000000   -0.05643586    0.08414476
     atom   13 type  1   force =     0.00000000    0.05643586   -0.08414476
     atom   14 type  1   force =     0.00000000   -0.15807998    0.08067639
     atom   15 type  1   force =     0.00000000   -0.00011934    0.08470158
     atom   16 type  1   force =     0.00000000    0.00014865    0.00576611
     atom   17 type  1   force =     0.00000000   -0.00368741    0.00005110
     atom   18 type  1   force =     0.00000000    0.00389057   -0.00136792
     atom   19 type  1   force =    -0.00000000    0.00390523   -0.00123510
     atom   20 type  1   force =     0.00000000   -0.00369185   -0.00030391
     atom   21 type  1   force =     0.00000000    0.00015203    0.00942847
     atom   22 type  1   force =     0.00000000   -0.00013374    0.08709303
     atom   23 type  1   force =     0.00000000   -0.15807266   -0.08058402
     atom   24 type  1   force =     0.00000000    0.05643123    0.08415397
     atom   25 type  2   force =     0.00000000   -0.01110075    0.00650085
     atom   26 type  2   force =     0.00000000    0.01109502    0.00650621
     atom   27 type  2   force =     0.00000000   -0.01109502   -0.00650621
     atom   28 type  2   force =     0.00000000    0.01110075   -0.00650085

     Total force =     0.444487     Total SCF correction =     0.000083


     Computing stress (Cartesian axis) and pressure


     negative rho (up, down):  1.935E-06 0.000E+00
          total   stress  (Ry/bohr**3)                   (kbar)     P=      -36.09
   0.00011064   0.00000000   0.00000000           16.28        0.00        0.00
   0.00000000  -0.00058771  -0.00000001            0.00      -86.46       -0.00
   0.00000000  -0.00000001  -0.00025899            0.00       -0.00      -38.10


     BFGS Geometry Optimization
     Energy error            =      0.0E+00 Ry
     Gradient error          =      1.6E-01 Ry/Bohr
     Cell gradient error     =      8.6E+01 kbar

     number of scf cycles    =   1
     number of bfgs steps    =   0

     enthalpy           new  =    -446.9625294671 Ry

     new trust radius        =       0.1774766452 bohr
     Message from routine volume:
     axis vectors are left-handed
     new conv_thr            =       0.0000000010 Ry

     new unit-cell volume =   1690.12602 a.u.^3 (   250.45084 Ang^3 )
     density =      1.93798 g/cm^3

CELL_PARAMETERS (angstrom)
   2.533267947   0.000000000   0.000000000
   0.000000000  -4.978324440   0.000000000
   0.000000000   0.000000000  19.859035940

ATOMIC_POSITIONS (crystal)
C                0.0000000000        0.1642458444        0.7451241968
C                0.5000000000        0.2334443459        0.7045381661
C                0.5000000000       -0.0000140071        0.6550943806
C                0.0000000000        0.0000159227        0.6121881326
C                0.0000000000        0.2496133358        0.5674717181
C                0.5000000000        0.2504090120        0.5225207812
C                0.5000000000        0.0004074766        0.4775485806
C                0.0000000000       -0.0003861986        0.4325350185
C                0.0000000000        0.2500155691        0.3874069823
C                0.5000000000        0.2499875012        0.3403278648
C                0.5000000000       -0.0165564210        0.2954593728
C                0.0000000000       -0.0857536712        0.2548755579
C                0.0000000000        0.8357536712        0.7451244421
C                0.5000000000        0.7665564210        0.7045406272
C                0.5000000000        0.5000124988        0.6596721352
C                0.0000000000        0.4999844309        0.6125930177
C                0.0000000000        0.7503861986        0.5674649815
C                0.5000000000        0.7495925234        0.5224514194
C                0.5000000000        0.4995909880        0.4774792188
C                0.0000000000        0.5003866642        0.4325282819
C                0.0000000000        0.7499840773        0.3878118674
C                0.5000000000        0.7500140071        0.3449056194
C                0.5000000000        0.5165556541        0.2954618339
C                0.0000000000        0.5857541556        0.2548758032
H                0.0000000000        0.2370912311        0.7987535760
H                0.0000000000        0.7629093694        0.7987537188
H                0.0000000000       -0.0129093694        0.2012462812
H                0.0000000000        0.5129087689        0.2012464240



     Writing config-only to output data dir /tmp/qe/slab.save/ :
     XML data file
     NEW-OLD atomic charge density approx. for the potential

     Check: negative core charge=   -0.000001

     negative rho (up, down):  1.545E-06 0.000E+00

     total cpu time spent up to now is       95.1 secs

     Self-consistent Calculation

     iteration #  1     ecut=    90.00 Ry     beta= 0.30
     Davidson diagonalization with overlap
     c_bands:  3 eigenvalues not converged
     c_bands:  2 eigenvalues not converged
     c_bands:  2 eigenvalues not converged
     c_bands:  1 eigenvalues not converged
     c_bands:  2 eigenvalues not converged
     c_bands:  1 eigenvalues not converged
     c_bands:  1 eigenvalues not converged
     ethr =  1.00E-06,  avg # of iterations = 18.8

     negative rho (up, down):  1.989E-06 0.000E+00

     total cpu time spent up to now is      111.5 secs

     total energy              =    -447.05753167 Ry
     estimated scf accuracy    <       0.01572824 Ry

     iteration #  2     ecut=    90.00 Ry     beta= 0.30
     Davidson diagonalization with overlap
     ethr =  1.57E-05,  avg # of iterations =  1.8

     negative rho (up, down):  2.376E-06 0.000E+00

     total cpu time spent up to now is      115.8 secs

     total energy              =    -447.05778008 Ry
     estimated scf accuracy    <       0.00440273 Ry

     iteration #  3     ecut=    90.00 Ry     beta= 0.30
     Davidson diagonalization with overlap
     ethr =  4.40E-06,  avg # of iterations =  3.6

     negative rho (up, down):  3.382E-06 0.000E+00

     total cpu time spent up to now is      120.4 secs

     total energy              =    -447.05808914 Ry
     estimated scf accuracy    <       0.00087201 Ry

     iteration #  4     ecut=    90.00 Ry     beta= 0.30
     Davidson diagonalization with overlap
     ethr =  8.72E-07,  avg # of iterations =  3.5

     negative rho (up, down):  3.355E-06 0.000E+00

     total cpu time spent up to now is      124.9 secs

     total energy              =    -447.05815988 Ry
     estimated scf accuracy    <       0.00007283 Ry

     iteration #  5     ecut=    90.00 Ry     beta= 0.30
     Davidson diagonalization with overlap
     ethr =  7.28E-08,  avg # of iterations =  2.6

     negative rho (up, down):  3.299E-06 0.000E+00

     total cpu time spent up to now is      129.9 secs

     total energy              =    -447.05817213 Ry
     estimated scf accuracy    <       0.00001394 Ry

     iteration #  6     ecut=    90.00 Ry     beta= 0.30
     Davidson diagonalization with overlap
     ethr =  1.39E-08,  avg # of iterations =  2.5

     negative rho (up, down):  3.311E-06 0.000E+00

     total cpu time spent up to now is      134.4 secs

     total energy              =    -447.05817360 Ry
     estimated scf accuracy    <       0.00000322 Ry

     iteration #  7     ecut=    90.00 Ry     beta= 0.30
     Davidson diagonalization with overlap
     ethr =  3.22E-09,  avg # of iterations =  2.0

     negative rho (up, down):  3.298E-06 0.000E+00

     total cpu time spent up to now is      139.2 secs

     total energy              =    -447.05817397 Ry
     estimated scf accuracy    <       0.00000048 Ry

     iteration #  8     ecut=    90.00 Ry     beta= 0.30
     Davidson diagonalization with overlap
     ethr =  4.79E-10,  avg # of iterations =  3.3

     negative rho (up, down):  3.279E-06 0.000E+00

     total cpu time spent up to now is      144.6 secs

     total energy              =    -447.05817409 Ry
     estimated scf accuracy    <       0.00000014 Ry

     iteration #  9     ecut=    90.00 Ry     beta= 0.30
     Davidson diagonalization with overlap
     ethr =  1.45E-10,  avg # of iterations =  2.2

     negative rho (up, down):  3.287E-06 0.000E+00

     total cpu time spent up to now is      149.0 secs

     total energy              =    -447.05817410 Ry
     estimated scf accuracy    <       0.00000002 Ry

     iteration # 10     ecut=    90.00 Ry     beta= 0.30
     Davidson diagonalization with overlap
     ethr =  2.20E-11,  avg # of iterations =  4.0

     negative rho (up, down):  3.296E-06 0.000E+00

     total cpu time spent up to now is      154.6 secs

     total energy              =    -447.05817410 Ry
     estimated scf accuracy    <       0.00000001 Ry

     iteration # 11     ecut=    90.00 Ry     beta= 0.30
     Davidson diagonalization with overlap
     ethr =  1.36E-11,  avg # of iterations =  2.4

     negative rho (up, down):  3.343E-06 0.000E+00

     total cpu time spent up to now is      159.5 secs

     End of self-consistent calculation

          k = 0.0000-0.0000 0.0000 ( 24643 PWs)   bands (ev):

   -15.4272 -14.8273 -13.9126 -12.5952 -10.8909 -10.7663 -10.7104 -10.0783
   -10.0212  -9.2715  -9.2620  -8.6402  -6.7414  -6.6513  -6.5142  -5.0822
    -5.0821  -4.3822  -3.2759  -3.2708  -2.2024  -1.2943  -1.2840  -0.3577
     0.0008   0.1364   0.1702   0.6857   0.6987   1.0337   1.0471   2.0364
     2.1410   2.2538   2.3945   2.6417   2.9732   2.9735   3.0736   3.1316
     3.1591   3.1630   3.6756   3.6756   3.7830   3.8742   3.9080   5.2186
     5.2694   5.2914   8.2545   8.7601  10.3210  10.3722  10.4248  10.8983
    11.1884  11.3757  11.4874  11.5027

          k = 0.0000-0.1015 0.0000 ( 24675 PWs)   bands (ev):

   -15.2457 -14.6714 -13.7967 -12.5900 -12.2747 -11.5007 -10.8166 -10.2189
    -9.3974  -8.9586  -8.7635  -8.3317  -6.5231  -6.2617  -6.2222  -4.9585
    -4.7048  -4.2218  -3.3026  -2.9686  -2.2251  -1.3536  -1.0204  -0.7299
    -0.2110  -0.1711   0.1519   0.2826   0.7150   0.8705   1.1022   1.6043
     1.6786   2.0320   2.2689   2.3023   2.6016   2.6897   2.9400   3.1000
     3.1384   3.4770   3.6262   3.6873   3.7047   3.9693   4.1623   4.7368
     4.9137   5.2537   8.4767   8.9742  10.5677  10.8352  10.8662  11.2168
    11.2642  11.5387  11.6008  11.7550

          k = 0.0000-0.2030 0.0000 ( 24637 PWs)   bands (ev):

   -14.7274 -14.3064 -13.7625 -13.3743 -12.7291 -12.1089 -11.3455 -10.5193
    -9.7149  -8.8500  -7.9645  -7.5576  -5.9982  -5.4531  -5.2792  -4.6685
    -4.1248  -3.7799  -3.0804  -2.5997  -2.5493  -2.0558  -1.7560  -1.0740
    -0.8178  -0.4487   0.0170   0.1870   0.5128   0.9411   1.0480   1.1384
     1.4050   1.4640   1.9589   2.0024   2.3895   2.5696   2.8499   2.8506
     3.0550   3.3378   3.4094   3.7676   3.8484   3.9920   4.2926   4.3048
     4.7109   5.1430   9.1217   9.5688  10.1337  10.4364  10.9246  11.0193
    11.1244  11.4089  11.7205  12.0690

          k = 0.0997-0.0000 0.0000 ( 24655 PWs)   bands (ev):

   -15.2449 -14.6461 -13.7335 -12.4202 -10.7204 -10.5934 -10.5398  -9.9101
    -9.8541  -9.1073  -9.0981  -8.4815  -6.6196  -6.4951  -6.4076  -4.9468
    -4.9467  -4.3192  -3.1735  -3.1676  -2.3355  -1.2659  -1.2291  -1.1117
    -0.9912  -0.0401   0.1210   0.2808   0.6568   0.7038   1.1563   1.3699
     1.8828   2.0376   2.1098   2.2414   2.3237   2.4141   2.5211   2.6557
     2.8056   2.8564   3.0210   3.0513   3.2356   3.6544   3.9197   4.6850
     4.9958   5.1826   8.4352   8.9338  10.9320  11.0535  11.1070  11.4984
    11.6774  11.7391  11.8913  11.9045

          k = 0.0997-0.1015 0.0000 ( 24646 PWs)   bands (ev):

   -15.0637 -14.4904 -13.6177 -12.4141 -12.0987 -11.3272 -10.6480 -10.0538
    -9.2367  -8.7917  -8.6031  -8.1722  -6.4235  -6.1087  -6.0990  -4.8378
    -4.5761  -4.1395  -3.2215  -2.8452  -2.2996  -1.3116  -1.0708  -0.9983
    -0.8249  -0.6095  -0.0201   0.0307   0.2950   0.6650   0.8471   1.2026
     1.3810   1.6062   1.6641   1.7929   2.2237   2.3787   2.6169   2.6770
     2.7861   2.9877   3.1281   3.2195   3.3606   3.6806   3.7692   4.1604
     4.8508   4.9919   8.6589   9.1456  10.9710  11.4125  11.4405  11.7017
    11.7878  11.7896  11.9841  12.1588

          k = 0.0997-0.2030 0.0000 ( 24657 PWs)   bands (ev):

   -14.5462 -14.1261 -13.5830 -13.1957 -12.5523 -11.9348 -11.1745 -10.3532
    -9.5542  -8.6944  -7.8106  -7.3979  -5.9197  -5.3460  -5.1503  -4.5570
    -4.0246  -3.6297  -2.9744  -2.4761  -2.4363  -1.9643  -1.6580  -1.1910
    -0.8819  -0.6955  -0.4270  -0.3065  -0.1248   0.2673   0.4518   0.8572
     1.0744   1.1994   1.4835   1.5476   1.9108   2.0100   2.4898   2.5344
     2.6868   2.9682   3.1428   3.3233   3.7080   3.7890   3.8677   4.0497
     4.4602   4.5185   9.3053   9.7323  10.3072  10.5693  10.9288  11.1417
    11.8920  12.0853  12.3871  12.4308

          k = 0.1994-0.0000 0.0000 ( 24607 PWs)   bands (ev):

   -14.7002 -14.1049 -13.1992 -11.9010 -10.2185 -10.0773 -10.0330  -9.4088
    -9.3572  -8.6179  -8.6098  -8.0273  -6.5079  -6.0493  -6.0408  -4.6148
    -4.5903  -4.4342  -3.4070  -2.9493  -2.9455  -2.6140  -2.5883  -1.4356
    -1.1718  -1.0727  -0.9040   0.0735   0.1585   0.2679   0.5385   0.5600
     0.7076   0.9011   1.0966   1.1134   1.3201   1.3367   1.5167   1.9076
     2.0400   2.1788   2.4741   2.6706   2.7508   2.8452   4.0046   4.0064
     4.0378   5.0282   8.9423   9.3218  11.4524  11.8719  12.0629  12.0922
    12.1625  12.2789  12.5988  12.6033

          k = 0.1994-0.1015 0.0000 ( 24634 PWs)   bands (ev):

   -14.5199 -13.9500 -13.0840 -11.8912 -11.5740 -10.8109 -10.1507  -9.5668
    -8.7626  -8.2950  -8.1288  -7.7118  -6.3338  -5.7432  -5.6777  -4.6210
    -4.3544  -4.0234  -3.2853  -3.0215  -2.5652  -2.4890  -2.4384  -1.5126
    -1.2275  -1.1431  -0.9219  -0.3469  -0.1640  -0.0281   0.0410   0.3960
     0.6897   0.7642   1.0135   1.0385   1.1136   1.5289   1.6529   1.7650
     2.0702   2.2089   2.3029   2.3779   2.8205   2.9210   3.2221   3.7988
     4.2856   4.5435   9.1548   9.5270  11.2275  11.7214  11.7974  11.8620
    11.9940  12.0929  12.8163  12.8406

          k = 0.1994-0.2030 0.0000 ( 24642 PWs)   bands (ev):

   -14.0050 -13.5877 -13.0475 -12.6631 -12.0254 -11.4171 -10.6677  -9.8634
    -9.0848  -8.2447  -7.3708  -6.9286  -5.8616  -5.1752  -4.8539  -4.3284
    -3.8777  -3.2230  -2.9957  -2.4837  -2.4116  -2.2224  -2.1894  -1.8089
    -1.6577  -1.5455  -1.4718  -0.9698  -0.7429  -0.4353  -0.3248  -0.1681
    -0.0312   0.3796   0.7770   0.9497   1.2138   1.3694   1.6063   1.7408
     2.0749   2.3012   2.3744   2.5378   2.6825   3.0158   3.2300   3.5274
     3.8598   3.9604   9.7502  10.0922  10.5588  10.7286  10.9023  11.1887
    11.5687  12.1547  12.4481  12.7107

          k = 0.2992-0.0000 0.0000 ( 24668 PWs)   bands (ev):

   -13.8011 -13.2133 -12.3237 -11.0650  -9.4589  -9.2282  -9.2069  -8.5896
    -8.5521  -7.8185  -7.8110  -7.4902  -7.2442  -5.7542  -5.4735  -5.3844
    -5.0957  -4.3262  -4.2780  -3.7869  -3.6091  -3.0893  -3.0867  -2.4513
    -2.1754  -1.4333  -1.3535  -1.2902  -1.2817  -0.8568  -0.8565  -0.4451
    -0.3440   0.1107   0.1254   0.5456   0.5520   1.2986   1.3166   1.4176
     1.5039   1.7501   2.0205   2.0498   2.1637   3.1361   3.1832   3.2206
     4.0523   4.6655   9.7383   9.9671  11.6476  11.6496  11.9847  12.2342
    12.4426  12.4594  12.5303  12.6523

          k = 0.2992-0.1015 0.0000 ( 24678 PWs)   bands (ev):

   -13.6224 -13.0598 -12.2089 -11.0434 -10.7136  -9.9698  -9.3786  -8.8090
    -8.0315  -7.5085  -7.4233  -7.1215  -7.0069  -5.6397  -5.4077  -5.2073
    -4.9195  -4.3601  -3.8169  -3.5633  -3.4775  -3.0747  -2.6071  -2.3766
    -2.3064  -2.1093  -1.8887  -1.2623  -1.2211  -0.6725  -0.4439  -0.3390
    -0.1236   0.1690   0.3075   0.4873   0.7811   0.8528   1.0878   1.2644
     1.4277   1.5627   1.8214   1.8776   2.2523   2.4916   2.7271   3.3608
     3.7089   3.9227   9.9264  10.1402  11.0334  11.6415  11.7883  12.0726
    12.2945  12.3790  12.5070  13.0343

          k = 0.2992-0.2030 0.0000 ( 24664 PWs)   bands (ev):

   -13.1118 -12.7001 -12.1660 -11.7881 -11.1636 -10.5770  -9.8528  -9.0958
    -8.3911  -7.6370  -6.9293  -6.6612  -6.0765  -5.6123  -5.2782  -4.8560
    -4.3786  -3.8218  -3.3664  -3.3062  -2.9636  -2.8928  -2.6854  -2.4158
    -2.0404  -1.7904  -1.6634  -1.5144  -1.3498  -1.0120  -0.6886  -0.5820
    -0.4784  -0.2519   0.0974   0.3417   0.5223   0.7303   1.0452   1.2176
     1.5380   1.6417   1.6791   1.8254   2.0855   2.1552   2.6975   2.7168
     3.0761   3.1268  10.2589  10.3866  10.6206  11.0290  11.2006  11.6138
    11.8343  12.2665  12.5854  12.9340

          k = 0.3989-0.0000 0.0000 ( 24732 PWs)   bands (ev):

   -12.5661 -11.9972 -11.1571 -10.0868  -9.4548  -8.3188  -8.2086  -8.0537
    -8.0360  -7.4578  -7.4543  -6.7671  -6.7406  -6.6894  -5.9952  -5.6642
    -5.2468  -5.2332  -5.0239  -4.7513  -4.2684  -3.9236  -3.9232  -2.9279
    -2.6860  -2.4230  -2.3812  -1.7716  -1.7185  -1.4713  -0.8530  -0.7943
    -0.6629  -0.5910  -0.3539  -0.1157  -0.1015   0.7555   0.9153   0.9213
     1.0801   1.5026   1.5524   2.2214   2.6239   2.6910   2.7662   3.4193
     3.9295   4.0694  10.7306  10.8306  11.3296  11.3637  11.4862  11.4957
    12.5771  12.6122  13.1691  13.1990

          k = 0.3989-0.1015 0.0000 ( 24696 PWs)   bands (ev):

   -12.3896 -11.8454 -11.0407 -10.0116  -9.5585  -9.2988  -8.8389  -8.2791
    -8.0898  -7.7385  -7.1736  -6.8001  -6.4131  -6.3099  -5.9859  -5.8218
    -5.3896  -5.1603  -4.6436  -4.1804  -3.8901  -3.3924  -3.3516  -3.0477
    -2.9341  -2.7000  -2.4325  -1.8259  -1.6992  -1.3055  -0.7587  -0.4907
    -0.3300  -0.2853  -0.1892   0.1343   0.1740   0.7424   0.7733   0.9282
     1.0896   1.4740   1.4983   1.6475   2.0813   2.1947   2.6059   2.8892
     3.1750   3.3071  10.5176  10.9442  11.1633  11.3764  11.7647  12.2032
    12.2483  12.6264  12.9418  13.2082

          k = 0.3989-0.2030 0.0000 ( 24655 PWs)   bands (ev):

   -11.8855 -11.4876 -10.9669 -10.6061 -10.0238  -9.5212  -8.9469  -8.6829
    -8.1521  -7.8745  -7.8090  -7.7387  -6.0447  -5.8991  -5.6680  -5.3787
    -5.1899  -4.9593  -4.7385  -4.1629  -3.5795  -2.9072  -2.6998  -2.4066
    -2.3541  -2.1166  -1.9040  -1.7131  -1.3622  -1.2037  -0.7125  -0.5797
    -0.4110  -0.1614   0.1383   0.2754   0.4184   0.4977   0.8330   0.8792
     1.0109   1.0726   1.1270   1.3407   1.4552   1.4976   1.8710   2.0589
     2.2416   2.3597  10.5144  10.8637  11.1700  11.4492  11.9024  12.0674
    12.3598  12.3857  12.4803  12.7089

          k =-0.4986 0.0000 0.0000 ( 24782 PWs)   bands (ev):

   -11.0481 -11.0398 -10.6220 -10.5024 -10.1831  -8.8396  -8.5401  -7.1631
    -6.6690  -6.6690  -6.6442  -6.6199  -6.2947  -6.2723  -6.2684  -6.2210
    -6.0094  -5.8180  -5.7838  -5.4511  -4.8455  -4.8454  -4.4104  -3.9070
    -2.3343  -2.0454  -1.9446  -1.9390  -1.8866  -1.2907  -1.2559  -1.0782
    -0.9281  -0.8373  -0.7103  -0.2905  -0.2744   0.6346   0.6898   0.7097
     0.7503   1.2264   1.4732   2.4003   2.5303   3.0749   3.1106   3.1757
     3.7164   3.7267  10.9593  10.9854  11.4425  11.4466  11.8585  11.8755
    12.3478  12.4269  12.4500  12.4657

          k =-0.4986-0.1015 0.0000 ( 24712 PWs)   bands (ev):

   -10.8790 -10.8637 -10.4835 -10.3376 -10.0479  -8.8021  -8.5389  -8.1202
    -8.0834  -7.5923  -7.5652  -7.3022  -6.6695  -6.1626  -5.5183  -5.3653
    -5.1531  -5.1104  -4.9901  -4.8375  -4.7380  -4.6333  -4.1813  -3.8353
    -2.4981  -2.3967  -2.1778  -1.7111  -1.6188  -1.0548  -1.0548  -0.6905
    -0.6280  -0.5781  -0.4877  -0.0697  -0.0372   0.5488   0.6452   0.7515
     0.7760   1.4072   1.5781   2.1661   2.2263   2.3294   2.3990   2.4023
     2.9118   2.9635  10.6313  11.2032  11.2816  11.8693  11.9601  12.0737
    12.3901  12.4484  12.7628  13.1430

          k =-0.4986-0.2030 0.0000 ( 24638 PWs)   bands (ev):

   -10.4141 -10.3478 -10.1697  -9.8909  -9.7455  -9.4116  -9.2315  -8.9962
    -8.4533  -8.4213  -8.2017  -8.1873  -6.3636  -6.1267  -5.7558  -5.6025
    -5.3046  -4.9607  -4.7101  -4.2297  -4.0053  -3.6188  -3.5900  -3.3635
    -1.9577  -1.5306  -1.4924  -1.3490  -1.1733  -0.9713  -0.8714  -0.4857
    -0.4527  -0.1684   0.1935   0.2552   0.3845   0.6170   0.6180   0.7150
     0.7589   0.8549   1.0544   1.0869   1.1182   1.2403   1.7106   1.7506
     1.7724   1.8492  10.9213  11.0068  11.6801  11.7924  11.8892  12.1540
    12.3362  12.5719  12.7250  12.7429

     the Fermi energy is     6.7296 ev

!    total energy              =    -447.05817411 Ry
     estimated scf accuracy    <          5.2E-10 Ry
     smearing contrib. (-TS)   =       0.00000000 Ry
     internal energy E=F+TS    =    -447.05817411 Ry

     The total energy is F=E-TS. E is the sum of the following terms:
     one-electron contribution =   -3162.15022471 Ry
     hartree contribution      =    1630.88907071 Ry
     xc contribution           =    -115.05709106 Ry
     ewald contribution        =    1347.17644194 Ry
     one-center paw contrib.   =    -147.91637097 Ry

     convergence has been achieved in  11 iterations

     negative rho (up, down):  3.343E-06 0.000E+00

     Forces acting on atoms (cartesian axes, Ry/au):

     atom    1 type  1   force =     0.00000000    0.00197826    0.02671276
     atom    2 type  1   force =     0.00000000   -0.02238968   -0.02151128
     atom    3 type  1   force =     0.00000000   -0.00008500   -0.01140611
     atom    4 type  1   force =    -0.00000000    0.00021977   -0.02966967
     atom    5 type  1   force =     0.00000000   -0.00867450   -0.00308912
     atom    6 type  1   force =     0.00000000    0.00079143    0.00206224
     atom    7 type  1   force =     0.00000000    0.00076427   -0.00269339
     atom    8 type  1   force =     0.00000000   -0.00865978    0.00430278
     atom    9 type  1   force =     0.00000000    0.00020747   -0.05335130
     atom   10 type  1   force =     0.00000000   -0.00007521   -0.05021401
     atom   11 type  1   force =    -0.00000000   -0.02241733    0.02156344
     atom   12 type  1   force =     0.00000000    0.00199390   -0.02675028
     atom   13 type  1   force =     0.00000000   -0.00199390    0.02675028
     atom   14 type  1   force =     0.00000000    0.02241733   -0.02156344
     atom   15 type  1   force =     0.00000000    0.00007521    0.05021401
     atom   16 type  1   force =     0.00000000   -0.00020747    0.05335130
     atom   17 type  1   force =     0.00000000    0.00865978   -0.00430278
     atom   18 type  1   force =     0.00000000   -0.00076427    0.00269339
     atom   19 type  1   force =     0.00000000   -0.00079143   -0.00206224
     atom   20 type  1   force =     0.00000000    0.00867450    0.00308912
     atom   21 type  1   force =    -0.00000000   -0.00021977    0.02966967
     atom   22 type  1   force =     0.00000000    0.00008500    0.01140611
     atom   23 type  1   force =     0.00000000    0.02238968    0.02151128
     atom   24 type  1   force =     0.00000000   -0.00197826   -0.02671276
     atom   25 type  2   force =     0.00000000   -0.00255171   -0.03138415
     atom   26 type  2   force =    -0.00000000    0.00255025   -0.03137915
     atom   27 type  2   force =    -0.00000000   -0.00255025    0.03137915
     atom   28 type  2   force =     0.00000000    0.00255171    0.03138415

     Total force =     0.154406     Total SCF correction =     0.000031


     Computing stress (Cartesian axis) and pressure


     negative rho (up, down):  3.343E-06 0.000E+00
          total   stress  (Ry/bohr**3)                   (kbar)     P=       -3.90
  -0.00002898   0.00000000   0.00000000           -4.26        0.00        0.00
   0.00000000   0.00021315   0.00000006            0.00       31.36        0.01
   0.00000000   0.00000006  -0.00026366            0.00        0.01      -38.79

     Energy error            =      9.6E-02 Ry
     Gradient error          =      5.3E-02 Ry/Bohr
     Cell gradient error     =      3.1E+01 kbar

     number of scf cycles    =   2
     number of bfgs steps    =   1

     enthalpy           old  =    -446.9625294671 Ry
     enthalpy           new  =    -447.0581741061 Ry

     CASE: enthalpy          _new < enthalpy          _old

     new trust radius        =       0.0522001519 bohr
     Message from routine volume:
     axis vectors are left-handed
     new conv_thr            =       0.0000000010 Ry

     new unit-cell volume =   1695.48552 a.u.^3 (   251.24503 Ang^3 )
     density =      1.93185 g/cm^3

CELL_PARAMETERS (angstrom)
   2.532253947   0.000000000   0.000000000
   0.000000000  -4.996110835   0.000000000
   0.000000000   0.000000000  19.859035940

ATOMIC_POSITIONS (crystal)
C                0.0000000000        0.1645704218        0.7455686558
C                0.5000000000        0.2340908869        0.7042095618
C                0.5000000000       -0.0000073608        0.6546232494
C               -0.0000000000       -0.0000030042        0.6114591561
C                0.0000000000        0.2503811350        0.5673987591
C                0.5000000000        0.2503710360        0.5225727757
C                0.5000000000        0.0003718771        0.4774874905
C                0.0000000000        0.0003802815        0.4326374928
C                0.0000000000        0.2499977478        0.3861217398
C                0.5000000000        0.2499933731        0.3389369052
C                0.5000000000       -0.0159073925        0.2957890094
C                0.0000000000       -0.0854304966        0.2544301832
C                0.0000000000        0.8354304966        0.7455698168
C                0.5000000000        0.7659073925        0.7042109906
C                0.5000000000        0.5000066269        0.6610630948
C                0.0000000000        0.5000022522        0.6138782602
C                0.0000000000        0.7496197185        0.5673625072
C                0.5000000000        0.7496281229        0.5225125095
C                0.5000000000        0.4996289640        0.4774272243
C                0.0000000000        0.4996188650        0.4326012409
C               -0.0000000000        0.7500030042        0.3885408439
C                0.5000000000        0.7500073608        0.3453767506
C                0.5000000000        0.5159091131        0.2957904382
C                0.0000000000        0.5854295782        0.2544313442
H                0.0000000000        0.2374266324        0.7980201503
H               -0.0000000000        0.7625741553        0.7980204244
H               -0.0000000000       -0.0125741553        0.2019795756
H                0.0000000000        0.5125733676        0.2019798497



     Writing config-only to output data dir /tmp/qe/slab.save/ :
     XML data file
     NEW-OLD atomic charge density approx. for the potential

     Check: negative core charge=   -0.000001

     negative rho (up, down):  4.127E-06 0.000E+00

     total cpu time spent up to now is      178.5 secs

     Self-consistent Calculation

     iteration #  1     ecut=    90.00 Ry     beta= 0.30
     Davidson diagonalization with overlap
     c_bands:  1 eigenvalues not converged
     ethr =  1.00E-06,  avg # of iterations = 11.8

     negative rho (up, down):  4.184E-06 0.000E+00

     total cpu time spent up to now is      189.8 secs

     total energy              =    -447.07206345 Ry
     estimated scf accuracy    <       0.00223343 Ry

     iteration #  2     ecut=    90.00 Ry     beta= 0.30
     Davidson diagonalization with overlap
     c_bands:  1 eigenvalues not converged
     ethr =  2.23E-06,  avg # of iterations =  2.8

     negative rho (up, down):  4.204E-06 0.000E+00

     total cpu time spent up to now is      194.2 secs

     total energy              =    -447.07206015 Ry
     estimated scf accuracy    <       0.00057011 Ry

     iteration #  3     ecut=    90.00 Ry     beta= 0.30
     Davidson diagonalization with overlap
     ethr =  5.70E-07,  avg # of iterations =  2.8

     negative rho (up, down):  4.096E-06 0.000E+00

     total cpu time spent up to now is      199.3 secs

     total energy              =    -447.07213378 Ry
     estimated scf accuracy    <       0.00010341 Ry

     iteration #  4     ecut=    90.00 Ry     beta= 0.30
     Davidson diagonalization with overlap
     ethr =  1.03E-07,  avg # of iterations =  1.6

     negative rho (up, down):  4.013E-06 0.000E+00

     total cpu time spent up to now is      203.4 secs

     total energy              =    -447.07213668 Ry
     estimated scf accuracy    <       0.00003300 Ry

     iteration #  5     ecut=    90.00 Ry     beta= 0.30
     Davidson diagonalization with overlap
     ethr =  3.30E-08,  avg # of iterations =  2.2

     negative rho (up, down):  3.961E-06 0.000E+00

     total cpu time spent up to now is      208.6 secs

     total energy              =    -447.07214075 Ry
     estimated scf accuracy    <       0.00000503 Ry

     iteration #  6     ecut=    90.00 Ry     beta= 0.30
     Davidson diagonalization with overlap
     ethr =  5.03E-09,  avg # of iterations =  2.1

     negative rho (up, down):  3.914E-06 0.000E+00

     total cpu time spent up to now is      213.3 secs

     total energy              =    -447.07214147 Ry
     estimated scf accuracy    <       0.00000083 Ry

     iteration #  7     ecut=    90.00 Ry     beta= 0.30
     Davidson diagonalization with overlap
     ethr =  8.34E-10,  avg # of iterations =  2.3

     negative rho (up, down):  3.900E-06 0.000E+00

     total cpu time spent up to now is      218.4 secs

     total energy              =    -447.07214163 Ry
     estimated scf accuracy    <       0.00000009 Ry

     iteration #  8     ecut=    90.00 Ry     beta= 0.30
     Davidson diagonalization with overlap
     ethr =  9.14E-11,  avg # of iterations =  2.3

     negative rho (up, down):  3.898E-06 0.000E+00

     total cpu time spent up to now is      223.4 secs

     total energy              =    -447.07214164 Ry
     estimated scf accuracy    <       0.00000002 Ry

     iteration #  9     ecut=    90.00 Ry     beta= 0.30
     Davidson diagonalization with overlap
     ethr =  2.19E-11,  avg # of iterations =  2.7

     negative rho (up, down):  3.898E-06 0.000E+00

     total cpu time spent up to now is      228.8 secs

     total energy              =    -447.07214164 Ry
     estimated scf accuracy    <          3.4E-09 Ry

     iteration # 10     ecut=    90.00 Ry     beta= 0.30
     Davidson diagonalization with overlap
     ethr =  3.44E-12,  avg # of iterations =  2.3

     negative rho (up, down):  3.901E-06 0.000E+00

     total cpu time spent up to now is      233.6 secs

     total energy              =    -447.07214164 Ry
     estimated scf accuracy    <          2.1E-09 Ry

     iteration # 11     ecut=    90.00 Ry     beta= 0.30
     Davidson diagonalization with overlap
     ethr =  2.06E-12,  avg # of iterations =  3.1

     negative rho (up, down):  3.908E-06 0.000E+00

     total cpu time spent up to now is      239.2 secs

     End of self-consistent calculation

          k = 0.0000-0.0000 0.0000 ( 24643 PWs)   bands (ev):

   -15.3684 -14.7561 -13.8338 -12.4896 -10.8498 -10.7622 -10.6849 -10.1128
   -10.0390  -9.2883  -9.2767  -8.6279  -6.7413  -6.6342  -6.4963  -5.0931
    -5.0927  -4.4134  -3.3376  -3.3331  -2.2274  -1.2920  -1.2793  -0.2939
    -0.0158   0.1129   0.2751   0.6509   0.6731   0.9801   1.1471   1.9472
     2.0905   2.3523   2.3803   2.5987   2.9587   2.9588   3.0685   3.1312
     3.1745   3.1804   3.7864   3.8069   3.8070   3.8722   3.9221   5.2094
     5.2662   5.2991   8.2307   8.7646  10.3121  10.3658  10.4903  10.8661
    11.1770  11.3302  11.4250  11.4601

          k = 0.0000-0.1011 0.0000 ( 24675 PWs)   bands (ev):

   -15.1875 -14.5974 -13.7092 -12.4827 -12.2544 -11.5140 -10.8045 -10.2307
    -9.4007  -8.9436  -8.7443  -8.3549  -6.5365  -6.2739  -6.1867  -4.9693
    -4.7509  -4.2671  -3.3835  -2.9686  -2.2571  -1.3679  -1.0350  -0.7325
    -0.2071  -0.1472   0.1069   0.3915   0.6684   0.8709   1.2231   1.5143
     1.6270   2.0471   2.2705   2.3888   2.6142   2.6528   2.9316   3.1152
     3.1198   3.5274   3.6075   3.6601   3.7710   4.0608   4.2627   4.7498
     4.9191   5.2542   8.4515   8.9761  10.6131  10.8495  10.8916  11.2235
    11.2557  11.5352  11.5776  11.7393

          k = 0.0000-0.2023 0.0000 ( 24637 PWs)   bands (ev):

   -14.6691 -14.2199 -13.6741 -13.3163 -12.6928 -12.0911 -11.3690 -10.5107
    -9.6827  -8.8065  -7.9625  -7.5886  -6.0197  -5.4599  -5.3027  -4.7033
    -4.1683  -3.8427  -3.1266  -2.6364  -2.5642  -2.0787  -1.8157  -1.1064
    -0.7803  -0.4655  -0.0475   0.2557   0.6322   0.9268   1.1268   1.1298
     1.4327   1.4748   1.9487   2.0072   2.4452   2.5214   2.8465   2.8759
     3.0320   3.3991   3.4095   3.7317   3.9397   4.0333   4.2937   4.4052
     4.7491   5.1551   9.0910   9.5564  10.1033  10.4173  10.9272  11.0479
    11.1806  11.4788  11.7614  12.0748

          k = 0.0998-0.0000 0.0000 ( 24655 PWs)   bands (ev):

   -15.1859 -14.5747 -13.6544 -12.3144 -10.6780 -10.5890 -10.5147  -9.9443
    -9.8719  -9.1234  -9.1121  -8.4697  -6.6215  -6.4773  -6.3854  -4.9566
    -4.9566  -4.3474  -3.2371  -3.2322  -2.3493  -1.2611  -1.2196  -1.0456
    -0.9321   0.0277   0.1893   0.2579   0.6377   0.6837   1.0807   1.4274
     1.8945   2.0073   2.0895   2.1911   2.3043   2.4091   2.5205   2.6217
     2.8279   2.8776   3.1098   3.1330   3.2722   3.6956   3.8290   4.6683
     5.0063   5.1724   8.4113   8.9325  10.9509  11.0240  11.0810  11.4121
    11.6332  11.6931  11.8681  11.9039

          k = 0.0998-0.1011 0.0000 ( 24646 PWs)   bands (ev):

   -15.0053 -14.4162 -13.5300 -12.3064 -12.0784 -11.3402 -10.6353 -10.0655
    -9.2396  -8.7762  -8.5830  -8.1957  -6.4383  -6.1200  -6.0596  -4.8472
    -4.6219  -4.1829  -3.3022  -2.8460  -2.3235  -1.3261  -1.0526  -0.9447
    -0.7856  -0.6094   0.0152   0.0957   0.2671   0.6311   0.8633   1.2286
     1.3931   1.5984   1.6294   1.7664   2.2208   2.3816   2.6187   2.6528
     2.8005   3.0066   3.1182   3.3095   3.4402   3.6557   3.7783   4.1615
     4.8550   4.9892   8.6332   9.1415  10.9555  11.3957  11.4378  11.6842
    11.7810  11.8010  11.9635  12.1897

          k = 0.0998-0.2023 0.0000 ( 24657 PWs)   bands (ev):

   -14.4877 -14.0394 -13.4944 -13.1376 -12.5157 -11.9167 -11.1980 -10.3444
    -9.5216  -8.6501  -7.8083  -7.4283  -5.9392  -5.3543  -5.1723  -4.5893
    -4.0665  -3.6940  -3.0166  -2.5143  -2.4530  -1.9821  -1.7137  -1.2175
    -0.8303  -0.6500  -0.3486  -0.2936  -0.1208   0.3027   0.4768   0.8806
     1.1181   1.2024   1.4879   1.5179   1.9067   2.0056   2.4630   2.5468
     2.7159   2.9743   3.1877   3.3426   3.7293   3.8049   3.9085   4.0775
     4.4620   4.5144   9.2736   9.7142  10.2739  10.5431  10.9209  11.1421
    11.9368  12.0798  12.4162  12.4957

          k = 0.1995-0.0000 0.0000 ( 24607 PWs)   bands (ev):

   -14.6406 -14.0329 -13.1198 -11.7946 -10.1706 -10.0722 -10.0104  -9.4423
    -9.3752  -8.6320  -8.6220  -8.0166  -6.4984  -6.0288  -6.0168  -4.6039
    -4.5939  -4.4401  -3.3944  -3.0165  -3.0149  -2.5681  -2.5167  -1.3115
    -1.1681  -1.0444  -0.9071   0.0997   0.1560   0.3266   0.5139   0.5529
     0.6864   0.8845   1.1183   1.1363   1.3147   1.3759   1.4834   1.9267
     1.9736   2.1786   2.4442   2.6704   2.7618   2.7797   3.9107   4.0108
     4.0285   5.0159   8.9303   9.3317  11.4588  11.7844  11.9630  12.0274
    12.1181  12.2503  12.5351  12.5870

          k = 0.1995-0.1011 0.0000 ( 24634 PWs)   bands (ev):

   -14.4609 -13.8752 -12.9960 -11.7820 -11.5537 -10.8228 -10.1355  -9.5791
    -8.7639  -8.2783  -8.1053  -7.7363  -6.3380  -5.6983  -5.6870  -4.6106
    -4.3801  -4.0612  -3.2990  -3.0807  -2.5380  -2.4242  -2.4127  -1.4410
    -1.1878  -1.1283  -0.9287  -0.3481  -0.1820  -0.0158   0.0953   0.4022
     0.6642   0.7253   0.9763   1.0711   1.1023   1.5787   1.6146   1.8183
     2.0467   2.1790   2.3215   2.3457   2.7989   2.9172   3.2139   3.7567
     4.2650   4.5457   9.1406   9.5332  11.1890  11.7044  11.7660  11.8111
    11.9534  12.1136  12.8043  12.8609

          k = 0.1995-0.2023 0.0000 ( 24642 PWs)   bands (ev):

   -13.9459 -13.5004 -12.9582 -12.6045 -11.9878 -11.3980 -10.6908  -9.8539
    -9.0510  -8.1976  -7.3667  -6.9559  -5.8679  -5.1820  -4.8676  -4.3437
    -3.9022  -3.2927  -3.0069  -2.4320  -2.3700  -2.2508  -2.1911  -1.8030
    -1.6260  -1.5343  -1.4679  -0.9189  -0.7499  -0.4047  -0.3210  -0.1835
    -0.0656   0.4101   0.7273   1.0007   1.2204   1.3898   1.5729   1.7748
     2.1025   2.2764   2.3619   2.5720   2.6952   3.0198   3.2066   3.4866
     3.8621   3.9446   9.7286  10.0830  10.5287  10.7045  10.8763  11.1753
    11.5632  12.1324  12.4235  12.6796

          k = 0.2993-0.0000 0.0000 ( 24668 PWs)   bands (ev):

   -13.7405 -13.1404 -12.2440 -10.9579  -9.3921  -9.2218  -9.1940  -8.6224
    -8.5731  -7.8303  -7.8208  -7.4717  -7.2028  -5.6859  -5.4356  -5.3602
    -5.0374  -4.2963  -4.2795  -3.7494  -3.5883  -3.1621  -3.1595  -2.4360
    -2.1036  -1.4084  -1.3372  -1.3177  -1.3043  -0.8192  -0.8143  -0.4502
    -0.3091   0.1263   0.1425   0.5788   0.5872   1.2217   1.2605   1.2996
     1.4765   1.7804   2.0193   2.0611   2.1492   3.0251   3.1815   3.2137
     3.9529   4.6475   9.7492   9.9960  11.6474  11.6489  11.9697  12.2089
    12.3806  12.4007  12.5311  12.6015

          k = 0.2993-0.1011 0.0000 ( 24678 PWs)   bands (ev):

   -13.5622 -12.9841 -12.1207 -10.9308 -10.6941  -9.9786  -9.3531  -8.8270
    -8.0284  -7.4853  -7.3866  -7.1333  -6.9904  -5.5776  -5.3573  -5.1735
    -4.8964  -4.3683  -3.8271  -3.5544  -3.4620  -3.1346  -2.5728  -2.3774
    -2.2726  -2.1296  -1.8560  -1.2769  -1.1765  -0.6870  -0.4358  -0.3363
    -0.1053   0.1823   0.3283   0.4911   0.7892   0.8796   1.0282   1.1909
     1.3963   1.5235   1.8167   1.8556   2.2684   2.4831   2.6661   3.3197
     3.6640   3.9099   9.9340  10.1633  11.0143  11.6110  11.7343  12.0324
    12.2953  12.3830  12.4943  13.0541

          k = 0.2993-0.2023 0.0000 ( 24664 PWs)   bands (ev):

   -13.0516 -12.6119 -12.0753 -11.7288 -11.1235 -10.5559  -9.8756  -9.0846
    -8.3549  -7.5817  -6.9027  -6.6258  -6.1037  -5.6002  -5.2231  -4.8177
    -4.3723  -3.8366  -3.3733  -3.2741  -2.9400  -2.8934  -2.7130  -2.4031
    -2.0374  -1.8128  -1.6677  -1.5262  -1.3525  -0.9982  -0.7060  -0.5598
    -0.5409  -0.2505   0.0933   0.3332   0.5514   0.7388   0.9923   1.2269
     1.5460   1.6312   1.6916   1.8298   2.0989   2.1077   2.6841   2.6977
     3.0517   3.0891  10.2444  10.3631  10.6006  10.9963  11.1712  11.6077
    11.8383  12.2974  12.5850  12.9102

          k = 0.3991-0.0000 0.0000 ( 24732 PWs)   bands (ev):

   -12.5038 -11.9233 -11.0789  -9.9831  -9.3783  -8.2667  -8.1739  -8.0367
    -8.0120  -7.4720  -7.4599  -6.7560  -6.7474  -6.6277  -5.9407  -5.5969
    -5.2112  -5.1912  -5.0424  -4.7886  -4.2304  -3.9604  -3.9601  -2.8965
    -2.6733  -2.4234  -2.3981  -1.7530  -1.7099  -1.4472  -0.8410  -0.7896
    -0.6525  -0.5842  -0.3702  -0.1003  -0.0890   0.7592   0.7789   0.8074
     1.0698   1.5347   1.5719   2.2248   2.6158   2.6924   2.7502   3.3230
     3.8152   4.0226  10.7628  10.8657  11.3155  11.3561  11.5325  11.5452
    12.5272  12.5728  13.2013  13.2396

          k = 0.3991-0.1011 0.0000 ( 24696 PWs)   bands (ev):

   -12.3278 -11.7688 -10.9539  -9.8968  -9.5384  -9.2239  -8.8509  -8.2622
    -8.0387  -7.7262  -7.1459  -6.7354  -6.3805  -6.2918  -5.9456  -5.8136
    -5.3941  -5.1359  -4.6658  -4.1644  -3.8859  -3.4190  -3.3618  -3.0115
    -2.9079  -2.6856  -2.4445  -1.8146  -1.7102  -1.3060  -0.7617  -0.5197
    -0.3165  -0.3039  -0.1925   0.1576   0.1949   0.6674   0.7257   0.8961
     1.0500   1.4576   1.5082   1.6566   2.1109   2.1580   2.5841   2.8645
     3.0815   3.2503  10.5359  10.9621  11.1715  11.4283  11.7414  12.1875
    12.2378  12.5620  12.9437  13.2011

          k = 0.3991-0.2023 0.0000 ( 24655 PWs)   bands (ev):

   -11.8236 -11.3984 -10.8730 -10.5468  -9.9736  -9.4942  -8.9375  -8.6646
    -8.1378  -7.8062  -7.7505  -7.6710  -5.9915  -5.8734  -5.6622  -5.3604
    -5.1825  -4.9846  -4.7314  -4.1494  -3.5432  -2.8771  -2.6952  -2.3985
    -2.3566  -2.0907  -1.9381  -1.7449  -1.3948  -1.2290  -0.7734  -0.6138
    -0.4595  -0.1557   0.1420   0.2395   0.4050   0.4913   0.8312   0.8603
     1.0187   1.0559   1.1421   1.3019   1.4663   1.5123   1.8514   2.0571
     2.2077   2.3175  10.5037  10.8740  11.1289  11.3939  11.9120  12.1208
    12.2957  12.4055  12.4395  12.7477

          k =-0.4988 0.0000 0.0000 ( 24782 PWs)   bands (ev):

   -10.9931 -10.9636 -10.5552 -10.4152 -10.1143  -8.7452  -8.4405  -7.0630
    -6.6430  -6.6317  -6.6317  -6.6198  -6.3011  -6.2273  -6.2254  -6.2083
    -6.1011  -5.8212  -5.8004  -5.4302  -4.8533  -4.8533  -4.4356  -3.8514
    -2.3412  -2.0250  -1.9536  -1.9203  -1.8694  -1.2524  -1.2188  -1.0778
    -0.9309  -0.8823  -0.7162  -0.2935  -0.2802   0.5346   0.5477   0.6506
     0.7930   1.2402   1.5191   2.4011   2.5241   3.0997   3.1272   3.2307
     3.5298   3.5434  11.0246  11.0572  11.3973  11.4076  11.8297  11.8398
    12.4317  12.5182  12.5395  12.5516

          k =-0.4988-0.1011 0.0000 ( 24712 PWs)   bands (ev):

   -10.8232 -10.7888 -10.4105 -10.2516  -9.9733  -8.6968  -8.4269  -8.1053
    -8.0442  -7.5739  -7.5440  -7.3148  -6.6631  -6.1534  -5.4506  -5.3881
    -5.1633  -5.1125  -4.9551  -4.8197  -4.7342  -4.6445  -4.2128  -3.7979
    -2.4529  -2.3940  -2.1862  -1.7178  -1.6256  -1.0907  -1.0247  -0.6946
    -0.6397  -0.6170  -0.4976  -0.0643  -0.0259   0.4490   0.5439   0.7441
     0.7963   1.4045   1.5979   2.1547   2.2554   2.3291   2.4240   2.4631
     2.7480   2.8101  10.6945  11.2214  11.2730  11.8381  11.9020  12.0834
    12.4171  12.5579  12.7891  13.0465

          k =-0.4988-0.2023 0.0000 ( 24638 PWs)   bands (ev):

   -10.3479 -10.2795 -10.0703  -9.8139  -9.6550  -9.3184  -9.2077  -8.8864
    -8.5126  -8.3435  -8.2577  -8.1234  -6.3280  -6.1496  -5.7768  -5.5561
    -5.2979  -4.8889  -4.6958  -4.1541  -4.0052  -3.6655  -3.5760  -3.3586
    -1.9821  -1.5372  -1.4283  -1.3293  -1.2542  -1.0113  -0.9394  -0.5428
    -0.5344  -0.2165   0.1741   0.2763   0.4326   0.6095   0.6307   0.7007
     0.7460   0.8247   1.0248   1.0973   1.1109   1.1781   1.7008   1.7568
     1.7805   1.8138  10.9877  11.0657  11.6019  11.7528  11.7816  12.0533
    12.2998  12.5529  12.7116  12.7372

     the Fermi energy is     6.7679 ev

!    total energy              =    -447.07214164 Ry
     estimated scf accuracy    <          5.4E-10 Ry
     smearing contrib. (-TS)   =       0.00000000 Ry
     internal energy E=F+TS    =    -447.07214164 Ry

     The total energy is F=E-TS. E is the sum of the following terms:
     one-electron contribution =   -3147.10723615 Ry
     hartree contribution      =    1623.36675611 Ry
     xc contribution           =    -115.01234712 Ry
     ewald contribution        =    1339.59497613 Ry
     one-center paw contrib.   =    -147.91429061 Ry

     convergence has been achieved in  11 iterations

     negative rho (up, down):  3.908E-06 0.000E+00

     Forces acting on atoms (cartesian axes, Ry/au):

     atom    1 type  1   force =     0.00000000    0.01479726   -0.00915356
     atom    2 type  1   force =     0.00000000   -0.00602658    0.00024244
     atom    3 type  1   force =    -0.00000000    0.00028274   -0.00645085
     atom    4 type  1   force =     0.00000000   -0.00010280   -0.01556476
     atom    5 type  1   force =     0.00000000   -0.00783880    0.00678138
     atom    6 type  1   force =    -0.00000000   -0.00762247    0.00069491
     atom    7 type  1   force =     0.00000000   -0.00758434    0.00220149
     atom    8 type  1   force =     0.00000000   -0.00780331   -0.00648122
     atom    9 type  1   force =    -0.00000000   -0.00014841   -0.02701957
     atom   10 type  1   force =     0.00000000    0.00023761   -0.02250568
     atom   11 type  1   force =     0.00000000   -0.00600823   -0.00038567
     atom   12 type  1   force =     0.00000000    0.01479528    0.00916623
     atom   13 type  1   force =     0.00000000   -0.01479528   -0.00916623
     atom   14 type  1   force =     0.00000000    0.00600823    0.00038567
     atom   15 type  1   force =     0.00000000   -0.00023761    0.02250568
     atom   16 type  1   force =    -0.00000000    0.00014841    0.02701957
     atom   17 type  1   force =     0.00000000    0.00780331    0.00648122
     atom   18 type  1   force =     0.00000000    0.00758434   -0.00220149
     atom   19 type  1   force =     0.00000000    0.00762247   -0.00069491
     atom   20 type  1   force =     0.00000000    0.00783880   -0.00678138
     atom   21 type  1   force =     0.00000000    0.00010280    0.01556476
     atom   22 type  1   force =    -0.00000000   -0.00028274    0.00645085
     atom   23 type  1   force =    -0.00000000    0.00602658   -0.00024244
     atom   24 type  1   force =     0.00000000   -0.01479726    0.00915356
     atom   25 type  2   force =    -0.00000000   -0.00938970   -0.00949519
     atom   26 type  2   force =     0.00000000    0.00938229   -0.00946591
     atom   27 type  2   force =     0.00000000   -0.00938229    0.00946591
     atom   28 type  2   force =    -0.00000000    0.00938970    0.00949519

     Total force =     0.075976     Total SCF correction =     0.000038


     Computing stress (Cartesian axis) and pressure


     negative rho (up, down):  3.908E-06 0.000E+00
          total   stress  (Ry/bohr**3)                   (kbar)     P=      -10.79
  -0.00003597   0.00000000   0.00000000           -5.29        0.00        0.00
   0.00000000   0.00004645   0.00000007            0.00        6.83        0.01
   0.00000000   0.00000007  -0.00023056            0.00        0.01      -33.92

     Energy error            =      1.4E-02 Ry
     Gradient error          =      2.7E-02 Ry/Bohr
     Cell gradient error     =      6.8E+00 kbar

     number of scf cycles    =   3
     number of bfgs steps    =   2

     enthalpy           old  =    -447.0581741061 Ry
     enthalpy           new  =    -447.0721416418 Ry

     CASE: enthalpy          _new < enthalpy          _old

     new trust radius        =       0.0596067359 bohr
     Message from routine volume:
     axis vectors are left-handed
     new conv_thr            =       0.0000000010 Ry

     new unit-cell volume =   1697.29814 a.u.^3 (   251.51363 Ang^3 )
     density =      1.92979 g/cm^3

CELL_PARAMETERS (angstrom)
   2.528833323   0.000000000   0.000000000
   0.000000000  -5.008217326   0.000000000
   0.000000000   0.000000000  19.859035940

ATOMIC_POSITIONS (crystal)
C                0.0000000000        0.1626892592        0.7452660188
C                0.5000000000        0.2344656044        0.7041966184
C                0.5000000000       -0.0000493673        0.6540677861
C               -0.0000000000        0.0000063641        0.6105406475
C                0.0000000000        0.2518788826        0.5676416871
C                0.5000000000        0.2515601135        0.5226224321
C                0.5000000000        0.0015558853        0.4775534319
C                0.0000000000        0.0018720255        0.4324183975
C               -0.0000000000        0.2500146122        0.3845334243
C                0.5000000000        0.2499581470        0.3373844130
C                0.5000000000       -0.0155345939        0.2957965111
C                0.0000000000       -0.0873118744        0.2547329576
C                0.0000000000        0.8373118744        0.7452670424
C                0.5000000000        0.7655345939        0.7042034889
C                0.5000000000        0.5000418530        0.6626155870
C               -0.0000000000        0.4999853878        0.6154665757
C                0.0000000000        0.7481279745        0.5675816025
C                0.5000000000        0.7484441147        0.5224465681
C                0.5000000000        0.4984398865        0.4773775679
C                0.0000000000        0.4981211174        0.4323583129
C               -0.0000000000        0.7499936359        0.3894593525
C                0.5000000000        0.7500493673        0.3459322139
C                0.5000000000        0.5155343956        0.2958033816
C                0.0000000000        0.5873107408        0.2547339812
H               -0.0000000000        0.2390727623        0.7973632916
H                0.0000000000        0.7609292785        0.7973647940
H               -0.0000000000       -0.0109292785        0.2026352060
H               -0.0000000000        0.5109272377        0.2026367084



     Writing config-only to output data dir /tmp/qe/slab.save/ :
     XML data file
     NEW-OLD atomic charge density approx. for the potential

     Check: negative core charge=   -0.000001

     negative rho (up, down):  4.771E-06 0.000E+00

     total cpu time spent up to now is      258.2 secs

     Self-consistent Calculation

     iteration #  1     ecut=    90.00 Ry     beta= 0.30
     Davidson diagonalization with overlap
     c_bands:  1 eigenvalues not converged
     c_bands:  1 eigenvalues not converged
     ethr =  1.00E-06,  avg # of iterations = 13.8

     negative rho (up, down):  4.541E-06 0.000E+00

     total cpu time spent up to now is      270.1 secs

     total energy              =    -447.07893165 Ry
     estimated scf accuracy    <       0.00212038 Ry

     iteration #  2     ecut=    90.00 Ry     beta= 0.30
     Davidson diagonalization with overlap
     c_bands:  1 eigenvalues not converged
     c_bands:  1 eigenvalues not converged
     ethr =  2.12E-06,  avg # of iterations =  3.7

     negative rho (up, down):  4.315E-06 0.000E+00

     total cpu time spent up to now is      274.5 secs

     total energy              =    -447.07892940 Ry
     estimated scf accuracy    <       0.00057866 Ry

     iteration #  3     ecut=    90.00 Ry     beta= 0.30
     Davidson diagonalization with overlap
     ethr =  5.79E-07,  avg # of iterations =  2.6

     negative rho (up, down):  4.168E-06 0.000E+00

     total cpu time spent up to now is      279.6 secs

     total energy              =    -447.07900288 Ry
     estimated scf accuracy    <       0.00010896 Ry

     iteration #  4     ecut=    90.00 Ry     beta= 0.30
     Davidson diagonalization with overlap
     ethr =  1.09E-07,  avg # of iterations =  1.8

     negative rho (up, down):  4.117E-06 0.000E+00

     total cpu time spent up to now is      283.9 secs

     total energy              =    -447.07900662 Ry
     estimated scf accuracy    <       0.00003789 Ry

     iteration #  5     ecut=    90.00 Ry     beta= 0.30
     Davidson diagonalization with overlap
     ethr =  3.79E-08,  avg # of iterations =  2.1

     negative rho (up, down):  4.077E-06 0.000E+00

     total cpu time spent up to now is      289.0 secs

     total energy              =    -447.07901178 Ry
     estimated scf accuracy    <       0.00000401 Ry

     iteration #  6     ecut=    90.00 Ry     beta= 0.30
     Davidson diagonalization with overlap
     ethr =  4.01E-09,  avg # of iterations =  1.9

     negative rho (up, down):  4.080E-06 0.000E+00

     total cpu time spent up to now is      293.3 secs

     total energy              =    -447.07901183 Ry
     estimated scf accuracy    <       0.00000112 Ry

     iteration #  7     ecut=    90.00 Ry     beta= 0.30
     Davidson diagonalization with overlap
     ethr =  1.12E-09,  avg # of iterations =  3.4

     negative rho (up, down):  4.069E-06 0.000E+00

     total cpu time spent up to now is      299.3 secs

     total energy              =    -447.07901188 Ry
     estimated scf accuracy    <       0.00000098 Ry

     iteration #  8     ecut=    90.00 Ry     beta= 0.30
     Davidson diagonalization with overlap
     ethr =  9.77E-10,  avg # of iterations =  3.1

     negative rho (up, down):  4.076E-06 0.000E+00

     total cpu time spent up to now is      304.9 secs

     total energy              =    -447.07901216 Ry
     estimated scf accuracy    <       0.00000014 Ry

     iteration #  9     ecut=    90.00 Ry     beta= 0.30
     Davidson diagonalization with overlap
     ethr =  1.44E-10,  avg # of iterations =  2.3

     negative rho (up, down):  4.080E-06 0.000E+00

     total cpu time spent up to now is      309.6 secs

     total energy              =    -447.07901218 Ry
     estimated scf accuracy    <          5.8E-09 Ry

     iteration # 10     ecut=    90.00 Ry     beta= 0.30
     Davidson diagonalization with overlap
     ethr =  5.77E-12,  avg # of iterations =  4.4

     negative rho (up, down):  4.083E-06 0.000E+00

     total cpu time spent up to now is      316.1 secs

     total energy              =    -447.07901218 Ry
     estimated scf accuracy    <          2.9E-09 Ry

     iteration # 11     ecut=    90.00 Ry     beta= 0.30
     Davidson diagonalization with overlap
     ethr =  2.92E-12,  avg # of iterations =  1.1

     negative rho (up, down):  4.086E-06 0.000E+00

     total cpu time spent up to now is      320.1 secs

     total energy              =    -447.07901218 Ry
     estimated scf accuracy    <          1.3E-09 Ry

     iteration # 12     ecut=    90.00 Ry     beta= 0.30
     Davidson diagonalization with overlap
     ethr =  1.29E-12,  avg # of iterations =  2.6

     negative rho (up, down):  4.093E-06 0.000E+00

     total cpu time spent up to now is      325.4 secs

     End of self-consistent calculation

          k = 0.0000-0.0000 0.0000 ( 24643 PWs)   bands (ev):

   -15.3442 -14.7628 -13.8441 -12.4854 -10.8582 -10.7707 -10.7071 -10.1798
   -10.0825  -9.3569  -9.3394  -8.6320  -6.7642  -6.6410  -6.4858  -5.1251
    -5.1206  -4.4209  -3.3680  -3.3654  -2.2162  -1.3182  -1.3134  -0.2293
     0.0094   0.0797   0.3078   0.6135   0.6580   0.8898   1.1697   1.8283
     2.1144   2.3690   2.3990   2.5964   3.0112   3.0125   3.0362   3.1290
     3.1833   3.1916   3.7189   3.7902   3.7902   3.8838   3.9524   5.1564
     5.2886   5.2922   8.2307   8.7537  10.3281  10.3634  10.4702  10.7899
    11.1368  11.2929  11.3713  11.4600

          k = 0.0000-0.1009 0.0000 ( 24675 PWs)   bands (ev):

   -15.1643 -14.6033 -13.7147 -12.4632 -12.2630 -11.5735 -10.8673 -10.2628
    -9.4353  -8.9560  -8.7697  -8.3926  -6.5803  -6.2993  -6.1543  -5.0076
    -4.7802  -4.2838  -3.4155  -3.0309  -2.2545  -1.3430  -1.0859  -0.7556
    -0.2414  -0.0830   0.0505   0.4273   0.6712   0.8332   1.2545   1.4337
     1.5737   2.0953   2.3361   2.4165   2.5819   2.6004   2.9546   3.0729
     3.0926   3.5366   3.6049   3.6508   3.8067   4.0863   4.2714   4.7392
     4.9012   5.2752   8.4520   8.9668  10.6151  10.8829  10.9008  11.2552
    11.2938  11.4880  11.5717  11.7369

          k = 0.0000-0.2018 0.0000 ( 24637 PWs)   bands (ev):

   -14.6491 -14.2198 -13.6582 -13.3045 -12.7227 -12.1416 -11.4443 -10.5482
    -9.6861  -8.8088  -7.9605  -7.6364  -6.0404  -5.4856  -5.3248  -4.7261
    -4.1946  -3.9131  -3.1989  -2.7040  -2.5622  -2.0855  -1.8802  -1.1283
    -0.7737  -0.4788  -0.0917   0.3202   0.6817   0.9097   1.1209   1.1842
     1.3872   1.5204   1.9146   1.9969   2.4203   2.4583   2.8401   2.8827
     3.0233   3.4038   3.4075   3.6838   3.9869   4.0621   4.2723   4.4460
     4.7775   5.1703   9.0906   9.5485  10.1116  10.4385  11.0074  11.1273
    11.2633  11.5083  11.7945  12.0948

          k = 0.0999-0.0000 0.0000 ( 24655 PWs)   bands (ev):

   -15.1611 -14.5807 -13.6642 -12.3096 -10.6858 -10.5969 -10.5361 -10.0106
    -9.9149  -9.1913  -9.1743  -8.4734  -6.6418  -6.4832  -6.3748  -4.9871
    -4.9833  -4.3542  -3.2661  -3.2632  -2.3296  -1.2800  -1.2587  -0.9952
    -0.9011   0.0644   0.1819   0.2241   0.6305   0.6708   0.9799   1.4612
     1.8154   1.9880   2.1231   2.2114   2.3221   2.3959   2.5422   2.6385
     2.8274   2.8312   3.0945   3.1332   3.2763   3.7070   3.7583   4.6940
     4.9933   5.1206   8.4122   8.9231  10.8988  10.9920  11.0565  11.3022
    11.6297  11.6549  11.8282  11.8793

          k = 0.0999-0.1009 0.0000 ( 24646 PWs)   bands (ev):

   -14.9815 -14.4214 -13.5349 -12.2863 -12.0864 -11.3991 -10.6975 -10.0972
    -9.2735  -8.7878  -8.6073  -8.2335  -6.4780  -6.1445  -6.0285  -4.8808
    -4.6524  -4.1988  -3.3354  -2.9054  -2.3125  -1.3044  -1.0784  -0.9003
    -0.7777  -0.6252  -0.0269   0.0951   0.2495   0.6492   0.8340   1.2101
     1.4064   1.5591   1.6127   1.7448   2.2086   2.3972   2.5559   2.6669
     2.7764   3.0437   3.1270   3.3158   3.4410   3.6552   3.7681   4.1559
     4.8298   4.9959   8.6343   9.1334  10.9357  11.3919  11.4355  11.6912
    11.8056  11.8152  11.9744  12.1546

          k = 0.0999-0.2018 0.0000 ( 24657 PWs)   bands (ev):

   -14.4671 -14.0386 -13.4780 -13.1252 -12.5450 -11.9666 -11.2728 -10.3813
    -9.5243  -8.6517  -7.8055  -7.4751  -5.9568  -5.3807  -5.1928  -4.6105
    -4.0885  -3.7671  -3.0804  -2.5878  -2.4497  -1.9876  -1.7744  -1.2223
    -0.8185  -0.6168  -0.3313  -0.3048  -0.1228   0.3387   0.5141   0.8722
     1.1033   1.1667   1.4715   1.4937   1.8659   1.9659   2.4216   2.5680
     2.7024   2.9670   3.2149   3.3747   3.7387   3.7863   3.9154   4.0894
     4.4373   4.5381   9.2738   9.7073  10.2831  10.5685  10.9808  11.2276
    11.9309  12.0899  12.4305  12.5209

          k = 0.1998-0.0000 0.0000 ( 24607 PWs)   bands (ev):

   -14.6141 -14.0369 -13.1278 -11.7879 -10.1767 -10.0784 -10.0287  -9.5066
    -9.4170  -8.6983  -8.6827  -8.0195  -6.4975  -6.0319  -6.0160  -4.6164
    -4.6158  -4.4542  -3.3520  -3.0421  -3.0382  -2.5386  -2.5193  -1.3179
    -1.1462  -1.0590  -0.9168   0.0902   0.1495   0.3254   0.5278   0.5650
     0.6580   0.9219   1.1030   1.1140   1.2409   1.3610   1.4351   1.9094
     1.9219   2.2437   2.3777   2.6191   2.7475   2.8127   3.8293   3.9948
     4.0464   4.9676   8.9332   9.3283  11.4364  11.6879  11.8547  11.9544
    12.1033  12.2234  12.4721  12.5985

          k = 0.1998-0.1009 0.0000 ( 24634 PWs)   bands (ev):

   -14.4353 -13.8785 -12.9990 -11.7602 -11.5597 -10.8798 -10.1951  -9.6094
    -8.7961  -8.2865  -8.1254  -7.7757  -6.3549  -5.7106  -5.6766  -4.6112
    -4.4229  -4.0752  -3.3088  -3.0696  -2.5743  -2.4219  -2.4008  -1.4325
    -1.1876  -1.0970  -0.9179  -0.3532  -0.2048  -0.0228   0.0521   0.3563
     0.6334   0.6902   0.9902   1.0480   1.0947   1.5275   1.6269   1.8245
     2.0355   2.1206   2.3060   2.3695   2.7870   2.8912   3.2226   3.7292
     4.2327   4.5361   9.1433   9.5304  11.1736  11.6729  11.7333  11.7833
    11.9343  12.1461  12.8053  12.8677

          k = 0.1998-0.2018 0.0000 ( 24642 PWs)   bands (ev):

   -13.9234 -13.4974 -12.9401 -12.5901 -12.0152 -11.4461 -10.7644  -9.8889
    -9.0517  -8.1970  -7.3615  -6.9984  -5.8734  -5.2072  -4.8802  -4.3586
    -3.9111  -3.3764  -3.0001  -2.4667  -2.3460  -2.2938  -2.2000  -1.7874
    -1.6396  -1.5605  -1.4379  -0.9230  -0.7693  -0.4023  -0.3691  -0.1803
    -0.0986   0.3746   0.6977   0.9993   1.1952   1.3808   1.5682   1.7659
     2.0963   2.2538   2.3790   2.5647   2.6984   3.0459   3.1847   3.4389
     3.8735   3.9157   9.7301  10.0804  10.5419  10.7195  10.8682  11.1828
    11.5970  12.1685  12.3969  12.6773

          k = 0.2997-0.0000 0.0000 ( 24668 PWs)   bands (ev):

   -13.7109 -13.1410 -12.2486 -10.9472  -9.3921  -9.2252  -9.2041  -8.6845
    -8.6162  -7.8942  -7.8795  -7.4723  -7.1817  -5.6739  -5.4278  -5.3551
    -5.0201  -4.3022  -4.2988  -3.7517  -3.5769  -3.1853  -3.1809  -2.4238
    -2.0932  -1.4351  -1.3720  -1.3283  -1.3007  -0.8363  -0.8290  -0.4511
    -0.2993   0.1104   0.1288   0.5804   0.5875   1.1672   1.2429   1.2848
     1.5123   1.7142   1.9835   2.0189   2.1458   2.9442   3.1738   3.2185
     3.8671   4.6041   9.7569  10.0010  11.6155  11.6211  11.9683  12.1361
    12.3395  12.3893  12.4546  12.5661

          k = 0.2997-0.1009 0.0000 ( 24678 PWs)   bands (ev):

   -13.5336 -12.9838 -12.1204 -10.9059 -10.6960 -10.0318  -9.4026  -8.8575
    -8.0578  -7.4766  -7.3871  -7.1826  -6.9942  -5.5631  -5.3499  -5.1642
    -4.8949  -4.3854  -3.8500  -3.5617  -3.4502  -3.1827  -2.5588  -2.4030
    -2.2731  -2.1453  -1.8364  -1.3147  -1.1711  -0.7104  -0.4686  -0.3265
    -0.1236   0.1628   0.3419   0.4723   0.7875   0.8712   0.9612   1.1306
     1.4306   1.5262   1.7411   1.8390   2.2502   2.4725   2.6257   3.2891
     3.6257   3.8801   9.9421  10.1702  10.9783  11.5714  11.6927  12.0161
    12.3223  12.3695  12.4781  13.0830

          k = 0.2997-0.2018 0.0000 ( 24664 PWs)   bands (ev):

   -13.0259 -12.6051 -12.0543 -11.7107 -11.1473 -10.6000  -9.9469  -9.1150
    -8.3509  -7.5754  -6.8883  -6.6063  -6.1477  -5.6138  -5.2060  -4.8013
    -4.3813  -3.8695  -3.3931  -3.2601  -2.9566  -2.9001  -2.7309  -2.4153
    -2.0748  -1.8513  -1.7326  -1.5103  -1.3842  -0.9872  -0.7709  -0.5787
    -0.5553  -0.2698   0.0720   0.3405   0.5402   0.7269   0.9785   1.2084
     1.5141   1.5927   1.7151   1.8185   2.0784   2.1457   2.6342   2.6807
     3.0246   3.0483  10.2324  10.3477  10.6017  11.0091  11.1422  11.6119
    11.8609  12.3651  12.6247  12.9293

          k = 0.3996-0.0000 0.0000 ( 24732 PWs)   bands (ev):

   -12.4699 -11.9185 -11.0773  -9.9594  -9.3315  -8.3038  -8.2172  -8.0279
    -8.0138  -7.5103  -7.4896  -6.8082  -6.8041  -6.6005  -5.9209  -5.5828
    -5.2005  -5.1604  -5.0677  -4.8409  -4.2236  -4.0082  -4.0080  -2.8822
    -2.6349  -2.4390  -2.4277  -1.7655  -1.7356  -1.4372  -0.8503  -0.8088
    -0.6698  -0.5982  -0.3610  -0.1126  -0.0998   0.7619   0.7888   0.8166
     1.0647   1.4598   1.4837   2.2139   2.6078   2.6889   2.7068   3.2295
     3.7242   3.9779  10.7791  10.8719  11.2894  11.3487  11.5356  11.5422
    12.5046  12.5450  13.1934  13.2357

          k = 0.3996-0.1009 0.0000 ( 24696 PWs)   bands (ev):

   -12.2948 -11.7630 -10.9475  -9.8644  -9.5306  -9.1797  -8.9021  -8.3242
    -8.0659  -7.7525  -7.1574  -6.7064  -6.3683  -6.3018  -5.9531  -5.8214
    -5.4282  -5.1484  -4.7210  -4.1669  -3.8948  -3.4645  -3.3856  -2.9985
    -2.8906  -2.6695  -2.4324  -1.8296  -1.7562  -1.3146  -0.7952  -0.5552
    -0.3209  -0.3045  -0.2043   0.1573   0.1861   0.6640   0.7224   0.9255
     1.0531   1.3584   1.4594   1.6009   2.0900   2.1358   2.5538   2.8278
     3.0148   3.2047  10.5308  10.9917  11.1790  11.4131  11.7126  12.1638
    12.2156  12.4963  12.9740  13.2384

          k = 0.3996-0.2018 0.0000 ( 24655 PWs)   bands (ev):

   -11.7932 -11.3855 -10.8473 -10.5219  -9.9871  -9.5237  -8.9895  -8.6415
    -8.1697  -7.8102  -7.7289  -7.6784  -5.9676  -5.8920  -5.6936  -5.3796
    -5.1692  -5.0177  -4.7686  -4.1658  -3.5163  -2.8611  -2.7096  -2.4094
    -2.3550  -2.0760  -1.9647  -1.7950  -1.4484  -1.2722  -0.8704  -0.6312
    -0.4912  -0.1518   0.1221   0.2241   0.4117   0.4638   0.8179   0.8562
     1.0125   1.0367   1.1365   1.2981   1.4781   1.5435   1.7844   2.0131
     2.1460   2.2486  10.4848  10.8968  11.1176  11.3762  11.9332  12.1525
    12.2509  12.4468  12.4687  12.7821

          k =-0.4995 0.0000 0.0000 ( 24782 PWs)   bands (ev):

   -10.9602 -10.9175 -10.5504 -10.3849 -10.0960  -8.7838  -8.4775  -7.0291
    -6.6433  -6.6176  -6.6091  -6.6087  -6.3569  -6.2313  -6.2156  -6.1937
    -6.1881  -5.8735  -5.8534  -5.4428  -4.9106  -4.9106  -4.4434  -3.8317
    -2.3145  -2.0228  -1.9810  -1.9068  -1.8633  -1.2294  -1.2124  -1.1017
    -0.9629  -0.9192  -0.7314  -0.3135  -0.2978   0.5439   0.5651   0.6558
     0.8157   1.1319   1.4326   2.3963   2.5151   3.0805   3.1346   3.2365
     3.3835   3.4012  11.0495  11.0921  11.3272  11.3524  11.8619  11.8703
    12.4381  12.5180  12.5733  12.5814

          k =-0.4995-0.1009 0.0000 ( 24712 PWs)   bands (ev):

   -10.7903 -10.7442 -10.4013 -10.2231  -9.9504  -8.7261  -8.4467  -8.0943
    -8.0298  -7.6320  -7.5330  -7.3615  -6.6789  -6.1629  -5.4463  -5.4383
    -5.1976  -5.1081  -4.9411  -4.8358  -4.7754  -4.6975  -4.2263  -3.7938
    -2.4267  -2.3953  -2.1584  -1.7603  -1.6369  -1.1030  -1.0342  -0.7105
    -0.6598  -0.6491  -0.5189  -0.0840  -0.0417   0.4614   0.5623   0.7521
     0.8266   1.2933   1.4901   2.1436   2.2527   2.3183   2.4295   2.4761
     2.6242   2.6944  10.7182  11.1694  11.3361  11.7617  11.9139  12.0996
    12.4062  12.5752  12.7886  12.9729

          k =-0.4995-0.2018 0.0000 ( 24638 PWs)   bands (ev):

   -10.3109 -10.2420 -10.0393  -9.7967  -9.6207  -9.2644  -9.1817  -8.8509
    -8.6005  -8.3835  -8.3400  -8.1685  -6.3310  -6.2178  -5.8276  -5.5548
    -5.2927  -4.8683  -4.6904  -4.1384  -3.9787  -3.7076  -3.5729  -3.3889
    -1.9674  -1.5174  -1.4144  -1.3735  -1.3226  -1.0469  -1.0264  -0.5876
    -0.5715  -0.2926   0.1589   0.2902   0.4848   0.5600   0.6378   0.7277
     0.7282   0.8239   1.0444   1.0852   1.1187   1.1787   1.6079   1.6395
     1.7165   1.7851  11.0471  11.1170  11.5148  11.7206  11.7535  12.0724
    12.2268  12.5497  12.7238  12.8322

     the Fermi energy is     6.7731 ev

!    total energy              =    -447.07901218 Ry
     estimated scf accuracy    <          1.9E-10 Ry
     smearing contrib. (-TS)   =       0.00000000 Ry
     internal energy E=F+TS    =    -447.07901218 Ry

     The total energy is F=E-TS. E is the sum of the following terms:
     one-electron contribution =   -3142.30346130 Ry
     hartree contribution      =    1620.91508383 Ry
     xc contribution           =    -115.01127702 Ry
     ewald contribution        =    1337.23439094 Ry
     one-center paw contrib.   =    -147.91374864 Ry

     convergence has been achieved in  12 iterations

     negative rho (up, down):  4.093E-06 0.000E+00

     Forces acting on atoms (cartesian axes, Ry/au):

     atom    1 type  1   force =     0.00000000    0.00667716   -0.00437968
     atom    2 type  1   force =     0.00000000    0.00963813    0.00103616
     atom    3 type  1   force =     0.00000000    0.00012026   -0.00439448
     atom    4 type  1   force =    -0.00000000    0.00006271    0.00637227
     atom    5 type  1   force =    -0.00000000   -0.00473688    0.00592548
     atom    6 type  1   force =    -0.00000000   -0.00706595    0.00666483
     atom    7 type  1   force =     0.00000000   -0.00733136    0.00087248
     atom    8 type  1   force =    -0.00000000   -0.00470498   -0.00297938
     atom    9 type  1   force =     0.00000000   -0.00003610   -0.00202803
     atom   10 type  1   force =     0.00000000    0.00005414    0.00043527
     atom   11 type  1   force =     0.00000000    0.00961593   -0.00116345
     atom   12 type  1   force =     0.00000000    0.00669292    0.00424027
     atom   13 type  1   force =     0.00000000   -0.00669292   -0.00424027
     atom   14 type  1   force =     0.00000000   -0.00961593    0.00116345
     atom   15 type  1   force =     0.00000000   -0.00005414   -0.00043527
     atom   16 type  1   force =     0.00000000    0.00003610    0.00202803
     atom   17 type  1   force =    -0.00000000    0.00470498    0.00297938
     atom   18 type  1   force =     0.00000000    0.00733136   -0.00087248
     atom   19 type  1   force =     0.00000000    0.00706595   -0.00666483
     atom   20 type  1   force =    -0.00000000    0.00473688   -0.00592548
     atom   21 type  1   force =    -0.00000000   -0.00006271   -0.00637227
     atom   22 type  1   force =    -0.00000000   -0.00012026    0.00439448
     atom   23 type  1   force =     0.00000000   -0.00963813   -0.00103616
     atom   24 type  1   force =     0.00000000   -0.00667716    0.00437968
     atom   25 type  2   force =     0.00000000   -0.00647486   -0.00710494
     atom   26 type  2   force =    -0.00000000    0.00645349   -0.00709390
     atom   27 type  2   force =    -0.00000000   -0.00645349    0.00709390
     atom   28 type  2   force =    -0.00000000    0.00647486    0.00710494

     Total force =     0.040009     Total SCF correction =     0.000032


     Computing stress (Cartesian axis) and pressure


     negative rho (up, down):  4.093E-06 0.000E+00
          total   stress  (Ry/bohr**3)                   (kbar)     P=      -11.72
   0.00001394   0.00000000   0.00000000            2.05        0.00        0.00
   0.00000000  -0.00003264   0.00000077            0.00       -4.80        0.11
   0.00000000   0.00000077  -0.00022029            0.00        0.11      -32.41

     Energy error            =      6.9E-03 Ry
     Gradient error          =      9.6E-03 Ry/Bohr
     Cell gradient error     =      4.8E+00 kbar

     number of scf cycles    =   4
     number of bfgs steps    =   3

     enthalpy           old  =    -447.0721416418 Ry
     enthalpy           new  =    -447.0790121818 Ry

     CASE: enthalpy          _new < enthalpy          _old

     new trust radius        =       0.0207543774 bohr
     Message from routine volume:
     axis vectors are left-handed
     new conv_thr            =       0.0000000010 Ry

     new unit-cell volume =   1697.49511 a.u.^3 (   251.54282 Ang^3 )
     density =      1.92957 g/cm^3

CELL_PARAMETERS (angstrom)
   2.529173329   0.000000000   0.000000000
   0.000000000  -5.008125170   0.000000000
   0.000000000   0.000000000  19.859035940

ATOMIC_POSITIONS (crystal)
C                0.0000000000        0.1615844634        0.7451457889
C                0.5000000000        0.2333865207        0.7041743501
C                0.5000000000       -0.0000706215        0.6537469844
C               -0.0000000000       -0.0000033475        0.6104710632
C                0.0000000000        0.2528664109        0.5678642052
C                0.5000000000        0.2526563104        0.5228586452
C                0.5000000000        0.0026856147        0.4775825767
C               -0.0000000000        0.0028542448        0.4323017248
C                0.0000000000        0.2500189850        0.3839805689
C                0.5000000000        0.2499463527        0.3368977389
C                0.5000000000       -0.0166107276        0.2958138672
C                0.0000000000       -0.0884189640        0.2548484724
C                0.0000000000        0.8384189640        0.7451515276
C                0.5000000000        0.7666107276        0.7041861328
C                0.5000000000        0.5000536473        0.6631022611
C                0.0000000000        0.4999810150        0.6160194311
C               -0.0000000000        0.7471457552        0.5676982752
C                0.5000000000        0.7473143853        0.5224174233
C                0.5000000000        0.4973436896        0.4771413548
C               -0.0000000000        0.4971335891        0.4321357948
C               -0.0000000000        0.7500033475        0.3895289368
C                0.5000000000        0.7500706215        0.3462530156
C                0.5000000000        0.5166134793        0.2958256499
C                0.0000000000        0.5884155366        0.2548542111
H               -0.0000000000        0.2402346707        0.7968942637
H               -0.0000000000        0.7597703467        0.7968963561
H               -0.0000000000       -0.0097703467        0.2031036439
H               -0.0000000000        0.5097653293        0.2031057363



     Writing config-only to output data dir /tmp/qe/slab.save/ :
     XML data file
     NEW-OLD atomic charge density approx. for the potential

     Check: negative core charge=   -0.000001

     negative rho (up, down):  4.764E-06 0.000E+00

     total cpu time spent up to now is      344.5 secs

     Self-consistent Calculation

     iteration #  1     ecut=    90.00 Ry     beta= 0.30
     Davidson diagonalization with overlap
     c_bands:  1 eigenvalues not converged
     ethr =  1.00E-06,  avg # of iterations =  7.2

     negative rho (up, down):  4.731E-06 0.000E+00

     total cpu time spent up to now is      353.0 secs

     total energy              =    -447.08053527 Ry
     estimated scf accuracy    <       0.00039396 Ry

     iteration #  2     ecut=    90.00 Ry     beta= 0.30
     Davidson diagonalization with overlap
     ethr =  3.94E-07,  avg # of iterations =  1.9

     negative rho (up, down):  4.565E-06 0.000E+00

     total cpu time spent up to now is      357.2 secs

     total energy              =    -447.08053840 Ry
     estimated scf accuracy    <       0.00011871 Ry

     iteration #  3     ecut=    90.00 Ry     beta= 0.30
     Davidson diagonalization with overlap
     ethr =  1.19E-07,  avg # of iterations =  2.0

     negative rho (up, down):  4.465E-06 0.000E+00

     total cpu time spent up to now is      362.2 secs

     total energy              =    -447.08055445 Ry
     estimated scf accuracy    <       0.00002046 Ry

     iteration #  4     ecut=    90.00 Ry     beta= 0.30
     Davidson diagonalization with overlap
     ethr =  2.05E-08,  avg # of iterations =  2.0

     negative rho (up, down):  4.421E-06 0.000E+00

     total cpu time spent up to now is      366.7 secs

     total energy              =    -447.08055693 Ry
     estimated scf accuracy    <       0.00000433 Ry

     iteration #  5     ecut=    90.00 Ry     beta= 0.30
     Davidson diagonalization with overlap
     ethr =  4.33E-09,  avg # of iterations =  1.9

     negative rho (up, down):  4.417E-06 0.000E+00

     total cpu time spent up to now is      371.1 secs

     total energy              =    -447.08055730 Ry
     estimated scf accuracy    <       0.00000030 Ry

     iteration #  6     ecut=    90.00 Ry     beta= 0.30
     Davidson diagonalization with overlap
     ethr =  3.04E-10,  avg # of iterations =  3.3

     negative rho (up, down):  4.418E-06 0.000E+00

     total cpu time spent up to now is      376.5 secs

     total energy              =    -447.08055735 Ry
     estimated scf accuracy    <       0.00000011 Ry

     iteration #  7     ecut=    90.00 Ry     beta= 0.30
     Davidson diagonalization with overlap
     ethr =  1.08E-10,  avg # of iterations =  2.1

     negative rho (up, down):  4.421E-06 0.000E+00

     total cpu time spent up to now is      381.4 secs

     total energy              =    -447.08055736 Ry
     estimated scf accuracy    <       0.00000002 Ry

     iteration #  8     ecut=    90.00 Ry     beta= 0.30
     Davidson diagonalization with overlap
     ethr =  2.07E-11,  avg # of iterations =  2.6

     negative rho (up, down):  4.423E-06 0.000E+00

     total cpu time spent up to now is      386.7 secs

     total energy              =    -447.08055736 Ry
     estimated scf accuracy    <          8.3E-09 Ry

     iteration #  9     ecut=    90.00 Ry     beta= 0.30
     Davidson diagonalization with overlap
     ethr =  8.32E-12,  avg # of iterations =  2.6

     negative rho (up, down):  4.425E-06 0.000E+00

     total cpu time spent up to now is      391.8 secs

     total energy              =    -447.08055736 Ry
     estimated scf accuracy    <          1.1E-09 Ry

     iteration # 10     ecut=    90.00 Ry     beta= 0.30
     Davidson diagonalization with overlap
     ethr =  1.06E-12,  avg # of iterations =  2.1

     negative rho (up, down):  4.429E-06 0.000E+00

     total cpu time spent up to now is      396.5 secs

     End of self-consistent calculation

          k = 0.0000-0.0000 0.0000 ( 24643 PWs)   bands (ev):

   -15.3309 -14.7818 -13.8544 -12.4974 -10.8539 -10.7506 -10.7051 -10.1819
   -10.0889  -9.3557  -9.3364  -8.6515  -6.7466  -6.6264  -6.4973  -5.1289
    -5.1249  -4.4214  -3.3686  -3.3648  -2.2006  -1.3270  -1.3232  -0.2255
     0.0243   0.1129   0.2753   0.6119   0.6530   0.8803   1.1556   1.8318
     2.1319   2.3744   2.3802   2.5971   3.0312   3.0345   3.0361   3.1396
     3.1624   3.1716   3.7360   3.7844   3.7844   3.8594   3.9805   5.1856
     5.2743   5.2960   8.2255   8.7428  10.3360  10.3637  10.4390  10.7619
    11.1178  11.2658  11.3680  11.4899

          k = 0.0000-0.1009 0.0000 ( 24675 PWs)   bands (ev):

   -15.1517 -14.6236 -13.7270 -12.4705 -12.2448 -11.5755 -10.8816 -10.2602
    -9.4281  -8.9464  -8.7732  -8.4011  -6.5924  -6.2853  -6.1403  -5.0161
    -4.7884  -4.2798  -3.4185  -3.0391  -2.2390  -1.3300  -1.0964  -0.7323
    -0.2394  -0.0802   0.0547   0.3935   0.6814   0.8206   1.2389   1.4428
     1.5789   2.1150   2.3570   2.3982   2.5609   2.5863   2.9819   3.0831
     3.0862   3.5364   3.6183   3.6503   3.7835   4.0791   4.2707   4.7709
     4.8996   5.2646   8.4483   8.9581  10.5926  10.8810  10.8948  11.2742
    11.3160  11.4675  11.5721  11.7410

          k = 0.0000-0.2018 0.0000 ( 24637 PWs)   bands (ev):

   -14.6404 -14.2451 -13.6648 -13.2869 -12.7247 -12.1463 -11.4496 -10.5531
    -9.6839  -8.8086  -7.9593  -7.6329  -6.0487  -5.4881  -5.3126  -4.7199
    -4.1916  -3.9286  -3.2115  -2.7216  -2.5448  -2.0561  -1.8789  -1.1313
    -0.7573  -0.4669  -0.0770   0.3176   0.6439   0.9021   1.1455   1.1794
     1.3775   1.5351   1.9236   1.9872   2.4045   2.4544   2.8281   2.9050
     3.0335   3.3938   3.4189   3.6713   3.9660   4.0829   4.2580   4.4406
     4.7798   5.1676   9.0903   9.5463  10.1215  10.4573  11.0407  11.1758
    11.2919  11.4776  11.8070  12.0837

          k = 0.0999-0.0000 0.0000 ( 24655 PWs)   bands (ev):

   -15.1479 -14.5997 -13.6745 -12.3216 -10.6821 -10.5768 -10.5336 -10.0127
    -9.9212  -9.1902  -9.1715  -8.4933  -6.6276  -6.4686  -6.3829  -4.9906
    -4.9874  -4.3556  -3.2669  -3.2625  -2.3122  -1.2929  -1.2735  -0.9979
    -0.9098   0.0640   0.1655   0.2570   0.6315   0.6744   0.9733   1.4564
     1.8207   1.9749   2.1388   2.2304   2.3233   2.3704   2.5443   2.6335
     2.8191   2.8339   3.0941   3.1351   3.2844   3.7013   3.7724   4.7012
     4.9850   5.1500   8.4080   8.9137  10.8711  11.0014  11.0558  11.2765
    11.6420  11.6587  11.8149  11.8735

          k = 0.0999-0.1009 0.0000 ( 24646 PWs)   bands (ev):

   -14.9689 -14.4418 -13.5473 -12.2938 -12.0681 -11.4011 -10.7118 -10.0944
    -9.2664  -8.7783  -8.6109  -8.2423  -6.4907  -6.1306  -6.0139  -4.8892
    -4.6604  -4.1954  -3.3393  -2.9136  -2.2946  -1.2932  -1.0962  -0.9051
    -0.7846  -0.6004  -0.0457   0.0872   0.2565   0.6639   0.8268   1.2154
     1.4043   1.5484   1.6179   1.7420   2.2104   2.4032   2.5438   2.6696
     2.7682   3.0563   3.1289   3.3088   3.4379   3.6783   3.7596   4.1579
     4.8184   5.0185   8.6313   9.1261  10.9323  11.3998  11.4455  11.7095
    11.8124  11.8276  12.0038  12.1321

          k = 0.0999-0.2018 0.0000 ( 24657 PWs)   bands (ev):

   -14.4585 -14.0640 -13.4847 -13.1075 -12.5470 -11.9713 -11.2781 -10.3862
    -9.5221  -8.6517  -7.8047  -7.4717  -5.9647  -5.3834  -5.1813  -4.6042
    -4.0849  -3.7832  -3.0912  -2.6069  -2.4328  -1.9576  -1.7732  -1.2197
    -0.8237  -0.6132  -0.3347  -0.3031  -0.1285   0.3402   0.5321   0.8684
     1.0955   1.1729   1.4739   1.4922   1.8513   1.9589   2.4227   2.5658
     2.7019   2.9805   3.2220   3.3710   3.7419   3.7701   3.9075   4.0926
     4.4259   4.5500   9.2741   9.7060  10.2938  10.5904  11.0282  11.2963
    11.9221  12.1126  12.4250  12.4972

          k = 0.1998-0.0000 0.0000 ( 24607 PWs)   bands (ev):

   -14.6010 -14.0561 -13.1382 -11.7999 -10.1758 -10.0584 -10.0236  -9.5086
    -9.4227  -8.6975  -8.6802  -8.0409  -6.4994  -6.0178  -6.0083  -4.6197
    -4.6197  -4.4611  -3.3346  -3.0415  -3.0342  -2.5510  -2.5485  -1.3422
    -1.1477  -1.0633  -0.9022   0.0890   0.1473   0.3049   0.5438   0.5732
     0.6890   0.9258   1.0913   1.1110   1.2404   1.3670   1.4374   1.8756
     1.9345   2.2630   2.3431   2.6014   2.7637   2.8347   3.8419   3.9795
     4.0567   4.9968   8.9309   9.3237  11.4214  11.6915  11.8470  11.9463
    12.1300  12.2263  12.4761  12.6328

          k = 0.1998-0.1009 0.0000 ( 24634 PWs)   bands (ev):

   -14.4229 -13.8989 -13.0114 -11.7681 -11.5410 -10.8819 -10.2097  -9.6061
    -8.7893  -8.2774  -8.1297  -7.7856  -6.3673  -5.6981  -5.6615  -4.6233
    -4.4267  -4.0777  -3.3073  -3.0568  -2.5801  -2.4456  -2.4156  -1.4397
    -1.1935  -1.0918  -0.9004  -0.3440  -0.1957  -0.0132   0.0311   0.3452
     0.6325   0.6943   0.9987   1.0475   1.0933   1.5342   1.6192   1.8162
     2.0425   2.1179   2.3051   2.3807   2.7625   2.9010   3.2384   3.7242
     4.2262   4.5632   9.1422   9.5274  11.1879  11.6684  11.7305  11.7940
    11.9560  12.1744  12.8302  12.8871

          k = 0.1998-0.2018 0.0000 ( 24642 PWs)   bands (ev):

   -13.9148 -13.5229 -12.9471 -12.5723 -12.0173 -11.4509 -10.7696  -9.8935
    -9.0493  -8.1979  -7.3630  -6.9953  -5.8797  -5.2118  -4.8727  -4.3517
    -3.9095  -3.3918  -2.9949  -2.4886  -2.3523  -2.3090  -2.2038  -1.7515
    -1.6549  -1.5707  -1.4200  -0.9230  -0.7645  -0.3973  -0.3746  -0.1726
    -0.0914   0.3635   0.7054   0.9887   1.2074   1.3818   1.5635   1.7631
     2.0926   2.2591   2.3836   2.5636   2.7110   3.0576   3.1671   3.4265
     3.8819   3.9088   9.7335  10.0829  10.5643  10.7407  10.8794  11.2024
    11.6345  12.2010  12.3900  12.6910

          k = 0.2997-0.0000 0.0000 ( 24668 PWs)   bands (ev):

   -13.6980 -13.1601 -12.2590 -10.9586  -9.3983  -9.2054  -9.1903  -8.6860
    -8.6192  -7.8942  -7.8771  -7.5004  -7.1931  -5.6936  -5.4148  -5.3359
    -5.0184  -4.2969  -4.2960  -3.7572  -3.5917  -3.1878  -3.1815  -2.4379
    -2.1037  -1.4560  -1.3874  -1.3107  -1.2850  -0.8354  -0.8265  -0.4513
    -0.3129   0.1159   0.1341   0.5961   0.5988   1.1837   1.2319   1.2710
     1.5448   1.6805   1.9687   2.0006   2.1534   2.9541   3.1697   3.2170
     3.8762   4.6331   9.7585  10.0033  11.6228  11.6307  11.9824  12.1311
    12.3483  12.4033  12.4370  12.5920

          k = 0.2997-0.1009 0.0000 ( 24678 PWs)   bands (ev):

   -13.5214 -13.0043 -12.1327 -10.9151 -10.6757 -10.0340  -9.4173  -8.8500
    -8.0526  -7.4725  -7.3949  -7.1937  -7.0050  -5.5770  -5.3442  -5.1513
    -4.8897  -4.3811  -3.8558  -3.5691  -3.4642  -3.1912  -2.5727  -2.3958
    -2.2731  -2.1404  -1.8283  -1.3308  -1.1702  -0.7207  -0.4747  -0.3171
    -0.1246   0.1599   0.3573   0.4942   0.7951   0.8773   0.9614   1.1345
     1.4282   1.5229   1.7076   1.8509   2.2377   2.4870   2.6076   3.2837
     3.6301   3.9073   9.9461  10.1755  10.9781  11.5811  11.7033  12.0379
    12.3530  12.3837  12.4738  13.0934

          k = 0.2997-0.2018 0.0000 ( 24664 PWs)   bands (ev):

   -13.0174 -12.6307 -12.0619 -11.6926 -11.1495 -10.6047  -9.9517  -9.1181
    -8.3456  -7.5800  -6.9051  -6.6125  -6.1440  -5.6180  -5.2120  -4.7937
    -4.3748  -3.8752  -3.4103  -3.2679  -2.9585  -2.8935  -2.7350  -2.4071
    -2.0866  -1.8568  -1.7432  -1.5008  -1.3949  -0.9674  -0.7811  -0.5767
    -0.5470  -0.2588   0.0676   0.3533   0.5490   0.7332   0.9834   1.2093
     1.5094   1.5991   1.7060   1.8389   2.0710   2.1620   2.5933   2.6844
     3.0238   3.0377  10.2435  10.3588  10.6157  11.0399  11.1409  11.6278
    11.8819  12.3998  12.6589  12.9472

          k = 0.3995-0.0000 0.0000 ( 24732 PWs)   bands (ev):

   -12.4572 -11.9372 -11.0868  -9.9661  -9.3156  -8.3372  -8.2459  -8.0115
    -8.0029  -7.5164  -7.4979  -6.8078  -6.8038  -6.5994  -5.9256  -5.6028
    -5.1827  -5.1319  -5.0563  -4.8400  -4.2448  -4.0215  -4.0213  -2.8855
    -2.6512  -2.4322  -2.4192  -1.7639  -1.7353  -1.4395  -0.8534  -0.8041
    -0.6597  -0.5888  -0.3553  -0.1014  -0.0875   0.7527   0.7957   0.8197
     1.0168   1.4350   1.4412   2.2511   2.6064   2.6834   2.7120   3.2394
     3.7287   4.0052  10.7888  10.8787  11.2936  11.3588  11.5534  11.5579
    12.5187  12.5564  13.1932  13.2412

          k = 0.3995-0.1009 0.0000 ( 24696 PWs)   bands (ev):

   -12.2828 -11.7830 -10.9589  -9.8729  -9.5073  -9.1651  -8.9041  -8.3452
    -8.1051  -7.7705  -7.1564  -6.6989  -6.3571  -6.2891  -5.9521  -5.8271
    -5.4318  -5.1582  -4.7287  -4.1741  -3.8995  -3.4713  -3.3793  -2.9954
    -2.8852  -2.6597  -2.4279  -1.8384  -1.7612  -1.3183  -0.8039  -0.5511
    -0.3258  -0.2892  -0.1874   0.1689   0.1946   0.6646   0.7240   0.9282
     1.0379   1.3090   1.4483   1.6040   2.0949   2.1365   2.5427   2.8401
     3.0183   3.2258  10.5430  11.0105  11.1865  11.4211  11.7177  12.1752
    12.2322  12.4918  12.9991  13.2506

          k = 0.3995-0.2018 0.0000 ( 24655 PWs)   bands (ev):

   -11.7849 -11.4107 -10.8565 -10.5019  -9.9896  -9.5256  -8.9924  -8.6176
    -8.1790  -7.8523  -7.7174  -7.7122  -5.9594  -5.8975  -5.6960  -5.3842
    -5.1648  -5.0183  -4.7747  -4.1748  -3.5203  -2.8634  -2.7099  -2.4051
    -2.3486  -2.0589  -1.9649  -1.7981  -1.4590  -1.2742  -0.8865  -0.6240
    -0.4882  -0.1359   0.1372   0.2347   0.4238   0.4642   0.8184   0.8614
     1.0115   1.0462   1.1374   1.3010   1.5070   1.5437   1.7499   1.9838
     2.1276   2.2356  10.4966  10.9213  11.1361  11.3989  11.9482  12.1738
    12.2598  12.4635  12.5002  12.8025

          k =-0.4994 0.0000 0.0000 ( 24782 PWs)   bands (ev):

   -10.9497 -10.9033 -10.5730 -10.3895 -10.0942  -8.8263  -8.5214  -7.0318
    -6.6206  -6.5949  -6.5919  -6.5913  -6.3609  -6.2289  -6.2119  -6.2005
    -6.1885  -5.8733  -5.8492  -5.4644  -4.9252  -4.9251  -4.4579  -3.8461
    -2.3156  -2.0173  -1.9739  -1.8791  -1.8428  -1.2338  -1.2159  -1.1058
    -0.9553  -0.9172  -0.7394  -0.3029  -0.2858   0.5380   0.5733   0.6422
     0.8021   1.0649   1.4035   2.3842   2.5176   3.1393   3.1604   3.2604
     3.3678   3.3903  11.0674  11.1174  11.3221  11.3559  11.8772  11.8842
    12.4513  12.5307  12.5794  12.5831

          k =-0.4994-0.1009 0.0000 ( 24712 PWs)   bands (ev):

   -10.7810 -10.7302 -10.4252 -10.2283  -9.9492  -8.7700  -8.4888  -8.0672
    -8.0142  -7.6413  -7.5278  -7.3598  -6.6800  -6.1680  -5.4648  -5.4419
    -5.2017  -5.0836  -4.9389  -4.8418  -4.7770  -4.7029  -4.2352  -3.8044
    -2.4159  -2.3649  -2.1515  -1.7640  -1.6428  -1.1112  -1.0366  -0.7123
    -0.6569  -0.6242  -0.5283  -0.0796  -0.0342   0.4677   0.5706   0.7320
     0.8242   1.2291   1.4488   2.1352   2.2678   2.3748   2.4416   2.4992
     2.6124   2.6806  10.7388  11.1689  11.3691  11.7645  11.9230  12.1023
    12.4039  12.5928  12.8163  12.9762

          k =-0.4994-0.2018 0.0000 ( 24638 PWs)   bands (ev):

   -10.3090 -10.2289 -10.0685  -9.8054  -9.6268  -9.2552  -9.1395  -8.8630
    -8.6026  -8.4179  -8.3396  -8.1980  -6.3344  -6.2285  -5.8330  -5.5693
    -5.2924  -4.8704  -4.6951  -4.1308  -3.9790  -3.7123  -3.5614  -3.3832
    -1.9632  -1.5165  -1.4013  -1.3871  -1.2886  -1.0635  -1.0298  -0.5972
    -0.5760  -0.3046   0.1613   0.3220   0.5013   0.5772   0.6555   0.7363
     0.7488   0.8227   1.0470   1.0753   1.1163   1.2017   1.5443   1.5809
     1.7163   1.7834  11.0764  11.1462  11.5048  11.7241  11.7877  12.1294
    12.2070  12.5885  12.7462  12.8834

     the Fermi energy is     6.7855 ev

!    total energy              =    -447.08055737 Ry
     estimated scf accuracy    <          1.5E-10 Ry
     smearing contrib. (-TS)   =       0.00000000 Ry
     internal energy E=F+TS    =    -447.08055737 Ry

     The total energy is F=E-TS. E is the sum of the following terms:
     one-electron contribution =   -3142.37831516 Ry
     hartree contribution      =    1620.96352938 Ry
     xc contribution           =    -115.03239522 Ry
     ewald contribution        =    1337.28068912 Ry
     one-center paw contrib.   =    -147.91406548 Ry

     convergence has been achieved in  10 iterations

     negative rho (up, down):  4.429E-06 0.000E+00

     Forces acting on atoms (cartesian axes, Ry/au):

     atom    1 type  1   force =     0.00000000    0.00284137   -0.00456630
     atom    2 type  1   force =     0.00000000    0.00370497   -0.00000158
     atom    3 type  1   force =     0.00000000    0.00038202    0.00305445
     atom    4 type  1   force =     0.00000000    0.00057812    0.00214392
     atom    5 type  1   force =    -0.00000000   -0.00110852    0.00496211
     atom    6 type  1   force =     0.00000000   -0.00131933    0.00306351
     atom    7 type  1   force =     0.00000000   -0.00149860    0.00248373
     atom    8 type  1   force =     0.00000000   -0.00104735   -0.00027704
     atom    9 type  1   force =     0.00000000    0.00034960    0.00397925
     atom   10 type  1   force =     0.00000000    0.00020661    0.00467169
     atom   11 type  1   force =     0.00000000    0.00367255   -0.00013079
     atom   12 type  1   force =     0.00000000    0.00287103    0.00455375
     atom   13 type  1   force =     0.00000000   -0.00287103   -0.00455375
     atom   14 type  1   force =     0.00000000   -0.00367255    0.00013079
     atom   15 type  1   force =     0.00000000   -0.00020661   -0.00467169
     atom   16 type  1   force =     0.00000000   -0.00034960   -0.00397925
     atom   17 type  1   force =     0.00000000    0.00104735    0.00027704
     atom   18 type  1   force =     0.00000000    0.00149860   -0.00248373
     atom   19 type  1   force =     0.00000000    0.00131933   -0.00306351
     atom   20 type  1   force =    -0.00000000    0.00110852   -0.00496211
     atom   21 type  1   force =     0.00000000   -0.00057812   -0.00214392
     atom   22 type  1   force =     0.00000000   -0.00038202   -0.00305445
     atom   23 type  1   force =     0.00000000   -0.00370497    0.00000158
     atom   24 type  1   force =     0.00000000   -0.00284137    0.00456630
     atom   25 type  2   force =    -0.00000000   -0.00596950   -0.00362220
     atom   26 type  2   force =     0.00000000    0.00595533   -0.00351762
     atom   27 type  2   force =     0.00000000   -0.00595533    0.00351762
     atom   28 type  2   force =     0.00000000    0.00596950    0.00362220

     Total force =     0.023687     Total SCF correction =     0.000032


     Computing stress (Cartesian axis) and pressure


     negative rho (up, down):  4.429E-06 0.000E+00
          total   stress  (Ry/bohr**3)                   (kbar)     P=       -9.53
   0.00000990   0.00000000   0.00000000            1.46        0.00        0.00
   0.00000000  -0.00000544   0.00000188            0.00       -0.80        0.28
   0.00000000   0.00000188  -0.00019877            0.00        0.28      -29.24

     Energy error            =      1.5E-03 Ry
     Gradient error          =      6.0E-03 Ry/Bohr
     Cell gradient error     =      1.5E+00 kbar

     number of scf cycles    =   5
     number of bfgs steps    =   4

     enthalpy           old  =    -447.0790121818 Ry
     enthalpy           new  =    -447.0805573651 Ry

     CASE: enthalpy          _new < enthalpy          _old

     new trust radius        =       0.0162020764 bohr
     Message from routine volume:
     axis vectors are left-handed
     new conv_thr            =       0.0000000006 Ry

     new unit-cell volume =   1698.38329 a.u.^3 (   251.67444 Ang^3 )
     density =      1.92856 g/cm^3

CELL_PARAMETERS (angstrom)
   2.529958486   0.000000000   0.000000000
   0.000000000  -5.009190518   0.000000000
   0.000000000   0.000000000  19.859035940

ATOMIC_POSITIONS (crystal)
C                0.0000000000        0.1608733743        0.7449940203
C                0.5000000000        0.2327619347        0.7041279493
C                0.5000000000       -0.0001311629        0.6537584759
C               -0.0000000000       -0.0000914272        0.6104691698
C               -0.0000000000        0.2533408194        0.5680992583
C                0.5000000000        0.2531146275        0.5230335205
C                0.5000000000        0.0031781360        0.4776780294
C               -0.0000000000        0.0033183094        0.4322695396
C                0.0000000000        0.2499677178        0.3838813254
C                0.5000000000        0.2499136189        0.3368467552
C                0.5000000000       -0.0172297098        0.2958541940
C                0.0000000000       -0.0891350345        0.2549985878
C                0.0000000000        0.8391350345        0.7450014122
C                0.5000000000        0.7672297098        0.7041458060
C                0.5000000000        0.5000863811        0.6631532448
C                0.0000000000        0.5000322822        0.6161186746
C               -0.0000000000        0.7466816906        0.5677304604
C                0.5000000000        0.7468218640        0.5223219706
C                0.5000000000        0.4968853725        0.4769664795
C               -0.0000000000        0.4966591806        0.4319007417
C               -0.0000000000        0.7500914272        0.3895308302
C                0.5000000000        0.7501311629        0.3462415241
C                0.5000000000        0.5172380653        0.2958720507
C                0.0000000000        0.5891266257        0.2550059797
H               -0.0000000000        0.2414155549        0.7965816820
H               -0.0000000000        0.7585922562        0.7965878498
H               -0.0000000000       -0.0085922562        0.2034121502
H               -0.0000000000        0.5085844451        0.2034183180



     Writing config-only to output data dir /tmp/qe/slab.save/ :
     XML data file
     NEW-OLD atomic charge density approx. for the potential

     Check: negative core charge=   -0.000001

     negative rho (up, down):  4.898E-06 0.000E+00

     total cpu time spent up to now is      415.6 secs

     Self-consistent Calculation

     iteration #  1     ecut=    90.00 Ry     beta= 0.30
     Davidson diagonalization with overlap
     ethr =  1.00E-06,  avg # of iterations =  4.1

     negative rho (up, down):  4.833E-06 0.000E+00

     total cpu time spent up to now is      422.5 secs

     total energy              =    -447.08109965 Ry
     estimated scf accuracy    <       0.00012411 Ry

     iteration #  2     ecut=    90.00 Ry     beta= 0.30
     Davidson diagonalization with overlap
     ethr =  1.24E-07,  avg # of iterations =  2.4

     negative rho (up, down):  4.689E-06 0.000E+00

     total cpu time spent up to now is      427.1 secs

     total energy              =    -447.08110477 Ry
     estimated scf accuracy    <       0.00004018 Ry

     iteration #  3     ecut=    90.00 Ry     beta= 0.30
     Davidson diagonalization with overlap
     ethr =  4.02E-08,  avg # of iterations =  2.2

     negative rho (up, down):  4.654E-06 0.000E+00

     total cpu time spent up to now is      432.1 secs

     total energy              =    -447.08111042 Ry
     estimated scf accuracy    <       0.00000900 Ry

     iteration #  4     ecut=    90.00 Ry     beta= 0.30
     Davidson diagonalization with overlap
     ethr =  9.00E-09,  avg # of iterations =  1.9

     negative rho (up, down):  4.594E-06 0.000E+00

     total cpu time spent up to now is      436.4 secs

     total energy              =    -447.08111081 Ry
     estimated scf accuracy    <       0.00000331 Ry

     iteration #  5     ecut=    90.00 Ry     beta= 0.30
     Davidson diagonalization with overlap
     ethr =  3.31E-09,  avg # of iterations =  2.3

     negative rho (up, down):  4.596E-06 0.000E+00

     total cpu time spent up to now is      441.4 secs

     total energy              =    -447.08111107 Ry
     estimated scf accuracy    <       0.00000086 Ry

     iteration #  6     ecut=    90.00 Ry     beta= 0.30
     Davidson diagonalization with overlap
     ethr =  8.62E-10,  avg # of iterations =  2.2

     negative rho (up, down):  4.607E-06 0.000E+00

     total cpu time spent up to now is      446.3 secs

     total energy              =    -447.08111124 Ry
     estimated scf accuracy    <       0.00000006 Ry

     iteration #  7     ecut=    90.00 Ry     beta= 0.30
     Davidson diagonalization with overlap
     ethr =  5.65E-11,  avg # of iterations =  2.3

     negative rho (up, down):  4.610E-06 0.000E+00

     total cpu time spent up to now is      451.4 secs

     total energy              =    -447.08111126 Ry
     estimated scf accuracy    <          5.9E-09 Ry

     iteration #  8     ecut=    90.00 Ry     beta= 0.30
     Davidson diagonalization with overlap
     ethr =  5.87E-12,  avg # of iterations =  3.0

     negative rho (up, down):  4.614E-06 0.000E+00

     total cpu time spent up to now is      456.2 secs

     total energy              =    -447.08111126 Ry
     estimated scf accuracy    <          2.4E-09 Ry

     iteration #  9     ecut=    90.00 Ry     beta= 0.30
     Davidson diagonalization with overlap
     ethr =  2.42E-12,  avg # of iterations =  3.0

     negative rho (up, down):  4.615E-06 0.000E+00

     total cpu time spent up to now is      461.8 secs

     total energy              =    -447.08111126 Ry
     estimated scf accuracy    <          1.1E-09 Ry

     iteration # 10     ecut=    90.00 Ry     beta= 0.30
     Davidson diagonalization with overlap
     ethr =  1.11E-12,  avg # of iterations =  2.1

     negative rho (up, down):  4.618E-06 0.000E+00

     total cpu time spent up to now is      466.5 secs

     End of self-consistent calculation

          k = 0.0000-0.0000 0.0000 ( 24643 PWs)   bands (ev):

   -15.3313 -14.8044 -13.8723 -12.5197 -10.8698 -10.7454 -10.6983 -10.1859
   -10.0938  -9.3629  -9.3429  -8.6623  -6.7455  -6.6288  -6.5083  -5.1392
    -5.1362  -4.4184  -3.3717  -3.3680  -2.1885  -1.3408  -1.3379  -0.2300
     0.0363   0.1130   0.2465   0.6003   0.6438   0.8675   1.1341   1.8339
     2.1408   2.3563   2.3669   2.5849   3.0180   3.0405   3.0467   3.1302
     3.1578   3.1614   3.7260   3.7620   3.7620   3.8400   3.9910   5.1754
     5.2725   5.2935   8.2220   8.7317  10.3248  10.3504  10.4023  10.7268
    11.0965  11.2423  11.3551  11.5124

          k = 0.0000-0.1009 0.0000 ( 24675 PWs)   bands (ev):

   -15.1529 -14.6476 -13.7471 -12.4939 -12.2398 -11.5795 -10.8886 -10.2611
    -9.4282  -8.9509  -8.7849  -8.4062  -6.6010  -6.2856  -6.1436  -5.0322
    -4.7944  -4.2767  -3.4214  -3.0520  -2.2296  -1.3306  -1.1138  -0.7345
    -0.2417  -0.0853   0.0466   0.3641   0.6795   0.8062   1.2160   1.4475
     1.5769   2.1217   2.3609   2.3689   2.5395   2.5797   2.9844   3.0778
     3.0810   3.5287   3.6105   3.6371   3.7799   4.0658   4.2501   4.7678
     4.8921   5.2627   8.4456   8.9485  10.5635  10.8569  10.8884  11.2715
    11.3126  11.4422  11.5765  11.7344

          k = 0.0000-0.2017 0.0000 ( 24637 PWs)   bands (ev):

   -14.6457 -14.2742 -13.6796 -13.2900 -12.7371 -12.1516 -11.4495 -10.5596
    -9.6866  -8.8157  -7.9628  -7.6367  -6.0518  -5.4980  -5.3131  -4.7187
    -4.1977  -3.9448  -3.2225  -2.7420  -2.5432  -2.0479  -1.8867  -1.1385
    -0.7652  -0.4727  -0.0719   0.3092   0.6135   0.8884   1.1557   1.1682
     1.3677   1.5284   1.9269   1.9689   2.3893   2.4445   2.8220   2.9084
     3.0302   3.3836   3.4122   3.6490   3.9567   4.0801   4.2378   4.4289
     4.7738   5.1630   9.0892   9.5403  10.1254  10.4628  11.0369  11.1955
    11.3029  11.4533  11.8066  12.0734

          k = 0.0999-0.0000 0.0000 ( 24655 PWs)   bands (ev):

   -15.1484 -14.6224 -13.6925 -12.3440 -10.6984 -10.5718 -10.5267 -10.0166
    -9.9260  -9.1976  -9.1781  -8.5044  -6.6283  -6.4713  -6.3931  -5.0010
    -4.9988  -4.3540  -3.2701  -3.2658  -2.3008  -1.3083  -1.2912  -1.0077
    -0.9226   0.0565   0.1484   0.2570   0.6233   0.6681   0.9601   1.4491
     1.8206   1.9616   2.1411   2.2393   2.3229   2.3621   2.5415   2.6240
     2.7972   2.8227   3.0752   3.1205   3.2819   3.6948   3.7608   4.7093
     4.9771   5.1402   8.4052   8.9047  10.8415  10.9872  11.0347  11.2476
    11.6289  11.6811  11.7886  11.8510

          k = 0.0999-0.1009 0.0000 ( 24646 PWs)   bands (ev):

   -14.9702 -14.4659 -13.5675 -12.3174 -12.0631 -11.4052 -10.7189 -10.0953
    -9.2666  -8.7829  -8.6227  -8.2477  -6.4998  -6.1312  -6.0176  -4.9054
    -4.6664  -4.1936  -3.3429  -2.9265  -2.2850  -1.2940  -1.1152  -0.9154
    -0.7998  -0.6024  -0.0655   0.0683   0.2528   0.6695   0.8087   1.2057
     1.4046   1.5346   1.6134   1.7434   2.2103   2.3940   2.5273   2.6642
     2.7620   3.0560   3.1285   3.2931   3.4196   3.6783   3.7436   4.1511
     4.8060   5.0210   8.6291   9.1184  10.9185  11.3965  11.4441  11.7137
    11.7993  11.8210  12.0202  12.1001

          k = 0.0999-0.2017 0.0000 ( 24657 PWs)   bands (ev):

   -14.4638 -14.0931 -13.4996 -13.1106 -12.5595 -11.9767 -11.2781 -10.3927
    -9.5249  -8.6591  -7.8086  -7.4757  -5.9686  -5.3932  -5.1824  -4.6036
    -4.0909  -3.7996  -3.1013  -2.6278  -2.4318  -1.9509  -1.7808  -1.2231
    -0.8418  -0.6211  -0.3510  -0.3154  -0.1360   0.3330   0.5340   0.8528
     1.0782   1.1667   1.4714   1.4926   1.8427   1.9545   2.4163   2.5638
     2.6933   2.9783   3.2155   3.3592   3.7321   3.7565   3.8933   4.0844
     4.4088   4.5532   9.2732   9.7011  10.2980  10.5975  11.0513  11.3341
    11.9081  12.1168  12.4081  12.4609

          k = 0.1997-0.0000 0.0000 ( 24607 PWs)   bands (ev):

   -14.6018 -14.0791 -13.1564 -11.8225 -10.1930 -10.0536 -10.0162  -9.5127
    -9.4276  -8.7054  -8.6874  -8.0532  -6.5088  -6.0216  -6.0134  -4.6326
    -4.6321  -4.4677  -3.3252  -3.0456  -3.0361  -2.5815  -2.5537  -1.3747
    -1.1571  -1.0775  -0.8923   0.0732   0.1408   0.2935   0.5532   0.5781
     0.6903   0.9343   1.0809   1.1025   1.2331   1.3610   1.4263   1.8558
     1.9397   2.2593   2.3139   2.5812   2.7572   2.8439   3.8273   3.9700
     4.0636   4.9866   8.9279   9.3163  11.4019  11.6725  11.8331  11.9328
    12.1513  12.2114  12.4646  12.6566

          k = 0.1997-0.1009 0.0000 ( 24634 PWs)   bands (ev):

   -14.4245 -13.9233 -13.0320 -11.7924 -11.5360 -10.8864 -10.2173  -9.6069
    -8.7902  -8.2821  -8.1421  -7.7924  -6.3787  -5.7011  -5.6656  -4.6407
    -4.4336  -4.0841  -3.3069  -3.0537  -2.5913  -2.4736  -2.4238  -1.4592
    -1.2067  -1.0938  -0.8985  -0.3549  -0.1944  -0.0188   0.0119   0.3365
     0.6254   0.6942   1.0017   1.0375   1.0920   1.5400   1.6085   1.8043
     2.0343   2.1060   2.2962   2.3795   2.7453   2.8949   3.2362   3.7138
     4.2141   4.5609   9.1397   9.5211  11.1935  11.6581  11.7247  11.7925
    11.9715  12.1793  12.8418  12.8925

          k = 0.1997-0.2017 0.0000 ( 24642 PWs)   bands (ev):

   -13.9205 -13.5523 -12.9625 -12.5757 -12.0302 -11.4566 -10.7698  -9.9002
    -9.0526  -8.2063  -7.3687  -7.0000  -5.8871  -5.2222  -4.8766  -4.3533
    -3.9190  -3.4052  -2.9976  -2.5064  -2.3676  -2.3243  -2.2121  -1.7427
    -1.6767  -1.5823  -1.4222  -0.9370  -0.7726  -0.4057  -0.3864  -0.1769
    -0.0900   0.3514   0.7082   0.9820   1.2040   1.3776   1.5635   1.7506
     2.0856   2.2573   2.3840   2.5524   2.7077   3.0545   3.1495   3.4058
     3.8755   3.9001   9.7326  10.0794  10.5735  10.7494  10.8824  11.2116
    11.6531  12.2157  12.3822  12.6973

          k = 0.2996-0.0000 0.0000 ( 24668 PWs)   bands (ev):

   -13.6994 -13.1836 -12.2777 -10.9816  -9.4161  -9.2012  -9.1827  -8.6901
    -8.6234  -7.9034  -7.8851  -7.5201  -7.2097  -5.7140  -5.4228  -5.3373
    -5.0247  -4.3099  -4.3026  -3.7652  -3.6011  -3.1952  -3.1882  -2.4475
    -2.1132  -1.4755  -1.4005  -1.3024  -1.2783  -0.8426  -0.8342  -0.4464
    -0.3236   0.1136   0.1318   0.5970   0.5971   1.1903   1.2229   1.2767
     1.5463   1.6450   1.9478   1.9901   2.1332   2.9460   3.1699   3.2175
     3.8584   4.6230   9.7550   9.9976  11.6181  11.6317  11.9849  12.1234
    12.3483  12.4025  12.4220  12.5807

          k = 0.2996-0.1009 0.0000 ( 24678 PWs)   bands (ev):

   -13.5235 -13.0291 -12.1537 -10.9405 -10.6704 -10.0393  -9.4258  -8.8495
    -8.0556  -7.4789  -7.4101  -7.2065  -7.0200  -5.5948  -5.3542  -5.1571
    -4.8933  -4.3887  -3.8643  -3.5772  -3.4741  -3.2028  -2.5855  -2.4037
    -2.2768  -2.1386  -1.8304  -1.3426  -1.1833  -0.7262  -0.4796  -0.3109
    -0.1299   0.1522   0.3602   0.4920   0.7911   0.8720   0.9556   1.1367
     1.4226   1.5157   1.6777   1.8432   2.2194   2.4840   2.5956   3.2769
     3.6185   3.8989   9.9440  10.1718  10.9760  11.5844  11.7068  12.0481
    12.3523  12.3906  12.4668  13.0877

          k = 0.2996-0.2017 0.0000 ( 24664 PWs)   bands (ev):

   -13.0236 -12.6605 -12.0780 -11.6962 -11.1631 -10.6110  -9.9523  -9.1249
    -8.3491  -7.5915  -6.9235  -6.6287  -6.1474  -5.6286  -5.2237  -4.8009
    -4.3797  -3.8819  -3.4161  -3.2780  -2.9627  -2.8967  -2.7465  -2.4100
    -2.1019  -1.8626  -1.7612  -1.5102  -1.4063  -0.9637  -0.7884  -0.5841
    -0.5510  -0.2654   0.0659   0.3582   0.5414   0.7241   0.9853   1.2025
     1.4984   1.5920   1.7056   1.8382   2.0577   2.1619   2.5624   2.6691
     3.0145   3.0268  10.2462  10.3628  10.6191  11.0538  11.1373  11.6342
    11.8889  12.4099  12.6762  12.9461

          k = 0.3994-0.0000 0.0000 ( 24732 PWs)   bands (ev):

   -12.4593 -11.9611 -11.1056  -9.9876  -9.3173  -8.3668  -8.2751  -8.0102
    -8.0012  -7.5255  -7.5087  -6.8182  -6.8139  -6.6050  -5.9325  -5.6284
    -5.1841  -5.1285  -5.0610  -4.8401  -4.2537  -4.0383  -4.0381  -2.8904
    -2.6573  -2.4315  -2.4176  -1.7700  -1.7413  -1.4421  -0.8602  -0.8057
    -0.6637  -0.5896  -0.3480  -0.1012  -0.0872   0.7422   0.8048   0.8277
     0.9891   1.3967   1.4205   2.2476   2.6083   2.6829   2.6896   3.2310
     3.7080   3.9955  10.7865  10.8737  11.2915  11.3622  11.5512  11.5589
    12.5248  12.5568  13.1876  13.2392

          k = 0.3994-0.1009 0.0000 ( 24696 PWs)   bands (ev):

   -12.2857 -11.8082 -10.9800  -9.8980  -9.5011  -9.1688  -8.9097  -8.3635
    -8.1362  -7.7880  -7.1687  -6.7052  -6.3535  -6.2959  -5.9627  -5.8353
    -5.4392  -5.1666  -4.7367  -4.1811  -3.9057  -3.4846  -3.3861  -3.0001
    -2.8878  -2.6603  -2.4263  -1.8517  -1.7698  -1.3193  -0.8124  -0.5490
    -0.3302  -0.2822  -0.1829   0.1676   0.1904   0.6700   0.7265   0.9260
     1.0217   1.2660   1.4286   1.5910   2.0769   2.1318   2.5355   2.8383
     2.9992   3.2144  10.5437  11.0143  11.1868  11.4146  11.7219  12.1742
    12.2312  12.4982  13.0035  13.2531

          k = 0.3994-0.2017 0.0000 ( 24655 PWs)   bands (ev):

   -11.7918 -11.4410 -10.8743 -10.5052 -10.0050  -9.5319  -8.9937  -8.6152
    -8.1942  -7.8896  -7.7483  -7.7167  -5.9612  -5.9086  -5.7043  -5.3877
    -5.1623  -5.0222  -4.7802  -4.1829  -3.5251  -2.8713  -2.7123  -2.4141
    -2.3513  -2.0611  -1.9712  -1.8011  -1.4709  -1.2845  -0.8958  -0.6218
    -0.4941  -0.1358   0.1368   0.2381   0.4126   0.4583   0.8160   0.8553
     1.0045   1.0377   1.1310   1.2962   1.5061   1.5238   1.7256   1.9485
     2.1172   2.2238  10.4996  10.9272  11.1455  11.4112  11.9524  12.1750
    12.2632  12.4647  12.5143  12.8031

          k =-0.4993 0.0000 0.0000 ( 24782 PWs)   bands (ev):

   -10.9541 -10.9066 -10.6022 -10.4050 -10.1053  -8.8643  -8.5619  -7.0497
    -6.6182  -6.5953  -6.5941  -6.5867  -6.3699  -6.2357  -6.2231  -6.1994
    -6.1905  -5.8845  -5.8580  -5.4708  -4.9426  -4.9425  -4.4622  -3.8544
    -2.3153  -2.0240  -1.9765  -1.8716  -1.8388  -1.2410  -1.2303  -1.1142
    -0.9567  -0.9093  -0.7440  -0.3007  -0.2825   0.5370   0.5834   0.6386
     0.7943   1.0113   1.3750   2.3802   2.5222   3.1403   3.1556   3.2385
     3.3456   3.3721  11.0619  11.1152  11.3195  11.3619  11.8836  11.8899
    12.4465  12.5273  12.5711  12.5734

          k =-0.4993-0.1009 0.0000 ( 24712 PWs)   bands (ev):

   -10.7868 -10.7337 -10.4562 -10.2441  -9.9613  -8.8100  -8.5305  -8.0590
    -8.0169  -7.6569  -7.5377  -7.3669  -6.6777  -6.1678  -5.4779  -5.4476
    -5.2085  -5.0711  -4.9492  -4.8568  -4.7895  -4.7157  -4.2392  -3.8111
    -2.4199  -2.3578  -2.1525  -1.7726  -1.6551  -1.1139  -1.0405  -0.7158
    -0.6551  -0.6161  -0.5356  -0.0805  -0.0351   0.4760   0.5777   0.7188
     0.8186   1.1796   1.4123   2.1287   2.2665   2.3912   2.4269   2.4789
     2.5925   2.6616  10.7368  11.1757  11.3712  11.7651  11.9268  12.1013
    12.3921  12.5872  12.8301  12.9872

          k =-0.4993-0.2017 0.0000 ( 24638 PWs)   bands (ev):

   -10.3235 -10.2324 -10.1069  -9.8217  -9.6408  -9.2668  -9.1250  -8.8912
    -8.6066  -8.4515  -8.3406  -8.2238  -6.3348  -6.2314  -5.8392  -5.5797
    -5.2936  -4.8755  -4.7005  -4.1389  -3.9812  -3.7190  -3.5616  -3.3878
    -1.9609  -1.5213  -1.4143  -1.3988  -1.2802  -1.0677  -1.0365  -0.6000
    -0.5768  -0.3138   0.1568   0.3249   0.4871   0.5857   0.6604   0.7368
     0.7467   0.8142   1.0260   1.0510   1.1064   1.2068   1.4898   1.5312
     1.7186   1.7816  11.0751  11.1455  11.5096  11.7249  11.8089  12.1625
    12.2052  12.6195  12.7550  12.9160

     the Fermi energy is     6.7873 ev

!    total energy              =    -447.08111126 Ry
     estimated scf accuracy    <          8.1E-11 Ry
     smearing contrib. (-TS)   =       0.00000000 Ry
     internal energy E=F+TS    =    -447.08111126 Ry

     The total energy is F=E-TS. E is the sum of the following terms:
     one-electron contribution =   -3143.14223279 Ry
     hartree contribution      =    1621.32001680 Ry
     xc contribution           =    -115.03850083 Ry
     ewald contribution        =    1337.69374512 Ry
     one-center paw contrib.   =    -147.91413955 Ry

     convergence has been achieved in  10 iterations

     negative rho (up, down):  4.618E-06 0.000E+00

     Forces acting on atoms (cartesian axes, Ry/au):

     atom    1 type  1   force =     0.00000000   -0.00172415   -0.00105321
     atom    2 type  1   force =    -0.00000000   -0.00080823   -0.00155110
     atom    3 type  1   force =     0.00000000    0.00077066   -0.00065623
     atom    4 type  1   force =     0.00000000    0.00078925    0.00228380
     atom    5 type  1   force =     0.00000000    0.00112335    0.00012740
     atom    6 type  1   force =     0.00000000    0.00059744    0.00048722
     atom    7 type  1   force =     0.00000000    0.00095117    0.00121699
     atom    8 type  1   force =     0.00000000    0.00117045    0.00246013
     atom    9 type  1   force =     0.00000000    0.00053744    0.00336343
     atom   10 type  1   force =     0.00000000    0.00051203    0.00360824
     atom   11 type  1   force =    -0.00000000   -0.00089780    0.00119603
     atom   12 type  1   force =     0.00000000   -0.00174483    0.00087456
     atom   13 type  1   force =     0.00000000    0.00174483   -0.00087456
     atom   14 type  1   force =    -0.00000000    0.00089780   -0.00119603
     atom   15 type  1   force =     0.00000000   -0.00051203   -0.00360824
     atom   16 type  1   force =     0.00000000   -0.00053744   -0.00336343
     atom   17 type  1   force =     0.00000000   -0.00117045   -0.00246013
     atom   18 type  1   force =     0.00000000   -0.00095117   -0.00121699
     atom   19 type  1   force =     0.00000000   -0.00059744   -0.00048722
     atom   20 type  1   force =     0.00000000   -0.00112335   -0.00012740
     atom   21 type  1   force =     0.00000000   -0.00078925   -0.00228380
     atom   22 type  1   force =     0.00000000   -0.00077066    0.00065623
     atom   23 type  1   force =    -0.00000000    0.00080823    0.00155110
     atom   24 type  1   force =     0.00000000    0.00172415    0.00105321
     atom   25 type  2   force =    -0.00000000   -0.00438345   -0.00343146
     atom   26 type  2   force =     0.00000000    0.00432819   -0.00335975
     atom   27 type  2   force =    -0.00000000   -0.00432819    0.00335975
     atom   28 type  2   force =    -0.00000000    0.00438345    0.00343146

     Total force =     0.015338     Total SCF correction =     0.000018


     Computing stress (Cartesian axis) and pressure


     negative rho (up, down):  4.618E-06 0.000E+00
          total   stress  (Ry/bohr**3)                   (kbar)     P=       -8.90
  -0.00000080   0.00000000   0.00000000           -0.12        0.00        0.00
   0.00000000  -0.00000089   0.00000249            0.00       -0.13        0.37
   0.00000000   0.00000249  -0.00017978            0.00        0.37      -26.45

     Energy error            =      5.5E-04 Ry
     Gradient error          =      4.4E-03 Ry/Bohr
     Cell gradient error     =      1.3E-01 kbar

     number of scf cycles    =   6
     number of bfgs steps    =   5

     enthalpy           old  =    -447.0805573651 Ry
     enthalpy           new  =    -447.0811112569 Ry

     CASE: enthalpy          _new < enthalpy          _old

     new trust radius        =       0.0154414598 bohr
     Message from routine volume:
     axis vectors are left-handed
     new conv_thr            =       0.0000000004 Ry

     new unit-cell volume =   1698.58165 a.u.^3 (   251.70383 Ang^3 )
     density =      1.92833 g/cm^3

CELL_PARAMETERS (angstrom)
   2.530215566   0.000000000   0.000000000
   0.000000000  -5.009266544   0.000000000
   0.000000000   0.000000000  19.859035940

ATOMIC_POSITIONS (crystal)
C                0.0000000000        0.1607347655        0.7448807750
C                0.5000000000        0.2325750927        0.7040505338
C                0.5000000000       -0.0002709875        0.6537239313
C               -0.0000000000       -0.0002430078        0.6105634271
C                0.0000000000        0.2534307978        0.5682158449
C                0.5000000000        0.2533003517        0.5231389671
C                0.5000000000        0.0033273061        0.4777649252
C               -0.0000000000        0.0033968667        0.4323382183
C                0.0000000000        0.2498689196        0.3839467914
C                0.5000000000        0.2498237613        0.3369533139
C                0.5000000000       -0.0174008808        0.2959152769
C                0.0000000000       -0.0892726555        0.2551039881
C                0.0000000000        0.8392726555        0.7448960119
C                0.5000000000        0.7674008808        0.7040847231
C                0.5000000000        0.5001762387        0.6630466861
C                0.0000000000        0.5001310804        0.6160532086
C               -0.0000000000        0.7466031333        0.5676617817
C                0.5000000000        0.7466726939        0.5222350748
C                0.5000000000        0.4966996483        0.4768610329
C               -0.0000000000        0.4965692022        0.4317841551
C               -0.0000000000        0.7502430078        0.3894365729
C                0.5000000000        0.7502709875        0.3462760687
C                0.5000000000        0.5174249073        0.2959494662
C                0.0000000000        0.5892652345        0.2551192250
H               -0.0000000000        0.2426158149        0.7963030345
H               -0.0000000000        0.7574015412        0.7963135520
H               -0.0000000000       -0.0074015412        0.2036864480
H               -0.0000000000        0.5073841851        0.2036969655



     Writing config-only to output data dir /tmp/qe/slab.save/ :
     XML data file
     NEW-OLD atomic charge density approx. for the potential

     Check: negative core charge=   -0.000001

     negative rho (up, down):  5.020E-06 0.000E+00

     total cpu time spent up to now is      485.5 secs

     Self-consistent Calculation

     iteration #  1     ecut=    90.00 Ry     beta= 0.30
     Davidson diagonalization with overlap
     ethr =  1.00E-06,  avg # of iterations =  3.0

     Threshold (ethr) on eigenvalues was too large:
     Diagonalizing with lowered threshold

     Davidson diagonalization with overlap
     ethr =  5.45E-08,  avg # of iterations =  2.8

     negative rho (up, down):  4.955E-06 0.000E+00

     total cpu time spent up to now is      496.3 secs

     total energy              =    -447.08144034 Ry
     estimated scf accuracy    <       0.00006733 Ry

     iteration #  2     ecut=    90.00 Ry     beta= 0.30
     Davidson diagonalization with overlap
     ethr =  6.73E-08,  avg # of iterations =  1.3

     negative rho (up, down):  4.804E-06 0.000E+00

     total cpu time spent up to now is      500.4 secs

     total energy              =    -447.08144034 Ry
     estimated scf accuracy    <       0.00002127 Ry

     iteration #  3     ecut=    90.00 Ry     beta= 0.30
     Davidson diagonalization with overlap
     ethr =  2.13E-08,  avg # of iterations =  2.1

     negative rho (up, down):  4.755E-06 0.000E+00

     total cpu time spent up to now is      505.1 secs

     total energy              =    -447.08144260 Ry
     estimated scf accuracy    <       0.00000402 Ry

     iteration #  4     ecut=    90.00 Ry     beta= 0.30
     Davidson diagonalization with overlap
     ethr =  4.02E-09,  avg # of iterations =  1.3

     negative rho (up, down):  4.722E-06 0.000E+00

     total cpu time spent up to now is      509.1 secs

     total energy              =    -447.08144285 Ry
     estimated scf accuracy    <       0.00000104 Ry

     iteration #  5     ecut=    90.00 Ry     beta= 0.30
     Davidson diagonalization with overlap
     ethr =  1.04E-09,  avg # of iterations =  2.0

     negative rho (up, down):  4.724E-06 0.000E+00

     total cpu time spent up to now is      513.7 secs

     total energy              =    -447.08144295 Ry
     estimated scf accuracy    <       0.00000012 Ry

     iteration #  6     ecut=    90.00 Ry     beta= 0.30
     Davidson diagonalization with overlap
     ethr =  1.15E-10,  avg # of iterations =  2.0

     negative rho (up, down):  4.730E-06 0.000E+00

     total cpu time spent up to now is      519.0 secs

     total energy              =    -447.08144296 Ry
     estimated scf accuracy    <       0.00000003 Ry

     iteration #  7     ecut=    90.00 Ry     beta= 0.30
     Davidson diagonalization with overlap
     ethr =  2.74E-11,  avg # of iterations =  2.2

     negative rho (up, down):  4.732E-06 0.000E+00

     total cpu time spent up to now is      524.1 secs

     total energy              =    -447.08144297 Ry
     estimated scf accuracy    <          2.5E-09 Ry

     iteration #  8     ecut=    90.00 Ry     beta= 0.30
     Davidson diagonalization with overlap
     ethr =  2.51E-12,  avg # of iterations =  2.4

     negative rho (up, down):  4.738E-06 0.000E+00

     total cpu time spent up to now is      528.7 secs

     End of self-consistent calculation

          k = 0.0000-0.0000 0.0000 ( 24643 PWs)   bands (ev):

   -15.3359 -14.8171 -13.8800 -12.5274 -10.8778 -10.7456 -10.6964 -10.1891
   -10.1005  -9.3676  -9.3481  -8.6680  -6.7442  -6.6312  -6.5112  -5.1456
    -5.1435  -4.4125  -3.3752  -3.3709  -2.1780  -1.3472  -1.3442  -0.2399
     0.0473   0.1123   0.2262   0.5946   0.6377   0.8647   1.1234   1.8365
     2.1518   2.3460   2.3637   2.5812   3.0134   3.0351   3.0446   3.1287
     3.1461   3.1473   3.7320   3.7509   3.7509   3.8257   3.9998   5.1777
     5.2647   5.2963   8.2247   8.7313  10.3187  10.3399  10.3852  10.7160
    11.0892  11.2316  11.3480  11.5156

          k = 0.0000-0.1009 0.0000 ( 24675 PWs)   bands (ev):

   -15.1578 -14.6608 -13.7558 -12.5035 -12.2404 -11.5819 -10.8897 -10.2665
    -9.4289  -8.9571  -8.7946  -8.4078  -6.6011  -6.2868  -6.1467  -5.0379
    -4.8001  -4.2727  -3.4240  -3.0577  -2.2220  -1.3314  -1.1213  -0.7367
    -0.2391  -0.0957   0.0447   0.3431   0.6770   0.8007   1.2043   1.4530
     1.5793   2.1185   2.3559   2.3661   2.5333   2.5703   2.9895   3.0748
     3.0790   3.5189   3.6132   3.6374   3.7676   4.0531   4.2385   4.7721
     4.8929   5.2552   8.4487   8.9486  10.5471  10.8403  10.8839  11.2668
    11.3053  11.4361  11.5761  11.7345

          k = 0.0000-0.2017 0.0000 ( 24637 PWs)   bands (ev):

   -14.6524 -14.2894 -13.6877 -13.2933 -12.7444 -12.1511 -11.4483 -10.5645
    -9.6920  -8.8221  -7.9673  -7.6404  -6.0469  -5.5006  -5.3158  -4.7181
    -4.2038  -3.9530  -3.2243  -2.7510  -2.5427  -2.0450  -1.8901  -1.1413
    -0.7687  -0.4718  -0.0674   0.2959   0.5905   0.8827   1.1590   1.1632
     1.3628   1.5221   1.9353   1.9581   2.3839   2.4432   2.8171   2.9174
     3.0296   3.3725   3.4149   3.6446   3.9403   4.0839   4.2339   4.4172
     4.7644   5.1560   9.0926   9.5403  10.1315  10.4676  11.0283  11.1951
    11.2999  11.4385  11.8047  12.0681

          k = 0.0998-0.0000 0.0000 ( 24655 PWs)   bands (ev):

   -15.1530 -14.6352 -13.7002 -12.3518 -10.7064 -10.5720 -10.5248 -10.0199
    -9.9328  -9.2024  -9.1834  -8.5101  -6.6268  -6.4737  -6.3964  -5.0074
    -5.0060  -4.3489  -3.2737  -3.2687  -2.2920  -1.3159  -1.2987  -1.0193
    -0.9318   0.0534   0.1450   0.2565   0.6177   0.6630   0.9570   1.4471
     1.8216   1.9591   2.1388   2.2394   2.3153   2.3476   2.5360   2.6191
     2.7886   2.8190   3.0657   3.1136   3.2781   3.6924   3.7651   4.7097
     4.9758   5.1427   8.4082   8.9051  10.8289  10.9796  11.0279  11.2388
    11.6237  11.6849  11.7751  11.8475

          k = 0.0998-0.1009 0.0000 ( 24646 PWs)   bands (ev):

   -14.9751 -14.4791 -13.5762 -12.3269 -12.0636 -11.4077 -10.7201 -10.1008
    -9.2674  -8.7891  -8.6325  -8.2493  -6.4996  -6.1324  -6.0213  -4.9111
    -4.6716  -4.1908  -3.3457  -2.9322  -2.2781  -1.2945  -1.1249  -0.9261
    -0.8102  -0.6045  -0.0726   0.0596   0.2524   0.6696   0.8008   1.2013
     1.4014   1.5297   1.6105   1.7432   2.2079   2.3911   2.5219   2.6603
     2.7577   3.0513   3.1272   3.2815   3.4093   3.6817   3.7405   4.1474
     4.8027   5.0235   8.6323   9.1193  10.9096  11.3936  11.4413  11.7197
    11.7908  11.8186  12.0261  12.0892

          k = 0.0998-0.2017 0.0000 ( 24657 PWs)   bands (ev):

   -14.4705 -14.1083 -13.5078 -13.1140 -12.5669 -11.9762 -11.2769 -10.3976
    -9.5304  -8.6656  -7.8132  -7.4795  -5.9643  -5.3955  -5.1852  -4.6036
    -4.0971  -3.8076  -3.1028  -2.6365  -2.4315  -1.9488  -1.7840  -1.2254
    -0.8530  -0.6267  -0.3630  -0.3205  -0.1402   0.3290   0.5304   0.8444
     1.0710   1.1656   1.4695   1.4949   1.8406   1.9537   2.4150   2.5583
     2.6912   2.9775   3.2137   3.3542   3.7286   3.7474   3.8828   4.0803
     4.4028   4.5525   9.2766   9.7015  10.3042  10.6025  11.0574  11.3424
    11.9046  12.1234  12.4010  12.4397

          k = 0.1997-0.0000 0.0000 ( 24607 PWs)   bands (ev):

   -14.6065 -14.0919 -13.1643 -11.8304 -10.2011 -10.0539 -10.0146  -9.5159
    -9.4343  -8.7104  -8.6928  -8.0593  -6.5099  -6.0241  -6.0161  -4.6400
    -4.6393  -4.4684  -3.3224  -3.0489  -3.0394  -2.5980  -2.5593  -1.3863
    -1.1642  -1.0841  -0.8840   0.0650   0.1337   0.2861   0.5532   0.5745
     0.6892   0.9387   1.0702   1.0980   1.2311   1.3574   1.4221   1.8425
     1.9415   2.2553   2.3030   2.5708   2.7549   2.8496   3.8300   3.9657
     4.0670   4.9886   8.9312   9.3180  11.3950  11.6668  11.8314  11.9287
    12.1579  12.2079  12.4645  12.6682

          k = 0.1997-0.1009 0.0000 ( 24634 PWs)   bands (ev):

   -14.4295 -13.9367 -13.0407 -11.8021 -11.5365 -10.8890 -10.2186  -9.6123
    -8.7911  -8.2885  -8.1522  -7.7942  -6.3795  -5.7028  -5.6700  -4.6468
    -4.4367  -4.0898  -3.3059  -3.0561  -2.5974  -2.4897  -2.4301  -1.4670
    -1.2105  -1.0971  -0.8976  -0.3637  -0.1952  -0.0247   0.0049   0.3303
     0.6207   0.6954   1.0009   1.0330   1.0890   1.5456   1.5971   1.7926
     2.0292   2.1032   2.2930   2.3771   2.7404   2.8902   3.2383   3.7131
     4.2112   4.5637   9.1433   9.5232  11.1960  11.6542  11.7257  11.7950
    11.9797  12.1811  12.8504  12.8988

          k = 0.1997-0.2017 0.0000 ( 24642 PWs)   bands (ev):

   -13.9273 -13.5676 -12.9708 -12.5791 -12.0377 -11.4562 -10.7687  -9.9052
    -9.0580  -8.2130  -7.3736  -7.0042  -5.8855  -5.2242  -4.8803  -4.3553
    -3.9274  -3.4109  -2.9989  -2.5159  -2.3808  -2.3317  -2.2169  -1.7395
    -1.6864  -1.5890  -1.4263  -0.9446  -0.7768  -0.4088  -0.3915  -0.1779
    -0.0910   0.3461   0.7107   0.9753   1.2047   1.3742   1.5634   1.7421
     2.0803   2.2575   2.3794   2.5469   2.7049   3.0527   3.1452   3.3995
     3.8730   3.8989   9.7365  10.0815  10.5788  10.7538  10.8884  11.2167
    11.6612  12.2227  12.3810  12.7046

          k = 0.2995-0.0000 0.0000 ( 24668 PWs)   bands (ev):

   -13.7043 -13.1966 -12.2856 -10.9894  -9.4236  -9.2016  -9.1819  -8.6931
    -8.6294  -7.9088  -7.8905  -7.5287  -7.2172  -5.7257  -5.4267  -5.3399
    -5.0281  -4.3151  -4.3063  -3.7680  -3.6082  -3.2013  -3.1944  -2.4513
    -2.1182  -1.4908  -1.4108  -1.3016  -1.2796  -0.8482  -0.8399  -0.4403
    -0.3291   0.1116   0.1298   0.5971   0.5972   1.1933   1.2153   1.2786
     1.5433   1.6279   1.9388   1.9871   2.1247   2.9446   3.1693   3.2175
     3.8589   4.6241   9.7593  10.0014  11.6175  11.6365  11.9919  12.1250
    12.3535  12.3949  12.4277  12.5789

          k = 0.2995-0.1009 0.0000 ( 24678 PWs)   bands (ev):

   -13.5287 -13.0426 -12.1625 -10.9503 -10.6709 -10.0422  -9.4276  -8.8540
    -8.0570  -7.4859  -7.4207  -7.2110  -7.0260  -5.6057  -5.3587  -5.1616
    -4.8965  -4.3925  -3.8704  -3.5815  -3.4822  -3.2091  -2.5934  -2.4057
    -2.2776  -2.1394  -1.8369  -1.3519  -1.1925  -0.7282  -0.4819  -0.3096
    -0.1324   0.1457   0.3602   0.4905   0.7881   0.8691   0.9560   1.1363
     1.4175   1.5121   1.6647   1.8376   2.2128   2.4815   2.5924   3.2756
     3.6176   3.8998   9.9492  10.1767  10.9786  11.5907  11.7107  12.0512
    12.3514  12.3955  12.4674  13.0821

          k = 0.2995-0.2017 0.0000 ( 24664 PWs)   bands (ev):

   -13.0306 -12.6760 -12.0866 -11.6997 -11.1708 -10.6106  -9.9511  -9.1297
    -8.3542  -7.5984  -6.9312  -6.6360  -6.1517  -5.6352  -5.2334  -4.8071
    -4.3851  -3.8846  -3.4206  -3.2847  -2.9660  -2.9000  -2.7539  -2.4106
    -2.1096  -1.8662  -1.7671  -1.5190  -1.4137  -0.9625  -0.7903  -0.5895
    -0.5527  -0.2690   0.0643   0.3598   0.5385   0.7206   0.9853   1.1985
     1.4954   1.5908   1.7008   1.8363   2.0529   2.1596   2.5506   2.6639
     3.0114   3.0230  10.2556  10.3668  10.6230  11.0584  11.1397  11.6387
    11.8948  12.4144  12.6835  12.9466

          k = 0.3994-0.0000 0.0000 ( 24732 PWs)   bands (ev):

   -12.4644 -11.9741 -11.1135  -9.9950  -9.3206  -8.3789  -8.2855  -8.0117
    -8.0036  -7.5319  -7.5156  -6.8237  -6.8194  -6.6129  -5.9369  -5.6416
    -5.1837  -5.1277  -5.0649  -4.8399  -4.2626  -4.0497  -4.0495  -2.8906
    -2.6653  -2.4355  -2.4181  -1.7770  -1.7464  -1.4418  -0.8658  -0.8075
    -0.6649  -0.5892  -0.3401  -0.1007  -0.0872   0.7317   0.8045   0.8283
     0.9725   1.3795   1.4132   2.2462   2.6081   2.6824   2.6835   3.2302
     3.7063   3.9955  10.7928  10.8790  11.2925  11.3679  11.5530  11.5633
    12.5321  12.5603  13.1888  13.2396

          k = 0.3994-0.1009 0.0000 ( 24696 PWs)   bands (ev):

   -12.2910 -11.8218 -10.9887  -9.9073  -9.5015  -9.1725  -8.9131  -8.3700
    -8.1485  -7.7969  -7.1741  -6.7119  -6.3561  -6.3017  -5.9708  -5.8402
    -5.4456  -5.1722  -4.7405  -4.1900  -3.9123  -3.4914  -3.3897  -3.0026
    -2.8934  -2.6616  -2.4277  -1.8591  -1.7749  -1.3177  -0.8166  -0.5475
    -0.3316  -0.2765  -0.1822   0.1666   0.1880   0.6693   0.7245   0.9198
     1.0108   1.2466   1.4212   1.5850   2.0711   2.1289   2.5336   2.8384
     2.9963   3.2136  10.5489  11.0227  11.1920  11.4124  11.7294  12.1773
    12.2337  12.5051  13.0081  13.2592

          k = 0.3994-0.2017 0.0000 ( 24655 PWs)   bands (ev):

   -11.7990 -11.4566 -10.8833 -10.5085 -10.0133  -9.5315  -8.9929  -8.6179
    -8.2003  -7.9053  -7.7613  -7.7197  -5.9686  -5.9174  -5.7138  -5.3905
    -5.1672  -5.0265  -4.7832  -4.1905  -3.5338  -2.8794  -2.7108  -2.4193
    -2.3536  -2.0645  -1.9758  -1.8012  -1.4758  -1.2865  -0.8950  -0.6192
    -0.4974  -0.1341   0.1371   0.2390   0.4078   0.4568   0.8134   0.8504
     0.9994   1.0342   1.1274   1.2922   1.5046   1.5140   1.7137   1.9338
     2.1126   2.2197  10.5055  10.9352  11.1511  11.4125  11.9596  12.1784
    12.2679  12.4664  12.5169  12.8058

          k =-0.4992 0.0000 0.0000 ( 24782 PWs)   bands (ev):

   -10.9599 -10.9114 -10.6159 -10.4148 -10.1102  -8.8777  -8.5743  -7.0590
    -6.6215  -6.5997  -6.5964  -6.5866  -6.3727  -6.2364  -6.2307  -6.1997
    -6.1985  -5.8882  -5.8609  -5.4819  -4.9558  -4.9557  -4.4651  -3.8623
    -2.3121  -2.0294  -1.9796  -1.8702  -1.8390  -1.2448  -1.2399  -1.1179
    -0.9583  -0.9021  -0.7430  -0.3008  -0.2826   0.5309   0.5837   0.6319
     0.7899   0.9846   1.3645   2.3779   2.5234   3.1361   3.1601   3.2339
     3.3421   3.3697  11.0633  11.1178  11.3217  11.3706  11.8925  11.8975
    12.4539  12.5363  12.5659  12.5679

          k =-0.4992-0.1009 0.0000 ( 24712 PWs)   bands (ev):

   -10.7932 -10.7385 -10.4707 -10.2540  -9.9667  -8.8245  -8.5440  -8.0592
    -8.0193  -7.6634  -7.5430  -7.3688  -6.6797  -6.1703  -5.4900  -5.4550
    -5.2156  -5.0683  -4.9590  -4.8682  -4.7970  -4.7232  -4.2427  -3.8166
    -2.4204  -2.3564  -2.1521  -1.7777  -1.6609  -1.1119  -1.0387  -0.7172
    -0.6548  -0.6137  -0.5384  -0.0819  -0.0384   0.4758   0.5767   0.7068
     0.8142   1.1554   1.3976   2.1254   2.2669   2.3955   2.4220   2.4746
     2.5890   2.6586  10.7390  11.1822  11.3722  11.7725  11.9348  12.1033
    12.3920  12.5951  12.8475  13.0001

          k =-0.4992-0.2017 0.0000 ( 24638 PWs)   bands (ev):

   -10.3336 -10.2374 -10.1247  -9.8317  -9.6465  -9.2747  -9.1234  -8.9050
    -8.6084  -8.4612  -8.3393  -8.2286  -6.3382  -6.2338  -5.8475  -5.5893
    -5.3033  -4.8832  -4.7085  -4.1467  -3.9891  -3.7231  -3.5661  -3.3907
    -1.9554  -1.5219  -1.4180  -1.4016  -1.2783  -1.0638  -1.0371  -0.6001
    -0.5738  -0.3163   0.1534   0.3222   0.4792   0.5888   0.6605   0.7359
     0.7451   0.8090   1.0162   1.0421   1.0995   1.2063   1.4662   1.5113
     1.7161   1.7811  11.0752  11.1457  11.5176  11.7335  11.8182  12.1735
    12.2048  12.6417  12.7571  12.9274

     the Fermi energy is     6.7907 ev

!    total energy              =    -447.08144297 Ry
     estimated scf accuracy    <          4.2E-10 Ry
     smearing contrib. (-TS)   =       0.00000000 Ry
     internal energy E=F+TS    =    -447.08144297 Ry

     The total energy is F=E-TS. E is the sum of the following terms:
     one-electron contribution =   -3146.14973301 Ry
     hartree contribution      =    1622.81369564 Ry
     xc contribution           =    -115.04788182 Ry
     ewald contribution        =    1339.21678658 Ry
     one-center paw contrib.   =    -147.91431035 Ry

     convergence has been achieved in   8 iterations

     negative rho (up, down):  4.738E-06 0.000E+00

     Forces acting on atoms (cartesian axes, Ry/au):

     atom    1 type  1   force =     0.00000000   -0.00304031   -0.00042644
     atom    2 type  1   force =     0.00000000   -0.00224989   -0.00269947
     atom    3 type  1   force =     0.00000000    0.00056820    0.00011865
     atom    4 type  1   force =    -0.00000000    0.00046680   -0.00227892
     atom    5 type  1   force =     0.00000000    0.00146294   -0.00211791
     atom    6 type  1   force =     0.00000000    0.00187596   -0.00131957
     atom    7 type  1   force =     0.00000000    0.00199415   -0.00011194
     atom    8 type  1   force =    -0.00000000    0.00145131    0.00201792
     atom    9 type  1   force =     0.00000000    0.00039560    0.00223379
     atom   10 type  1   force =     0.00000000    0.00033486    0.00179188
     atom   11 type  1   force =     0.00000000   -0.00245867    0.00205943
     atom   12 type  1   force =     0.00000000   -0.00301785    0.00016334
     atom   13 type  1   force =     0.00000000    0.00301785   -0.00016334
     atom   14 type  1   force =    -0.00000000    0.00245867   -0.00205943
     atom   15 type  1   force =    -0.00000000   -0.00033486   -0.00179188
     atom   16 type  1   force =     0.00000000   -0.00039560   -0.00223379
     atom   17 type  1   force =     0.00000000   -0.00145131   -0.00201792
     atom   18 type  1   force =     0.00000000   -0.00199415    0.00011194
     atom   19 type  1   force =     0.00000000   -0.00187596    0.00131957
     atom   20 type  1   force =     0.00000000   -0.00146294    0.00211791
     atom   21 type  1   force =    -0.00000000   -0.00046680    0.00227892
     atom   22 type  1   force =     0.00000000   -0.00056820   -0.00011865
     atom   23 type  1   force =    -0.00000000    0.00224989    0.00269947
     atom   24 type  1   force =     0.00000000    0.00304031    0.00042644
     atom   25 type  2   force =     0.00000000   -0.00350481   -0.00228984
     atom   26 type  2   force =     0.00000000    0.00344785   -0.00210672
     atom   27 type  2   force =    -0.00000000   -0.00344785    0.00210672
     atom   28 type  2   force =     0.00000000    0.00350481    0.00228984

     Total force =     0.014921     Total SCF correction =     0.000021


     Computing stress (Cartesian axis) and pressure


     negative rho (up, down):  4.738E-06 0.000E+00
          total   stress  (Ry/bohr**3)                   (kbar)     P=       -7.86
  -0.00000217   0.00000000   0.00000000           -0.32        0.00        0.00
   0.00000000  -0.00000213   0.00000263            0.00       -0.31        0.39
   0.00000000   0.00000263  -0.00015607            0.00        0.39      -22.96

     Energy error            =      3.3E-04 Ry
     Gradient error          =      3.5E-03 Ry/Bohr
     Cell gradient error     =      3.2E-01 kbar

     number of scf cycles    =   7
     number of bfgs steps    =   6

     enthalpy           old  =    -447.0811112569 Ry
     enthalpy           new  =    -447.0814429655 Ry

     CASE: enthalpy          _new < enthalpy          _old

     new trust radius        =       0.0169857453 bohr
     Message from routine volume:
     axis vectors are left-handed
     new conv_thr            =       0.0000000003 Ry

     new unit-cell volume =   1698.40887 a.u.^3 (   251.67823 Ang^3 )
     density =      1.92853 g/cm^3

CELL_PARAMETERS (angstrom)
   2.530416824   0.000000000   0.000000000
   0.000000000  -5.008358628   0.000000000
   0.000000000   0.000000000  19.859035940

ATOMIC_POSITIONS (crystal)
C                0.0000000000        0.1608673177        0.7447513378
C                0.5000000000        0.2325507952        0.7039200143
C                0.5000000000       -0.0004354758        0.6537126578
C               -0.0000000000       -0.0004043196        0.6105641215
C                0.0000000000        0.2533951280        0.5682662567
C                0.5000000000        0.2532968306        0.5231960662
C                0.5000000000        0.0032969192        0.4778303080
C               -0.0000000000        0.0033543524        0.4324288537
C                0.0000000000        0.2497535153        0.3840654933
C                0.5000000000        0.2497234233        0.3370942937
C                0.5000000000       -0.0173875922        0.2960135218
C                0.0000000000       -0.0891436430        0.2552196026
C                0.0000000000        0.8391436430        0.7447803974
C                0.5000000000        0.7673875922        0.7039864782
C                0.5000000000        0.5002765767        0.6629057063
C                0.0000000000        0.5002464847        0.6159345067
C               -0.0000000000        0.7466456476        0.5675711463
C                0.5000000000        0.7467030808        0.5221696920
C                0.5000000000        0.4967031694        0.4768039338
C                0.0000000000        0.4966048720        0.4317337433
C               -0.0000000000        0.7504043196        0.3894358785
C                0.5000000000        0.7504354758        0.3462873422
C                0.5000000000        0.5174492048        0.2960799857
C                0.0000000000        0.5891326823        0.2552486622
H               -0.0000000000        0.2440090468        0.7960178053
H               -0.0000000000        0.7560217787        0.7960377850
H               -0.0000000000       -0.0060217787        0.2039622150
H               -0.0000000000        0.5059909532        0.2039821947



     Writing config-only to output data dir /tmp/qe/slab.save/ :
     XML data file
     NEW-OLD atomic charge density approx. for the potential

     Check: negative core charge=   -0.000001

     negative rho (up, down):  5.135E-06 0.000E+00

     total cpu time spent up to now is      547.8 secs

     Self-consistent Calculation

     iteration #  1     ecut=    90.00 Ry     beta= 0.30
     Davidson diagonalization with overlap
     ethr =  1.00E-06,  avg # of iterations =  3.0

     Threshold (ethr) on eigenvalues was too large:
     Diagonalizing with lowered threshold

     Davidson diagonalization with overlap
     ethr =  6.13E-08,  avg # of iterations =  2.8

     negative rho (up, down):  5.063E-06 0.000E+00

     total cpu time spent up to now is      558.6 secs

     total energy              =    -447.08175347 Ry
     estimated scf accuracy    <       0.00007399 Ry

     iteration #  2     ecut=    90.00 Ry     beta= 0.30
     Davidson diagonalization with overlap
     ethr =  7.40E-08,  avg # of iterations =  1.3

     negative rho (up, down):  4.897E-06 0.000E+00

     total cpu time spent up to now is      562.7 secs

     total energy              =    -447.08175233 Ry
     estimated scf accuracy    <       0.00002610 Ry

     iteration #  3     ecut=    90.00 Ry     beta= 0.30
     Davidson diagonalization with overlap
     ethr =  2.61E-08,  avg # of iterations =  2.0

     negative rho (up, down):  4.837E-06 0.000E+00

     total cpu time spent up to now is      567.1 secs

     total energy              =    -447.08175439 Ry
     estimated scf accuracy    <       0.00000402 Ry

     iteration #  4     ecut=    90.00 Ry     beta= 0.30
     Davidson diagonalization with overlap
     ethr =  4.02E-09,  avg # of iterations =  2.1

     negative rho (up, down):  4.817E-06 0.000E+00

     total cpu time spent up to now is      571.5 secs

     total energy              =    -447.08175470 Ry
     estimated scf accuracy    <       0.00000079 Ry

     iteration #  5     ecut=    90.00 Ry     beta= 0.30
     Davidson diagonalization with overlap
     ethr =  7.85E-10,  avg # of iterations =  2.0

     negative rho (up, down):  4.823E-06 0.000E+00

     total cpu time spent up to now is      576.0 secs

     total energy              =    -447.08175477 Ry
     estimated scf accuracy    <       0.00000010 Ry

     iteration #  6     ecut=    90.00 Ry     beta= 0.30
     Davidson diagonalization with overlap
     ethr =  1.04E-10,  avg # of iterations =  2.3

     negative rho (up, down):  4.829E-06 0.000E+00

     total cpu time spent up to now is      581.0 secs

     total energy              =    -447.08175478 Ry
     estimated scf accuracy    <       0.00000002 Ry

     iteration #  7     ecut=    90.00 Ry     beta= 0.30
     Davidson diagonalization with overlap
     ethr =  1.82E-11,  avg # of iterations =  2.4

     negative rho (up, down):  4.831E-06 0.000E+00

     total cpu time spent up to now is      586.1 secs

     total energy              =    -447.08175478 Ry
     estimated scf accuracy    <          3.1E-09 Ry

     iteration #  8     ecut=    90.00 Ry     beta= 0.30
     Davidson diagonalization with overlap
     ethr =  3.13E-12,  avg # of iterations =  2.6

     negative rho (up, down):  4.833E-06 0.000E+00

     total cpu time spent up to now is      591.3 secs

     total energy              =    -447.08175478 Ry
     estimated scf accuracy    <          3.7E-10 Ry

     iteration #  9     ecut=    90.00 Ry     beta= 0.30
     Davidson diagonalization with overlap
     ethr =  3.70E-13,  avg # of iterations =  3.3

     negative rho (up, down):  4.837E-06 0.000E+00

     total cpu time spent up to now is      596.8 secs

     End of self-consistent calculation

          k = 0.0000-0.0000 0.0000 ( 24643 PWs)   bands (ev):

   -15.3433 -14.8262 -13.8864 -12.5324 -10.8831 -10.7492 -10.6957 -10.1924
   -10.1047  -9.3740  -9.3545  -8.6664  -6.7468  -6.6380  -6.5117  -5.1530
    -5.1512  -4.4032  -3.3808  -3.3760  -2.1659  -1.3522  -1.3486  -0.2492
     0.0605   0.1077   0.2155   0.5908   0.6347   0.8628   1.1153   1.8361
     2.1632   2.3404   2.3609   2.5789   3.0094   3.0305   3.0406   3.1262
     3.1418   3.1418   3.7295   3.7420   3.7420   3.8231   4.0089   5.1755
     5.2642   5.3027   8.2309   8.7351  10.3122  10.3351  10.3763  10.7114
    11.0874  11.2259  11.3445  11.5225

          k = 0.0000-0.1009 0.0000 ( 24675 PWs)   bands (ev):

   -15.1652 -14.6699 -13.7622 -12.5098 -12.2455 -11.5861 -10.8889 -10.2710
    -9.4316  -8.9625  -8.8001  -8.4069  -6.5991  -6.2926  -6.1517  -5.0446
    -4.8043  -4.2675  -3.4294  -3.0627  -2.2132  -1.3338  -1.1268  -0.7406
    -0.2336  -0.1049   0.0420   0.3325   0.6757   0.7991   1.1963   1.4562
     1.5820   2.1122   2.3481   2.3695   2.5299   2.5662   2.9898   3.0704
     3.0801   3.5129   3.6132   3.6371   3.7654   4.0472   4.2309   4.7730
     4.8969   5.2542   8.4550   8.9527  10.5365  10.8312  10.8774  11.2642
    11.3015  11.4364  11.5771  11.7391

          k = 0.0000-0.2018 0.0000 ( 24637 PWs)   bands (ev):

   -14.6601 -14.2984 -13.6936 -13.3007 -12.7524 -12.1524 -11.4492 -10.5681
    -9.6957  -8.8252  -7.9691  -7.6430  -6.0415  -5.5034  -5.3200  -4.7175
    -4.2095  -3.9608  -3.2246  -2.7589  -2.5442  -2.0462  -1.8929  -1.1435
    -0.7713  -0.4724  -0.0657   0.2865   0.5803   0.8803   1.1522   1.1712
     1.3617   1.5128   1.9412   1.9489   2.3811   2.4428   2.8137   2.9216
     3.0294   3.3666   3.4158   3.6419   3.9357   4.0856   4.2329   4.4129
     4.7594   5.1534   9.0988   9.5431  10.1403  10.4735  11.0219  11.1902
    11.2951  11.4317  11.8025  12.0660

          k = 0.0998-0.0000 0.0000 ( 24655 PWs)   bands (ev):

   -15.1605 -14.6443 -13.7067 -12.3568 -10.7117 -10.5756 -10.5243 -10.0232
    -9.9370  -9.2088  -9.1899  -8.5086  -6.6279  -6.4805  -6.3990  -5.0148
    -5.0138  -4.3404  -3.2794  -3.2740  -2.2827  -1.3214  -1.3034  -1.0279
    -0.9360   0.0501   0.1488   0.2520   0.6137   0.6595   0.9535   1.4475
     1.8210   1.9629   2.1351   2.2357   2.3118   2.3449   2.5330   2.6152
     2.7825   2.8141   3.0580   3.1077   3.2801   3.6959   3.7617   4.7133
     4.9803   5.1406   8.4145   8.9096  10.8219  10.9770  11.0239  11.2354
    11.6244  11.6924  11.7654  11.8441

          k = 0.0998-0.1009 0.0000 ( 24646 PWs)   bands (ev):

   -14.9826 -14.4883 -13.5827 -12.3333 -12.0687 -11.4119 -10.7193 -10.1053
    -9.2702  -8.7945  -8.6381  -8.2485  -6.4973  -6.1382  -6.0271  -4.9177
    -4.6754  -4.1870  -3.3512  -2.9373  -2.2711  -1.2966  -1.1308  -0.9330
    -0.8167  -0.6084  -0.0736   0.0521   0.2516   0.6696   0.7959   1.1961
     1.3992   1.5284   1.6082   1.7448   2.2062   2.3894   2.5188   2.6574
     2.7563   3.0500   3.1256   3.2756   3.4023   3.6838   3.7390   4.1457
     4.8047   5.0252   8.6388   9.1239  10.9037  11.3929  11.4408  11.7269
    11.7870  11.8175  12.0313  12.0833

          k = 0.0998-0.2018 0.0000 ( 24657 PWs)   bands (ev):

   -14.4783 -14.1174 -13.5137 -13.1215 -12.5749 -11.9776 -11.2779 -10.4012
    -9.5341  -8.6687  -7.8150  -7.4822  -5.9594  -5.3979  -5.1893  -4.6035
    -4.1031  -3.8153  -3.1028  -2.6443  -2.4335  -1.9509  -1.7865  -1.2283
    -0.8594  -0.6302  -0.3698  -0.3247  -0.1430   0.3258   0.5236   0.8381
     1.0659   1.1658   1.4694   1.4979   1.8407   1.9536   2.4153   2.5568
     2.6892   2.9775   3.2121   3.3511   3.7261   3.7457   3.8779   4.0783
     4.4011   4.5528   9.2828   9.7045  10.3128  10.6083  11.0602  11.3434
    11.9068  12.1265  12.3974  12.4286

          k = 0.1997-0.0000 0.0000 ( 24607 PWs)   bands (ev):

   -14.6141 -14.1011 -13.1708 -11.8355 -10.2060 -10.0576 -10.0146  -9.5193
    -9.4385  -8.7170  -8.6994  -8.0579  -6.5096  -6.0310  -6.0225  -4.6478
    -4.6472  -4.4663  -3.3220  -3.0550  -3.0460  -2.6062  -2.5593  -1.3921
    -1.1705  -1.0897  -0.8762   0.0595   0.1298   0.2871   0.5501   0.5704
     0.6847   0.9458   1.0661   1.0968   1.2274   1.3537   1.4186   1.8403
     1.9408   2.2512   2.2950   2.5650   2.7499   2.8586   3.8251   3.9685
     4.0732   4.9858   8.9376   9.3230  11.3912  11.6659  11.8343  11.9293
    12.1668  12.2072  12.4650  12.6791

          k = 0.1997-0.1009 0.0000 ( 24634 PWs)   bands (ev):

   -14.4371 -13.9459 -13.0473 -11.8085 -11.5417 -10.8933 -10.2179  -9.6170
    -8.7940  -8.2938  -8.1579  -7.7938  -6.3780  -5.7087  -5.6774  -4.6514
    -4.4389  -4.0960  -3.3074  -3.0624  -2.6028  -2.4977  -2.4307  -1.4717
    -1.2140  -1.1001  -0.8977  -0.3716  -0.1979  -0.0299   0.0034   0.3279
     0.6178   0.6975   0.9991   1.0297   1.0880   1.5492   1.5935   1.7877
     2.0250   2.1003   2.2918   2.3751   2.7383   2.8879   3.2398   3.7122
     4.2114   4.5641   9.1498   9.5284  11.2000  11.6534  11.7296  11.7998
    11.9874  12.1834  12.8596  12.9082

          k = 0.1997-0.2018 0.0000 ( 24642 PWs)   bands (ev):

   -13.9352 -13.5768 -12.9768 -12.5867 -12.0458 -11.4576 -10.7698  -9.9089
    -9.0619  -8.2161  -7.3755  -7.0072  -5.8839  -5.2261  -4.8844  -4.3570
    -3.9358  -3.4166  -3.0004  -2.5234  -2.3882  -2.3355  -2.2214  -1.7412
    -1.6929  -1.5936  -1.4334  -0.9509  -0.7820  -0.4093  -0.3965  -0.1800
    -0.0930   0.3434   0.7112   0.9746   1.2074   1.3731   1.5644   1.7383
     2.0787   2.2559   2.3796   2.5456   2.7033   3.0517   3.1427   3.3947
     3.8722   3.8992   9.7426  10.0856  10.5847  10.7592  10.8956  11.2224
    11.6658  12.2278  12.3833  12.7132

          k = 0.2995-0.0000 0.0000 ( 24668 PWs)   bands (ev):

   -13.7120 -13.2060 -12.2923 -10.9949  -9.4271  -9.2054  -9.1837  -8.6965
    -8.6339  -7.9158  -7.8974  -7.5290  -7.2219  -5.7325  -5.4346  -5.3465
    -5.0319  -4.3217  -4.3123  -3.7692  -3.6095  -3.2102  -3.2038  -2.4483
    -2.1179  -1.4983  -1.4150  -1.3043  -1.2832  -0.8528  -0.8448  -0.4304
    -0.3289   0.1094   0.1275   0.5955   0.5966   1.1916   1.2152   1.2775
     1.5380   1.6185   1.9368   1.9881   2.1167   2.9397   3.1757   3.2215
     3.8528   4.6204   9.7660  10.0074  11.6203  11.6443  12.0007  12.1305
    12.3594  12.3895  12.4358  12.5794

          k = 0.2995-0.1009 0.0000 ( 24678 PWs)   bands (ev):

   -13.5364 -13.0520 -12.1693 -10.9570 -10.6762 -10.0467  -9.4270  -8.8590
    -8.0603  -7.4895  -7.4267  -7.2141  -7.0305  -5.6119  -5.3646  -5.1687
    -4.9010  -4.3989  -3.8767  -3.5839  -3.4850  -3.2184  -2.5949  -2.4101
    -2.2778  -2.1407  -1.8424  -1.3558  -1.1996  -0.7274  -0.4809  -0.3079
    -0.1338   0.1426   0.3591   0.4876   0.7850   0.8673   0.9554   1.1358
     1.4160   1.5108   1.6551   1.8343   2.2086   2.4810   2.5920   3.2754
     3.6163   3.8965   9.9566  10.1836  10.9849  11.5995  11.7171  12.0541
    12.3513  12.4026  12.4704  13.0815

          k = 0.2995-0.2018 0.0000 ( 24664 PWs)   bands (ev):

   -13.0386 -12.6853 -12.0927 -11.7074 -11.1791 -10.6122  -9.9525  -9.1335
    -8.3585  -7.6016  -6.9338  -6.6417  -6.1556  -5.6406  -5.2392  -4.8136
    -4.3919  -3.8878  -3.4204  -3.2884  -2.9683  -2.9037  -2.7621  -2.4117
    -2.1158  -1.8688  -1.7731  -1.5280  -1.4175  -0.9637  -0.7909  -0.5935
    -0.5555  -0.2728   0.0644   0.3611   0.5370   0.7167   0.9858   1.1971
     1.4952   1.5898   1.7043   1.8329   2.0489   2.1585   2.5439   2.6585
     3.0107   3.0210  10.2669  10.3727  10.6277  11.0619  11.1448  11.6429
    11.9020  12.4208  12.6894  12.9488

          k = 0.3993-0.0000 0.0000 ( 24732 PWs)   bands (ev):

   -12.4723 -11.9838 -11.1206 -10.0018  -9.3270  -8.3835  -8.2881  -8.0159
    -8.0080  -7.5369  -7.5206  -6.8309  -6.8267  -6.6183  -5.9396  -5.6473
    -5.1877  -5.1318  -5.0717  -4.8423  -4.2621  -4.0615  -4.0611  -2.8885
    -2.6649  -2.4392  -2.4200  -1.7827  -1.7510  -1.4372  -0.8690  -0.8096
    -0.6686  -0.5913  -0.3327  -0.1023  -0.0898   0.7269   0.8021   0.8275
     0.9652   1.3724   1.4142   2.2408   2.6130   2.6756   2.6886   3.2252
     3.6992   3.9908  10.8008  10.8861  11.2978  11.3767  11.5578  11.5703
    12.5410  12.5661  13.1946  13.2454

          k = 0.3993-0.1009 0.0000 ( 24696 PWs)   bands (ev):

   -12.2989 -11.8314 -10.9959  -9.9146  -9.5072  -9.1787  -8.9184  -8.3728
    -8.1514  -7.8027  -7.1808  -6.7176  -6.3587  -6.3092  -5.9781  -5.8435
    -5.4508  -5.1746  -4.7451  -4.1935  -3.9174  -3.4987  -3.3956  -3.0047
    -2.8974  -2.6639  -2.4274  -1.8642  -1.7784  -1.3139  -0.8181  -0.5486
    -0.3311  -0.2729  -0.1836   0.1646   0.1853   0.6691   0.7235   0.9172
     1.0038   1.2358   1.4197   1.5788   2.0665   2.1280   2.5351   2.8380
     2.9902   3.2083  10.5575  11.0324  11.1992  11.4154  11.7388  12.1812
    12.2383  12.5158  13.0145  13.2663

          k = 0.3993-0.2018 0.0000 ( 24655 PWs)   bands (ev):

   -11.8072 -11.4663 -10.8897 -10.5165 -10.0220  -9.5337  -8.9951  -8.6252
    -8.2050  -7.9109  -7.7666  -7.7251  -5.9750  -5.9253  -5.7229  -5.3918
    -5.1692  -5.0294  -4.7851  -4.1943  -3.5375  -2.8831  -2.7086  -2.4258
    -2.3548  -2.0691  -1.9803  -1.8006  -1.4803  -1.2896  -0.8953  -0.6176
    -0.5023  -0.1334   0.1343   0.2382   0.4020   0.4561   0.8145   0.8467
     0.9969   1.0304   1.1252   1.2901   1.4981   1.5097   1.7079   1.9251
     2.1121   2.2182  10.5149  10.9466  11.1568  11.4121  11.9667  12.1824
    12.2739  12.4671  12.5210  12.8134

          k =-0.4992 0.0000 0.0000 ( 24782 PWs)   bands (ev):

   -10.9683 -10.9195 -10.6272 -10.4231 -10.1174  -8.8814  -8.5767  -7.0663
    -6.6277  -6.6066  -6.6013  -6.5902  -6.3764  -6.2388  -6.2373  -6.2013
    -6.2006  -5.8946  -5.8676  -5.4841  -4.9671  -4.9671  -4.4626  -3.8630
    -2.3064  -2.0352  -1.9845  -1.8736  -1.8432  -1.2457  -1.2445  -1.1210
    -0.9609  -0.8947  -0.7428  -0.3033  -0.2856   0.5275   0.5817   0.6275
     0.7928   0.9700   1.3640   2.3824   2.5302   3.1287   3.1588   3.2264
     3.3343   3.3630  11.0678  11.1234  11.3277  11.3814  11.9021  11.9062
    12.4624  12.5463  12.5691  12.5716

          k =-0.4992-0.1009 0.0000 ( 24712 PWs)   bands (ev):

   -10.8017 -10.7465 -10.4822 -10.2621  -9.9738  -8.8283  -8.5472  -8.0647
    -8.0253  -7.6713  -7.5491  -7.3735  -6.6822  -6.1699  -5.4932  -5.4624
    -5.2225  -5.0690  -4.9659  -4.8764  -4.8032  -4.7288  -4.2428  -3.8168
    -2.4230  -2.3619  -2.1510  -1.7833  -1.6654  -1.1071  -1.0367  -0.7190
    -0.6529  -0.6157  -0.5419  -0.0831  -0.0405   0.4742   0.5748   0.7013
     0.8150   1.1429   1.3932   2.1268   2.2679   2.3941   2.4189   2.4677
     2.5814   2.6524  10.7444  11.1929  11.3791  11.7799  11.9436  12.1100
    12.3950  12.6029  12.8626  13.0121

          k =-0.4992-0.2018 0.0000 ( 24638 PWs)   bands (ev):

   -10.3436 -10.2450 -10.1372  -9.8387  -9.6520  -9.2831  -9.1305  -8.9134
    -8.6151  -8.4637  -8.3428  -8.2289  -6.3403  -6.2369  -5.8564  -5.5925
    -5.3102  -4.8866  -4.7128  -4.1506  -3.9918  -3.7258  -3.5688  -3.3925
    -1.9489  -1.5201  -1.4245  -1.4062  -1.2822  -1.0625  -1.0383  -0.6003
    -0.5725  -0.3183   0.1508   0.3176   0.4733   0.5898   0.6599   0.7356
     0.7407   0.8052   1.0046   1.0315   1.0954   1.2058   1.4551   1.5026
     1.7185   1.7823  11.0819  11.1518  11.5292  11.7432  11.8209  12.1723
    12.2116  12.6573  12.7642  12.9358

     the Fermi energy is     6.7941 ev

!    total energy              =    -447.08175478 Ry
     estimated scf accuracy    <          1.8E-10 Ry
     smearing contrib. (-TS)   =       0.00000000 Ry
     internal energy E=F+TS    =    -447.08175478 Ry

     The total energy is F=E-TS. E is the sum of the following terms:
     one-electron contribution =   -3151.03880691 Ry
     hartree contribution      =    1625.25399519 Ry
     xc contribution           =    -115.06029614 Ry
     ewald contribution        =    1341.67793349 Ry
     one-center paw contrib.   =    -147.91458041 Ry

     convergence has been achieved in   9 iterations

     negative rho (up, down):  4.837E-06 0.000E+00

     Forces acting on atoms (cartesian axes, Ry/au):

     atom    1 type  1   force =     0.00000000   -0.00296540   -0.00017256
     atom    2 type  1   force =     0.00000000   -0.00262510   -0.00264652
     atom    3 type  1   force =    -0.00000000    0.00013341   -0.00189520
     atom    4 type  1   force =     0.00000000   -0.00003723   -0.00305384
     atom    5 type  1   force =    -0.00000000    0.00121722   -0.00376283
     atom    6 type  1   force =     0.00000000    0.00174799   -0.00267102
     atom    7 type  1   force =     0.00000000    0.00173412   -0.00088361
     atom    8 type  1   force =     0.00000000    0.00108765    0.00132303
     atom    9 type  1   force =     0.00000000    0.00002841    0.00094517
     atom   10 type  1   force =     0.00000000   -0.00003538    0.00099041
     atom   11 type  1   force =     0.00000000   -0.00289605    0.00203618
     atom   12 type  1   force =     0.00000000   -0.00291574   -0.00023053
     atom   13 type  1   force =     0.00000000    0.00291574    0.00023053
     atom   14 type  1   force =     0.00000000    0.00289605   -0.00203618
     atom   15 type  1   force =     0.00000000    0.00003538   -0.00099041
     atom   16 type  1   force =     0.00000000   -0.00002841   -0.00094517
     atom   17 type  1   force =     0.00000000   -0.00108765   -0.00132303
     atom   18 type  1   force =     0.00000000   -0.00173412    0.00088361
     atom   19 type  1   force =     0.00000000   -0.00174799    0.00267102
     atom   20 type  1   force =     0.00000000   -0.00121722    0.00376283
     atom   21 type  1   force =     0.00000000    0.00003723    0.00305384
     atom   22 type  1   force =     0.00000000   -0.00013341    0.00189520
     atom   23 type  1   force =     0.00000000    0.00262510    0.00264652
     atom   24 type  1   force =     0.00000000    0.00296540    0.00017256
     atom   25 type  2   force =     0.00000000   -0.00264732   -0.00126957
     atom   26 type  2   force =    -0.00000000    0.00256314   -0.00093695
     atom   27 type  2   force =     0.00000000   -0.00256314    0.00093695
     atom   28 type  2   force =     0.00000000    0.00264732    0.00126957

     Total force =     0.014645     Total SCF correction =     0.000037


     Computing stress (Cartesian axis) and pressure


     negative rho (up, down):  4.837E-06 0.000E+00
          total   stress  (Ry/bohr**3)                   (kbar)     P=       -6.46
  -0.00000323   0.00000000   0.00000000           -0.48        0.00        0.00
   0.00000000  -0.00000015   0.00000217            0.00       -0.02        0.32
   0.00000000   0.00000217  -0.00012830            0.00        0.32      -18.87

     Energy error            =      3.1E-04 Ry
     Gradient error          =      3.8E-03 Ry/Bohr
     Cell gradient error     =      4.8E-01 kbar

     number of scf cycles    =   8
     number of bfgs steps    =   7

     enthalpy           old  =    -447.0814429655 Ry
     enthalpy           new  =    -447.0817547831 Ry

     CASE: enthalpy          _new < enthalpy          _old

     new trust radius        =       0.0254758341 bohr
     Message from routine volume:
     axis vectors are left-handed
     new conv_thr            =       0.0000000003 Ry

     new unit-cell volume =   1698.01202 a.u.^3 (   251.61942 Ang^3 )
     density =      1.92898 g/cm^3

CELL_PARAMETERS (angstrom)
   2.530556041   0.000000000   0.000000000
   0.000000000  -5.006912908   0.000000000
   0.000000000   0.000000000  19.859035940

ATOMIC_POSITIONS (crystal)
C                0.0000000000        0.1612572632        0.7445478298
C                0.5000000000        0.2326860218        0.7036935025
C                0.5000000000       -0.0006380797        0.6536036306
C               -0.0000000000       -0.0005837386        0.6105132545
C                0.0000000000        0.2532704647        0.5682306841
C                0.5000000000        0.2531918604        0.5231938262
C                0.5000000000        0.0031668227        0.4778943817
C               -0.0000000000        0.0032426632        0.4325663246
C                0.0000000000        0.2496235336        0.3842509843
C                0.5000000000        0.2496207410        0.3373288061
C                0.5000000000       -0.0171711767        0.2961829817
C                0.0000000000       -0.0887653933        0.2553911162
C                0.0000000000        0.8387653933        0.7446088838
C                0.5000000000        0.7671711767        0.7038170183
C                0.5000000000        0.5003792590        0.6626711939
C                0.0000000000        0.5003764664        0.6157490157
C               -0.0000000000        0.7467573368        0.5674336754
C                0.5000000000        0.7468331773        0.5221056183
C                0.5000000000        0.4968081396        0.4768061738
C                0.0000000000        0.4967295353        0.4317693159
C               -0.0000000000        0.7505837386        0.3894867455
C                0.5000000000        0.7506380797        0.3463963694
C                0.5000000000        0.5173139782        0.2963064975
C                0.0000000000        0.5887427368        0.2554521702
H               -0.0000000000        0.2461736175        0.7956142822
H               -0.0000000000        0.7538865825        0.7956589219
H               -0.0000000000       -0.0038865825        0.2043410781
H               -0.0000000000        0.5038263825        0.2043857178



     Writing config-only to output data dir /tmp/qe/slab.save/ :
     XML data file
     NEW-OLD atomic charge density approx. for the potential

     Check: negative core charge=   -0.000001

     negative rho (up, down):  5.381E-06 0.000E+00

     total cpu time spent up to now is      615.9 secs

     Self-consistent Calculation

     iteration #  1     ecut=    90.00 Ry     beta= 0.30
     Davidson diagonalization with overlap
     ethr =  1.00E-06,  avg # of iterations =  4.0

     negative rho (up, down):  5.270E-06 0.000E+00

     total cpu time spent up to now is      622.8 secs

     total energy              =    -447.08211782 Ry
     estimated scf accuracy    <       0.00015878 Ry

     iteration #  2     ecut=    90.00 Ry     beta= 0.30
     Davidson diagonalization with overlap
     ethr =  1.59E-07,  avg # of iterations =  2.6

     negative rho (up, down):  5.002E-06 0.000E+00

     total cpu time spent up to now is      627.3 secs

     total energy              =    -447.08211521 Ry
     estimated scf accuracy    <       0.00006670 Ry

     iteration #  3     ecut=    90.00 Ry     beta= 0.30
     Davidson diagonalization with overlap
     ethr =  6.67E-08,  avg # of iterations =  2.1

     negative rho (up, down):  4.969E-06 0.000E+00

     total cpu time spent up to now is      632.1 secs

     total energy              =    -447.08212286 Ry
     estimated scf accuracy    <       0.00001029 Ry

     iteration #  4     ecut=    90.00 Ry     beta= 0.30
     Davidson diagonalization with overlap
     ethr =  1.03E-08,  avg # of iterations =  2.2

     negative rho (up, down):  4.932E-06 0.000E+00

     total cpu time spent up to now is      636.9 secs

     total energy              =    -447.08212379 Ry
     estimated scf accuracy    <       0.00000272 Ry

     iteration #  5     ecut=    90.00 Ry     beta= 0.30
     Davidson diagonalization with overlap
     ethr =  2.72E-09,  avg # of iterations =  2.5

     negative rho (up, down):  4.923E-06 0.000E+00

     total cpu time spent up to now is      641.8 secs

     total energy              =    -447.08212409 Ry
     estimated scf accuracy    <       0.00000103 Ry

     iteration #  6     ecut=    90.00 Ry     beta= 0.30
     Davidson diagonalization with overlap
     ethr =  1.03E-09,  avg # of iterations =  2.2

     negative rho (up, down):  4.923E-06 0.000E+00

     total cpu time spent up to now is      646.5 secs

     total energy              =    -447.08212420 Ry
     estimated scf accuracy    <       0.00000015 Ry

     iteration #  7     ecut=    90.00 Ry     beta= 0.30
     Davidson diagonalization with overlap
     ethr =  1.47E-10,  avg # of iterations =  2.0

     negative rho (up, down):  4.926E-06 0.000E+00

     total cpu time spent up to now is      651.5 secs

     total energy              =    -447.08212423 Ry
     estimated scf accuracy    <       0.00000002 Ry

     iteration #  8     ecut=    90.00 Ry     beta= 0.30
     Davidson diagonalization with overlap
     ethr =  2.45E-11,  avg # of iterations =  2.1

     negative rho (up, down):  4.929E-06 0.000E+00

     total cpu time spent up to now is      656.2 secs

     total energy              =    -447.08212423 Ry
     estimated scf accuracy    <          1.7E-09 Ry

     iteration #  9     ecut=    90.00 Ry     beta= 0.30
     Davidson diagonalization with overlap
     ethr =  1.67E-12,  avg # of iterations =  3.8

     negative rho (up, down):  4.930E-06 0.000E+00

     total cpu time spent up to now is      662.1 secs

     total energy              =    -447.08212423 Ry
     estimated scf accuracy    <          1.3E-09 Ry

     iteration # 10     ecut=    90.00 Ry     beta= 0.30
     Davidson diagonalization with overlap
     ethr =  1.33E-12,  avg # of iterations =  2.1

     negative rho (up, down):  4.934E-06 0.000E+00

     total cpu time spent up to now is      666.5 secs

     End of self-consistent calculation

          k = 0.0000-0.0000 0.0000 ( 24643 PWs)   bands (ev):

   -15.3574 -14.8347 -13.8920 -12.5336 -10.8886 -10.7608 -10.7015 -10.2007
   -10.1132  -9.3837  -9.3641  -8.6611  -6.7529  -6.6494  -6.5082  -5.1628
    -5.1604  -4.3874  -3.3888  -3.3830  -2.1476  -1.3569  -1.3517  -0.2664
     0.0803   0.0959   0.2038   0.5879   0.6321   0.8592   1.1067   1.8308
     2.1803   2.3363   2.3594   2.5787   3.0080   3.0166   3.0270   3.1267
     3.1285   3.1289   3.7303   3.7324   3.7324   3.8182   4.0221   5.1727
     5.2598   5.3142   8.2421   8.7436  10.3010  10.3248  10.3687  10.7113
    11.0867  11.2205  11.3372  11.5234

          k = 0.0000-0.1009 0.0000 ( 24675 PWs)   bands (ev):

   -15.1789 -14.6778 -13.7671 -12.5132 -12.2578 -11.5956 -10.8902 -10.2790
    -9.4380  -8.9727  -8.8073  -8.4047  -6.5948  -6.3038  -6.1582  -5.0505
    -4.8094  -4.2589  -3.4363  -3.0699  -2.1998  -1.3350  -1.1321  -0.7495
    -0.2244  -0.1218   0.0379   0.3211   0.6749   0.7982   1.1879   1.4570
     1.5868   2.0958   2.3424   2.3768   2.5287   2.5549   2.9913   3.0589
     3.0821   3.5032   3.6179   3.6423   3.7574   4.0373   4.2212   4.7746
     4.9059   5.2491   8.4662   8.9611  10.5239  10.8188  10.8651  11.2577
    11.2956  11.4411  11.5745  11.7460

          k = 0.0000-0.2018 0.0000 ( 24637 PWs)   bands (ev):

   -14.6725 -14.3041 -13.7012 -13.3132 -12.7629 -12.1564 -11.4551 -10.5730
    -9.7021  -8.8298  -7.9707  -7.6481  -6.0317  -5.5061  -5.3277  -4.7185
    -4.2173  -3.9704  -3.2249  -2.7663  -2.5472  -2.0514  -1.8968  -1.1443
    -0.7722  -0.4715  -0.0641   0.2708   0.5703   0.8800   1.1402   1.1804
     1.3600   1.4974   1.9358   1.9490   2.3755   2.4437   2.8046   2.9301
     3.0298   3.3575   3.4212   3.6431   3.9266   4.0900   4.2379   4.4052
     4.7492   5.1465   9.1092   9.5483  10.1537  10.4816  11.0133  11.1764
    11.2830  11.4221  11.7956  12.0624

          k = 0.0998-0.0000 0.0000 ( 24655 PWs)   bands (ev):

   -15.1745 -14.6528 -13.7123 -12.3580 -10.7170 -10.5872 -10.5303 -10.0316
    -9.9455  -9.2186  -9.1995  -8.5032  -6.6306  -6.4919  -6.3994  -5.0245
    -5.0230  -4.3256  -3.2875  -3.2812  -2.2698  -1.3268  -1.3069  -1.0407
    -0.9402   0.0456   0.1599   0.2403   0.6100   0.6553   0.9477   1.4490
     1.8169   1.9715   2.1269   2.2241   2.3005   2.3348   2.5263   2.6105
     2.7780   2.8099   3.0500   3.1021   3.2808   3.7021   3.7613   4.7152
     4.9898   5.1375   8.4257   8.9183  10.8151  10.9705  11.0202  11.2346
    11.6253  11.6942  11.7527  11.8444

          k = 0.0998-0.1009 0.0000 ( 24646 PWs)   bands (ev):

   -14.9964 -14.4962 -13.5876 -12.3367 -12.0811 -11.4215 -10.7206 -10.1133
    -9.2766  -8.8047  -8.6454  -8.2463  -6.4918  -6.1493  -6.0352  -4.9233
    -4.6798  -4.1804  -3.3585  -2.9446  -2.2611  -1.2978  -1.1364  -0.9429
    -0.8243  -0.6174  -0.0709   0.0435   0.2498   0.6685   0.7907   1.1877
     1.3920   1.5287   1.6038   1.7428   2.2002   2.3880   2.5165   2.6540
     2.7529   3.0469   3.1210   3.2678   3.3939   3.6877   3.7417   4.1422
     4.8109   5.0256   8.6500   9.1325  10.8953  11.3897  11.4382  11.7346
    11.7799  11.8167  12.0326  12.0804

          k = 0.0998-0.2018 0.0000 ( 24657 PWs)   bands (ev):

   -14.4907 -14.1232 -13.5213 -13.1340 -12.5854 -11.9816 -11.2837 -10.4062
    -9.5406  -8.6733  -7.8166  -7.4873  -5.9502  -5.4000  -5.1970  -4.6052
    -4.1112  -3.8248  -3.1029  -2.6514  -2.4371  -1.9571  -1.7903  -1.2317
    -0.8647  -0.6356  -0.3763  -0.3280  -0.1471   0.3208   0.5095   0.8298
     1.0624   1.1655   1.4673   1.4991   1.8391   1.9514   2.4153   2.5543
     2.6872   2.9775   3.2120   3.3506   3.7236   3.7436   3.8712   4.0754
     4.4021   4.5501   9.2930   9.7094  10.3258  10.6156  11.0575  11.3341
    11.9121  12.1306  12.3884  12.4188

          k = 0.1997-0.0000 0.0000 ( 24607 PWs)   bands (ev):

   -14.6282 -14.1098 -13.1765 -11.8368 -10.2106 -10.0692 -10.0215  -9.5278
    -9.4472  -8.7270  -8.7092  -8.0522  -6.5060  -6.0422  -6.0325  -4.6568
    -4.6563  -4.4616  -3.3261  -3.0632  -3.0555  -2.6118  -2.5585  -1.3930
    -1.1771  -1.0952  -0.8671   0.0521   0.1218   0.2877   0.5388   0.5595
     0.6728   0.9544   1.0588   1.0947   1.2214   1.3489   1.4143   1.8385
     1.9355   2.2475   2.2870   2.5590   2.7449   2.8705   3.8228   3.9749
     4.0810   4.9814   8.9487   9.3320  11.3878  11.6646  11.8402  11.9296
    12.1707  12.2091  12.4669  12.6845

          k = 0.1997-0.1009 0.0000 ( 24634 PWs)   bands (ev):

   -14.4509 -13.9540 -13.0523 -11.8119 -11.5543 -10.9030 -10.2192  -9.6252
    -8.8005  -8.3039  -8.1651  -7.7917  -6.3724  -5.7189  -5.6895  -4.6527
    -4.4408  -4.1046  -3.3113  -3.0734  -2.6106  -2.5032  -2.4309  -1.4729
    -1.2162  -1.1058  -0.8980  -0.3829  -0.2072  -0.0384   0.0008   0.3223
     0.6134   0.6991   0.9941   1.0252   1.0846   1.5500   1.5885   1.7800
     2.0197   2.0974   2.2902   2.3733   2.7389   2.8835   3.2437   3.7142
     4.2147   4.5635   9.1609   9.5373  11.2025  11.6517  11.7348  11.8071
    11.9923  12.1861  12.8697  12.9193

          k = 0.1997-0.2018 0.0000 ( 24642 PWs)   bands (ev):

   -13.9476 -13.5826 -12.9844 -12.5993 -12.0564 -11.4617 -10.7757  -9.9139
    -9.0685  -8.2206  -7.3766  -7.0124  -5.8787  -5.2274  -4.8912  -4.3613
    -3.9468  -3.4246  -3.0032  -2.5325  -2.3974  -2.3393  -2.2276  -1.7474
    -1.6980  -1.6002  -1.4450  -0.9588  -0.7905  -0.4109  -0.4026  -0.1830
    -0.0961   0.3394   0.7096   0.9713   1.2110   1.3709   1.5654   1.7336
     2.0758   2.2525   2.3783   2.5439   2.7011   3.0508   3.1432   3.3918
     3.8732   3.8998   9.7524  10.0917  10.5908  10.7649  10.9055  11.2281
    11.6666  12.2318  12.3878  12.7245

          k = 0.2995-0.0000 0.0000 ( 24668 PWs)   bands (ev):

   -13.7262 -13.2147 -12.2982 -10.9964  -9.4296  -9.2171  -9.1935  -8.7051
    -8.6432  -7.9258  -7.9074  -7.5237  -7.2254  -5.7389  -5.4456  -5.3577
    -5.0385  -4.3304  -4.3218  -3.7703  -3.6083  -3.2224  -3.2165  -2.4386
    -2.1177  -1.5102  -1.4240  -1.3135  -1.2930  -0.8599  -0.8523  -0.4155
    -0.3267   0.1059   0.1234   0.5913   0.5945   1.1851   1.2162   1.2734
     1.5284   1.6098   1.9366   1.9920   2.1098   2.9321   3.1850   3.2277
     3.8490   4.6143   9.7773  10.0173  11.6258  11.6544  12.0148  12.1386
    12.3667  12.3834  12.4464  12.5798

          k = 0.2995-0.1009 0.0000 ( 24678 PWs)   bands (ev):

   -13.5503 -13.0602 -12.1744 -10.9601 -10.6893 -10.0564  -9.4282  -8.8685
    -8.0666  -7.4963  -7.4328  -7.2164  -7.0342  -5.6179  -5.3736  -5.1795
    -4.9092  -4.4090  -3.8857  -3.5865  -3.4868  -3.2304  -2.5944  -2.4169
    -2.2800  -2.1451  -1.8514  -1.3624  -1.2083  -0.7272  -0.4801  -0.3082
    -0.1359   0.1378   0.3570   0.4797   0.7815   0.8630   0.9539   1.1327
     1.4152   1.5097   1.6452   1.8310   2.2060   2.4795   2.5945   3.2773
     3.6175   3.8909   9.9686  10.1946  10.9941  11.6100  11.7242  12.0529
    12.3496  12.4119  12.4754  13.0848

          k = 0.2995-0.2018 0.0000 ( 24664 PWs)   bands (ev):

   -13.0512 -12.6913 -12.1004 -11.7202 -11.1898 -10.6163  -9.9587  -9.1388
    -8.3658  -7.6054  -6.9319  -6.6451  -6.1639  -5.6488  -5.2468  -4.8239
    -4.4027  -3.8949  -3.4210  -3.2926  -2.9729  -2.9108  -2.7733  -2.4147
    -2.1224  -1.8738  -1.7799  -1.5393  -1.4221  -0.9683  -0.7929  -0.5985
    -0.5617  -0.2781   0.0622   0.3617   0.5357   0.7130   0.9868   1.1955
     1.4954   1.5885   1.7080   1.8266   2.0451   2.1565   2.5401   2.6538
     3.0111   3.0194  10.2836  10.3788  10.6328  11.0629  11.1517  11.6450
    11.9115  12.4287  12.6940  12.9558

          k = 0.3993-0.0000 0.0000 ( 24732 PWs)   bands (ev):

   -12.4866 -11.9928 -11.1270 -10.0057  -9.3397  -8.3837  -8.2854  -8.0271
    -8.0186  -7.5459  -7.5287  -6.8407  -6.8369  -6.6272  -5.9427  -5.6498
    -5.1971  -5.1431  -5.0840  -4.8496  -4.2617  -4.0756  -4.0751  -2.8825
    -2.6622  -2.4492  -2.4269  -1.7918  -1.7592  -1.4282  -0.8733  -0.8145
    -0.6754  -0.5965  -0.3223  -0.1058  -0.0947   0.7222   0.7984   0.8253
     0.9590   1.3684   1.4190   2.2295   2.6202   2.6686   2.6979   3.2168
     3.6939   3.9828  10.8131  10.8975  11.3071  11.3886  11.5668  11.5796
    12.5522  12.5744  13.2032  13.2534

          k = 0.3993-0.1009 0.0000 ( 24696 PWs)   bands (ev):

   -12.3129 -11.8399 -11.0016  -9.9185  -9.5213  -9.1906  -8.9288  -8.3742
    -8.1484  -7.8080  -7.1886  -6.7277  -6.3675  -6.3210  -5.9889  -5.8482
    -5.4598  -5.1782  -4.7540  -4.1986  -3.9267  -3.5079  -3.4054  -3.0081
    -2.9053  -2.6662  -2.4275  -1.8694  -1.7836  -1.3083  -0.8210  -0.5522
    -0.3313  -0.2685  -0.1894   0.1617   0.1811   0.6678   0.7223   0.9140
     0.9959   1.2273   1.4207   1.5684   2.0633   2.1270   2.5392   2.8359
     2.9860   3.2004  10.5706  11.0468  11.2089  11.4198  11.7511  12.1872
    12.2448  12.5270  13.0249  13.2767

          k = 0.3993-0.2018 0.0000 ( 24655 PWs)   bands (ev):

   -11.8199 -11.4726 -10.8972 -10.5298 -10.0326  -9.5387  -9.0026  -8.6392
    -8.2096  -7.9087  -7.7660  -7.7354  -5.9866  -5.9369  -5.7377  -5.3969
    -5.1750  -5.0359  -4.7902  -4.1999  -3.5436  -2.8885  -2.7058  -2.4356
    -2.3546  -2.0767  -1.9873  -1.8015  -1.4860  -1.2939  -0.8964  -0.6184
    -0.5091  -0.1339   0.1288   0.2364   0.3960   0.4557   0.8153   0.8424
     0.9925   1.0266   1.1227   1.2881   1.4901   1.5048   1.7022   1.9198
     2.1124   2.2177  10.5278  10.9632  11.1611  11.4042  11.9749  12.1871
    12.2816  12.4683  12.5259  12.8246

          k =-0.4992 0.0000 0.0000 ( 24782 PWs)   bands (ev):

   -10.9823 -10.9336 -10.6359 -10.4335 -10.1270  -8.8769  -8.5688  -7.0734
    -6.6410  -6.6189  -6.6119  -6.6033  -6.3840  -6.2471  -6.2455  -6.2096
    -6.2053  -5.9030  -5.8772  -5.4892  -4.9814  -4.9813  -4.4580  -3.8630
    -2.2945  -2.0444  -1.9941  -1.8836  -1.8531  -1.2478  -1.2445  -1.1254
    -0.9675  -0.8859  -0.7429  -0.3092  -0.2924   0.5228   0.5797   0.6235
     0.7983   0.9575   1.3680   2.3900   2.5395   3.1212   3.1446   3.2197
     3.3283   3.3561  11.0778  11.1347  11.3362  11.3933  11.9165  11.9197
    12.4738  12.5579  12.5742  12.5779

          k =-0.4992-0.1009 0.0000 ( 24712 PWs)   bands (ev):

   -10.8153 -10.7604 -10.4904 -10.2721  -9.9831  -8.8231  -8.5402  -8.0799
    -8.0367  -7.6813  -7.5586  -7.3820  -6.6904  -6.1732  -5.4971  -5.4751
    -5.2341  -5.0780  -4.9763  -4.8875  -4.8120  -4.7367  -4.2422  -3.8168
    -2.4273  -2.3752  -2.1454  -1.7912  -1.6695  -1.0988  -1.0349  -0.7236
    -0.6516  -0.6227  -0.5464  -0.0864  -0.0458   0.4715   0.5733   0.6952
     0.8168   1.1333   1.3931   2.1301   2.2686   2.3801   2.4177   2.4614
     2.5743   2.6485  10.7544  11.2052  11.3904  11.7889  11.9573  12.1207
    12.4021  12.6133  12.8792  13.0223

          k =-0.4992-0.2018 0.0000 ( 24638 PWs)   bands (ev):

   -10.3554 -10.2581 -10.1438  -9.8467  -9.6600  -9.2954  -9.1488  -8.9199
    -8.6279  -8.4582  -8.3525  -8.2230  -6.3470  -6.2466  -5.8708  -5.5970
    -5.3221  -4.8931  -4.7208  -4.1566  -3.9956  -3.7312  -3.5754  -3.3960
    -1.9359  -1.5136  -1.4330  -1.4122  -1.2956  -1.0638  -1.0396  -0.6015
    -0.5727  -0.3203   0.1480   0.3062   0.4672   0.5851   0.6577   0.7334
     0.7351   0.8014   0.9951   1.0240   1.0914   1.2001   1.4490   1.4988
     1.7206   1.7837  11.0933  11.1626  11.5422  11.7579  11.8171  12.1587
    12.2173  12.6713  12.7722  12.9413

     the Fermi energy is     6.7985 ev

!    total energy              =    -447.08212423 Ry
     estimated scf accuracy    <          2.0E-10 Ry
     smearing contrib. (-TS)   =       0.00000000 Ry
     internal energy E=F+TS    =    -447.08212423 Ry

     The total energy is F=E-TS. E is the sum of the following terms:
     one-electron contribution =   -3159.62468210 Ry
     hartree contribution      =    1629.54039406 Ry
     xc contribution           =    -115.07712068 Ry
     ewald contribution        =    1345.99424065 Ry
     one-center paw contrib.   =    -147.91495617 Ry

     convergence has been achieved in  10 iterations

     negative rho (up, down):  4.934E-06 0.000E+00

     Forces acting on atoms (cartesian axes, Ry/au):

     atom    1 type  1   force =     0.00000000   -0.00192514   -0.00002104
     atom    2 type  1   force =     0.00000000   -0.00145693   -0.00231300
     atom    3 type  1   force =     0.00000000   -0.00050134   -0.00206467
     atom    4 type  1   force =    -0.00000000   -0.00068703   -0.00437549
     atom    5 type  1   force =     0.00000000    0.00062647   -0.00425646
     atom    6 type  1   force =     0.00000000    0.00113172   -0.00280684
     atom    7 type  1   force =     0.00000000    0.00088829   -0.00176099
     atom    8 type  1   force =     0.00000000    0.00042062   -0.00007975
     atom    9 type  1   force =     0.00000000   -0.00058227    0.00022829
     atom   10 type  1   force =     0.00000000   -0.00057347    0.00002386
     atom   11 type  1   force =     0.00000000   -0.00167215    0.00210538
     atom   12 type  1   force =     0.00000000   -0.00189067   -0.00029484
     atom   13 type  1   force =     0.00000000    0.00189067    0.00029484
     atom   14 type  1   force =     0.00000000    0.00167215   -0.00210538
     atom   15 type  1   force =     0.00000000    0.00057347   -0.00002386
     atom   16 type  1   force =     0.00000000    0.00058227   -0.00022829
     atom   17 type  1   force =     0.00000000   -0.00042062    0.00007975
     atom   18 type  1   force =    -0.00000000   -0.00088829    0.00176099
     atom   19 type  1   force =     0.00000000   -0.00113172    0.00280684
     atom   20 type  1   force =     0.00000000   -0.00062647    0.00425646
     atom   21 type  1   force =    -0.00000000    0.00068703    0.00437549
     atom   22 type  1   force =     0.00000000    0.00050134    0.00206467
     atom   23 type  1   force =     0.00000000    0.00145693    0.00231300
     atom   24 type  1   force =     0.00000000    0.00192514    0.00002104
     atom   25 type  2   force =     0.00000000   -0.00125604   -0.00031434
     atom   26 type  2   force =    -0.00000000    0.00111152    0.00026704
     atom   27 type  2   force =     0.00000000   -0.00111152   -0.00026704
     atom   28 type  2   force =     0.00000000    0.00125604    0.00031434

     Total force =     0.012779     Total SCF correction =     0.000037


     Computing stress (Cartesian axis) and pressure


     negative rho (up, down):  4.934E-06 0.000E+00
          total   stress  (Ry/bohr**3)                   (kbar)     P=       -4.54
  -0.00000244   0.00000000   0.00000000           -0.36        0.00        0.00
   0.00000000  -0.00000105   0.00000097            0.00       -0.15        0.14
   0.00000000   0.00000097  -0.00008900            0.00        0.14      -13.09

     Energy error            =      3.7E-04 Ry
     Gradient error          =      4.4E-03 Ry/Bohr
     Cell gradient error     =      3.6E-01 kbar

     number of scf cycles    =   9
     number of bfgs steps    =   8

     enthalpy           old  =    -447.0817547831 Ry
     enthalpy           new  =    -447.0821242309 Ry

     CASE: enthalpy          _new < enthalpy          _old

     new trust radius        =       0.0256339705 bohr
     Message from routine volume:
     axis vectors are left-handed
     new conv_thr            =       0.0000000004 Ry

     new unit-cell volume =   1697.38243 a.u.^3 (   251.52613 Ang^3 )
     density =      1.92970 g/cm^3

CELL_PARAMETERS (angstrom)
   2.530602119   0.000000000   0.000000000
   0.000000000  -5.004965303   0.000000000
   0.000000000   0.000000000  19.859035940

ATOMIC_POSITIONS (crystal)
C                0.0000000000        0.1617727951        0.7443355789
C                0.5000000000        0.2328283052        0.7034200228
C                0.5000000000       -0.0007443757        0.6534390615
C               -0.0000000000       -0.0006483574        0.6103399010
C                0.0000000000        0.2531087759        0.5680798656
C                0.5000000000        0.2530240787        0.5231209896
C                0.5000000000        0.0030117752        0.4779001341
C               -0.0000000000        0.0031198658        0.4326782235
C                0.0000000000        0.2496001815        0.3844538486
C                0.5000000000        0.2496163186        0.3375658757
C                0.5000000000       -0.0169321893        0.2964036625
C                0.0000000000       -0.0882624734        0.2555654395
C                0.0000000000        0.8382624734        0.7444345605
C                0.5000000000        0.7669321893        0.7035963375
C                0.5000000000        0.5003836814        0.6624341243
C                0.0000000000        0.5003998185        0.6155461514
C               -0.0000000000        0.7468801342        0.5673217765
C                0.5000000000        0.7469882248        0.5220998659
C                0.5000000000        0.4969759213        0.4768790104
C                0.0000000000        0.4968912241        0.4319201344
C               -0.0000000000        0.7506483574        0.3896600990
C                0.5000000000        0.7507443757        0.3465609385
C                0.5000000000        0.5171716948        0.2965799772
C                0.0000000000        0.5882272049        0.2556644211
H               -0.0000000000        0.2483878612        0.7952206890
H               -0.0000000000        0.7517226113        0.7953108506
H               -0.0000000000       -0.0017226113        0.2046891494
H               -0.0000000000        0.5016121388        0.2047793110



     Writing config-only to output data dir /tmp/qe/slab.save/ :
     XML data file
     NEW-OLD atomic charge density approx. for the potential

     Check: negative core charge=   -0.000001

     negative rho (up, down):  5.410E-06 0.000E+00

     total cpu time spent up to now is      685.5 secs

     Self-consistent Calculation

     iteration #  1     ecut=    90.00 Ry     beta= 0.30
     Davidson diagonalization with overlap
     ethr =  1.00E-06,  avg # of iterations =  4.2

     negative rho (up, down):  5.287E-06 0.000E+00

     total cpu time spent up to now is      692.6 secs

     total energy              =    -447.08235813 Ry
     estimated scf accuracy    <       0.00020542 Ry

     iteration #  2     ecut=    90.00 Ry     beta= 0.30
     Davidson diagonalization with overlap
     ethr =  2.05E-07,  avg # of iterations =  1.9

     negative rho (up, down):  5.058E-06 0.000E+00

     total cpu time spent up to now is      696.9 secs

     total energy              =    -447.08235774 Ry
     estimated scf accuracy    <       0.00007666 Ry

     iteration #  3     ecut=    90.00 Ry     beta= 0.30
     Davidson diagonalization with overlap
     ethr =  7.67E-08,  avg # of iterations =  2.0

     negative rho (up, down):  4.994E-06 0.000E+00

     total cpu time spent up to now is      701.5 secs

     total energy              =    -447.08236480 Ry
     estimated scf accuracy    <       0.00000940 Ry

     iteration #  4     ecut=    90.00 Ry     beta= 0.30
     Davidson diagonalization with overlap
     ethr =  9.40E-09,  avg # of iterations =  2.7

     negative rho (up, down):  4.983E-06 0.000E+00

     total cpu time spent up to now is      706.1 secs

     total energy              =    -447.08236579 Ry
     estimated scf accuracy    <       0.00000158 Ry

     iteration #  5     ecut=    90.00 Ry     beta= 0.30
     Davidson diagonalization with overlap
     ethr =  1.58E-09,  avg # of iterations =  2.4

     negative rho (up, down):  4.987E-06 0.000E+00

     total cpu time spent up to now is      710.9 secs

     total energy              =    -447.08236589 Ry
     estimated scf accuracy    <       0.00000036 Ry

     iteration #  6     ecut=    90.00 Ry     beta= 0.30
     Davidson diagonalization with overlap
     ethr =  3.64E-10,  avg # of iterations =  3.1

     negative rho (up, down):  4.994E-06 0.000E+00

     total cpu time spent up to now is      716.0 secs

     total energy              =    -447.08236597 Ry
     estimated scf accuracy    <       0.00000015 Ry

     iteration #  7     ecut=    90.00 Ry     beta= 0.30
     Davidson diagonalization with overlap
     ethr =  1.49E-10,  avg # of iterations =  1.8

     negative rho (up, down):  4.997E-06 0.000E+00

     total cpu time spent up to now is      720.3 secs

     total energy              =    -447.08236597 Ry
     estimated scf accuracy    <       0.00000003 Ry

     iteration #  8     ecut=    90.00 Ry     beta= 0.30
     Davidson diagonalization with overlap
     ethr =  2.59E-11,  avg # of iterations =  3.4

     negative rho (up, down):  5.001E-06 0.000E+00

     total cpu time spent up to now is      725.4 secs

     total energy              =    -447.08236598 Ry
     estimated scf accuracy    <          4.6E-09 Ry

     iteration #  9     ecut=    90.00 Ry     beta= 0.30
     Davidson diagonalization with overlap
     ethr =  4.58E-12,  avg # of iterations =  2.6

     negative rho (up, down):  5.003E-06 0.000E+00

     total cpu time spent up to now is      730.3 secs

     total energy              =    -447.08236598 Ry
     estimated scf accuracy    <          3.7E-10 Ry

     iteration # 10     ecut=    90.00 Ry     beta= 0.30
     Davidson diagonalization with overlap
     ethr =  3.71E-13,  avg # of iterations =  3.3

     negative rho (up, down):  5.007E-06 0.000E+00

     total cpu time spent up to now is      735.9 secs

     End of self-consistent calculation

          k = 0.0000-0.0000 0.0000 ( 24643 PWs)   bands (ev):

   -15.3744 -14.8397 -13.8957 -12.5331 -10.8902 -10.7768 -10.7128 -10.2097
   -10.1197  -9.3913  -9.3714  -8.6523  -6.7607  -6.6635  -6.5038  -5.1713
    -5.1682  -4.3697  -3.3959  -3.3895  -2.1282  -1.3601  -1.3528  -0.2847
     0.0798   0.1004   0.1999   0.5884   0.6332   0.8539   1.1010   1.8238
     2.1960   2.3348   2.3582   2.5797   3.0003   3.0088   3.0090   3.1196
     3.1199   3.1286   3.7256   3.7298   3.7298   3.8211   4.0359   5.1683
     5.2581   5.3289   8.2543   8.7536  10.2879  10.3168  10.3665  10.7151
    11.0885  11.2179  11.3316  11.5268

          k = 0.0000-0.1010 0.0000 ( 24675 PWs)   bands (ev):

   -15.1955 -14.6819 -13.7697 -12.5147 -12.2737 -11.6066 -10.8928 -10.2834
    -9.4463  -8.9823  -8.8102  -8.4007  -6.5905  -6.3177  -6.1644  -5.0562
    -4.8123  -4.2493  -3.4430  -3.0755  -2.1851  -1.3358  -1.1363  -0.7603
    -0.2136  -0.1394   0.0330   0.3181   0.6766   0.7996   1.1829   1.4566
     1.5923   2.0755   2.3409   2.3816   2.5288   2.5459   2.9917   3.0488
     3.0848   3.4975   3.6213   3.6468   3.7538   4.0333   4.2180   4.7753
     4.9180   5.2464   8.4785   8.9709  10.5160  10.8113  10.8493  11.2513
    11.2949  11.4498  11.5725  11.7549

          k = 0.0000-0.2019 0.0000 ( 24637 PWs)   bands (ev):

   -14.6862 -14.3048 -13.7098 -13.3265 -12.7719 -12.1635 -11.4635 -10.5761
    -9.7060  -8.8318  -7.9694  -7.6520  -6.0238  -5.5090  -5.3357  -4.7203
    -4.2220  -3.9788  -3.2258  -2.7716  -2.5512  -2.0584  -1.8998  -1.1438
    -0.7702  -0.4725  -0.0625   0.2568   0.5695   0.8833   1.1264   1.1900
     1.3601   1.4825   1.9259   1.9541   2.3696   2.4451   2.7966   2.9352
     3.0311   3.3533   3.4263   3.6455   3.9255   4.0935   4.2449   4.4028
     4.7428   5.1418   9.1204   9.5543  10.1678  10.4899  11.0082  11.1630
    11.2713  11.4180  11.7876  12.0594

          k = 0.0998-0.0000 0.0000 ( 24655 PWs)   bands (ev):

   -15.1916 -14.6578 -13.7161 -12.3575 -10.7183 -10.6032 -10.5418 -10.0406
    -9.9521  -9.2262  -9.2068  -8.4943  -6.6343  -6.5059  -6.3996  -5.0331
    -5.0308  -4.3089  -3.2948  -3.2880  -2.2571  -1.3307  -1.3080  -1.0513
    -0.9400   0.0400   0.1764   0.2244   0.6095   0.6549   0.9402   1.4495
     1.8122   1.9846   2.1164   2.2065   2.2908   2.3318   2.5204   2.6048
     2.7773   2.8080   3.0480   3.1008   3.2865   3.7116   3.7564   4.7176
     5.0037   5.1324   8.4377   8.9282  10.8115  10.9648  11.0167  11.2370
    11.6288  11.6981  11.7431  11.8463

          k = 0.0998-0.1010 0.0000 ( 24646 PWs)   bands (ev):

   -15.0129 -14.5003 -13.5902 -12.3382 -12.0971 -11.4325 -10.7232 -10.1178
    -9.2849  -8.8143  -8.6482  -8.2424  -6.4861  -6.1631  -6.0434  -4.9287
    -4.6819  -4.1727  -3.3655  -2.9504  -2.2507  -1.2989  -1.1399  -0.9509
    -0.8282  -0.6283  -0.0637   0.0368   0.2469   0.6683   0.7887   1.1793
     1.3826   1.5319   1.6011   1.7396   2.1946   2.3881   2.5158   2.6511
     2.7517   3.0470   3.1140   3.2664   3.3911   3.6910   3.7459   4.1395
     4.8214   5.0252   8.6620   9.1421  10.8894  11.3870  11.4382  11.7382
    11.7751  11.8177  12.0333  12.0819

          k = 0.0998-0.2019 0.0000 ( 24657 PWs)   bands (ev):

   -14.5045 -14.1238 -13.5299 -13.1473 -12.5944 -11.9887 -11.2922 -10.4093
    -9.5444  -8.6752  -7.8152  -7.4912  -5.9426  -5.4026  -5.2050  -4.6075
    -4.1162  -3.8331  -3.1035  -2.6565  -2.4418  -1.9651  -1.7932  -1.2351
    -0.8653  -0.6414  -0.3769  -0.3296  -0.1505   0.3155   0.4936   0.8243
     1.0630   1.1673   1.4660   1.4980   1.8378   1.9489   2.4171   2.5550
     2.6859   2.9796   3.2124   3.3509   3.7234   3.7446   3.8700   4.0741
     4.4067   4.5468   9.3038   9.7149  10.3393  10.6230  11.0538  11.3230
    11.9207  12.1331  12.3898  12.4167

          k = 0.1997-0.0000 0.0000 ( 24607 PWs)   bands (ev):

   -14.6453 -14.1148 -13.1803 -11.8364 -10.2109 -10.0853 -10.0340  -9.5369
    -9.4541  -8.7346  -8.7165  -8.0429  -6.5008  -6.0560  -6.0451  -4.6646
    -4.6642  -4.4545  -3.3349  -3.0712  -3.0643  -2.6088  -2.5546  -1.3886
    -1.1826  -1.0991  -0.8598   0.0489   0.1165   0.2911   0.5227   0.5473
     0.6570   0.9618   1.0569   1.0957   1.2152   1.3477   1.4126   1.8426
     1.9292   2.2449   2.2800   2.5575   2.7403   2.8841   3.8162   3.9863
     4.0895   4.9747   8.9604   9.3415  11.3858  11.6645  11.8486  11.9316
    12.1752  12.2123  12.4705  12.6861

          k = 0.1997-0.1010 0.0000 ( 24634 PWs)   bands (ev):

   -14.4675 -13.9581 -13.0550 -11.8131 -11.5705 -10.9140 -10.2217  -9.6300
    -8.8089  -8.3133  -8.1676  -7.7878  -6.3660  -5.7317  -5.7023  -4.6535
    -4.4398  -4.1121  -3.3178  -3.0864  -2.6169  -2.5002  -2.4278  -1.4711
    -1.2169  -1.1131  -0.8983  -0.3918  -0.2203  -0.0458   0.0010   0.3198
     0.6107   0.7009   0.9872   1.0229   1.0815   1.5487   1.5900   1.7783
     2.0167   2.0953   2.2906   2.3732   2.7391   2.8822   3.2473   3.7157
     4.2209   4.5615   9.1726   9.5468  11.2058  11.6516  11.7408  11.8162
    11.9958  12.1921  12.8799  12.9312

          k = 0.1997-0.2019 0.0000 ( 24642 PWs)   bands (ev):

   -13.9614 -13.5834 -12.9929 -12.6127 -12.0654 -11.4688 -10.7843  -9.9171
    -9.0724  -8.2224  -7.3746  -7.0162  -5.8743  -5.2295  -4.8978  -4.3655
    -3.9550  -3.4319  -3.0072  -2.5401  -2.4027  -2.3413  -2.2331  -1.7568
    -1.6994  -1.6066  -1.4586  -0.9636  -0.7980  -0.4126  -0.4060  -0.1864
    -0.0984   0.3374   0.7063   0.9716   1.2172   1.3710   1.5655   1.7336
     2.0755   2.2473   2.3804   2.5462   2.7020   3.0511   3.1430   3.3900
     3.8757   3.9004   9.7625  10.0976  10.5973  10.7723  10.9147  11.2349
    11.6654  12.2349  12.3943  12.7359

          k = 0.2995-0.0000 0.0000 ( 24668 PWs)   bands (ev):

   -13.7433 -13.2199 -12.3022 -10.9964  -9.4279  -9.2331  -9.2089  -8.7144
    -8.6510  -7.9332  -7.9150  -7.5140  -7.2273  -5.7421  -5.4580  -5.3705
    -5.0466  -4.3393  -4.3315  -3.7714  -3.6025  -3.2341  -3.2283  -2.4238
    -2.1152  -1.5162  -1.4284  -1.3270  -1.3056  -0.8647  -0.8574  -0.3995
    -0.3224   0.1037   0.1207   0.5876   0.5924   1.1757   1.2191   1.2688
     1.5178   1.6073   1.9435   1.9969   2.1034   2.9242   3.1988   3.2359
     3.8417   4.6054   9.7886  10.0268  11.6369  11.6665  12.0298  12.1487
    12.3734  12.3813  12.4552  12.5811

          k = 0.2995-0.1010 0.0000 ( 24678 PWs)   bands (ev):

   -13.5669 -13.0645 -12.1774 -10.9610 -10.7062 -10.0674  -9.4305  -8.8752
    -8.0745  -7.5027  -7.4335  -7.2162  -7.0368  -5.6204  -5.3842  -5.1903
    -4.9181  -4.4203  -3.8931  -3.5886  -3.4841  -3.2426  -2.5906  -2.4243
    -2.2844  -2.1492  -1.8568  -1.3642  -1.2131  -0.7276  -0.4782  -0.3089
    -0.1368   0.1360   0.3558   0.4694   0.7797   0.8602   0.9514   1.1304
     1.4162   1.5110   1.6381   1.8314   2.2039   2.4806   2.5983   3.2803
     3.6192   3.8827   9.9804  10.2051  11.0065  11.6212  11.7330  12.0522
    12.3495  12.4249  12.4808  13.0953

          k = 0.2995-0.2019 0.0000 ( 24664 PWs)   bands (ev):

   -13.0650 -12.6922 -12.1089 -11.7338 -11.1988 -10.6236  -9.9675  -9.1422
    -8.3710  -7.6069  -6.9265  -6.6460  -6.1713  -5.6565  -5.2509  -4.8334
    -4.4124  -3.9041  -3.4209  -3.2958  -2.9785  -2.9164  -2.7838  -2.4181
    -2.1262  -1.8775  -1.7865  -1.5478  -1.4237  -0.9747  -0.7944  -0.6011
    -0.5699  -0.2818   0.0600   0.3634   0.5354   0.7101   0.9891   1.1969
     1.4972   1.5885   1.7146   1.8225   2.0429   2.1552   2.5382   2.6498
     3.0132   3.0190  10.2998  10.3857  10.6376  11.0644  11.1593  11.6456
    11.9226  12.4385  12.6989  12.9671

          k = 0.3993-0.0000 0.0000 ( 24732 PWs)   bands (ev):

   -12.5037 -11.9982 -11.1316 -10.0090  -9.3555  -8.3781  -8.2768  -8.0423
    -8.0320  -7.5541  -7.5354  -6.8485  -6.8448  -6.6345  -5.9465  -5.6467
    -5.2105  -5.1591  -5.0972  -4.8588  -4.2561  -4.0854  -4.0848  -2.8753
    -2.6550  -2.4593  -2.4349  -1.7990  -1.7666  -1.4166  -0.8758  -0.8192
    -0.6832  -0.6038  -0.3133  -0.1099  -0.0999   0.7228   0.7956   0.8237
     0.9570   1.3716   1.4306   2.2147   2.6307   2.6605   2.7110   3.2076
     3.6863   3.9717  10.8244  10.9086  11.3221  11.4014  11.5795  11.5912
    12.5633  12.5852  13.2145  13.2655

          k = 0.3993-0.1010 0.0000 ( 24696 PWs)   bands (ev):

   -12.3295 -11.8445 -11.0052  -9.9207  -9.5398  -9.2054  -8.9400  -8.3729
    -8.1399  -7.8088  -7.1962  -6.7379  -6.3784  -6.3316  -5.9977  -5.8530
    -5.4670  -5.1797  -4.7633  -4.1987  -3.9345  -3.5154  -3.4165  -3.0136
    -2.9126  -2.6671  -2.4255  -1.8718  -1.7862  -1.3028  -0.8229  -0.5564
    -0.3326  -0.2654  -0.1956   0.1594   0.1777   0.6673   0.7231   0.9140
     0.9906   1.2251   1.4279   1.5567   2.0610   2.1276   2.5455   2.8348
     2.9804   3.1898  10.5865  11.0602  11.2174  11.4298  11.7642  12.1943
    12.2533  12.5396  13.0385  13.2867

          k = 0.3993-0.2019 0.0000 ( 24655 PWs)   bands (ev):

   -11.8338 -11.4738 -10.9053 -10.5442 -10.0415  -9.5473  -9.0133  -8.6550
    -8.2131  -7.8992  -7.7633  -7.7431  -5.9964  -5.9463  -5.7491  -5.4035
    -5.1796  -5.0421  -4.7946  -4.2024  -3.5456  -2.8903  -2.7046  -2.4457
    -2.3513  -2.0838  -1.9933  -1.8021  -1.4907  -1.2997  -0.9001  -0.6218
    -0.5152  -0.1367   0.1226   0.2350   0.3905   0.4557   0.8176   0.8413
     0.9896   1.0250   1.1220   1.2881   1.4824   1.5018   1.7000   1.9200
     2.1142   2.2196  10.5429  10.9814  11.1644  11.3957  11.9810  12.1917
    12.2920  12.4702  12.5351  12.8395

          k =-0.4991 0.0000 0.0000 ( 24782 PWs)   bands (ev):

   -10.9981 -10.9513 -10.6404 -10.4429 -10.1369  -8.8652  -8.5538  -7.0795
    -6.6549  -6.6341  -6.6268  -6.6202  -6.3923  -6.2569  -6.2555  -6.2197
    -6.2070  -5.9106  -5.8859  -5.4883  -4.9899  -4.9897  -4.4506  -3.8592
    -2.2813  -2.0538  -2.0034  -1.8967  -1.8656  -1.2458  -1.2425  -1.1302
    -0.9734  -0.8775  -0.7458  -0.3152  -0.2992   0.5201   0.5788   0.6233
     0.8066   0.9543   1.3803   2.4009   2.5527   3.1097   3.1271   3.2094
     3.3224   3.3490  11.0915  11.1487  11.3496  11.4059  11.9288  11.9323
    12.4841  12.5660  12.5862  12.5905

          k =-0.4991-0.1010 0.0000 ( 24712 PWs)   bands (ev):

   -10.8304 -10.7778 -10.4941 -10.2811  -9.9927  -8.8104  -8.5257  -8.0986
    -8.0521  -7.6895  -7.5698  -7.3915  -6.7011  -6.1763  -5.4947  -5.4852
    -5.2443  -5.0924  -4.9850  -4.8948  -4.8171  -4.7406  -4.2391  -3.8143
    -2.4355  -2.3916  -2.1367  -1.7974  -1.6717  -1.0907  -1.0357  -0.7288
    -0.6495  -0.6316  -0.5514  -0.0889  -0.0490   0.4698   0.5739   0.6935
     0.8214   1.1326   1.4016   2.1358   2.2670   2.3628   2.4190   2.4518
     2.5671   2.6450  10.7678  11.2212  11.4075  11.7985  11.9692  12.1331
    12.4103  12.6206  12.8905  13.0279

          k =-0.4991-0.2019 0.0000 ( 24638 PWs)   bands (ev):

   -10.3663 -10.2743 -10.1445  -9.8533  -9.6699  -9.3096  -9.1707  -8.9225
    -8.6408  -8.4473  -8.3645  -8.2147  -6.3555  -6.2577  -5.8819  -5.5988
    -5.3296  -4.8966  -4.7271  -4.1583  -3.9946  -3.7363  -3.5800  -3.3974
    -1.9223  -1.5055  -1.4445  -1.4177  -1.3118  -1.0688  -1.0429  -0.6030
    -0.5760  -0.3215   0.1472   0.2947   0.4618   0.5803   0.6549   0.7278
     0.7310   0.8004   0.9877   1.0175   1.0892   1.1957   1.4529   1.5035
     1.7257   1.7861  11.1103  11.1789  11.5574  11.7711  11.8103  12.1386
    12.2259  12.6798  12.7825  12.9471

     the Fermi energy is     6.8017 ev

!    total energy              =    -447.08236598 Ry
     estimated scf accuracy    <          2.7E-10 Ry
     smearing contrib. (-TS)   =       0.00000000 Ry
     internal energy E=F+TS    =    -447.08236598 Ry

     The total energy is F=E-TS. E is the sum of the following terms:
     one-electron contribution =   -3169.93059494 Ry
     hartree contribution      =    1634.69249516 Ry
     xc contribution           =    -115.09546761 Ry
     ewald contribution        =    1351.16660123 Ry
     one-center paw contrib.   =    -147.91539982 Ry

     convergence has been achieved in  10 iterations

     negative rho (up, down):  5.007E-06 0.000E+00

     Forces acting on atoms (cartesian axes, Ry/au):

     atom    1 type  1   force =     0.00000000   -0.00008421   -0.00028383
     atom    2 type  1   force =     0.00000000   -0.00018260   -0.00090114
     atom    3 type  1   force =     0.00000000   -0.00093047   -0.00264384
     atom    4 type  1   force =     0.00000000   -0.00094031   -0.00247861
     atom    5 type  1   force =     0.00000000   -0.00012138   -0.00310056
     atom    6 type  1   force =    -0.00000000    0.00020892   -0.00226103
     atom    7 type  1   force =     0.00000000   -0.00003086   -0.00123436
     atom    8 type  1   force =     0.00000000   -0.00036904   -0.00078238
     atom    9 type  1   force =     0.00000000   -0.00090623   -0.00032061
     atom   10 type  1   force =     0.00000000   -0.00087337    0.00009008
     atom   11 type  1   force =    -0.00000000   -0.00025805    0.00138550
     atom   12 type  1   force =     0.00000000   -0.00019986    0.00016830
     atom   13 type  1   force =     0.00000000    0.00019986   -0.00016830
     atom   14 type  1   force =    -0.00000000    0.00025805   -0.00138550
     atom   15 type  1   force =     0.00000000    0.00087337   -0.00009008
     atom   16 type  1   force =     0.00000000    0.00090623    0.00032061
     atom   17 type  1   force =     0.00000000    0.00036904    0.00078238
     atom   18 type  1   force =     0.00000000    0.00003086    0.00123436
     atom   19 type  1   force =    -0.00000000   -0.00020892    0.00226103
     atom   20 type  1   force =     0.00000000    0.00012138    0.00310056
     atom   21 type  1   force =     0.00000000    0.00094031    0.00247861
     atom   22 type  1   force =     0.00000000    0.00093047    0.00264384
     atom   23 type  1   force =     0.00000000    0.00018260    0.00090114
     atom   24 type  1   force =     0.00000000    0.00008421    0.00028383
     atom   25 type  2   force =     0.00000000    0.00011475    0.00024266
     atom   26 type  2   force =     0.00000000   -0.00039391    0.00079093
     atom   27 type  2   force =     0.00000000    0.00039391   -0.00079093
     atom   28 type  2   force =     0.00000000   -0.00011475   -0.00024266

     Total force =     0.008657     Total SCF correction =     0.000067


     Computing stress (Cartesian axis) and pressure


     negative rho (up, down):  5.007E-06 0.000E+00
          total   stress  (Ry/bohr**3)                   (kbar)     P=       -2.40
  -0.00000099   0.00000000   0.00000000           -0.15        0.00        0.00
   0.00000000   0.00000223  -0.00000073            0.00        0.33       -0.11
   0.00000000  -0.00000073  -0.00005022            0.00       -0.11       -7.39

     Energy error            =      2.4E-04 Ry
     Gradient error          =      3.1E-03 Ry/Bohr
     Cell gradient error     =      3.3E-01 kbar

     number of scf cycles    =  10
     number of bfgs steps    =   9

     enthalpy           old  =    -447.0821242309 Ry
     enthalpy           new  =    -447.0823659782 Ry

     CASE: enthalpy          _new < enthalpy          _old

     new trust radius        =       0.0073699684 bohr
     Message from routine volume:
     axis vectors are left-handed
     new conv_thr            =       0.0000000002 Ry

     new unit-cell volume =   1697.26592 a.u.^3 (   251.50886 Ang^3 )
     density =      1.92983 g/cm^3

CELL_PARAMETERS (angstrom)
   2.530558806   0.000000000   0.000000000
   0.000000000  -5.004707438   0.000000000
   0.000000000   0.000000000  19.859035940

ATOMIC_POSITIONS (crystal)
C                0.0000000000        0.1619380779        0.7442588820
C                0.5000000000        0.2328729885        0.7033168173
C                0.5000000000       -0.0006656700        0.6533113072
C               -0.0000000000       -0.0005604735        0.6102270318
C                0.0000000000        0.2530630188        0.5679456307
C                0.5000000000        0.2529437148        0.5230324884
C                0.5000000000        0.0029592465        0.4778703825
C               -0.0000000000        0.0031149062        0.4326924797
C                0.0000000000        0.2497008709        0.3845186905
C                0.5000000000        0.2497185505        0.3376526003
C                0.5000000000       -0.0168523151        0.2965089245
C                0.0000000000       -0.0880835362        0.2556283522
C                0.0000000000        0.8380835362        0.7443716478
C                0.5000000000        0.7668523151        0.7034910755
C                0.5000000000        0.5002814495        0.6623473997
C                0.0000000000        0.5002991291        0.6154813095
C               -0.0000000000        0.7468850938        0.5673075203
C                0.5000000000        0.7470407535        0.5221296175
C                0.5000000000        0.4970562852        0.4769675116
C                0.0000000000        0.4969369812        0.4320543693
C               -0.0000000000        0.7505604735        0.3897729682
C                0.5000000000        0.7506656700        0.3466886928
C                0.5000000000        0.5171270115        0.2966831827
C                0.0000000000        0.5880619221        0.2557411180
H               -0.0000000000        0.2490344169        0.7951110756
H               -0.0000000000        0.7511275150        0.7952313893
H               -0.0000000000       -0.0011275150        0.2047686107
H               -0.0000000000        0.5009655831        0.2048889244



     Writing config-only to output data dir /tmp/qe/slab.save/ :
     XML data file
     NEW-OLD atomic charge density approx. for the potential

     Check: negative core charge=   -0.000001

     negative rho (up, down):  5.107E-06 0.000E+00

     total cpu time spent up to now is      754.9 secs

     Self-consistent Calculation

     iteration #  1     ecut=    90.00 Ry     beta= 0.30
     Davidson diagonalization with overlap
     ethr =  1.00E-06,  avg # of iterations =  3.1

     Threshold (ethr) on eigenvalues was too large:
     Diagonalizing with lowered threshold

     Davidson diagonalization with overlap
     ethr =  2.70E-08,  avg # of iterations =  4.1

     negative rho (up, down):  5.074E-06 0.000E+00

     total cpu time spent up to now is      766.9 secs

     total energy              =    -447.08244022 Ry
     estimated scf accuracy    <       0.00003720 Ry

     iteration #  2     ecut=    90.00 Ry     beta= 0.30
     Davidson diagonalization with overlap
     ethr =  3.72E-08,  avg # of iterations =  1.8

     negative rho (up, down):  5.019E-06 0.000E+00

     total cpu time spent up to now is      771.1 secs

     total energy              =    -447.08244019 Ry
     estimated scf accuracy    <       0.00001189 Ry

     iteration #  3     ecut=    90.00 Ry     beta= 0.30
     Davidson diagonalization with overlap
     ethr =  1.19E-08,  avg # of iterations =  1.6

     negative rho (up, down):  4.997E-06 0.000E+00

     total cpu time spent up to now is      775.3 secs

     total energy              =    -447.08244066 Ry
     estimated scf accuracy    <       0.00000277 Ry

     iteration #  4     ecut=    90.00 Ry     beta= 0.30
     Davidson diagonalization with overlap
     ethr =  2.77E-09,  avg # of iterations =  2.0

     negative rho (up, down):  4.994E-06 0.000E+00

     total cpu time spent up to now is      779.7 secs

     total energy              =    -447.08244087 Ry
     estimated scf accuracy    <       0.00000038 Ry

     iteration #  5     ecut=    90.00 Ry     beta= 0.30
     Davidson diagonalization with overlap
     ethr =  3.82E-10,  avg # of iterations =  2.1

     negative rho (up, down):  4.997E-06 0.000E+00

     total cpu time spent up to now is      784.7 secs

     total energy              =    -447.08244092 Ry
     estimated scf accuracy    <       0.00000004 Ry

     iteration #  6     ecut=    90.00 Ry     beta= 0.30
     Davidson diagonalization with overlap
     ethr =  3.53E-11,  avg # of iterations =  2.4

     negative rho (up, down):  4.999E-06 0.000E+00

     total cpu time spent up to now is      789.6 secs

     total energy              =    -447.08244092 Ry
     estimated scf accuracy    <          5.9E-09 Ry

     iteration #  7     ecut=    90.00 Ry     beta= 0.30
     Davidson diagonalization with overlap
     ethr =  5.86E-12,  avg # of iterations =  2.9

     negative rho (up, down):  5.000E-06 0.000E+00

     total cpu time spent up to now is      794.5 secs

     total energy              =    -447.08244092 Ry
     estimated scf accuracy    <          8.3E-10 Ry

     iteration #  8     ecut=    90.00 Ry     beta= 0.30
     Davidson diagonalization with overlap
     ethr =  8.32E-13,  avg # of iterations =  2.5

     negative rho (up, down):  5.002E-06 0.000E+00

     total cpu time spent up to now is      799.8 secs

     End of self-consistent calculation

          k = 0.0000-0.0000 0.0000 ( 24643 PWs)   bands (ev):

   -15.3821 -14.8390 -13.8955 -12.5311 -10.8896 -10.7863 -10.7222 -10.2148
   -10.1228  -9.3923  -9.3724  -8.6491  -6.7635  -6.6689  -6.5016  -5.1726
    -5.1691  -4.3636  -3.3969  -3.3905  -2.1220  -1.3597  -1.3519  -0.2933
     0.0695   0.1062   0.2005   0.5898   0.6345   0.8499   1.1004   1.8191
     2.1997   2.3353   2.3583   2.5805   2.9903   2.9974   3.0116   3.1131
     3.1142   3.1311   3.7251   3.7329   3.7329   3.8203   4.0399   5.1654
     5.2550   5.3349   8.2575   8.7560  10.2808  10.3100  10.3665  10.7171
    11.0877  11.2170  11.3267  11.5242

          k = 0.0000-0.1010 0.0000 ( 24675 PWs)   bands (ev):

   -15.2028 -14.6808 -13.7690 -12.5139 -12.2814 -11.6116 -10.8962 -10.2841
    -9.4502  -8.9870  -8.8106  -8.3993  -6.5894  -6.3235  -6.1659  -5.0560
    -4.8117  -4.2466  -3.4434  -3.0774  -2.1805  -1.3346  -1.1375  -0.7671
    -0.2106  -0.1476   0.0308   0.3190   0.6775   0.7998   1.1825   1.4544
     1.5946   2.0648   2.3423   2.3825   2.5292   2.5398   2.9928   3.0434
     3.0855   3.4955   3.6234   3.6499   3.7497   4.0318   4.2182   4.7744
     4.9234   5.2430   8.4815   8.9731  10.5140  10.8081  10.8412  11.2476
    11.2938  11.4523  11.5702  11.7553

          k = 0.0000-0.2019 0.0000 ( 24637 PWs)   bands (ev):

   -14.6919 -14.3022 -13.7141 -13.3311 -12.7735 -12.1678 -11.4681 -10.5766
    -9.7066  -8.8328  -7.9684  -7.6542  -6.0221  -5.5098  -5.3390  -4.7230
    -4.2221  -3.9807  -3.2275  -2.7711  -2.5537  -2.0626  -1.9015  -1.1421
    -0.7680  -0.4736  -0.0613   0.2506   0.5709   0.8859   1.1190   1.1905
     1.3595   1.4777   1.9235   1.9545   2.3653   2.4458   2.7928   2.9372
     3.0316   3.3520   3.4296   3.6472   3.9243   4.0949   4.2495   4.4005
     4.7395   5.1382   9.1230   9.5552  10.1708  10.4911  11.0067  11.1582
    11.2658  11.4170  11.7826  12.0565

          k = 0.0998-0.0000 0.0000 ( 24655 PWs)   bands (ev):

   -15.1992 -14.6572 -13.7158 -12.3555 -10.7177 -10.6127 -10.5513 -10.0457
    -9.9551  -9.2272  -9.2078  -8.4910  -6.6355  -6.5113  -6.3991  -5.0344
    -5.0318  -4.3031  -3.2958  -3.2891  -2.2540  -1.3308  -1.3073  -1.0549
    -0.9389   0.0373   0.1835   0.2141   0.6106   0.6560   0.9360   1.4483
     1.8091   1.9893   2.1107   2.1964   2.2838   2.3272   2.5167   2.6022
     2.7796   2.8093   3.0506   3.1028   3.2868   3.7141   3.7562   4.7162
     5.0096   5.1289   8.4407   8.9303  10.8103  10.9577  11.0136  11.2375
    11.6281  11.6955  11.7397  11.8488

          k = 0.0998-0.1010 0.0000 ( 24646 PWs)   bands (ev):

   -15.0203 -14.4992 -13.5895 -12.3373 -12.1048 -11.4374 -10.7266 -10.1185
    -9.2888  -8.8190  -8.6485  -8.2409  -6.4843  -6.1688  -6.0457  -4.9284
    -4.6811  -4.1705  -3.3660  -2.9523  -2.2480  -1.2981  -1.1406  -0.9540
    -0.8288  -0.6354  -0.0606   0.0353   0.2449   0.6677   0.7883   1.1757
     1.3765   1.5337   1.5999   1.7355   2.1911   2.3879   2.5161   2.6500
     2.7510   3.0461   3.1093   3.2669   3.3918   3.6914   3.7489   4.1371
     4.8264   5.0230   8.6649   9.1440  10.8873  11.3852  11.4372  11.7351
    11.7702  11.8166  12.0304  12.0834

          k = 0.0998-0.2019 0.0000 ( 24657 PWs)   bands (ev):

   -14.5101 -14.1212 -13.5342 -13.1519 -12.5960 -11.9929 -11.2968 -10.4098
    -9.5451  -8.6762  -7.8141  -7.4934  -5.9407  -5.4033  -5.2083  -4.6103
    -4.1164  -3.8350  -3.1052  -2.6560  -2.4444  -1.9695  -1.7949  -1.2356
    -0.8638  -0.6449  -0.3751  -0.3296  -0.1517   0.3129   0.4865   0.8227
     1.0661   1.1670   1.4642   1.4943   1.8356   1.9465   2.4173   2.5553
     2.6859   2.9804   3.2131   3.3520   3.7231   3.7439   3.8701   4.0729
     4.4094   4.5433   9.3062   9.7155  10.3421  10.6239  11.0506  11.3174
    11.9228  12.1336  12.3920  12.4171

          k = 0.1997-0.0000 0.0000 ( 24607 PWs)   bands (ev):

   -14.6529 -14.1142 -13.1801 -11.8344 -10.2098 -10.0947 -10.0438  -9.5420
    -9.4572  -8.7354  -8.7175  -8.0394  -6.4980  -6.0612  -6.0498  -4.6654
    -4.6651  -4.4513  -3.3413  -3.0726  -3.0657  -2.6044  -2.5538  -1.3842
    -1.1831  -1.0989  -0.8599   0.0481   0.1133   0.2900   0.5132   0.5410
     0.6471   0.9621   1.0559   1.0954   1.2129   1.3490   1.4129   1.8435
     1.9253   2.2449   2.2785   2.5580   2.7392   2.8866   3.8156   3.9911
     4.0911   4.9705   8.9631   9.3433  11.3848  11.6605  11.8500  11.9303
    12.1723  12.2131  12.4714  12.6804

          k = 0.1997-0.1010 0.0000 ( 24634 PWs)   bands (ev):

   -14.4748 -13.9570 -13.0543 -11.8121 -11.5784 -10.9189 -10.2250  -9.6308
    -8.8126  -8.3180  -8.1678  -7.7862  -6.3633  -5.7370  -5.7067  -4.6519
    -4.4380  -4.1138  -3.3209  -3.0912  -2.6189  -2.4958  -2.4275  -1.4683
    -1.2156  -1.1170  -0.8991  -0.3949  -0.2286  -0.0500   0.0003   0.3178
     0.6096   0.7000   0.9831   1.0227   1.0792   1.5457   1.5905   1.7777
     2.0164   2.0951   2.2905   2.3743   2.7389   2.8806   3.2484   3.7171
     4.2242   4.5586   9.1752   9.5484  11.2053  11.6506  11.7414  11.8182
    11.9935  12.1940  12.8798  12.9317

          k = 0.1997-0.2019 0.0000 ( 24642 PWs)   bands (ev):

   -13.9671 -13.5808 -12.9973 -12.6173 -12.0670 -11.4731 -10.7889  -9.9176
    -9.0730  -8.2233  -7.3731  -7.0182  -5.8726  -5.2306  -4.9005  -4.3684
    -3.9559  -3.4341  -3.0099  -2.5420  -2.4044  -2.3422  -2.2351  -1.7624
    -1.6979  -1.6098  -1.4639  -0.9642  -0.8004  -0.4148  -0.4058  -0.1881
    -0.0986   0.3363   0.7040   0.9705   1.2181   1.3709   1.5647   1.7340
     2.0749   2.2446   2.3801   2.5465   2.7027   3.0511   3.1431   3.3903
     3.8765   3.9000   9.7645  10.0980  10.5978  10.7739  10.9154  11.2360
    11.6625  12.2347  12.3956  12.7376

          k = 0.2995-0.0000 0.0000 ( 24668 PWs)   bands (ev):

   -13.7509 -13.2192 -12.3020 -10.9945  -9.4265  -9.2424  -9.2195  -8.7196
    -8.6545  -7.9336  -7.9159  -7.5096  -7.2273  -5.7419  -5.4618  -5.3752
    -5.0507  -4.3419  -4.3344  -3.7720  -3.5993  -3.2362  -3.2303  -2.4171
    -2.1157  -1.5189  -1.4315  -1.3346  -1.3122  -0.8658  -0.8584  -0.3952
    -0.3214   0.1033   0.1203   0.5860   0.5909   1.1704   1.2191   1.2674
     1.5121   1.6084   1.9465   1.9981   2.1019   2.9207   3.2030   3.2383
     3.8408   4.6000   9.7909  10.0283  11.6422  11.6692  12.0341  12.1507
    12.3734  12.3813  12.4554  12.5779

          k = 0.2995-0.1010 0.0000 ( 24678 PWs)   bands (ev):

   -13.5742 -13.0634 -12.1767 -10.9596 -10.7144 -10.0723  -9.4337  -8.8769
    -8.0778  -7.5068  -7.4326  -7.2150  -7.0370  -5.6202  -5.3887  -5.1938
    -4.9219  -4.4240  -3.8944  -3.5893  -3.4824  -3.2449  -2.5890  -2.4274
    -2.2885  -2.1514  -1.8580  -1.3652  -1.2132  -0.7293  -0.4788  -0.3110
    -0.1371   0.1352   0.3556   0.4621   0.7799   0.8581   0.9499   1.1287
     1.4166   1.5110   1.6373   1.8323   2.2037   2.4796   2.6005   3.2822
     3.6205   3.8776   9.9827  10.2069  11.0101  11.6223  11.7342  12.0505
    12.3500  12.4281  12.4808  13.1025

          k = 0.2995-0.2019 0.0000 ( 24664 PWs)   bands (ev):

   -13.0706 -12.6896 -12.1131 -11.7385 -11.2002 -10.6278  -9.9720  -9.1429
    -8.3721  -7.6078  -6.9230  -6.6445  -6.1748  -5.6598  -5.2518  -4.8371
    -4.4149  -3.9093  -3.4225  -3.2973  -2.9820  -2.9186  -2.7864  -2.4211
    -2.1259  -1.8793  -1.7883  -1.5491  -1.4238  -0.9787  -0.7961  -0.6022
    -0.5746  -0.2829   0.0577   0.3639   0.5348   0.7100   0.9907   1.1978
     1.4970   1.5882   1.7146   1.8217   2.0430   2.1538   2.5387   2.6490
     3.0135   3.0192  10.3030  10.3868  10.6374  11.0635  11.1599  11.6432
    11.9251  12.4408  12.6992  12.9732

          k = 0.3993-0.0000 0.0000 ( 24732 PWs)   bands (ev):

   -12.5112 -11.9975 -11.1315 -10.0080  -9.3627  -8.3742  -8.2720  -8.0510
    -8.0396  -7.5581  -7.5382  -6.8493  -6.8455  -6.6378  -5.9486  -5.6436
    -5.2173  -5.1682  -5.1025  -4.8633  -4.2553  -4.0849  -4.0845  -2.8722
    -2.6524  -2.4650  -2.4400  -1.8011  -1.7695  -1.4122  -0.8764  -0.8216
    -0.6862  -0.6076  -0.3114  -0.1115  -0.1011   0.7247   0.7958   0.8233
     0.9573   1.3745   1.4346   2.2054   2.6342   2.6583   2.7149   3.2034
     3.6853   3.9654  10.8261  10.9110  11.3284  11.4039  11.5844  11.5939
    12.5648  12.5886  13.2171  13.2686

          k = 0.3993-0.1010 0.0000 ( 24696 PWs)   bands (ev):

   -12.3367 -11.8434 -11.0047  -9.9191  -9.5491  -9.2123  -8.9444  -8.3721
    -8.1355  -7.8069  -7.1976  -6.7429  -6.3856  -6.3349  -6.0004  -5.8553
    -5.4698  -5.1803  -4.7672  -4.1986  -3.9379  -3.5166  -3.4211  -3.0169
    -2.9163  -2.6663  -2.4252  -1.8711  -1.7865  -1.3023  -0.8247  -0.5577
    -0.3343  -0.2655  -0.1991   0.1591   0.1768   0.6672   0.7240   0.9144
     0.9891   1.2265   1.4311   1.5498   2.0604   2.1276   2.5483   2.8332
     2.9798   3.1847  10.5912  11.0625  11.2177  11.4328  11.7671  12.1966
    12.2552  12.5411  13.0431  13.2892

          k = 0.3993-0.2019 0.0000 ( 24655 PWs)   bands (ev):

   -11.8393 -11.4712 -10.9092 -10.5492 -10.0426  -9.5518  -9.0186  -8.6612
    -8.2133  -7.8928  -7.7647  -7.7422  -5.9998  -5.9488  -5.7517  -5.4086
    -5.1829  -5.0458  -4.7968  -4.2034  -3.5461  -2.8913  -2.7064  -2.4492
    -2.3488  -2.0865  -1.9954  -1.8036  -1.4919  -1.3027  -0.9022  -0.6262
    -0.5163  -0.1402   0.1205   0.2345   0.3898   0.4552   0.8174   0.8422
     0.9885   1.0248   1.1222   1.2890   1.4794   1.5006   1.6996   1.9226
     2.1143   2.2208  10.5462  10.9852  11.1630  11.3913  11.9808  12.1918
    12.2952  12.4722  12.5386  12.8436

          k =-0.4992 0.0000 0.0000 ( 24782 PWs)   bands (ev):

   -11.0047 -10.9588 -10.6377 -10.4455 -10.1397  -8.8583  -8.5453  -7.0809
    -6.6618  -6.6411  -6.6349  -6.6304  -6.3962  -6.2616  -6.2612  -6.2259
    -6.2094  -5.9113  -5.8869  -5.4889  -4.9892  -4.9891  -4.4484  -3.8581
    -2.2763  -2.0575  -2.0069  -1.9034  -1.8713  -1.2424  -1.2414  -1.1326
    -0.9757  -0.8762  -0.7486  -0.3171  -0.3012   0.5192   0.5801   0.6257
     0.8082   0.9566   1.3852   2.4045   2.5566   3.1045   3.1126   3.2050
     3.3236   3.3486  11.0977  11.1540  11.3540  11.4071  11.9305  11.9350
    12.4852  12.5641  12.5899  12.5935

          k =-0.4992-0.1010 0.0000 ( 24712 PWs)   bands (ev):

   -10.8365 -10.7852 -10.4910 -10.2835  -9.9955  -8.8031  -8.5174  -8.1084
    -8.0593  -7.6901  -7.5746  -7.3952  -6.7069  -6.1803  -5.4937  -5.4879
    -5.2474  -5.1026  -4.9885  -4.8967  -4.8178  -4.7409  -4.2379  -3.8141
    -2.4396  -2.3988  -2.1317  -1.7978  -1.6714  -1.0888  -1.0383  -0.7310
    -0.6505  -0.6357  -0.5522  -0.0898  -0.0506   0.4704   0.5758   0.6935
     0.8222   1.1354   1.4060   2.1375   2.2647   2.3489   2.4197   2.4477
     2.5672   2.6470  10.7729  11.2244  11.4127  11.8003  11.9711  12.1361
    12.4129  12.6202  12.8901  13.0233

          k =-0.4992-0.2019 0.0000 ( 24638 PWs)   bands (ev):

   -10.3694 -10.2811 -10.1396  -9.8552  -9.6747  -9.3156  -9.1807  -8.9219
    -8.6440  -8.4411  -8.3696  -8.2107  -6.3607  -6.2638  -5.8838  -5.6003
    -5.3312  -4.8982  -4.7307  -4.1592  -3.9938  -3.7395  -3.5829  -3.3980
    -1.9172  -1.5016  -1.4492  -1.4175  -1.3215  -1.0726  -1.0456  -0.6042
    -0.5786  -0.3212   0.1482   0.2879   0.4594   0.5764   0.6526   0.7254
     0.7291   0.8011   0.9895   1.0189   1.0889   1.1915   1.4573   1.5074
     1.7265   1.7866  11.1148  11.1838  11.5598  11.7740  11.8065  12.1306
    12.2260  12.6782  12.7827  12.9476

     the Fermi energy is     6.8017 ev

!    total energy              =    -447.08244093 Ry
     estimated scf accuracy    <          8.2E-11 Ry
     smearing contrib. (-TS)   =       0.00000000 Ry
     internal energy E=F+TS    =    -447.08244093 Ry

     The total energy is F=E-TS. E is the sum of the following terms:
     one-electron contribution =   -3173.98823164 Ry
     hartree contribution      =    1636.71855218 Ry
     xc contribution           =    -115.09959653 Ry
     ewald contribution        =    1353.20234350 Ry
     one-center paw contrib.   =    -147.91550843 Ry

     convergence has been achieved in   8 iterations

     negative rho (up, down):  5.002E-06 0.000E+00

     Forces acting on atoms (cartesian axes, Ry/au):

     atom    1 type  1   force =     0.00000000    0.00058833   -0.00036777
     atom    2 type  1   force =     0.00000000    0.00048352   -0.00040404
     atom    3 type  1   force =     0.00000000   -0.00067084   -0.00113453
     atom    4 type  1   force =     0.00000000   -0.00063205   -0.00147813
     atom    5 type  1   force =     0.00000000   -0.00011050   -0.00141779
     atom    6 type  1   force =    -0.00000000   -0.00013633   -0.00076006
     atom    7 type  1   force =     0.00000000   -0.00027487   -0.00071006
     atom    8 type  1   force =     0.00000000   -0.00026982   -0.00061900
     atom    9 type  1   force =     0.00000000   -0.00067993    0.00014795
     atom   10 type  1   force =     0.00000000   -0.00058212    0.00010222
     atom   11 type  1   force =     0.00000000    0.00048538    0.00103963
     atom   12 type  1   force =     0.00000000    0.00039298    0.00058914
     atom   13 type  1   force =     0.00000000   -0.00039298   -0.00058914
     atom   14 type  1   force =     0.00000000   -0.00048538   -0.00103963
     atom   15 type  1   force =    -0.00000000    0.00058212   -0.00010222
     atom   16 type  1   force =     0.00000000    0.00067993   -0.00014795
     atom   17 type  1   force =     0.00000000    0.00026982    0.00061900
     atom   18 type  1   force =     0.00000000    0.00027487    0.00071006
     atom   19 type  1   force =    -0.00000000    0.00013633    0.00076006
     atom   20 type  1   force =     0.00000000    0.00011050    0.00141779
     atom   21 type  1   force =     0.00000000    0.00063205    0.00147813
     atom   22 type  1   force =     0.00000000    0.00067084    0.00113453
     atom   23 type  1   force =    -0.00000000   -0.00048352    0.00040404
     atom   24 type  1   force =     0.00000000   -0.00058833    0.00036777
     atom   25 type  2   force =     0.00000000    0.00064405   -0.00002933
     atom   26 type  2   force =     0.00000000   -0.00095773    0.00028405
     atom   27 type  2   force =     0.00000000    0.00095773   -0.00028405
     atom   28 type  2   force =     0.00000000   -0.00064405    0.00002933

     Total force =     0.005083     Total SCF correction =     0.000020


     Computing stress (Cartesian axis) and pressure


     negative rho (up, down):  5.002E-06 0.000E+00
          total   stress  (Ry/bohr**3)                   (kbar)     P=       -1.91
   0.00000016   0.00000000   0.00000000            0.02        0.00        0.00
   0.00000000   0.00000090  -0.00000139            0.00        0.13       -0.20
   0.00000000  -0.00000139  -0.00004005            0.00       -0.20       -5.89

     Energy error            =      7.5E-05 Ry
     Gradient error          =      1.5E-03 Ry/Bohr
     Cell gradient error     =      1.3E-01 kbar

     number of scf cycles    =  11
     number of bfgs steps    =  10

     enthalpy           old  =    -447.0823659782 Ry
     enthalpy           new  =    -447.0824409252 Ry

     CASE: enthalpy          _new < enthalpy          _old

     new trust radius        =       0.0038924647 bohr
     Message from routine volume:
     axis vectors are left-handed
     new conv_thr            =            7.5E-11 Ry

     new unit-cell volume =   1697.29678 a.u.^3 (   251.51343 Ang^3 )
     density =      1.92979 g/cm^3

CELL_PARAMETERS (angstrom)
   2.530530533   0.000000000   0.000000000
   0.000000000  -5.004854352   0.000000000
   0.000000000   0.000000000  19.859035940

ATOMIC_POSITIONS (crystal)
C                0.0000000000        0.1619240161        0.7442292599
C                0.5000000000        0.2328308034        0.7032727170
C                0.5000000000       -0.0005346326        0.6532303517
C               -0.0000000000       -0.0004331136        0.6101328801
C                0.0000000000        0.2530453409        0.5678420052
C                0.5000000000        0.2529190754        0.5229710692
C                0.5000000000        0.0029621440        0.4778302625
C               -0.0000000000        0.0031341433        0.4326744197
C                0.0000000000        0.2498395634        0.3845466538
C                0.5000000000        0.2498409581        0.3376800784
C                0.5000000000       -0.0168860163        0.2965807978
C                0.0000000000       -0.0880613927        0.2556639413
C                0.0000000000        0.8380613927        0.7443360587
C                0.5000000000        0.7668860163        0.7034192022
C                0.5000000000        0.5001590419        0.6623199216
C                0.0000000000        0.5001604366        0.6154533462
C               -0.0000000000        0.7468658567        0.5673255803
C                0.5000000000        0.7470378560        0.5221697375
C                0.5000000000        0.4970809246        0.4770289308
C                0.0000000000        0.4969546591        0.4321579948
C               -0.0000000000        0.7504331136        0.3898671199
C                0.5000000000        0.7505346326        0.3467696483
C                0.5000000000        0.5171691966        0.2967272830
C                0.0000000000        0.5880759839        0.2557707401
H               -0.0000000000        0.2490646100        0.7950886672
H                0.0000000000        0.7511626721        0.7952301301
H               -0.0000000000       -0.0011626721        0.2047698699
H               -0.0000000000        0.5009353900        0.2049113328



     Writing config-only to output data dir /tmp/qe/slab.save/ :
     XML data file
     NEW-OLD atomic charge density approx. for the potential

     Check: negative core charge=   -0.000001

     negative rho (up, down):  4.994E-06 0.000E+00

     total cpu time spent up to now is      818.8 secs

     Self-consistent Calculation

     iteration #  1     ecut=    90.00 Ry     beta= 0.30
     Davidson diagonalization with overlap
     ethr =  1.00E-06,  avg # of iterations =  2.6

     Threshold (ethr) on eigenvalues was too large:
     Diagonalizing with lowered threshold

     Davidson diagonalization with overlap
     ethr =  8.32E-09,  avg # of iterations =  5.0

     negative rho (up, down):  4.992E-06 0.000E+00

     total cpu time spent up to now is      830.9 secs

     total energy              =    -447.08247346 Ry
     estimated scf accuracy    <       0.00001231 Ry

     iteration #  2     ecut=    90.00 Ry     beta= 0.30
     Davidson diagonalization with overlap
     ethr =  1.23E-08,  avg # of iterations =  2.0

     negative rho (up, down):  4.979E-06 0.000E+00

     total cpu time spent up to now is      835.2 secs

     total energy              =    -447.08247343 Ry
     estimated scf accuracy    <       0.00000384 Ry

     iteration #  3     ecut=    90.00 Ry     beta= 0.30
     Davidson diagonalization with overlap
     ethr =  3.84E-09,  avg # of iterations =  2.0

     negative rho (up, down):  4.979E-06 0.000E+00

     total cpu time spent up to now is      839.6 secs

     total energy              =    -447.08247361 Ry
     estimated scf accuracy    <       0.00000097 Ry

     iteration #  4     ecut=    90.00 Ry     beta= 0.30
     Davidson diagonalization with overlap
     ethr =  9.74E-10,  avg # of iterations =  2.1

     negative rho (up, down):  4.981E-06 0.000E+00

     total cpu time spent up to now is      844.1 secs

     total energy              =    -447.08247369 Ry
     estimated scf accuracy    <       0.00000015 Ry

     iteration #  5     ecut=    90.00 Ry     beta= 0.30
     Davidson diagonalization with overlap
     ethr =  1.45E-10,  avg # of iterations =  2.0

     negative rho (up, down):  4.983E-06 0.000E+00

     total cpu time spent up to now is      849.0 secs

     total energy              =    -447.08247371 Ry
     estimated scf accuracy    <       0.00000001 Ry

     iteration #  6     ecut=    90.00 Ry     beta= 0.30
     Davidson diagonalization with overlap
     ethr =  1.13E-11,  avg # of iterations =  2.5

     negative rho (up, down):  4.984E-06 0.000E+00

     total cpu time spent up to now is      854.0 secs

     total energy              =    -447.08247372 Ry
     estimated scf accuracy    <          3.0E-09 Ry

     iteration #  7     ecut=    90.00 Ry     beta= 0.30
     Davidson diagonalization with overlap
     ethr =  2.97E-12,  avg # of iterations =  2.3

     negative rho (up, down):  4.984E-06 0.000E+00

     total cpu time spent up to now is      858.8 secs

     total energy              =    -447.08247372 Ry
     estimated scf accuracy    <          2.9E-10 Ry

     iteration #  8     ecut=    90.00 Ry     beta= 0.30
     Davidson diagonalization with overlap
     ethr =  2.87E-13,  avg # of iterations =  2.9

     negative rho (up, down):  4.985E-06 0.000E+00

     total cpu time spent up to now is      864.2 secs

     End of self-consistent calculation

          k = 0.0000-0.0000 0.0000 ( 24643 PWs)   bands (ev):

   -15.3860 -14.8380 -13.8955 -12.5312 -10.8881 -10.7918 -10.7291 -10.2169
   -10.1233  -9.3907  -9.3711  -8.6483  -6.7638  -6.6714  -6.5022  -5.1715
    -5.1684  -4.3623  -3.3958  -3.3901  -2.1205  -1.3588  -1.3514  -0.2974
     0.0629   0.1073   0.2026   0.5914   0.6367   0.8465   1.1005   1.8167
     2.1994   2.3348   2.3582   2.5802   2.9844   2.9902   3.0131   3.1119
     3.1136   3.1326   3.7220   3.7377   3.7377   3.8217   4.0410   5.1631
     5.2534   5.3380   8.2570   8.7551  10.2759  10.3065  10.3669  10.7166
    11.0864  11.2160  11.3243  11.5250

          k = 0.0000-0.1010 0.0000 ( 24675 PWs)   bands (ev):

   -15.2066 -14.6797 -13.7691 -12.5141 -12.2858 -11.6133 -10.8987 -10.2825
    -9.4523  -8.9887  -8.8093  -8.3990  -6.5898  -6.3260  -6.1662  -5.0557
    -4.8101  -4.2465  -3.4422  -3.0772  -2.1794  -1.3338  -1.1384  -0.7713
    -0.2101  -0.1515   0.0294   0.3212   0.6783   0.8004   1.1824   1.4533
     1.5952   2.0592   2.3428   2.3808   2.5290   2.5381   2.9936   3.0422
     3.0856   3.4957   3.6228   3.6498   3.7485   4.0333   4.2211   4.7733
     4.9263   5.2415   8.4810   8.9723  10.5143  10.8075  10.8359  11.2471
    11.2942  11.4522  11.5700  11.7536

          k = 0.0000-0.2019 0.0000 ( 24637 PWs)   bands (ev):

   -14.6948 -14.3010 -13.7174 -13.3327 -12.7731 -12.1709 -11.4702 -10.5762
    -9.7053  -8.8325  -7.9671  -7.6548  -6.0239  -5.5105  -5.3400  -4.7252
    -4.2204  -3.9809  -3.2295  -2.7703  -2.5556  -2.0646  -1.9024  -1.1410
    -0.7663  -0.4758  -0.0603   0.2479   0.5728   0.8879   1.1142   1.1898
     1.3596   1.4766   1.9242   1.9534   2.3625   2.4457   2.7922   2.9362
     3.0318   3.3528   3.4306   3.6473   3.9260   4.0949   4.2510   4.4009
     4.7397   5.1369   9.1225   9.5545  10.1703  10.4906  11.0074  11.1594
    11.2650  11.4183  11.7797  12.0546

          k = 0.0998-0.0000 0.0000 ( 24655 PWs)   bands (ev):

   -15.2032 -14.6562 -13.7158 -12.3557 -10.7161 -10.6182 -10.5582 -10.0478
    -9.9557  -9.2256  -9.2064  -8.4903  -6.6352  -6.5138  -6.4004  -5.0334
    -5.0310  -4.3018  -3.2947  -3.2886  -2.2539  -1.3303  -1.3069  -1.0560
    -0.9375   0.0349   0.1862   0.2075   0.6123   0.6585   0.9328   1.4457
     1.8077   1.9908   2.1072   2.1896   2.2813   2.3275   2.5152   2.5999
     2.7816   2.8111   3.0546   3.1058   3.2879   3.7148   3.7540   4.7147
     5.0129   5.1262   8.4401   8.9293  10.8095  10.9527  11.0102  11.2365
    11.6270  11.6960  11.7391  11.8498

          k = 0.0998-0.1010 0.0000 ( 24646 PWs)   bands (ev):

   -15.0241 -14.4981 -13.5896 -12.3376 -12.1092 -11.4391 -10.7290 -10.1169
    -9.2909  -8.8206  -8.6472  -8.2406  -6.4845  -6.1713  -6.0463  -4.9282
    -4.6795  -4.1703  -3.3650  -2.9522  -2.2478  -1.2977  -1.1412  -0.9553
    -0.8282  -0.6397  -0.0593   0.0346   0.2432   0.6679   0.7890   1.1742
     1.3722   1.5351   1.6000   1.7329   2.1899   2.3878   2.5160   2.6491
     2.7517   3.0466   3.1059   3.2695   3.3945   3.6904   3.7499   4.1357
     4.8293   5.0210   8.6643   9.1431  10.8876  11.3855  11.4378  11.7309
    11.7673  11.8146  12.0292  12.0837

          k = 0.0998-0.2019 0.0000 ( 24657 PWs)   bands (ev):

   -14.5131 -14.1200 -13.5375 -13.1535 -12.5956 -11.9961 -11.2989 -10.4095
    -9.5437  -8.6759  -7.8128  -7.4939  -5.9423  -5.4041  -5.2093  -4.6125
    -4.1147  -3.8352  -3.1072  -2.6552  -2.4464  -1.9715  -1.7960  -1.2358
    -0.8622  -0.6477  -0.3727  -0.3301  -0.1522   0.3111   0.4835   0.8229
     1.0689   1.1667   1.4635   1.4912   1.8349   1.9452   2.4174   2.5561
     2.6863   2.9812   3.2132   3.3519   3.7232   3.7439   3.8722   4.0726
     4.4111   4.5408   9.3057   9.7146  10.3415  10.6235  11.0511  11.3182
    11.9228  12.1334  12.3942  12.4182

          k = 0.1997-0.0000 0.0000 ( 24607 PWs)   bands (ev):

   -14.6568 -14.1132 -13.1801 -11.8345 -10.2081 -10.1002 -10.0509  -9.5442
    -9.4577  -8.7337  -8.7160  -8.0387  -6.4969  -6.0636  -6.0523  -4.6646
    -4.6645  -4.4501  -3.3462  -3.0722  -3.0647  -2.6005  -2.5539  -1.3820
    -1.1830  -1.0983  -0.8620   0.0496   0.1131   0.2886   0.5074   0.5377
     0.6409   0.9608   1.0575   1.0958   1.2118   1.3515   1.4141   1.8445
     1.9240   2.2453   2.2780   2.5595   2.7386   2.8869   3.8131   3.9941
     4.0909   4.9674   8.9624   9.3421  11.3839  11.6564  11.8489  11.9291
    12.1719  12.2121  12.4716  12.6775

          k = 0.1997-0.1010 0.0000 ( 24634 PWs)   bands (ev):

   -14.4786 -13.9559 -13.0543 -11.8123 -11.5828 -10.9206 -10.2274  -9.6292
    -8.8147  -8.3197  -8.1664  -7.7858  -6.3632  -5.7395  -5.7078  -4.6518
    -4.4364  -4.1133  -3.3232  -3.0931  -2.6187  -2.4921  -2.4277  -1.4673
    -1.2150  -1.1196  -0.9001  -0.3954  -0.2338  -0.0520   0.0006   0.3178
     0.6095   0.6990   0.9804   1.0239   1.0775   1.5435   1.5925   1.7795
     2.0175   2.0948   2.2909   2.3755   2.7375   2.8806   3.2479   3.7167
     4.2259   4.5562   9.1745   9.5473  11.2058  11.6505  11.7417  11.8181
    11.9922  12.1960  12.8774  12.9298

          k = 0.1997-0.2019 0.0000 ( 24642 PWs)   bands (ev):

   -13.9700 -13.5795 -13.0005 -12.6189 -12.0665 -11.4762 -10.7909  -9.9173
    -9.0717  -8.2230  -7.3718  -7.0187  -5.8735  -5.2320  -4.9014  -4.3702
    -3.9545  -3.4346  -3.0122  -2.5428  -2.4047  -2.3432  -2.2362  -1.7660
    -1.6970  -1.6121  -1.4662  -0.9631  -0.8008  -0.4166  -0.4045  -0.1892
    -0.0985   0.3362   0.7025   0.9709   1.2183   1.3717   1.5640   1.7355
     2.0751   2.2425   2.3807   2.5478   2.7043   3.0514   3.1417   3.3900
     3.8765   3.8994   9.7640  10.0971  10.5981  10.7751  10.9138  11.2372
    11.6616  12.2352  12.3955  12.7368

          k = 0.2995-0.0000 0.0000 ( 24668 PWs)   bands (ev):

   -13.7548 -13.2182 -12.3019 -10.9946  -9.4250  -9.2479  -9.2263  -8.7218
    -8.6553  -7.9317  -7.9144  -7.5085  -7.2279  -5.7415  -5.4633  -5.3770
    -5.0537  -4.3424  -4.3349  -3.7734  -3.5975  -3.2357  -3.2295  -2.4146
    -2.1164  -1.5180  -1.4312  -1.3393  -1.3158  -0.8650  -0.8575  -0.3949
    -0.3220   0.1038   0.1213   0.5863   0.5905   1.1676   1.2185   1.2677
     1.5093   1.6100   1.9489   1.9979   2.1001   2.9191   3.2052   3.2391
     3.8385   4.5962   9.7899  10.0268  11.6465  11.6704  12.0341  12.1500
    12.3724  12.3822  12.4535  12.5747

          k = 0.2995-0.1010 0.0000 ( 24678 PWs)   bands (ev):

   -13.5780 -13.0623 -12.1767 -10.9596 -10.7190 -10.0739  -9.4360  -8.8756
    -8.0796  -7.5087  -7.4312  -7.2141  -7.0376  -5.6199  -5.3910  -5.1948
    -4.9240  -4.4254  -3.8937  -3.5902  -3.4812  -3.2451  -2.5884  -2.4288
    -2.2917  -2.1522  -1.8569  -1.3637  -1.2115  -0.7312  -0.4799  -0.3126
    -0.1369   0.1358   0.3560   0.4574   0.7808   0.8581   0.9487   1.1287
     1.4166   1.5112   1.6376   1.8335   2.2029   2.4795   2.6010   3.2829
     3.6203   3.8739   9.9817  10.2055  11.0121  11.6214  11.7344  12.0514
    12.3525  12.4295  12.4796  13.1079

          k = 0.2995-0.2019 0.0000 ( 24664 PWs)   bands (ev):

   -13.0735 -12.6884 -12.1163 -11.7400 -11.1997 -10.6309  -9.9740  -9.1426
    -8.3710  -7.6079  -6.9222  -6.6440  -6.1756  -5.6612  -5.2514  -4.8383
    -4.4151  -3.9123  -3.4243  -3.2988  -2.9844  -2.9190  -2.7867  -2.4231
    -2.1250  -1.8797  -1.7893  -1.5480  -1.4233  -0.9813  -0.7969  -0.6024
    -0.5771  -0.2828   0.0565   0.3647   0.5339   0.7101   0.9918   1.1990
     1.4962   1.5886   1.7144   1.8229   2.0436   2.1529   2.5381   2.6482
     3.0132   3.0192  10.3022  10.3877  10.6366  11.0638  11.1593  11.6421
    11.9260  12.4421  12.6996  12.9764

          k = 0.3993-0.0000 0.0000 ( 24732 PWs)   bands (ev):

   -12.5150 -11.9965 -11.1315 -10.0083  -9.3664  -8.3724  -8.2698  -8.0563
    -8.0443  -7.5596  -7.5392  -6.8480  -6.8437  -6.6391  -5.9510  -5.6417
    -5.2212  -5.1735  -5.1044  -4.8652  -4.2547  -4.0817  -4.0814  -2.8719
    -2.6514  -2.4671  -2.4424  -1.8009  -1.7699  -1.4109  -0.8760  -0.8220
    -0.6870  -0.6096  -0.3120  -0.1119  -0.1006   0.7270   0.7972   0.8239
     0.9578   1.3767   1.4366   2.1994   2.6360   2.6556   2.7166   3.2015
     3.6832   3.9610  10.8246  10.9103  11.3327  11.4040  11.5866  11.5947
    12.5642  12.5901  13.2181  13.2706

          k = 0.3993-0.1010 0.0000 ( 24696 PWs)   bands (ev):

   -12.3404 -11.8423 -11.0047  -9.9192  -9.5540  -9.2158  -8.9457  -8.3718
    -8.1344  -7.8051  -7.1982  -6.7452  -6.3897  -6.3351  -6.0004  -5.8573
    -5.4698  -5.1804  -4.7682  -4.1974  -3.9386  -3.5160  -3.4235  -3.0196
    -2.9175  -2.6655  -2.4249  -1.8697  -1.7854  -1.3034  -0.8253  -0.5574
    -0.3355  -0.2670  -0.2002   0.1595   0.1770   0.6679   0.7251   0.9152
     0.9893   1.2277   1.4332   1.5458   2.0590   2.1277   2.5496   2.8325
     2.9782   3.1811  10.5928  11.0612  11.2158  11.4355  11.7678  12.1979
    12.2555  12.5419  13.0454  13.2894

          k = 0.3993-0.2019 0.0000 ( 24655 PWs)   bands (ev):

   -11.8422 -11.4700 -10.9122 -10.5508 -10.0420  -9.5551  -9.0211  -8.6634
    -8.2133  -7.8905  -7.7665  -7.7411  -6.0000  -5.9486  -5.7500  -5.4121
    -5.1843  -5.0475  -4.7974  -4.2032  -3.5449  -2.8908  -2.7092  -2.4506
    -2.3470  -2.0873  -1.9957  -1.8047  -1.4920  -1.3049  -0.9042  -0.6297
    -0.5160  -0.1432   0.1199   0.2347   0.3898   0.4542   0.8175   0.8436
     0.9883   1.0249   1.1228   1.2899   1.4774   1.5009   1.6995   1.9241
     2.1140   2.2215  10.5469  10.9849  11.1621  11.3921  11.9798  12.1917
    12.2977  12.4743  12.5414  12.8453

          k =-0.4992 0.0000 0.0000 ( 24782 PWs)   bands (ev):

   -11.0077 -10.9630 -10.6355 -10.4466 -10.1407  -8.8560  -8.5428  -7.0821
    -6.6645  -6.6454  -6.6403  -6.6356  -6.3980  -6.2656  -6.2633  -6.2284
    -6.2104  -5.9104  -5.8857  -5.4875  -4.9855  -4.9853  -4.4480  -3.8576
    -2.2759  -2.0589  -2.0071  -1.9065  -1.8739  -1.2416  -1.2390  -1.1340
    -0.9754  -0.8766  -0.7513  -0.3166  -0.3004   0.5197   0.5815   0.6282
     0.8086   0.9595   1.3879   2.4061   2.5586   3.0990   3.1059   3.2000
     3.3239   3.3483  11.1005  11.1556  11.3575  11.4074  11.9285  11.9340
    12.4842  12.5604  12.5932  12.5957

          k =-0.4992-0.1010 0.0000 ( 24712 PWs)   bands (ev):

   -10.8393 -10.7894 -10.4887 -10.2846  -9.9966  -8.8008  -8.5148  -8.1128
    -8.0639  -7.6889  -7.5772  -7.3965  -6.7100  -6.1826  -5.4921  -5.4868
    -5.2475  -5.1091  -4.9895  -4.8961  -4.8163  -4.7393  -4.2374  -3.8141
    -2.4430  -2.4012  -2.1299  -1.7964  -1.6708  -1.0899  -1.0410  -0.7314
    -0.6517  -0.6369  -0.5521  -0.0894  -0.0498   0.4717   0.5778   0.6945
     0.8229   1.1378   1.4086   2.1381   2.2616   2.3427   2.4197   2.4431
     2.5672   2.6479  10.7749  11.2267  11.4152  11.8012  11.9692  12.1367
    12.4131  12.6178  12.8875  13.0191

          k =-0.4992-0.2019 0.0000 ( 24638 PWs)   bands (ev):

   -10.3707 -10.2851 -10.1370  -9.8565  -9.6782  -9.3189  -9.1841  -8.9216
    -8.6432  -8.4398  -8.3709  -8.2109  -6.3639  -6.2659  -5.8816  -5.6014
    -5.3295  -4.8978  -4.7319  -4.1582  -3.9924  -3.7412  -3.5833  -3.3976
    -1.9173  -1.5011  -1.4527  -1.4166  -1.3255  -1.0754  -1.0481  -0.6047
    -0.5806  -0.3210   0.1495   0.2859   0.4576   0.5756   0.6502   0.7237
     0.7281   0.8023   0.9910   1.0196   1.0887   1.1907   1.4601   1.5097
     1.7272   1.7868  11.1161  11.1856  11.5612  11.7728  11.8071  12.1309
    12.2268  12.6758  12.7824  12.9497

     the Fermi energy is     6.8009 ev

!    total energy              =    -447.08247372 Ry
     estimated scf accuracy    <          3.7E-11 Ry
     smearing contrib. (-TS)   =       0.00000000 Ry
     internal energy E=F+TS    =    -447.08247372 Ry

     The total energy is F=E-TS. E is the sum of the following terms:
     one-electron contribution =   -3175.92531116 Ry
     hartree contribution      =    1637.68589027 Ry
     xc contribution           =    -115.10096187 Ry
     ewald contribution        =    1354.17346362 Ry
     one-center paw contrib.   =    -147.91555457 Ry

     convergence has been achieved in   8 iterations

     negative rho (up, down):  4.985E-06 0.000E+00

     Forces acting on atoms (cartesian axes, Ry/au):

     atom    1 type  1   force =     0.00000000    0.00068314   -0.00054120
     atom    2 type  1   force =     0.00000000    0.00033826   -0.00002464
     atom    3 type  1   force =     0.00000000   -0.00023320   -0.00052636
     atom    4 type  1   force =     0.00000000   -0.00012384    0.00005250
     atom    5 type  1   force =     0.00000000   -0.00009345   -0.00002659
     atom    6 type  1   force =    -0.00000000   -0.00010239   -0.00006420
     atom    7 type  1   force =    -0.00000000   -0.00013411    0.00015332
     atom    8 type  1   force =     0.00000000   -0.00014535   -0.00000873
     atom    9 type  1   force =     0.00000000   -0.00019077    0.00025160
     atom   10 type  1   force =     0.00000000   -0.00016442    0.00041812
     atom   11 type  1   force =     0.00000000    0.00035088    0.00051314
     atom   12 type  1   force =     0.00000000    0.00046589    0.00077832
     atom   13 type  1   force =     0.00000000   -0.00046589   -0.00077832
     atom   14 type  1   force =     0.00000000   -0.00035088   -0.00051314
     atom   15 type  1   force =     0.00000000    0.00016442   -0.00041812
     atom   16 type  1   force =     0.00000000    0.00019077   -0.00025160
     atom   17 type  1   force =     0.00000000    0.00014535    0.00000873
     atom   18 type  1   force =     0.00000000    0.00013411   -0.00015332
     atom   19 type  1   force =    -0.00000000    0.00010239    0.00006420
     atom   20 type  1   force =     0.00000000    0.00009345    0.00002659
     atom   21 type  1   force =     0.00000000    0.00012384   -0.00005250
     atom   22 type  1   force =     0.00000000    0.00023320    0.00052636
     atom   23 type  1   force =     0.00000000   -0.00033826    0.00002464
     atom   24 type  1   force =     0.00000000   -0.00068314    0.00054120
     atom   25 type  2   force =     0.00000000    0.00076046   -0.00031193
     atom   26 type  2   force =     0.00000000   -0.00105331   -0.00040904
     atom   27 type  2   force =     0.00000000    0.00105331    0.00040904
     atom   28 type  2   force =    -0.00000000   -0.00076046    0.00031193

     Total force =     0.003090     Total SCF correction =     0.000016


     Computing stress (Cartesian axis) and pressure


     negative rho (up, down):  4.985E-06 0.000E+00
          total   stress  (Ry/bohr**3)                   (kbar)     P=       -1.74
   0.00000063   0.00000000   0.00000000            0.09        0.00        0.00
   0.00000000   0.00000140  -0.00000145            0.00        0.21       -0.21
   0.00000000  -0.00000145  -0.00003753            0.00       -0.21       -5.52

     Energy error            =      3.3E-05 Ry
     Gradient error          =      1.1E-03 Ry/Bohr
     Cell gradient error     =      2.1E-01 kbar

     number of scf cycles    =  12
     number of bfgs steps    =  11

     enthalpy           old  =    -447.0824409252 Ry
     enthalpy           new  =    -447.0824737177 Ry

     CASE: enthalpy          _new < enthalpy          _old

     new trust radius        =       0.0022169051 bohr
     Message from routine volume:
     axis vectors are left-handed
     new conv_thr            =            3.3E-11 Ry

     new unit-cell volume =   1697.44928 a.u.^3 (   251.53603 Ang^3 )
     density =      1.92962 g/cm^3

CELL_PARAMETERS (angstrom)
   2.530552258   0.000000000   0.000000000
   0.000000000  -5.005261037   0.000000000
   0.000000000   0.000000000  19.859035940

ATOMIC_POSITIONS (crystal)
C                0.0000000000        0.1618307929        0.7442125515
C                0.5000000000        0.2327917317        0.7032639186
C                0.5000000000       -0.0004569213        0.6531899674
C               -0.0000000000       -0.0003717986        0.6101039326
C                0.0000000000        0.2530521937        0.5678061654
C                0.5000000000        0.2529159617        0.5229458417
C                0.5000000000        0.0029726616        0.4778199610
C               -0.0000000000        0.0031588615        0.4326655212
C                0.0000000000        0.2499103698        0.3845541269
C                0.5000000000        0.2499034720        0.3376920027
C                0.5000000000       -0.0169262133        0.2966161120
C                0.0000000000       -0.0881145629        0.2556910901
C                0.0000000000        0.8381145629        0.7443089099
C                0.5000000000        0.7669262133        0.7033838880
C                0.5000000000        0.5000965280        0.6623079973
C                0.0000000000        0.5000896302        0.6154458731
C               -0.0000000000        0.7468411385        0.5673344788
C                0.5000000000        0.7470273384        0.5221800390
C                0.5000000000        0.4970840383        0.4770541583
C                0.0000000000        0.4969478063        0.4321938346
C               -0.0000000000        0.7503717986        0.3898960674
C                0.5000000000        0.7504569213        0.3468100326
C                0.5000000000        0.5172082683        0.2967360814
C                0.0000000000        0.5881692071        0.2557874485
H               -0.0000000000        0.2488878782        0.7950866335
H                0.0000000000        0.7513970714        0.7952300589
H               -0.0000000000       -0.0013970714        0.2047699411
H               -0.0000000000        0.5011121218        0.2049133665



     Writing config-only to output data dir /tmp/qe/slab.save/ :
     XML data file
     NEW-OLD atomic charge density approx. for the potential

     Check: negative core charge=   -0.000001

     negative rho (up, down):  4.982E-06 0.000E+00

     total cpu time spent up to now is      883.3 secs

     Self-consistent Calculation

     iteration #  1     ecut=    90.00 Ry     beta= 0.30
     Davidson diagonalization with overlap
     ethr =  1.00E-06,  avg # of iterations =  2.0

     Threshold (ethr) on eigenvalues was too large:
     Diagonalizing with lowered threshold

     Davidson diagonalization with overlap
     ethr =  2.43E-09,  avg # of iterations =  4.8

     negative rho (up, down):  4.983E-06 0.000E+00

     total cpu time spent up to now is      894.7 secs

     total energy              =    -447.08248598 Ry
     estimated scf accuracy    <       0.00000317 Ry

     iteration #  2     ecut=    90.00 Ry     beta= 0.30
     Davidson diagonalization with overlap
     ethr =  3.17E-09,  avg # of iterations =  1.7

     negative rho (up, down):  4.976E-06 0.000E+00

     total cpu time spent up to now is      898.8 secs

     total energy              =    -447.08248599 Ry
     estimated scf accuracy    <       0.00000095 Ry

     iteration #  3     ecut=    90.00 Ry     beta= 0.30
     Davidson diagonalization with overlap
     ethr =  9.50E-10,  avg # of iterations =  2.0

     negative rho (up, down):  4.975E-06 0.000E+00

     total cpu time spent up to now is      903.4 secs

     total energy              =    -447.08248607 Ry
     estimated scf accuracy    <       0.00000019 Ry

     iteration #  4     ecut=    90.00 Ry     beta= 0.30
     Davidson diagonalization with overlap
     ethr =  1.89E-10,  avg # of iterations =  1.9

     negative rho (up, down):  4.975E-06 0.000E+00

     total cpu time spent up to now is      907.7 secs

     total energy              =    -447.08248609 Ry
     estimated scf accuracy    <       0.00000004 Ry

     iteration #  5     ecut=    90.00 Ry     beta= 0.30
     Davidson diagonalization with overlap
     ethr =  4.39E-11,  avg # of iterations =  2.1

     negative rho (up, down):  4.976E-06 0.000E+00

     total cpu time spent up to now is      912.4 secs

     total energy              =    -447.08248609 Ry
     estimated scf accuracy    <          4.3E-09 Ry

     iteration #  6     ecut=    90.00 Ry     beta= 0.30
     Davidson diagonalization with overlap
     ethr =  4.31E-12,  avg # of iterations =  2.4

     negative rho (up, down):  4.977E-06 0.000E+00

     total cpu time spent up to now is      917.4 secs

     total energy              =    -447.08248609 Ry
     estimated scf accuracy    <          9.9E-10 Ry

     iteration #  7     ecut=    90.00 Ry     beta= 0.30
     Davidson diagonalization with overlap
     ethr =  9.93E-13,  avg # of iterations =  2.0

     negative rho (up, down):  4.978E-06 0.000E+00

     total cpu time spent up to now is      921.9 secs

     total energy              =    -447.08248609 Ry
     estimated scf accuracy    <          1.3E-10 Ry

     iteration #  8     ecut=    90.00 Ry     beta= 0.30
     Davidson diagonalization with overlap
     ethr =  1.32E-13,  avg # of iterations =  2.4

     negative rho (up, down):  4.978E-06 0.000E+00

     total cpu time spent up to now is      927.1 secs

     total energy              =    -447.08248609 Ry
     estimated scf accuracy    <          3.5E-11 Ry

     iteration #  9     ecut=    90.00 Ry     beta= 0.30
     Davidson diagonalization with overlap
     ethr =  1.00E-13,  avg # of iterations =  2.0

     negative rho (up, down):  4.979E-06 0.000E+00

     total cpu time spent up to now is      931.7 secs

     End of self-consistent calculation

          k = 0.0000-0.0000 0.0000 ( 24643 PWs)   bands (ev):

   -15.3875 -14.8385 -13.8964 -12.5321 -10.8888 -10.7943 -10.7321 -10.2183
   -10.1242  -9.3902  -9.3706  -8.6493  -6.7638  -6.6721  -6.5032  -5.1708
    -5.1679  -4.3631  -3.3948  -3.3896  -2.1211  -1.3581  -1.3514  -0.2997
     0.0591   0.1066   0.2014   0.5911   0.6372   0.8444   1.0993   1.8151
     2.1988   2.3335   2.3584   2.5795   2.9818   2.9872   3.0135   3.1094
     3.1113   3.1331   3.7213   3.7390   3.7391   3.8195   4.0409   5.1612
     5.2515   5.3387   8.2555   8.7534  10.2730  10.3029  10.3654  10.7142
    11.0841  11.2141  11.3217  11.5250

          k = 0.0000-0.1009 0.0000 ( 24675 PWs)   bands (ev):

   -15.2082 -14.6802 -13.7701 -12.5152 -12.2876 -11.6140 -10.9004 -10.2825
    -9.4529  -8.9900  -8.8097  -8.3996  -6.5908  -6.3268  -6.1665  -5.0554
    -4.8098  -4.2473  -3.4410  -3.0775  -2.1801  -1.3332  -1.1391  -0.7742
    -0.2111  -0.1538   0.0283   0.3200   0.6779   0.8001   1.1810   1.4522
     1.5950   2.0568   2.3416   2.3801   2.5285   2.5361   2.9944   3.0410
     3.0852   3.4948   3.6223   3.6499   3.7462   4.0324   4.2210   4.7721
     4.9270   5.2397   8.4796   8.9706  10.5135  10.8054  10.8334  11.2466
    11.2928  11.4500  11.5698  11.7507

          k = 0.0000-0.2019 0.0000 ( 24637 PWs)   bands (ev):

   -14.6964 -14.3019 -13.7194 -13.3337 -12.7732 -12.1723 -11.4709 -10.5766
    -9.7050  -8.8330  -7.9673  -7.6555  -6.0255  -5.5111  -5.3408  -4.7268
    -4.2202  -3.9812  -3.2313  -2.7702  -2.5569  -2.0657  -1.9037  -1.1407
    -0.7665  -0.4771  -0.0597   0.2457   0.5710   0.8880   1.1115   1.1879
     1.3590   1.4755   1.9237   1.9530   2.3604   2.4453   2.7914   2.9362
     3.0317   3.3518   3.4312   3.6467   3.9247   4.0949   4.2513   4.3993
     4.7386   5.1353   9.1212   9.5533  10.1687  10.4894  11.0071  11.1611
    11.2649  11.4174  11.7780  12.0530

          k = 0.0998-0.0000 0.0000 ( 24655 PWs)   bands (ev):

   -15.2047 -14.6566 -13.7167 -12.3566 -10.7168 -10.6207 -10.5613 -10.0492
    -9.9566  -9.2250  -9.2060  -8.4913  -6.6351  -6.5144  -6.4015  -5.0327
    -5.0306  -4.3026  -3.2937  -3.2882  -2.2550  -1.3301  -1.3071  -1.0572
    -0.9383   0.0331   0.1854   0.2038   0.6125   0.6592   0.9310   1.4439
     1.8065   1.9897   2.1059   2.1871   2.2789   2.3252   2.5139   2.5989
     2.7820   2.8116   3.0557   3.1066   3.2867   3.7139   3.7534   4.7136
     5.0134   5.1241   8.4386   8.9275  10.8082  10.9481  11.0071  11.2340
    11.6247  11.6959  11.7380  11.8497

          k = 0.0998-0.1009 0.0000 ( 24646 PWs)   bands (ev):

   -15.0256 -14.4986 -13.5906 -12.3386 -12.1110 -11.4398 -10.7307 -10.1169
    -9.2914  -8.8220  -8.6476  -8.2412  -6.4855  -6.1722  -6.0465  -4.9279
    -4.6792  -4.1710  -3.3639  -2.9525  -2.2487  -1.2973  -1.1422  -0.9568
    -0.8291  -0.6427  -0.0605   0.0333   0.2420   0.6676   0.7884   1.1729
     1.3699   1.5348   1.5993   1.7311   2.1888   2.3869   2.5156   2.6484
     2.7512   3.0456   3.1043   3.2694   3.3947   3.6895   3.7501   4.1342
     4.8298   5.0195   8.6629   9.1414  10.8875  11.3853  11.4378  11.7275
    11.7639  11.8128  12.0284  12.0821

          k = 0.0998-0.2019 0.0000 ( 24657 PWs)   bands (ev):

   -14.5146 -14.1210 -13.5395 -13.1545 -12.5957 -11.9975 -11.2996 -10.4098
    -9.5435  -8.6764  -7.8130  -7.4946  -5.9438  -5.4048  -5.2102  -4.6140
    -4.1145  -3.8354  -3.1090  -2.6552  -2.4476  -1.9726  -1.7973  -1.2362
    -0.8627  -0.6496  -0.3732  -0.3313  -0.1530   0.3098   0.4822   0.8222
     1.0694   1.1651   1.4628   1.4894   1.8340   1.9441   2.4166   2.5557
     2.6863   2.9808   3.2132   3.3518   3.7226   3.7427   3.8719   4.0718
     4.4110   4.5393   9.3044   9.7135  10.3400  10.6225  11.0521  11.3204
    11.9210  12.1337  12.3934  12.4164

          k = 0.1997-0.0000 0.0000 ( 24607 PWs)   bands (ev):

   -14.6584 -14.1136 -13.1809 -11.8354 -10.2088 -10.1027 -10.0540  -9.5455
    -9.4587  -8.7331  -8.7155  -8.0398  -6.4974  -6.0643  -6.0530  -4.6641
    -4.6641  -4.4506  -3.3486  -3.0717  -3.0638  -2.6007  -2.5557  -1.3825
    -1.1828  -1.0980  -0.8640   0.0490   0.1120   0.2866   0.5051   0.5359
     0.6374   0.9595   1.0570   1.0950   1.2109   1.3521   1.4140   1.8432
     1.9233   2.2454   2.2779   2.5593   2.7377   2.8856   3.8123   3.9945
     4.0903   4.9651   8.9610   9.3405  11.3829  11.6521  11.8463  11.9272
    12.1713  12.2106  12.4705  12.6764

          k = 0.1997-0.1009 0.0000 ( 24634 PWs)   bands (ev):

   -14.4801 -13.9564 -13.0554 -11.8134 -11.5846 -10.9213 -10.2292  -9.6292
    -8.8152  -8.3211  -8.1669  -7.7865  -6.3643  -5.7405  -5.7081  -4.6521
    -4.4365  -4.1130  -3.3241  -3.0934  -2.6190  -2.4924  -2.4295  -1.4677
    -1.2152  -1.1209  -0.9013  -0.3965  -0.2362  -0.0536  -0.0007   0.3166
     0.6087   0.6977   0.9793   1.0241   1.0764   1.5419   1.5917   1.7790
     2.0177   2.0941   2.2903   2.3758   2.7368   2.8793   3.2474   3.7166
     4.2259   4.5544   9.1731   9.5457  11.2057  11.6502  11.7411  11.8170
    11.9915  12.1962  12.8743  12.9268

          k = 0.1997-0.2019 0.0000 ( 24642 PWs)   bands (ev):

   -13.9715 -13.5805 -13.0025 -12.6198 -12.0666 -11.4777 -10.7916  -9.9176
    -9.0715  -8.2235  -7.3721  -7.0194  -5.8746  -5.2330  -4.9024  -4.3716
    -3.9542  -3.4352  -3.0136  -2.5437  -2.4064  -2.3447  -2.2374  -1.7679
    -1.6978  -1.6139  -1.4669  -0.9634  -0.8014  -0.4181  -0.4045  -0.1901
    -0.0988   0.3354   0.7020   0.9699   1.2168   1.3715   1.5636   1.7350
     2.0744   2.2417   2.3799   2.5473   2.7044   3.0510   3.1411   3.3894
     3.8760   3.8986   9.7628  10.0960  10.5979  10.7750  10.9122  11.2374
    11.6618  12.2356  12.3946  12.7355

          k = 0.2995-0.0000 0.0000 ( 24668 PWs)   bands (ev):

   -13.7563 -13.2187 -12.3028 -10.9955  -9.4260  -9.2504  -9.2291  -8.7232
    -8.6563  -7.9310  -7.9138  -7.5099  -7.2292  -5.7421  -5.4638  -5.3777
    -5.0554  -4.3427  -4.3352  -3.7747  -3.5983  -3.2352  -3.2287  -2.4155
    -2.1181  -1.5191  -1.4326  -1.3409  -1.3171  -0.8650  -0.8574  -0.3961
    -0.3232   0.1039   0.1217   0.5862   0.5899   1.1663   1.2177   1.2681
     1.5075   1.6096   1.9480   1.9973   2.0984   2.9174   3.2050   3.2391
     3.8376   4.5936   9.7884  10.0253  11.6474  11.6700  12.0327  12.1480
    12.3715  12.3817  12.4524  12.5711

          k = 0.2995-0.1009 0.0000 ( 24678 PWs)   bands (ev):

   -13.5795 -13.0628 -12.1777 -10.9607 -10.7208 -10.0746  -9.4378  -8.8756
    -8.0801  -7.5105  -7.4320  -7.2145  -7.0388  -5.6209  -5.3921  -5.1954
    -4.9254  -4.4257  -3.8937  -3.5911  -3.4821  -3.2446  -2.5896  -2.4298
    -2.2936  -2.1530  -1.8572  -1.3644  -1.2113  -0.7325  -0.4813  -0.3138
    -0.1372   0.1353   0.3559   0.4545   0.7806   0.8574   0.9480   1.1284
     1.4159   1.5106   1.6373   1.8329   2.2025   2.4780   2.6007   3.2830
     3.6196   3.8715   9.9802  10.2039  11.0121  11.6198  11.7336  12.0522
    12.3534  12.4292  12.4784  13.1094

          k = 0.2995-0.2019 0.0000 ( 24664 PWs)   bands (ev):

   -13.0751 -12.6894 -12.1183 -11.7410 -11.1998 -10.6324  -9.9747  -9.1430
    -8.3708  -7.6087  -6.9233  -6.6449  -6.1762  -5.6622  -5.2523  -4.8393
    -4.4156  -3.9138  -3.4262  -3.3005  -2.9858  -2.9202  -2.7868  -2.4248
    -2.1252  -1.8806  -1.7900  -1.5478  -1.4240  -0.9830  -0.7978  -0.6037
    -0.5782  -0.2832   0.0556   0.3644   0.5328   0.7100   0.9921   1.1988
     1.4947   1.5881   1.7131   1.8230   2.0436   2.1522   2.5375   2.6474
     3.0125   3.0188  10.3004  10.3877  10.6358  11.0640  11.1583  11.6419
    11.9255  12.4418  12.6999  12.9771

          k = 0.3993-0.0000 0.0000 ( 24732 PWs)   bands (ev):

   -12.5166 -11.9969 -11.1322 -10.0089  -9.3679  -8.3738  -8.2712  -8.0588
    -8.0467  -7.5609  -7.5404  -6.8475  -6.8431  -6.6405  -5.9526  -5.6423
    -5.2227  -5.1759  -5.1055  -4.8659  -4.2565  -4.0803  -4.0801  -2.8728
    -2.6526  -2.4684  -2.4438  -1.8011  -1.7702  -1.4117  -0.8762  -0.8224
    -0.6872  -0.6103  -0.3128  -0.1117  -0.1000   0.7272   0.7981   0.8243
     0.9573   1.3763   1.4354   2.1958   2.6361   2.6538   2.7163   3.1997
     3.6822   3.9582  10.8232  10.9093  11.3335  11.4032  11.5865  11.5940
    12.5632  12.5901  13.2176  13.2701

          k = 0.3993-0.1009 0.0000 ( 24696 PWs)   bands (ev):

   -12.3420 -11.8428 -11.0056  -9.9199  -9.5559  -9.2174  -8.9463  -8.3730
    -8.1362  -7.8056  -7.1985  -6.7467  -6.3920  -6.3355  -6.0009  -5.8590
    -5.4703  -5.1811  -4.7687  -4.1984  -3.9394  -3.5160  -3.4246  -3.0211
    -2.9187  -2.6657  -2.4259  -1.8695  -1.7855  -1.3047  -0.8262  -0.5568
    -0.3364  -0.2680  -0.2008   0.1597   0.1770   0.6679   0.7252   0.9149
     0.9890   1.2269   1.4323   1.5431   2.0574   2.1270   2.5496   2.8314
     2.9771   3.1789  10.5923  11.0596  11.2142  11.4352  11.7674  12.1984
    12.2547  12.5415  13.0456  13.2892

          k = 0.3993-0.2019 0.0000 ( 24655 PWs)   bands (ev):

   -11.8437 -11.4709 -10.9142 -10.5517 -10.0421  -9.5564  -9.0219  -8.6642
    -8.2137  -7.8920  -7.7679  -7.7425  -6.0004  -5.9489  -5.7492  -5.4142
    -5.1856  -5.0486  -4.7980  -4.2042  -3.5454  -2.8917  -2.7114  -2.4515
    -2.3473  -2.0881  -1.9961  -1.8060  -1.4924  -1.3062  -0.9051  -0.6317
    -0.5162  -0.1452   0.1196   0.2344   0.3897   0.4533   0.8168   0.8437
     0.9876   1.0243   1.1227   1.2898   1.4758   1.5007   1.6984   1.9234
     2.1133   2.2211  10.5458  10.9828  11.1615  11.3937  11.9792  12.1914
    12.2981  12.4758  12.5422  12.8445

          k =-0.4992 0.0000 0.0000 ( 24782 PWs)   bands (ev):

   -11.0091 -10.9645 -10.6353 -10.4475 -10.1414  -8.8577  -8.5444  -7.0833
    -6.6661  -6.6473  -6.6427  -6.6382  -6.3993  -6.2676  -6.2648  -6.2298
    -6.2123  -5.9099  -5.8851  -5.4886  -4.9840  -4.9839  -4.4492  -3.8584
    -2.2774  -2.0599  -2.0073  -1.9076  -1.8747  -1.2426  -1.2381  -1.1349
    -0.9753  -0.8776  -0.7523  -0.3159  -0.2995   0.5197   0.5822   0.6291
     0.8077   0.9594   1.3867   2.4061   2.5584   3.0961   3.1011   3.1973
     3.3238   3.3478  11.1010  11.1555  11.3579  11.4067  11.9269  11.9327
    12.4832  12.5584  12.5932  12.5951

          k =-0.4992-0.1009 0.0000 ( 24712 PWs)   bands (ev):

   -10.8407 -10.7909 -10.4886 -10.2855  -9.9975  -8.8027  -8.5166  -8.1147
    -8.0657  -7.6886  -7.5785  -7.3973  -6.7112  -6.1847  -5.4932  -5.4866
    -5.2475  -5.1119  -4.9908  -4.8964  -4.8165  -4.7395  -4.2382  -3.8150
    -2.4446  -2.4020  -2.1303  -1.7956  -1.6711  -1.0913  -1.0423  -0.7317
    -0.6531  -0.6372  -0.5515  -0.0893  -0.0498   0.4723   0.5787   0.6943
     0.8223   1.1373   1.4074   2.1376   2.2595   2.3382   2.4188   2.4406
     2.5669   2.6482  10.7748  11.2264  11.4142  11.8010  11.9677  12.1361
    12.4128  12.6165  12.8857  13.0177

          k =-0.4992-0.2019 0.0000 ( 24638 PWs)   bands (ev):

   -10.3719 -10.2867 -10.1373  -9.8580  -9.6802  -9.3204  -9.1852  -8.9228
    -8.6424  -8.4417  -8.3711  -8.2129  -6.3656  -6.2668  -5.8806  -5.6030
    -5.3293  -4.8982  -4.7329  -4.1589  -3.9931  -3.7422  -3.5842  -3.3980
    -1.9189  -1.5024  -1.4544  -1.4162  -1.3278  -1.0765  -1.0492  -0.6052
    -0.5811  -0.3211   0.1497   0.2842   0.4558   0.5748   0.6487   0.7231
     0.7274   0.8025   0.9918   1.0199   1.0882   1.1895   1.4588   1.5085
     1.7267   1.7866  11.1142  11.1842  11.5605  11.7718  11.8089  12.1343
    12.2261  12.6747  12.7815  12.9509

     the Fermi energy is     6.8003 ev

!    total energy              =    -447.08248609 Ry
     estimated scf accuracy    <          4.4E-12 Ry
     smearing contrib. (-TS)   =       0.00000000 Ry
     internal energy E=F+TS    =    -447.08248609 Ry

     The total energy is F=E-TS. E is the sum of the following terms:
     one-electron contribution =   -3176.54764874 Ry
     hartree contribution      =    1637.99424347 Ry
     xc contribution           =    -115.10109635 Ry
     ewald contribution        =    1354.48757394 Ry
     one-center paw contrib.   =    -147.91555841 Ry

     convergence has been achieved in   9 iterations

     negative rho (up, down):  4.979E-06 0.000E+00

     Forces acting on atoms (cartesian axes, Ry/au):

     atom    1 type  1   force =     0.00000000    0.00033552   -0.00047529
     atom    2 type  1   force =     0.00000000    0.00016291   -0.00017319
     atom    3 type  1   force =     0.00000000    0.00008198    0.00005839
     atom    4 type  1   force =    -0.00000000    0.00011086    0.00015657
     atom    5 type  1   force =     0.00000000    0.00004176    0.00037041
     atom    6 type  1   force =     0.00000000   -0.00007373    0.00040250
     atom    7 type  1   force =     0.00000000   -0.00003436    0.00023581
     atom    8 type  1   force =     0.00000000    0.00005155    0.00025424
     atom    9 type  1   force =    -0.00000000    0.00007153    0.00035853
     atom   10 type  1   force =     0.00000000    0.00009220    0.00032501
     atom   11 type  1   force =     0.00000000    0.00015917    0.00033130
     atom   12 type  1   force =     0.00000000    0.00024022    0.00077122
     atom   13 type  1   force =     0.00000000   -0.00024022   -0.00077122
     atom   14 type  1   force =     0.00000000   -0.00015917   -0.00033130
     atom   15 type  1   force =     0.00000000   -0.00009220   -0.00032501
     atom   16 type  1   force =    -0.00000000   -0.00007153   -0.00035853
     atom   17 type  1   force =     0.00000000   -0.00005155   -0.00025424
     atom   18 type  1   force =     0.00000000    0.00003436   -0.00023581
     atom   19 type  1   force =     0.00000000    0.00007373   -0.00040250
     atom   20 type  1   force =     0.00000000   -0.00004176   -0.00037041
     atom   21 type  1   force =    -0.00000000   -0.00011086   -0.00015657
     atom   22 type  1   force =     0.00000000   -0.00008198   -0.00005839
     atom   23 type  1   force =     0.00000000   -0.00016291    0.00017319
     atom   24 type  1   force =     0.00000000   -0.00033552    0.00047529
     atom   25 type  2   force =     0.00000000    0.00075012   -0.00045785
     atom   26 type  2   force =     0.00000000   -0.00091630   -0.00066651
     atom   27 type  2   force =     0.00000000    0.00091630    0.00066651
     atom   28 type  2   force =     0.00000000   -0.00075012    0.00045785

     Total force =     0.002816     Total SCF correction =     0.000003


     Computing stress (Cartesian axis) and pressure


     negative rho (up, down):  4.979E-06 0.000E+00
          total   stress  (Ry/bohr**3)                   (kbar)     P=       -1.72
   0.00000060   0.00000000   0.00000000            0.09        0.00        0.00
   0.00000000   0.00000055  -0.00000111            0.00        0.08       -0.16
   0.00000000  -0.00000111  -0.00003632            0.00       -0.16       -5.34

     Energy error            =      1.2E-05 Ry
     Gradient error          =      9.2E-04 Ry/Bohr
     Cell gradient error     =      8.9E-02 kbar

     number of scf cycles    =  13
     number of bfgs steps    =  12

     enthalpy           old  =    -447.0824737177 Ry
     enthalpy           new  =    -447.0824860923 Ry

     CASE: enthalpy          _new < enthalpy          _old

     new trust radius        =       0.0024387938 bohr
     Message from routine volume:
     axis vectors are left-handed
     new conv_thr            =            1.2E-11 Ry

     new unit-cell volume =   1697.60076 a.u.^3 (   251.55848 Ang^3 )
     density =      1.92945 g/cm^3

CELL_PARAMETERS (angstrom)
   2.530599562   0.000000000   0.000000000
   0.000000000  -5.005614140   0.000000000
   0.000000000   0.000000000  19.859035940

ATOMIC_POSITIONS (crystal)
C                0.0000000000        0.1617396650        0.7441868555
C                0.5000000000        0.2327539257        0.7032473837
C                0.5000000000       -0.0004102579        0.6531594024
C               -0.0000000000       -0.0003370065        0.6100801088
C                0.0000000000        0.2530512789        0.5677850744
C                0.5000000000        0.2529204734        0.5229367902
C                0.5000000000        0.0029833028        0.4778161637
C               -0.0000000000        0.0031706677        0.4326661365
C                0.0000000000        0.2499552932        0.3845688935
C                0.5000000000        0.2499399178        0.3377088745
C                0.5000000000       -0.0169626880        0.2966542999
C                0.0000000000       -0.0881696062        0.2557321017
C                0.0000000000        0.8381696062        0.7442678983
C                0.5000000000        0.7669626880        0.7033457001
C                0.5000000000        0.5000600822        0.6622911255
C                0.0000000000        0.5000447068        0.6154311065
C               -0.0000000000        0.7468293323        0.5673338635
C                0.5000000000        0.7470166972        0.5221838363
C                0.5000000000        0.4970795266        0.4770632098
C                0.0000000000        0.4969487211        0.4322149256
C               -0.0000000000        0.7503370065        0.3899198912
C                0.5000000000        0.7504102579        0.3468405976
C                0.5000000000        0.5172460743        0.2967526163
C                0.0000000000        0.5882603350        0.2558131445
H               -0.0000000000        0.2487017276        0.7950686353
H                0.0000000000        0.7516409592        0.7952089718
H               -0.0000000000       -0.0016409592        0.2047910282
H               -0.0000000000        0.5012982724        0.2049313647



     Writing config-only to output data dir /tmp/qe/slab.save/ :
     XML data file
     NEW-OLD atomic charge density approx. for the potential

     Check: negative core charge=   -0.000001

     negative rho (up, down):  5.006E-06 0.000E+00

     total cpu time spent up to now is      950.7 secs

     Self-consistent Calculation

     iteration #  1     ecut=    90.00 Ry     beta= 0.30
     Davidson diagonalization with overlap
     ethr =  1.00E-06,  avg # of iterations =  2.0

     Threshold (ethr) on eigenvalues was too large:
     Diagonalizing with lowered threshold

     Davidson diagonalization with overlap
     ethr =  2.79E-09,  avg # of iterations =  4.2

     negative rho (up, down):  5.003E-06 0.000E+00

     total cpu time spent up to now is      961.6 secs

     total energy              =    -447.08249703 Ry
     estimated scf accuracy    <       0.00000328 Ry

     iteration #  2     ecut=    90.00 Ry     beta= 0.30
     Davidson diagonalization with overlap
     ethr =  3.28E-09,  avg # of iterations =  2.0

     negative rho (up, down):  4.988E-06 0.000E+00

     total cpu time spent up to now is      965.9 secs

     total energy              =    -447.08249713 Ry
     estimated scf accuracy    <       0.00000085 Ry

     iteration #  3     ecut=    90.00 Ry     beta= 0.30
     Davidson diagonalization with overlap
     ethr =  8.51E-10,  avg # of iterations =  2.1

     negative rho (up, down):  4.981E-06 0.000E+00

     total cpu time spent up to now is      970.4 secs

     total energy              =    -447.08249719 Ry
     estimated scf accuracy    <       0.00000021 Ry

     iteration #  4     ecut=    90.00 Ry     beta= 0.30
     Davidson diagonalization with overlap
     ethr =  2.12E-10,  avg # of iterations =  1.5

     negative rho (up, down):  4.977E-06 0.000E+00

     total cpu time spent up to now is      974.5 secs

     total energy              =    -447.08249721 Ry
     estimated scf accuracy    <       0.00000005 Ry

     iteration #  5     ecut=    90.00 Ry     beta= 0.30
     Davidson diagonalization with overlap
     ethr =  4.60E-11,  avg # of iterations =  2.1

     negative rho (up, down):  4.979E-06 0.000E+00

     total cpu time spent up to now is      979.1 secs

     total energy              =    -447.08249721 Ry
     estimated scf accuracy    <          3.8E-09 Ry

     iteration #  6     ecut=    90.00 Ry     beta= 0.30
     Davidson diagonalization with overlap
     ethr =  3.78E-12,  avg # of iterations =  2.4

     negative rho (up, down):  4.980E-06 0.000E+00

     total cpu time spent up to now is      984.0 secs

     total energy              =    -447.08249721 Ry
     estimated scf accuracy    <          1.0E-09 Ry

     iteration #  7     ecut=    90.00 Ry     beta= 0.30
     Davidson diagonalization with overlap
     ethr =  1.03E-12,  avg # of iterations =  2.1

     negative rho (up, down):  4.981E-06 0.000E+00

     total cpu time spent up to now is      989.1 secs

     total energy              =    -447.08249721 Ry
     estimated scf accuracy    <          1.6E-10 Ry

     iteration #  8     ecut=    90.00 Ry     beta= 0.30
     Davidson diagonalization with overlap
     ethr =  1.55E-13,  avg # of iterations =  2.5

     negative rho (up, down):  4.981E-06 0.000E+00

     total cpu time spent up to now is      994.2 secs

     total energy              =    -447.08249721 Ry
     estimated scf accuracy    <          3.5E-11 Ry

     iteration #  9     ecut=    90.00 Ry     beta= 0.30
     Davidson diagonalization with overlap
     ethr =  1.00E-13,  avg # of iterations =  1.4

     negative rho (up, down):  4.982E-06 0.000E+00

     total cpu time spent up to now is      998.5 secs

     End of self-consistent calculation

          k = 0.0000-0.0000 0.0000 ( 24643 PWs)   bands (ev):

   -15.3892 -14.8399 -13.8979 -12.5338 -10.8900 -10.7965 -10.7343 -10.2196
   -10.1254  -9.3904  -9.3708  -8.6505  -6.7640  -6.6730  -6.5044  -5.1707
    -5.1681  -4.3640  -3.3941  -3.3895  -2.1215  -1.3576  -1.3516  -0.3023
     0.0557   0.1064   0.1993   0.5906   0.6381   0.8423   1.0970   1.8137
     2.1987   2.3311   2.3587   2.5786   2.9791   2.9843   3.0135   3.1073
     3.1092   3.1336   3.7194   3.7388   3.7389   3.8177   4.0412   5.1594
     5.2496   5.3396   8.2542   8.7517  10.2698  10.2996  10.3633  10.7109
    11.0817  11.2118  11.3196  11.5258

          k = 0.0000-0.1009 0.0000 ( 24675 PWs)   bands (ev):

   -15.2099 -14.6818 -13.7718 -12.5170 -12.2894 -11.6149 -10.9017 -10.2829
    -9.4536  -8.9915  -8.8106  -8.4004  -6.5919  -6.3278  -6.1670  -5.0560
    -4.8099  -4.2480  -3.4404  -3.0777  -2.1807  -1.3331  -1.1400  -0.7768
    -0.2122  -0.1564   0.0270   0.3177   0.6776   0.8003   1.1785   1.4516
     1.5945   2.0544   2.3392   2.3796   2.5282   2.5344   2.9951   3.0395
     3.0849   3.4932   3.6214   3.6497   3.7440   4.0311   4.2202   4.7713
     4.9278   5.2379   8.4783   8.9690  10.5123  10.8031  10.8307  11.2464
    11.2914  11.4472  11.5699  11.7480

          k = 0.0000-0.2019 0.0000 ( 24637 PWs)   bands (ev):

   -14.6982 -14.3040 -13.7216 -13.3350 -12.7742 -12.1737 -11.4716 -10.5773
    -9.7050  -8.8334  -7.9677  -7.6562  -6.0271  -5.5121  -5.3419  -4.7281
    -4.2207  -3.9820  -3.2332  -2.7709  -2.5580  -2.0665  -1.9052  -1.1406
    -0.7670  -0.4786  -0.0594   0.2430   0.5683   0.8881   1.1086   1.1869
     1.3588   1.4738   1.9223   1.9531   2.3583   2.4450   2.7900   2.9364
     3.0317   3.3503   3.4316   3.6462   3.9231   4.0951   4.2513   4.3978
     4.7372   5.1337   9.1200   9.5522  10.1674  10.4884  11.0063  11.1628
    11.2648  11.4162  11.7763  12.0513

          k = 0.0998-0.0000 0.0000 ( 24655 PWs)   bands (ev):

   -15.2064 -14.6581 -13.7183 -12.3583 -10.7180 -10.6229 -10.5635 -10.0505
    -9.9578  -9.2252  -9.2062  -8.4925  -6.6353  -6.5153  -6.4027  -5.0326
    -5.0308  -4.3035  -3.2931  -3.2881  -2.2558  -1.3300  -1.3077  -1.0589
    -0.9398   0.0310   0.1843   0.2004   0.6124   0.6600   0.9288   1.4420
     1.8053   1.9886   2.1045   2.1845   2.2769   2.3235   2.5129   2.5979
     2.7817   2.8114   3.0557   3.1067   3.2858   3.7132   3.7518   4.7126
     5.0140   5.1222   8.4374   8.9260  10.8067  10.9440  11.0035  11.2308
    11.6223  11.6967  11.7369  11.8492

          k = 0.0998-0.1009 0.0000 ( 24646 PWs)   bands (ev):

   -15.0273 -14.5002 -13.5924 -12.3404 -12.1128 -11.4407 -10.7321 -10.1173
    -9.2922  -8.8235  -8.6485  -8.2420  -6.4866  -6.1732  -6.0470  -4.9285
    -4.6795  -4.1716  -3.3634  -2.9527  -2.2495  -1.2974  -1.1436  -0.9589
    -0.8307  -0.6453  -0.0620   0.0312   0.2406   0.6675   0.7881   1.1711
     1.3676   1.5341   1.5984   1.7298   2.1876   2.3860   2.5153   2.6473
     2.7506   3.0448   3.1030   3.2687   3.3941   3.6886   3.7499   4.1328
     4.8301   5.0183   8.6616   9.1398  10.8875  11.3853  11.4382  11.7240
    11.7606  11.8112  12.0281  12.0797

          k = 0.0998-0.2019 0.0000 ( 24657 PWs)   bands (ev):

   -14.5165 -14.1231 -13.5417 -13.1558 -12.5966 -11.9989 -11.3003 -10.4105
    -9.5435  -8.6768  -7.8135  -7.4954  -5.9453  -5.4058  -5.2113  -4.6153
    -4.1150  -3.8362  -3.1109  -2.6560  -2.4488  -1.9736  -1.7990  -1.2368
    -0.8638  -0.6517  -0.3746  -0.3329  -0.1543   0.3083   0.4807   0.8210
     1.0690   1.1635   1.4623   1.4880   1.8335   1.9431   2.4158   2.5550
     2.6859   2.9804   3.2131   3.3513   3.7219   3.7416   3.8713   4.0709
     4.4106   4.5380   9.3033   9.7125  10.3387  10.6217  11.0535  11.3231
    11.9193  12.1343  12.3921  12.4140

          k = 0.1997-0.0000 0.0000 ( 24607 PWs)   bands (ev):

   -14.6601 -14.1151 -13.1825 -11.8371 -10.2100 -10.1049 -10.0562  -9.5469
    -9.4599  -8.7333  -8.7158  -8.0411  -6.4982  -6.0652  -6.0540  -4.6644
    -4.6642  -4.4515  -3.3508  -3.0716  -3.0634  -2.6020  -2.5577  -1.3840
    -1.1830  -1.0981  -0.8655   0.0484   0.1110   0.2849   0.5029   0.5338
     0.6342   0.9585   1.0565   1.0943   1.2092   1.3519   1.4131   1.8422
     1.9227   2.2452   2.2778   2.5591   2.7363   2.8849   3.8103   3.9949
     4.0901   4.9630   8.9598   9.3391  11.3819  11.6481  11.8434  11.9257
    12.1717  12.2091  12.4694  12.6765

          k = 0.1997-0.1009 0.0000 ( 24634 PWs)   bands (ev):

   -14.4819 -13.9580 -13.0571 -11.8152 -11.5864 -10.9222 -10.2306  -9.6296
    -8.8159  -8.3227  -8.1677  -7.7874  -6.3655  -5.7417  -5.7086  -4.6532
    -4.4372  -4.1131  -3.3253  -3.0942  -2.6193  -2.4938  -2.4316  -1.4691
    -1.2160  -1.1222  -0.9027  -0.3981  -0.2383  -0.0551  -0.0022   0.3153
     0.6076   0.6963   0.9782   1.0242   1.0750   1.5407   1.5906   1.7782
     2.0178   2.0930   2.2898   2.3758   2.7363   2.8784   3.2468   3.7161
     4.2256   4.5529   9.1719   9.5443  11.2059  11.6502  11.7407  11.8160
    11.9916  12.1968  12.8718  12.9248

          k = 0.1997-0.2019 0.0000 ( 24642 PWs)   bands (ev):

   -13.9734 -13.5826 -13.0048 -12.6211 -12.0676 -11.4790 -10.7923  -9.9183
    -9.0716  -8.2241  -7.3727  -7.0202  -5.8760  -5.2342  -4.9036  -4.3730
    -3.9546  -3.4362  -3.0153  -2.5454  -2.4087  -2.3466  -2.2389  -1.7697
    -1.6996  -1.6159  -1.4681  -0.9642  -0.8025  -0.4196  -0.4052  -0.1913
    -0.0995   0.3345   0.7015   0.9689   1.2155   1.3713   1.5634   1.7343
     2.0738   2.2406   2.3791   2.5469   2.7044   3.0508   3.1406   3.3885
     3.8755   3.8980   9.7618  10.0951  10.5979  10.7753  10.9110  11.2380
    11.6626  12.2363  12.3939  12.7347

          k = 0.2995-0.0000 0.0000 ( 24668 PWs)   bands (ev):

   -13.7581 -13.2202 -12.3044 -10.9972  -9.4272  -9.2526  -9.2313  -8.7246
    -8.6576  -7.9312  -7.9141  -7.5117  -7.2311  -5.7435  -5.4647  -5.3787
    -5.0574  -4.3433  -4.3358  -3.7765  -3.5997  -3.2354  -3.2288  -2.4170
    -2.1196  -1.5202  -1.4338  -1.3425  -1.3186  -0.8654  -0.8577  -0.3971
    -0.3246   0.1036   0.1218   0.5862   0.5896   1.1650   1.2172   1.2683
     1.5060   1.6088   1.9472   1.9972   2.0959   2.9154   3.2050   3.2391
     3.8354   4.5912   9.7873  10.0241  11.6484  11.6705  12.0314  12.1461
    12.3714  12.3811  12.4523  12.5680

          k = 0.2995-0.1009 0.0000 ( 24678 PWs)   bands (ev):

   -13.5813 -13.0644 -12.1795 -10.9625 -10.7227 -10.0755  -9.4393  -8.8759
    -8.0809  -7.5123  -7.4332  -7.2155  -7.0406  -5.6225  -5.3934  -5.1964
    -4.9271  -4.4265  -3.8943  -3.5925  -3.4835  -3.2451  -2.5913  -2.4309
    -2.2953  -2.1540  -1.8579  -1.3651  -1.2118  -0.7339  -0.4828  -0.3148
    -0.1377   0.1347   0.3555   0.4518   0.7801   0.8571   0.9469   1.1280
     1.4149   1.5102   1.6367   1.8322   2.2020   2.4768   2.6001   3.2828
     3.6184   3.8693   9.9790  10.2026  11.0126  11.6190  11.7332  12.0535
    12.3543  12.4296  12.4778  13.1102

          k = 0.2995-0.2019 0.0000 ( 24664 PWs)   bands (ev):

   -13.0770 -12.6915 -12.1206 -11.7423 -11.2008 -10.6338  -9.9754  -9.1438
    -8.3709  -7.6095  -6.9251  -6.6466  -6.1769  -5.6634  -5.2537  -4.8406
    -4.4169  -3.9152  -3.4284  -3.3025  -2.9875  -2.9218  -2.7876  -2.4264
    -2.1262  -1.8819  -1.7913  -1.5483  -1.4252  -0.9846  -0.7988  -0.6051
    -0.5793  -0.2840   0.0548   0.3641   0.5314   0.7093   0.9920   1.1986
     1.4932   1.5877   1.7125   1.8230   2.0433   2.1517   2.5366   2.6462
     3.0117   3.0182  10.2992  10.3881  10.6354  11.0646  11.1580  11.6423
    11.9254  12.4416  12.7006  12.9773

          k = 0.3993-0.0000 0.0000 ( 24732 PWs)   bands (ev):

   -12.5183 -11.9984 -11.1338 -10.0104  -9.3693  -8.3762  -8.2734  -8.0611
    -8.0489  -7.5624  -7.5420  -6.8478  -6.8434  -6.6422  -5.9546  -5.6437
    -5.2241  -5.1779  -5.1069  -4.8668  -4.2581  -4.0801  -4.0800  -2.8740
    -2.6543  -2.4697  -2.4451  -1.8016  -1.7708  -1.4127  -0.8765  -0.8228
    -0.6876  -0.6110  -0.3135  -0.1118  -0.0997   0.7271   0.7987   0.8245
     0.9568   1.3758   1.4344   2.1925   2.6363   2.6510   2.7163   3.1976
     3.6799   3.9555  10.8223  10.9087  11.3344  11.4034  11.5865  11.5940
    12.5633  12.5906  13.2177  13.2703

          k = 0.3993-0.1009 0.0000 ( 24696 PWs)   bands (ev):

   -12.3438 -11.8444 -11.0073  -9.9215  -9.5577  -9.2188  -8.9473  -8.3748
    -8.1388  -7.8069  -7.1996  -6.7483  -6.3940  -6.3365  -6.0020  -5.8609
    -5.4711  -5.1820  -4.7695  -4.1997  -3.9404  -3.5168  -3.4262  -3.0229
    -2.9200  -2.6662  -2.4270  -1.8699  -1.7860  -1.3058  -0.8269  -0.5566
    -0.3374  -0.2689  -0.2013   0.1597   0.1768   0.6678   0.7251   0.9145
     0.9889   1.2256   1.4311   1.5408   2.0553   2.1262   2.5494   2.8304
     2.9751   3.1765  10.5924  11.0585  11.2134  11.4355  11.7678  12.1992
    12.2544  12.5420  13.0462  13.2891

          k = 0.3993-0.2019 0.0000 ( 24655 PWs)   bands (ev):

   -11.8457 -11.4731 -10.9165 -10.5530 -10.0432  -9.5578  -9.0227  -8.6653
    -8.2148  -7.8947  -7.7695  -7.7446  -6.0012  -5.9498  -5.7490  -5.4161
    -5.1869  -5.0497  -4.7989  -4.2055  -3.5462  -2.8927  -2.7136  -2.4528
    -2.3482  -2.0892  -1.9968  -1.8073  -1.4932  -1.3076  -0.9065  -0.6333
    -0.5170  -0.1470   0.1188   0.2341   0.3890   0.4524   0.8162   0.8436
     0.9867   1.0233   1.1223   1.2892   1.4741   1.5006   1.6973   1.9220
     2.1127   2.2204  10.5454  10.9813  11.1617  11.3957  11.9793  12.1915
    12.2991  12.4771  12.5433  12.8440

          k =-0.4991 0.0000 0.0000 ( 24782 PWs)   bands (ev):

   -11.0107 -10.9663 -10.6366 -10.4490 -10.1425  -8.8606  -8.5472  -7.0851
    -6.6677  -6.6494  -6.6451  -6.6403  -6.4008  -6.2695  -6.2666  -6.2309
    -6.2141  -5.9104  -5.8856  -5.4896  -4.9837  -4.9836  -4.4507  -3.8592
    -2.2793  -2.0610  -2.0077  -1.9085  -1.8755  -1.2439  -1.2379  -1.1358
    -0.9752  -0.8784  -0.7529  -0.3154  -0.2988   0.5200   0.5820   0.6291
     0.8075   0.9589   1.3855   2.4063   2.5584   3.0926   3.0983   3.1939
     3.3219   3.3460  11.1013  11.1555  11.3589  11.4073  11.9261  11.9319
    12.4830  12.5579  12.5939  12.5954

          k =-0.4991-0.1009 0.0000 ( 24712 PWs)   bands (ev):

   -10.8424 -10.7928 -10.4900 -10.2872  -9.9988  -8.8058  -8.5194  -8.1163
    -8.0678  -7.6894  -7.5800  -7.3984  -6.7125  -6.1864  -5.4944  -5.4870
    -5.2481  -5.1141  -4.9924  -4.8974  -4.8174  -4.7404  -4.2393  -3.8160
    -2.4464  -2.4026  -2.1315  -1.7955  -1.6720  -1.0929  -1.0430  -0.7321
    -0.6543  -0.6375  -0.5513  -0.0892  -0.0497   0.4723   0.5789   0.6942
     0.8223   1.1363   1.4060   2.1370   2.2573   2.3358   2.4177   2.4376
     2.5652   2.6471  10.7749  11.2272  11.4139  11.8017  11.9667  12.1360
    12.4127  12.6162  12.8851  13.0182

          k =-0.4991-0.2019 0.0000 ( 24638 PWs)   bands (ev):

   -10.3738 -10.2887 -10.1392  -9.8601  -9.6822  -9.3222  -9.1862  -8.9248
    -8.6423  -8.4447  -8.3714  -8.2156  -6.3673  -6.2676  -5.8803  -5.6048
    -5.3296  -4.8989  -4.7339  -4.1596  -3.9942  -3.7434  -3.5853  -3.3986
    -1.9212  -1.5046  -1.4564  -1.4168  -1.3293  -1.0774  -1.0502  -0.6057
    -0.5812  -0.3217   0.1493   0.2832   0.4538   0.5744   0.6470   0.7220
     0.7267   0.8022   0.9910   1.0188   1.0877   1.1893   1.4570   1.5067
     1.7264   1.7864  11.1129  11.1832  11.5609  11.7713  11.8111  12.1377
    12.2265  12.6746  12.7816  12.9526

     the Fermi energy is     6.7998 ev

!    total energy              =    -447.08249721 Ry
     estimated scf accuracy    <          3.1E-12 Ry
     smearing contrib. (-TS)   =       0.00000000 Ry
     internal energy E=F+TS    =    -447.08249721 Ry

     The total energy is F=E-TS. E is the sum of the following terms:
     one-electron contribution =   -3177.40525235 Ry
     hartree contribution      =    1638.41999655 Ry
     xc contribution           =    -115.10250154 Ry
     ewald contribution        =    1354.92085186 Ry
     one-center paw contrib.   =    -147.91559173 Ry

     convergence has been achieved in   9 iterations

     negative rho (up, down):  4.982E-06 0.000E+00

     Forces acting on atoms (cartesian axes, Ry/au):

     atom    1 type  1   force =    -0.00000000    0.00002504   -0.00049683
     atom    2 type  1   force =     0.00000000   -0.00006332   -0.00025902
     atom    3 type  1   force =     0.00000000    0.00026537    0.00016993
     atom    4 type  1   force =     0.00000000    0.00025698    0.00026794
     atom    5 type  1   force =     0.00000000    0.00004746    0.00052657
     atom    6 type  1   force =     0.00000000   -0.00000780    0.00041194
     atom    7 type  1   force =     0.00000000    0.00005372    0.00035294
     atom    8 type  1   force =    -0.00000000    0.00010752    0.00040276
     atom    9 type  1   force =     0.00000000    0.00025134    0.00026934
     atom   10 type  1   force =     0.00000000    0.00022839    0.00029031
     atom   11 type  1   force =    -0.00000000   -0.00007632    0.00016551
     atom   12 type  1   force =    -0.00000000    0.00004301    0.00059589
     atom   13 type  1   force =     0.00000000   -0.00004301   -0.00059589
     atom   14 type  1   force =     0.00000000    0.00007632   -0.00016551
     atom   15 type  1   force =     0.00000000   -0.00022839   -0.00029031
     atom   16 type  1   force =     0.00000000   -0.00025134   -0.00026934
     atom   17 type  1   force =    -0.00000000   -0.00010752   -0.00040276
     atom   18 type  1   force =     0.00000000   -0.00005372   -0.00035294
     atom   19 type  1   force =    -0.00000000    0.00000780   -0.00041194
     atom   20 type  1   force =     0.00000000   -0.00004746   -0.00052657
     atom   21 type  1   force =     0.00000000   -0.00025698   -0.00026794
     atom   22 type  1   force =     0.00000000   -0.00026537   -0.00016993
     atom   23 type  1   force =     0.00000000    0.00006332    0.00025902
     atom   24 type  1   force =    -0.00000000   -0.00002504    0.00049683
     atom   25 type  2   force =     0.00000000    0.00067923   -0.00043084
     atom   26 type  2   force =    -0.00000000   -0.00071997   -0.00073835
     atom   27 type  2   force =    -0.00000000    0.00071997    0.00073835
     atom   28 type  2   force =     0.00000000   -0.00067923    0.00043084

     Total force =     0.002713     Total SCF correction =     0.000004


     Computing stress (Cartesian axis) and pressure


     negative rho (up, down):  4.982E-06 0.000E+00
          total   stress  (Ry/bohr**3)                   (kbar)     P=       -1.56
   0.00000047   0.00000000   0.00000000            0.07        0.00        0.00
   0.00000000   0.00000028  -0.00000072            0.00        0.04       -0.11
   0.00000000  -0.00000072  -0.00003261            0.00       -0.11       -4.80

     Energy error            =      1.1E-05 Ry
     Gradient error          =      7.4E-04 Ry/Bohr
     Cell gradient error     =      6.9E-02 kbar

     number of scf cycles    =  14
     number of bfgs steps    =  13

     enthalpy           old  =    -447.0824860923 Ry
     enthalpy           new  =    -447.0824972122 Ry

     CASE: enthalpy          _new < enthalpy          _old

     new trust radius        =       0.0036584216 bohr
     Message from routine volume:
     axis vectors are left-handed
     new conv_thr            =            1.1E-11 Ry

     new unit-cell volume =   1697.81676 a.u.^3 (   251.59049 Ang^3 )
     density =      1.92920 g/cm^3

CELL_PARAMETERS (angstrom)
   2.530690212   0.000000000   0.000000000
   0.000000000  -5.006071720   0.000000000
   0.000000000   0.000000000  19.859035940

ATOMIC_POSITIONS (crystal)
C               -0.0000000000        0.1616344647        0.7441334179
C                0.5000000000        0.2327197507        0.7032116671
C                0.5000000000       -0.0003777945        0.6531150490
C               -0.0000000000       -0.0003181895        0.6100514023
C                0.0000000000        0.2530508499        0.5677660319
C                0.5000000000        0.2529240267        0.5229293084
C                0.5000000000        0.0029910863        0.4778212051
C               -0.0000000000        0.0031809271        0.4326787290
C                0.0000000000        0.2499872812        0.3845963539
C                0.5000000000        0.2499665438        0.3377442748
C                0.5000000000       -0.0169912876        0.2967130848
C                0.0000000000       -0.0882340670        0.2558025118
C                0.0000000000        0.8382340670        0.7441974882
C                0.5000000000        0.7669912876        0.7032869152
C                0.5000000000        0.5000334562        0.6622557252
C                0.0000000000        0.5000127188        0.6154036461
C               -0.0000000000        0.7468190729        0.5673212710
C                0.5000000000        0.7470089137        0.5221787949
C                0.5000000000        0.4970759733        0.4770706916
C                0.0000000000        0.4969491501        0.4322339681
C               -0.0000000000        0.7503181895        0.3899485977
C                0.5000000000        0.7503777945        0.3468849510
C                0.5000000000        0.5172802493        0.2967883329
C               -0.0000000000        0.5883655353        0.2558665821
H                0.0000000000        0.2484563373        0.7950254746
H               -0.0000000000        0.7519623165        0.7951547297
H               -0.0000000000       -0.0019623165        0.2048452703
H               -0.0000000000        0.5015436627        0.2049745254



     Writing config-only to output data dir /tmp/qe/slab.save/ :
     XML data file
     NEW-OLD atomic charge density approx. for the potential

     Check: negative core charge=   -0.000001

     negative rho (up, down):  5.053E-06 0.000E+00

     total cpu time spent up to now is     1017.5 secs

     Self-consistent Calculation

     iteration #  1     ecut=    90.00 Ry     beta= 0.30
     Davidson diagonalization with overlap
     ethr =  1.00E-06,  avg # of iterations =  2.0

     Threshold (ethr) on eigenvalues was too large:
     Diagonalizing with lowered threshold

     Davidson diagonalization with overlap
     ethr =  6.54E-09,  avg # of iterations =  4.1

     negative rho (up, down):  5.043E-06 0.000E+00

     total cpu time spent up to now is     1028.4 secs

     total energy              =    -447.08251090 Ry
     estimated scf accuracy    <       0.00000763 Ry

     iteration #  2     ecut=    90.00 Ry     beta= 0.30
     Davidson diagonalization with overlap
     ethr =  7.63E-09,  avg # of iterations =  2.0

     negative rho (up, down):  5.012E-06 0.000E+00

     total cpu time spent up to now is     1032.7 secs

     total energy              =    -447.08251118 Ry
     estimated scf accuracy    <       0.00000195 Ry

     iteration #  3     ecut=    90.00 Ry     beta= 0.30
     Davidson diagonalization with overlap
     ethr =  1.95E-09,  avg # of iterations =  2.0

     negative rho (up, down):  4.994E-06 0.000E+00

     total cpu time spent up to now is     1037.1 secs

     total energy              =    -447.08251128 Ry
     estimated scf accuracy    <       0.00000054 Ry

     iteration #  4     ecut=    90.00 Ry     beta= 0.30
     Davidson diagonalization with overlap
     ethr =  5.38E-10,  avg # of iterations =  1.5

     negative rho (up, down):  4.984E-06 0.000E+00

     total cpu time spent up to now is     1041.2 secs

     total energy              =    -447.08251131 Ry
     estimated scf accuracy    <       0.00000010 Ry

     iteration #  5     ecut=    90.00 Ry     beta= 0.30
     Davidson diagonalization with overlap
     ethr =  1.01E-10,  avg # of iterations =  2.0

     negative rho (up, down):  4.988E-06 0.000E+00

     total cpu time spent up to now is     1045.7 secs

     total energy              =    -447.08251132 Ry
     estimated scf accuracy    <          7.5E-09 Ry

     iteration #  6     ecut=    90.00 Ry     beta= 0.30
     Davidson diagonalization with overlap
     ethr =  7.48E-12,  avg # of iterations =  2.6

     negative rho (up, down):  4.991E-06 0.000E+00

     total cpu time spent up to now is     1050.7 secs

     total energy              =    -447.08251132 Ry
     estimated scf accuracy    <          1.6E-09 Ry

     iteration #  7     ecut=    90.00 Ry     beta= 0.30
     Davidson diagonalization with overlap
     ethr =  1.60E-12,  avg # of iterations =  2.8

     negative rho (up, down):  4.992E-06 0.000E+00

     total cpu time spent up to now is     1055.6 secs

     total energy              =    -447.08251132 Ry
     estimated scf accuracy    <          2.0E-10 Ry

     iteration #  8     ecut=    90.00 Ry     beta= 0.30
     Davidson diagonalization with overlap
     ethr =  1.97E-13,  avg # of iterations =  2.7

     negative rho (up, down):  4.993E-06 0.000E+00

     total cpu time spent up to now is     1060.9 secs

     total energy              =    -447.08251132 Ry
     estimated scf accuracy    <          5.6E-11 Ry

     iteration #  9     ecut=    90.00 Ry     beta= 0.30
     Davidson diagonalization with overlap
     ethr =  1.00E-13,  avg # of iterations =  2.1

     negative rho (up, down):  4.994E-06 0.000E+00

     total cpu time spent up to now is     1065.3 secs

     End of self-consistent calculation

          k = 0.0000-0.0000 0.0000 ( 24643 PWs)   bands (ev):

   -15.3921 -14.8428 -13.9006 -12.5362 -10.8926 -10.7998 -10.7371 -10.2221
   -10.1278  -9.3917  -9.3721  -8.6519  -6.7650  -6.6746  -6.5058  -5.1711
    -5.1689  -4.3648  -3.3938  -3.3897  -2.1217  -1.3568  -1.3517  -0.3068
     0.0504   0.1067   0.1948   0.5894   0.6391   0.8393   1.0930   1.8112
     2.1995   2.3275   2.3594   2.5777   2.9751   2.9802   3.0136   3.1033
     3.1052   3.1342   3.7169   3.7368   3.7368   3.8143   4.0423   5.1564
     5.2468   5.3412   8.2528   8.7497  10.2648  10.2942  10.3599  10.7056
    11.0779  11.2080  11.3162  11.5268

          k = 0.0000-0.1009 0.0000 ( 24675 PWs)   bands (ev):

   -15.2128 -14.6848 -13.7748 -12.5198 -12.2923 -11.6168 -10.9037 -10.2842
    -9.4548  -8.9943  -8.8125  -8.4015  -6.5935  -6.3298  -6.1679  -5.0572
    -4.8109  -4.2487  -3.4401  -3.0783  -2.1813  -1.3330  -1.1411  -0.7809
    -0.2136  -0.1610   0.0245   0.3131   0.6774   0.8004   1.1743   1.4503
     1.5937   2.0504   2.3353   2.3798   2.5283   2.5308   2.9960   3.0365
     3.0848   3.4900   3.6204   3.6501   3.7404   4.0280   4.2176   4.7699
     4.9291   5.2351   8.4769   8.9671  10.5100  10.7989  10.8266  11.2455
    11.2886  11.4431  11.5697  11.7441

          k = 0.0000-0.2019 0.0000 ( 24637 PWs)   bands (ev):

   -14.7014 -14.3076 -13.7250 -13.3375 -12.7764 -12.1757 -11.4729 -10.5787
    -9.7057  -8.8343  -7.9687  -7.6576  -6.0288  -5.5138  -5.3440  -4.7299
    -4.2223  -3.9837  -3.2362  -2.7725  -2.5597  -2.0681  -1.9079  -1.1406
    -0.7683  -0.4806  -0.0590   0.2383   0.5632   0.8882   1.1041   1.1856
     1.3585   1.4701   1.9189   1.9537   2.3549   2.4447   2.7871   2.9372
     3.0318   3.3472   3.4324   3.6460   3.9200   4.0957   4.2518   4.3947
     4.7343   5.1309   9.1187   9.5509  10.1657  10.4871  11.0044  11.1644
    11.2639  11.4136  11.7736  12.0487

          k = 0.0998-0.0000 0.0000 ( 24655 PWs)   bands (ev):

   -15.2093 -14.6610 -13.7209 -12.3607 -10.7206 -10.6262 -10.5662 -10.0530
    -9.9602  -9.2266  -9.2075  -8.4940  -6.6362  -6.5170  -6.4043  -5.0331
    -5.0316  -4.3044  -3.2929  -3.2883  -2.2569  -1.3299  -1.3083  -1.0622
    -0.9428   0.0278   0.1827   0.1952   0.6121   0.6606   0.9253   1.4395
     1.8031   1.9871   2.1023   2.1811   2.2735   2.3199   2.5110   2.5970
     2.7810   2.8104   3.0543   3.1057   3.2843   3.7123   3.7493   4.7115
     5.0151   5.1191   8.4361   8.9241  10.8045  10.9377  10.9982  11.2259
    11.6186  11.6977  11.7352  11.8484

          k = 0.0998-0.1009 0.0000 ( 24646 PWs)   bands (ev):

   -15.0303 -14.5032 -13.5953 -12.3432 -12.1158 -11.4427 -10.7341 -10.1186
    -9.2934  -8.8263  -8.6505  -8.2432  -6.4883  -6.1752  -6.0481  -4.9297
    -4.6805  -4.1723  -3.3632  -2.9533  -2.2505  -1.2975  -1.1457  -0.9623
    -0.8337  -0.6494  -0.0645   0.0274   0.2383   0.6670   0.7873   1.1679
     1.3644   1.5327   1.5966   1.7277   2.1853   2.3844   2.5152   2.6458
     2.7493   3.0433   3.1015   3.2666   3.3922   3.6875   3.7498   4.1304
     4.8307   5.0167   8.6603   9.1381  10.8873  11.3850  11.4387  11.7190
    11.7554  11.8089  12.0275  12.0758

          k = 0.0998-0.2019 0.0000 ( 24657 PWs)   bands (ev):

   -14.5197 -14.1267 -13.5451 -13.1584 -12.5989 -12.0009 -11.3016 -10.4119
    -9.5442  -8.6778  -7.8145  -7.4968  -5.9470  -5.4075  -5.2135  -4.6173
    -4.1165  -3.8380  -3.1138  -2.6575  -2.4505  -1.9753  -1.8017  -1.2381
    -0.8660  -0.6548  -0.3776  -0.3356  -0.1565   0.3059   0.4779   0.8186
     1.0678   1.1609   1.4618   1.4861   1.8326   1.9414   2.4145   2.5537
     2.6853   2.9796   3.2130   3.3508   3.7209   3.7400   3.8695   4.0696
     4.4100   4.5362   9.3021   9.7113  10.3372  10.6205  11.0552  11.3261
    11.9168  12.1354  12.3897  12.4097

          k = 0.1997-0.0000 0.0000 ( 24607 PWs)   bands (ev):

   -14.6630 -14.1180 -13.1852 -11.8396 -10.2125 -10.1083 -10.0591  -9.5494
    -9.4624  -8.7347  -8.7171  -8.0427  -6.4996  -6.0670  -6.0557  -4.6653
    -4.6651  -4.4530  -3.3539  -3.0720  -3.0636  -2.6049  -2.5611  -1.3865
    -1.1832  -1.0983  -0.8675   0.0466   0.1089   0.2826   0.4997   0.5304
     0.6291   0.9577   1.0550   1.0927   1.2061   1.3506   1.4110   1.8408
     1.9215   2.2446   2.2781   2.5586   2.7337   2.8844   3.8071   3.9956
     4.0902   4.9595   8.9585   9.3376  11.3807  11.6421  11.8393  11.9236
    12.1724  12.2071  12.4676  12.6769

          k = 0.1997-0.1009 0.0000 ( 24634 PWs)   bands (ev):

   -14.4849 -13.9610 -13.0601 -11.8180 -11.5894 -10.9242 -10.2326  -9.6310
    -8.8172  -8.3256  -8.1698  -7.7887  -6.3673  -5.7438  -5.7100  -4.6550
    -4.4387  -4.1137  -3.3271  -3.0957  -2.6202  -2.4969  -2.4350  -1.4712
    -1.2175  -1.1240  -0.9049  -0.4013  -0.2413  -0.0576  -0.0049   0.3128
     0.6054   0.6941   0.9769   1.0236   1.0730   1.5387   1.5883   1.7763
     2.0175   2.0914   2.2890   2.3755   2.7363   2.8768   3.2462   3.7156
     4.2251   4.5508   9.1707   9.5428  11.2063  11.6504  11.7400  11.8149
    11.9919  12.1974  12.8689  12.9224

          k = 0.1997-0.2019 0.0000 ( 24642 PWs)   bands (ev):

   -13.9767 -13.5863 -13.0082 -12.6237 -12.0699 -11.4811 -10.7936  -9.9198
    -9.0723  -8.2251  -7.3740  -7.0217  -5.8779  -5.2359  -4.9061  -4.3752
    -3.9562  -3.4383  -3.0177  -2.5483  -2.4127  -2.3497  -2.2415  -1.7726
    -1.7029  -1.6190  -1.4702  -0.9662  -0.8047  -0.4218  -0.4069  -0.1933
    -0.1007   0.3326   0.7008   0.9670   1.2134   1.3708   1.5633   1.7326
     2.0727   2.2392   2.3776   2.5458   2.7041   3.0502   3.1405   3.3873
     3.8749   3.8973   9.7608  10.0941  10.5980  10.7755  10.9099  11.2388
    11.6641  12.2374  12.3931  12.7341

          k = 0.2995-0.0000 0.0000 ( 24668 PWs)   bands (ev):

   -13.7610 -13.2231 -12.3071 -10.9997  -9.4295  -9.2560  -9.2345  -8.7272
    -8.6601  -7.9327  -7.9155  -7.5141  -7.2341  -5.7460  -5.4666  -5.3805
    -5.0604  -4.3449  -4.3373  -3.7792  -3.6021  -3.2366  -3.2299  -2.4193
    -2.1218  -1.5228  -1.4364  -1.3448  -1.3208  -0.8665  -0.8587  -0.3982
    -0.3263   0.1028   0.1214   0.5857   0.5888   1.1625   1.2170   1.2680
     1.5034   1.6077   1.9457   1.9976   2.0919   2.9117   3.2053   3.2397
     3.8319   4.5873   9.7863  10.0229  11.6499  11.6717  12.0299  12.1435
    12.3721  12.3801  12.4530  12.5636

          k = 0.2995-0.1009 0.0000 ( 24678 PWs)   bands (ev):

   -13.5844 -13.0675 -12.1825 -10.9653 -10.7257 -10.0775  -9.4415  -8.8773
    -8.0823  -7.5154  -7.4356  -7.2173  -7.0436  -5.6253  -5.3956  -5.1986
    -4.9300  -4.4283  -3.8961  -3.5948  -3.4860  -3.2464  -2.5942  -2.4329
    -2.2977  -2.1556  -1.8596  -1.3671  -1.2132  -0.7357  -0.4849  -0.3162
    -0.1386   0.1336   0.3546   0.4478   0.7789   0.8562   0.9451   1.1270
     1.4137   1.5094   1.6356   1.8308   2.2018   2.4748   2.5991   3.2828
     3.6166   3.8658   9.9780  10.2015  11.0136  11.6184  11.7330  12.0552
    12.3550  12.4305  12.4773  13.1111

          k = 0.2995-0.2019 0.0000 ( 24664 PWs)   bands (ev):

   -13.0803 -12.6952 -12.1240 -11.7449 -11.2032 -10.6359  -9.9768  -9.1454
    -8.3718  -7.6110  -6.9277  -6.6495  -6.1785  -5.6655  -5.2565  -4.8431
    -4.4196  -3.9175  -3.4319  -3.3056  -2.9903  -2.9246  -2.7894  -2.4290
    -2.1283  -1.8842  -1.7936  -1.5500  -1.4274  -0.9871  -0.8004  -0.6078
    -0.5810  -0.2857   0.0536   0.3631   0.5293   0.7079   0.9916   1.1981
     1.4912   1.5866   1.7117   1.8222   2.0426   2.1510   2.5359   2.6444
     3.0106   3.0174  10.2982  10.3888  10.6351  11.0653  11.1581  11.6431
    11.9252  12.4413  12.7017  12.9778

          k = 0.3993-0.0000 0.0000 ( 24732 PWs)   bands (ev):

   -12.5214 -12.0014 -11.1365 -10.0127  -9.3719  -8.3801  -8.2771  -8.0647
    -8.0523  -7.5652  -7.5449  -6.8494  -6.8449  -6.6449  -5.9574  -5.6461
    -5.2265  -5.1810  -5.1097  -4.8684  -4.2608  -4.0812  -4.0811  -2.8756
    -2.6570  -2.4720  -2.4473  -1.8030  -1.7720  -1.4141  -0.8774  -0.8235
    -0.6886  -0.6120  -0.3141  -0.1120  -0.0998   0.7269   0.7986   0.8243
     0.9566   1.3751   1.4329   2.1874   2.6370   2.6465   2.7166   3.1937
     3.6760   3.9512  10.8219  10.9085  11.3358  11.4043  11.5869  11.5945
    12.5642  12.5918  13.2185  13.2710

          k = 0.3993-0.1009 0.0000 ( 24696 PWs)   bands (ev):

   -12.3469 -11.8475 -11.0103  -9.9241  -9.5607  -9.2214  -8.9496  -8.3780
    -8.1427  -7.8095  -7.2016  -6.7510  -6.3970  -6.3388  -6.0045  -5.8639
    -5.4731  -5.1836  -4.7713  -4.2022  -3.9424  -3.5188  -3.4291  -3.0254
    -2.9224  -2.6675  -2.4289  -1.8712  -1.7875  -1.3070  -0.8280  -0.5567
    -0.3389  -0.2699  -0.2024   0.1593   0.1762   0.6672   0.7244   0.9139
     0.9886   1.2236   1.4293   1.5373   2.0522   2.1249   2.5491   2.8286
     2.9718   3.1726  10.5930  11.0576  11.2130  11.4361  11.7690  12.2008
    12.2546  12.5431  13.0474  13.2896

          k = 0.3993-0.2019 0.0000 ( 24655 PWs)   bands (ev):

   -11.8490 -11.4768 -10.9200 -10.5556 -10.0456  -9.5598  -9.0244  -8.6676
    -8.2169  -7.8990  -7.7725  -7.7478  -6.0032  -5.9519  -5.7499  -5.4188
    -5.1891  -5.0516  -4.8006  -4.2079  -3.5482  -2.8948  -2.7167  -2.4553
    -2.3502  -2.0915  -1.9984  -1.8095  -1.4948  -1.3099  -0.9086  -0.6354
    -0.5188  -0.1495   0.1171   0.2333   0.3873   0.4511   0.8151   0.8430
     0.9854   1.0216   1.1216   1.2880   1.4712   1.5004   1.6959   1.9198
     2.1121   2.2192  10.5453  10.9799  11.1622  11.3982  11.9799  12.1917
    12.3005  12.4791  12.5446  12.8435

          k =-0.4991 0.0000 0.0000 ( 24782 PWs)   bands (ev):

   -11.0137 -10.9693 -10.6393 -10.4519 -10.1448  -8.8650  -8.5513  -7.0880
    -6.6708  -6.6529  -6.6486  -6.6437  -6.4036  -6.2723  -6.2697  -6.2332
    -6.2169  -5.9122  -5.8874  -5.4915  -4.9847  -4.9845  -4.4528  -3.8604
    -2.2821  -2.0631  -2.0092  -1.9101  -1.8771  -1.2459  -1.2382  -1.1371
    -0.9757  -0.8795  -0.7533  -0.3151  -0.2984   0.5201   0.5811   0.6287
     0.8077   0.9582   1.3837   2.4072   2.5588   3.0875   3.0934   3.1890
     3.3184   3.3424  11.1023  11.1563  11.3606  11.4089  11.9260  11.9315
    12.4835  12.5587  12.5952  12.5963

          k =-0.4991-0.1009 0.0000 ( 24712 PWs)   bands (ev):

   -10.8454 -10.7959 -10.4928 -10.2901 -10.0012  -8.8104  -8.5237  -8.1193
    -8.0710  -7.6916  -7.5827  -7.4006  -6.7146  -6.1890  -5.4966  -5.4886
    -5.2496  -5.1171  -4.9954  -4.8995  -4.8198  -4.7427  -4.2411  -3.8172
    -2.4491  -2.4042  -2.1336  -1.7962  -1.6739  -1.0948  -1.0436  -0.7331
    -0.6560  -0.6383  -0.5512  -0.0892  -0.0502   0.4717   0.5784   0.6943
     0.8225   1.1350   1.4037   2.1364   2.2542   2.3314   2.4160   2.4333
     2.5619   2.6449  10.7755  11.2288  11.4137  11.8031  11.9662  12.1364
    12.4134  12.6167  12.8853  13.0202

          k =-0.4991-0.2019 0.0000 ( 24638 PWs)   bands (ev):

   -10.3771 -10.2920 -10.1426  -9.8637  -9.6853  -9.3253  -9.1886  -8.9282
    -8.6436  -8.4491  -8.3727  -8.2193  -6.3698  -6.2692  -5.8813  -5.6075
    -5.3310  -4.9004  -4.7355  -4.1613  -3.9965  -3.7451  -3.5873  -3.4000
    -1.9245  -1.5080  -1.4595  -1.4186  -1.3321  -1.0788  -1.0514  -0.6068
    -0.5812  -0.3228   0.1481   0.2808   0.4507   0.5733   0.6447   0.7202
     0.7257   0.8013   0.9892   1.0168   1.0871   1.1886   1.4543   1.5041
     1.7259   1.7861  11.1114  11.1821  11.5619  11.7716  11.8138  12.1414
    12.2273  12.6753  12.7824  12.9545

     the Fermi energy is     6.7995 ev

!    total energy              =    -447.08251132 Ry
     estimated scf accuracy    <          5.7E-12 Ry
     smearing contrib. (-TS)   =       0.00000000 Ry
     internal energy E=F+TS    =    -447.08251132 Ry

     The total energy is F=E-TS. E is the sum of the following terms:
     one-electron contribution =   -3179.01031293 Ry
     hartree contribution      =    1639.21759788 Ry
     xc contribution           =    -115.10560465 Ry
     ewald contribution        =    1355.73147268 Ry
     one-center paw contrib.   =    -147.91566429 Ry

     convergence has been achieved in   9 iterations

     negative rho (up, down):  4.994E-06 0.000E+00

     Forces acting on atoms (cartesian axes, Ry/au):

     atom    1 type  1   force =     0.00000000   -0.00032896   -0.00039976
     atom    2 type  1   force =     0.00000000   -0.00025550   -0.00040448
     atom    3 type  1   force =     0.00000000    0.00040711    0.00026819
     atom    4 type  1   force =     0.00000000    0.00032643    0.00017480
     atom    5 type  1   force =     0.00000000    0.00005338    0.00050642
     atom    6 type  1   force =     0.00000000    0.00001913    0.00044959
     atom    7 type  1   force =     0.00000000    0.00009988    0.00030368
     atom    8 type  1   force =    -0.00000000    0.00014737    0.00046679
     atom    9 type  1   force =     0.00000000    0.00036850    0.00015950
     atom   10 type  1   force =     0.00000000    0.00032555    0.00016737
     atom   11 type  1   force =     0.00000000   -0.00026588   -0.00002737
     atom   12 type  1   force =     0.00000000   -0.00012164    0.00040205
     atom   13 type  1   force =     0.00000000    0.00012164   -0.00040205
     atom   14 type  1   force =     0.00000000    0.00026588    0.00002737
     atom   15 type  1   force =     0.00000000   -0.00032555   -0.00016737
     atom   16 type  1   force =     0.00000000   -0.00036850   -0.00015950
     atom   17 type  1   force =    -0.00000000   -0.00014737   -0.00046679
     atom   18 type  1   force =     0.00000000   -0.00009988   -0.00030368
     atom   19 type  1   force =     0.00000000   -0.00001913   -0.00044959
     atom   20 type  1   force =     0.00000000   -0.00005338   -0.00050642
     atom   21 type  1   force =     0.00000000   -0.00032643   -0.00017480
     atom   22 type  1   force =     0.00000000   -0.00040711   -0.00026819
     atom   23 type  1   force =     0.00000000    0.00025550    0.00040448
     atom   24 type  1   force =     0.00000000    0.00032896    0.00039976
     atom   25 type  2   force =     0.00000000    0.00057077   -0.00035270
     atom   26 type  2   force =     0.00000000   -0.00039824   -0.00059006
     atom   27 type  2   force =    -0.00000000    0.00039824    0.00059006
     atom   28 type  2   force =     0.00000000   -0.00057077    0.00035270

     Total force =     0.002520     Total SCF correction =     0.000003


     Computing stress (Cartesian axis) and pressure


     negative rho (up, down):  4.994E-06 0.000E+00
          total   stress  (Ry/bohr**3)                   (kbar)     P=       -1.20
   0.00000023   0.00000000   0.00000000            0.03        0.00        0.00
   0.00000000  -0.00000019  -0.00000012            0.00       -0.03       -0.02
   0.00000000  -0.00000012  -0.00002461            0.00       -0.02       -3.62

     Energy error            =      1.4E-05 Ry
     Gradient error          =      5.9E-04 Ry/Bohr
     Cell gradient error     =      3.4E-02 kbar

     number of scf cycles    =  15
     number of bfgs steps    =  14

     enthalpy           old  =    -447.0824972122 Ry
     enthalpy           new  =    -447.0825113193 Ry

     CASE: enthalpy          _new < enthalpy          _old

     new trust radius        =       0.0054879787 bohr
     Message from routine volume:
     axis vectors are left-handed
     new conv_thr            =            1.4E-11 Ry

     new unit-cell volume =   1698.09597 a.u.^3 (   251.63186 Ang^3 )
     density =      1.92889 g/cm^3

CELL_PARAMETERS (angstrom)
   2.530839965   0.000000000   0.000000000
   0.000000000  -5.006598716   0.000000000
   0.000000000   0.000000000  19.859035940

ATOMIC_POSITIONS (crystal)
C                0.0000000000        0.1615412566        0.7440369230
C                0.5000000000        0.2327006146        0.7031379059
C                0.5000000000       -0.0003826479        0.6530510901
C               -0.0000000000       -0.0003282024        0.6100092165
C                0.0000000000        0.2530481278        0.5677479658
C                0.5000000000        0.2529311357        0.5229302667
C                0.5000000000        0.0029958108        0.4778364995
C               -0.0000000000        0.0031835496        0.4327125089
C                0.0000000000        0.2499899809        0.3846452857
C                0.5000000000        0.2499675380        0.3378079878
C                0.5000000000       -0.0169995416        0.2968008787
C                0.0000000000       -0.0883064098        0.2559215087
C                0.0000000000        0.8383064098        0.7440784913
C                0.5000000000        0.7669995416        0.7031991213
C                0.5000000000        0.5000324620        0.6621920122
C                0.0000000000        0.5000100191        0.6153547143
C               -0.0000000000        0.7468164504        0.5672874911
C                0.5000000000        0.7470041892        0.5221635005
C                0.5000000000        0.4970688643        0.4770697333
C                0.0000000000        0.4969518722        0.4322520342
C               -0.0000000000        0.7503282024        0.3899907835
C                0.5000000000        0.7503826479        0.3469489099
C                0.5000000000        0.5172993854        0.2968620941
C               -0.0000000000        0.5884587434        0.2559630770
H                0.0000000000        0.2481198809        0.7949407100
H               -0.0000000000        0.7523746582        0.7950518663
H               -0.0000000000       -0.0023746582        0.2049481337
H               -0.0000000000        0.5018801191        0.2050592900



     Writing config-only to output data dir /tmp/qe/slab.save/ :
     XML data file
     NEW-OLD atomic charge density approx. for the potential

     Check: negative core charge=   -0.000001

     negative rho (up, down):  5.129E-06 0.000E+00

     total cpu time spent up to now is     1084.3 secs

     Self-consistent Calculation

     iteration #  1     ecut=    90.00 Ry     beta= 0.30
     Davidson diagonalization with overlap
     ethr =  1.00E-06,  avg # of iterations =  3.7

     Threshold (ethr) on eigenvalues was too large:
     Diagonalizing with lowered threshold

     Davidson diagonalization with overlap
     ethr =  1.61E-08,  avg # of iterations =  4.0

     negative rho (up, down):  5.107E-06 0.000E+00

     total cpu time spent up to now is     1095.6 secs

     total energy              =    -447.08252415 Ry
     estimated scf accuracy    <       0.00001867 Ry

     iteration #  2     ecut=    90.00 Ry     beta= 0.30
     Davidson diagonalization with overlap
     ethr =  1.87E-08,  avg # of iterations =  2.0

     negative rho (up, down):  5.050E-06 0.000E+00

     total cpu time spent up to now is     1099.9 secs

     total energy              =    -447.08252474 Ry
     estimated scf accuracy    <       0.00000497 Ry

     iteration #  3     ecut=    90.00 Ry     beta= 0.30
     Davidson diagonalization with overlap
     ethr =  4.97E-09,  avg # of iterations =  1.9

     negative rho (up, down):  5.016E-06 0.000E+00

     total cpu time spent up to now is     1104.2 secs

     total energy              =    -447.08252492 Ry
     estimated scf accuracy    <       0.00000139 Ry

     iteration #  4     ecut=    90.00 Ry     beta= 0.30
     Davidson diagonalization with overlap
     ethr =  1.39E-09,  avg # of iterations =  1.7

     negative rho (up, down):  5.001E-06 0.000E+00

     total cpu time spent up to now is     1108.4 secs

     total energy              =    -447.08252500 Ry
     estimated scf accuracy    <       0.00000021 Ry

     iteration #  5     ecut=    90.00 Ry     beta= 0.30
     Davidson diagonalization with overlap
     ethr =  2.07E-10,  avg # of iterations =  2.0

     negative rho (up, down):  5.008E-06 0.000E+00

     total cpu time spent up to now is     1113.0 secs

     total energy              =    -447.08252502 Ry
     estimated scf accuracy    <       0.00000002 Ry

     iteration #  6     ecut=    90.00 Ry     beta= 0.30
     Davidson diagonalization with overlap
     ethr =  2.01E-11,  avg # of iterations =  2.9

     negative rho (up, down):  5.011E-06 0.000E+00

     total cpu time spent up to now is     1118.4 secs

     total energy              =    -447.08252502 Ry
     estimated scf accuracy    <          3.0E-09 Ry

     iteration #  7     ecut=    90.00 Ry     beta= 0.30
     Davidson diagonalization with overlap
     ethr =  3.03E-12,  avg # of iterations =  3.3

     negative rho (up, down):  5.014E-06 0.000E+00

     total cpu time spent up to now is     1123.4 secs

     total energy              =    -447.08252502 Ry
     estimated scf accuracy    <          7.3E-10 Ry

     iteration #  8     ecut=    90.00 Ry     beta= 0.30
     Davidson diagonalization with overlap
     ethr =  7.27E-13,  avg # of iterations =  3.0

     negative rho (up, down):  5.014E-06 0.000E+00

     total cpu time spent up to now is     1128.9 secs

     total energy              =    -447.08252502 Ry
     estimated scf accuracy    <          3.8E-10 Ry

     iteration #  9     ecut=    90.00 Ry     beta= 0.30
     Davidson diagonalization with overlap
     ethr =  3.77E-13,  avg # of iterations =  2.4

     negative rho (up, down):  5.017E-06 0.000E+00

     total cpu time spent up to now is     1133.6 secs

     End of self-consistent calculation

          k = 0.0000-0.0000 0.0000 ( 24643 PWs)   bands (ev):

   -15.3970 -14.8477 -13.9049 -12.5399 -10.8968 -10.8050 -10.7407 -10.2263
   -10.1319  -9.3949  -9.3752  -8.6534  -6.7674  -6.6776  -6.5072  -5.1725
    -5.1706  -4.3653  -3.3940  -3.3903  -2.1213  -1.3555  -1.3515  -0.3143
     0.0426   0.1080   0.1873   0.5876   0.6410   0.8349   1.0863   1.8073
     2.2016   2.3215   2.3610   2.5769   2.9683   2.9735   3.0140   3.0968
     3.0986   3.1355   3.7126   3.7318   3.7318   3.8094   4.0446   5.1521
     5.2425   5.3441   8.2515   8.7475  10.2571  10.2863  10.3550  10.6978
    11.0725  11.2025  11.3116  11.5281

          k = 0.0000-0.1009 0.0000 ( 24675 PWs)   bands (ev):

   -15.2178 -14.6899 -13.7793 -12.5241 -12.2971 -11.6206 -10.9065 -10.2867
    -9.4572  -8.9990  -8.8160  -8.4030  -6.5957  -6.3332  -6.1697  -5.0595
    -4.8127  -4.2494  -3.4403  -3.0792  -2.1819  -1.3330  -1.1423  -0.7869
    -0.2153  -0.1685   0.0204   0.3055   0.6775   0.8013   1.1674   1.4484
     1.5923   2.0436   2.3288   2.3806   2.5250   2.5295   2.9973   3.0308
     3.0851   3.4844   3.6191   3.6512   3.7347   4.0226   4.2126   4.7684
     4.9314   5.2307   8.4755   8.9650  10.5063  10.7925  10.8201  11.2439
    11.2845  11.4371  11.5690  11.7387

          k = 0.0000-0.2018 0.0000 ( 24637 PWs)   bands (ev):

   -14.7067 -14.3134 -13.7300 -13.3420 -12.7808 -12.1788 -11.4754 -10.5811
    -9.7072  -8.8356  -7.9703  -7.6599  -6.0305  -5.5164  -5.3477  -4.7326
    -4.2255  -3.9867  -3.2407  -2.7752  -2.5618  -2.0705  -1.9119  -1.1406
    -0.7703  -0.4835  -0.0590   0.2305   0.5551   0.8887   1.0969   1.1845
     1.3585   1.4635   1.9123   1.9550   2.3496   2.4448   2.7815   2.9391
     3.0323   3.3418   3.4339   3.6466   3.9145   4.0971   4.2530   4.3899
     4.7290   5.1261   9.1175   9.5495  10.1639  10.4853  11.0009  11.1653
    11.2615  11.4095  11.7693  12.0446

          k = 0.0998-0.0000 0.0000 ( 24655 PWs)   bands (ev):

   -15.2142 -14.6659 -13.7252 -12.3643 -10.7248 -10.6315 -10.5699 -10.0573
    -9.9643  -9.2298  -9.2106  -8.4956  -6.6384  -6.5200  -6.4061  -5.0346
    -5.0333  -4.3051  -3.2931  -3.2890  -2.2580  -1.3295  -1.3089  -1.0677
    -0.9480   0.0229   0.1807   0.1873   0.6116   0.6614   0.9197   1.4360
     1.7994   1.9854   2.0987   2.1753   2.2679   2.3142   2.5083   2.5960
     2.7799   2.8084   3.0508   3.1033   3.2823   3.7115   3.7451   4.7099
     5.0171   5.1147   8.4348   8.9222  10.8017  10.9288  10.9903  11.2186
    11.6132  11.6990  11.7329  11.8475

          k = 0.0998-0.1009 0.0000 ( 24646 PWs)   bands (ev):

   -15.0353 -14.5083 -13.5998 -12.3475 -12.1206 -11.4464 -10.7369 -10.1212
    -9.2959  -8.8310  -8.6539  -8.2447  -6.4903  -6.1786  -6.0501  -4.9321
    -4.6825  -4.1731  -3.3635  -2.9542  -2.2518  -1.2978  -1.1486  -0.9680
    -0.8389  -0.6554  -0.0680   0.0210   0.2348   0.6663   0.7866   1.1624
     1.3595   1.5303   1.5934   1.7245   2.1812   2.3822   2.5155   2.6430
     2.7468   3.0411   3.0996   3.2626   3.3882   3.6862   3.7500   4.1267
     4.8316   5.0145   8.6590   9.1362  10.8870  11.3846  11.4393  11.7114
    11.7477  11.8056  12.0265  12.0699

          k = 0.0998-0.2018 0.0000 ( 24657 PWs)   bands (ev):

   -14.5250 -14.1324 -13.5502 -13.1628 -12.6033 -12.0040 -11.3041 -10.4144
    -9.5458  -8.6792  -7.8162  -7.4991  -5.9487  -5.4100  -5.2173  -4.6202
    -4.1197  -3.8412  -3.1182  -2.6603  -2.4527  -1.9781  -1.8058  -1.2402
    -0.8695  -0.6597  -0.3828  -0.3397  -0.1603   0.3020   0.4730   0.8144
     1.0653   1.1570   1.4612   1.4833   1.8314   1.9388   2.4130   2.5515
     2.6838   2.9784   3.2132   3.3504   3.7196   3.7378   3.8662   4.0676
     4.4091   4.5336   9.3009   9.7101  10.3355  10.6190  11.0571  11.3292
    11.9135  12.1374  12.3857  12.4031

          k = 0.1996-0.0000 0.0000 ( 24607 PWs)   bands (ev):

   -14.6680 -14.1230 -13.1896 -11.8433 -10.2166 -10.1136 -10.0630  -9.5538
    -9.4666  -8.7380  -8.7203  -8.0447  -6.5016  -6.0700  -6.0586  -4.6673
    -4.6669  -4.4552  -3.3587  -3.0731  -3.0648  -2.6100  -2.5663  -1.3904
    -1.1834  -1.0987  -0.8698   0.0435   0.1056   0.2795   0.4943   0.5248
     0.6215   0.9570   1.0525   1.0902   1.2007   1.3474   1.4069   1.8394
     1.9193   2.2434   2.2791   2.5582   2.7295   2.8846   3.8016   3.9969
     4.0910   4.9546   8.9575   9.3360  11.3794  11.6338  11.8337  11.9211
    12.1734  12.2048  12.4653  12.6776

          k = 0.1996-0.1009 0.0000 ( 24634 PWs)   bands (ev):

   -14.4899 -13.9662 -13.0647 -11.8223 -11.5943 -10.9280 -10.2355  -9.6337
    -8.8198  -8.3303  -8.1733  -7.7905  -6.3696  -5.7473  -5.7128  -4.6577
    -4.4413  -4.1153  -3.3301  -3.0986  -2.6217  -2.5021  -2.4403  -1.4746
    -1.2202  -1.1266  -0.9083  -0.4065  -0.2458  -0.0613  -0.0092   0.3086
     0.6019   0.6907   0.9750   1.0225   1.0696   1.5359   1.5845   1.7729
     2.0167   2.0888   2.2878   2.3746   2.7372   2.8748   3.2456   3.7149
     4.2244   4.5481   9.1696   9.5413  11.2070  11.6512  11.7394  11.8139
    11.9925  12.1986  12.8414  12.8994

          k = 0.1996-0.2018 0.0000 ( 24642 PWs)   bands (ev):

   -13.9821 -13.5921 -13.0133 -12.6283 -12.0744 -11.4842 -10.7962  -9.9224
    -9.0740  -8.2266  -7.3759  -7.0241  -5.8803  -5.2385  -4.9100  -4.3788
    -3.9595  -3.4421  -3.0215  -2.5532  -2.4191  -2.3544  -2.2453  -1.7771
    -1.7084  -1.6236  -1.4739  -0.9698  -0.8090  -0.4250  -0.4104  -0.1965
    -0.1028   0.3295   0.6995   0.9641   1.2107   1.3699   1.5635   1.7301
     2.0714   2.2367   2.3753   2.5440   2.7035   3.0494   3.1413   3.3858
     3.8742   3.8968   9.7598  10.0931  10.5981  10.7760  10.9090  11.2401
    11.6662  12.2392  12.3923  12.7338

          k = 0.2995-0.0000 0.0000 ( 24668 PWs)   bands (ev):

   -13.7661 -13.2282 -12.3115 -11.0034  -9.4329  -9.2613  -9.2391  -8.7316
    -8.6645  -7.9361  -7.9188  -7.5173  -7.2387  -5.7503  -5.4701  -5.3838
    -5.0650  -4.3476  -4.3403  -3.7832  -3.6059  -3.2394  -3.2326  -2.4225
    -2.1246  -1.5269  -1.4406  -1.3486  -1.3247  -0.8687  -0.8611  -0.3993
    -0.3286   0.1010   0.1201   0.5847   0.5876   1.1581   1.2176   1.2670
     1.4994   1.6067   1.9441   1.9991   2.0855   2.9057   3.2061   3.2410
     3.8258   4.5817   9.7856  10.0221  11.6524  11.6747  12.0282  12.1404
    12.3740  12.3789  12.4557  12.5579

          k = 0.2995-0.1009 0.0000 ( 24678 PWs)   bands (ev):

   -13.5895 -13.0727 -12.1871 -10.9697 -10.7307 -10.0814  -9.4444  -8.8801
    -8.0851  -7.5202  -7.4395  -7.2204  -7.0481  -5.6297  -5.3993  -5.2025
    -4.9346  -4.4316  -3.8994  -3.5985  -3.4898  -3.2493  -2.5987  -2.4361
    -2.3012  -2.1584  -1.8628  -1.3704  -1.2162  -0.7385  -0.4879  -0.3182
    -0.1403   0.1318   0.3528   0.4419   0.7765   0.8549   0.9420   1.1250
     1.4120   1.5084   1.6343   1.8287   2.2019   2.4722   2.5976   3.2827
     3.6138   3.8608   9.9772  10.2006  11.0160  11.6186  11.7335  12.0574
    12.3558  12.4327  12.4774  13.1121

          k = 0.2995-0.2018 0.0000 ( 24664 PWs)   bands (ev):

   -13.0858 -12.7011 -12.1292 -11.7495 -11.2078 -10.6391  -9.9795  -9.1481
    -8.3738  -7.6131  -6.9313  -6.6540  -6.1814  -5.6689  -5.2611  -4.8475
    -4.4245  -3.9211  -3.4370  -3.3103  -2.9948  -2.9293  -2.7928  -2.4330
    -2.1320  -1.8883  -1.7977  -1.5532  -1.4310  -0.9911  -0.8028  -0.6118
    -0.5839  -0.2888   0.0520   0.3616   0.5260   0.7053   0.9907   1.1975
     1.4888   1.5850   1.7116   1.8207   2.0415   2.1502   2.5357   2.6419
     3.0090   3.0164  10.2977  10.3903  10.6352  11.0662  11.1590  11.6445
    11.9253  12.4410  12.7032  12.9786

          k = 0.3993-0.0000 0.0000 ( 24732 PWs)   bands (ev):

   -12.5265 -12.0066 -11.1409 -10.0165  -9.3760  -8.3860  -8.2824  -8.0701
    -8.0577  -7.5700  -7.5496  -6.8530  -6.8484  -6.6492  -5.9616  -5.6500
    -5.2305  -5.1855  -5.1148  -4.8714  -4.2644  -4.0844  -4.0842  -2.8778
    -2.6608  -2.4760  -2.4509  -1.8058  -1.7744  -1.4160  -0.8786  -0.8247
    -0.6907  -0.6138  -0.3147  -0.1129  -0.1006   0.7268   0.7978   0.8237
     0.9573   1.3750   1.4315   2.1799   2.6382   2.6394   2.7176   3.1875
     3.6695   3.9448  10.8224  10.9092  11.3384  11.4070  11.5883  11.5964
    12.5670  12.5943  13.2206  13.2727

          k = 0.3993-0.1009 0.0000 ( 24696 PWs)   bands (ev):

   -12.3521 -11.8528 -11.0149  -9.9283  -9.5659  -9.2255  -8.9540  -8.3829
    -8.1481  -7.8138  -7.2054  -6.7555  -6.4015  -6.3431  -6.0091  -5.8684
    -5.4767  -5.1862  -4.7748  -4.2061  -3.9456  -3.5227  -3.4340  -3.0291
    -2.9263  -2.6697  -2.4319  -1.8736  -1.7903  -1.3083  -0.8295  -0.5575
    -0.3412  -0.2711  -0.2042   0.1584   0.1749   0.6660   0.7229   0.9133
     0.9885   1.2211   1.4269   1.5327   2.0476   2.1228   2.5487   2.8262
     2.9664   3.1666  10.5948  11.0572  11.2134  11.4377  11.7716  12.2034
    12.2560  12.5454  13.0498  13.2907

          k = 0.3993-0.2018 0.0000 ( 24655 PWs)   bands (ev):

   -11.8545 -11.4827 -10.9253 -10.5602 -10.0503  -9.5631  -9.0274  -8.6719
    -8.2208  -7.9052  -7.7773  -7.7525  -6.0068  -5.9560  -5.7525  -5.4227
    -5.1924  -5.0548  -4.8037  -4.2117  -3.5515  -2.8981  -2.7209  -2.4596
    -2.3535  -2.0955  -2.0013  -1.8128  -1.4977  -1.3135  -0.9123  -0.6383
    -0.5220  -0.1529   0.1141   0.2323   0.3843   0.4493   0.8135   0.8417
     0.9835   1.0185   1.1205   1.2860   1.4671   1.5004   1.6945   1.9168
     2.1116   2.2174  10.5463  10.9790  11.1636  11.4013  11.9813  12.1922
    12.3030  12.4816  12.5464  12.8433

          k =-0.4991 0.0000 0.0000 ( 24782 PWs)   bands (ev):

   -11.0187 -10.9745 -10.6443 -10.4568 -10.1486  -8.8712  -8.5568  -7.0927
    -6.6762  -6.6587  -6.6542  -6.6490  -6.4082  -6.2768  -6.2748  -6.2373
    -6.2208  -5.9162  -5.8914  -5.4944  -4.9875  -4.9873  -4.4559  -3.8618
    -2.2856  -2.0666  -2.0123  -1.9129  -1.8801  -1.2485  -1.2393  -1.1391
    -0.9769  -0.8814  -0.7531  -0.3155  -0.2986   0.5211   0.5789   0.6273
     0.8092   0.9582   1.3818   2.4088   2.5596   3.0799   3.0870   3.1817
     3.3117   3.3359  11.1043  11.1584  11.3638  11.4125  11.9272  11.9318
    12.4852  12.5614  12.5981  12.5991

          k =-0.4991-0.1009 0.0000 ( 24712 PWs)   bands (ev):

   -10.8506 -10.8011 -10.4980 -10.2951 -10.0052  -8.8169  -8.5295  -8.1243
    -8.0763  -7.6962  -7.5872  -7.4044  -6.7181  -6.1926  -5.4998  -5.4921
    -5.2527  -5.1216  -5.0004  -4.9033  -4.8244  -4.7473  -4.2439  -3.8189
    -2.4530  -2.4073  -2.1372  -1.7984  -1.6770  -1.0972  -1.0437  -0.7351
    -0.6584  -0.6401  -0.5516  -0.0896  -0.0511   0.4701   0.5769   0.6954
     0.8233   1.1340   1.4011   2.1357   2.2495   2.3257   2.4136   2.4270
     2.5558   2.6406  10.7771  11.2321  11.4146  11.8060  11.9667  12.1380
    12.4153  12.6185  12.8867  13.0243

          k =-0.4991-0.2018 0.0000 ( 24638 PWs)   bands (ev):

   -10.3826 -10.2974 -10.1484  -9.8692  -9.6898  -9.3306  -9.1931  -8.9337
    -8.6474  -8.4553  -8.3758  -8.2243  -6.3738  -6.2723  -5.8842  -5.6115
    -5.3339  -4.9031  -4.7380  -4.1640  -4.0002  -3.7479  -3.5907  -3.4024
    -1.9291  -1.5130  -1.4643  -1.4226  -1.3362  -1.0811  -1.0535  -0.6085
    -0.5811  -0.3249   0.1454   0.2772   0.4461   0.5715   0.6412   0.7172
     0.7240   0.7996   0.9856   1.0131   1.0868   1.1880   1.4514   1.5010
     1.7254   1.7856  11.1107  11.1816  11.5643  11.7732  11.8170  12.1448
    12.2292  12.6769  12.7846  12.9563

     the Fermi energy is     6.7991 ev

!    total energy              =    -447.08252502 Ry
     estimated scf accuracy    <          1.1E-11 Ry
     smearing contrib. (-TS)   =       0.00000000 Ry
     internal energy E=F+TS    =    -447.08252502 Ry

     The total energy is F=E-TS. E is the sum of the following terms:
     one-electron contribution =   -3181.89890889 Ry
     hartree contribution      =    1640.65460742 Ry
     xc contribution           =    -115.11165769 Ry
     ewald contribution        =    1357.18924236 Ry
     one-center paw contrib.   =    -147.91580823 Ry

     convergence has been achieved in   9 iterations

     negative rho (up, down):  5.017E-06 0.000E+00

     Forces acting on atoms (cartesian axes, Ry/au):

     atom    1 type  1   force =     0.00000000   -0.00054328   -0.00034852
     atom    2 type  1   force =     0.00000000   -0.00036809   -0.00040497
     atom    3 type  1   force =     0.00000000    0.00038573    0.00014444
     atom    4 type  1   force =    -0.00000000    0.00029267    0.00001272
     atom    5 type  1   force =    -0.00000000   -0.00001540    0.00033360
     atom    6 type  1   force =     0.00000000    0.00002574    0.00019974
     atom    7 type  1   force =    -0.00000000    0.00008373    0.00024629
     atom    8 type  1   force =     0.00000000    0.00009407    0.00036026
     atom    9 type  1   force =     0.00000000    0.00037436   -0.00003020
     atom   10 type  1   force =     0.00000000    0.00030522    0.00003098
     atom   11 type  1   force =     0.00000000   -0.00033347   -0.00017371
     atom   12 type  1   force =     0.00000000   -0.00022552   -0.00008829
     atom   13 type  1   force =    -0.00000000    0.00022552    0.00008829
     atom   14 type  1   force =     0.00000000    0.00033347    0.00017371
     atom   15 type  1   force =     0.00000000   -0.00030522   -0.00003098
     atom   16 type  1   force =     0.00000000   -0.00037436    0.00003020
     atom   17 type  1   force =     0.00000000   -0.00009407   -0.00036026
     atom   18 type  1   force =    -0.00000000   -0.00008373   -0.00024629
     atom   19 type  1   force =     0.00000000   -0.00002574   -0.00019974
     atom   20 type  1   force =    -0.00000000    0.00001540   -0.00033360
     atom   21 type  1   force =    -0.00000000   -0.00029267   -0.00001272
     atom   22 type  1   force =     0.00000000   -0.00038573   -0.00014444
     atom   23 type  1   force =     0.00000000    0.00036809    0.00040497
     atom   24 type  1   force =     0.00000000    0.00054328    0.00034852
     atom   25 type  2   force =     0.00000000    0.00033014   -0.00009789
     atom   26 type  2   force =     0.00000000    0.00003238   -0.00024394
     atom   27 type  2   force =     0.00000000   -0.00003238    0.00024394
     atom   28 type  2   force =     0.00000000   -0.00033014    0.00009789

     Total force =     0.001972     Total SCF correction =     0.000003


     Computing stress (Cartesian axis) and pressure


     negative rho (up, down):  5.017E-06 0.000E+00
          total   stress  (Ry/bohr**3)                   (kbar)     P=       -0.51
  -0.00000003   0.00000000   0.00000000           -0.00        0.00        0.00
   0.00000000  -0.00000057   0.00000054            0.00       -0.08        0.08
   0.00000000   0.00000054  -0.00000972            0.00        0.08       -1.43

     Energy error            =      1.4E-05 Ry
     Gradient error          =      5.4E-04 Ry/Bohr
     Cell gradient error     =      8.3E-02 kbar

     number of scf cycles    =  16
     number of bfgs steps    =  15

     enthalpy           old  =    -447.0825113193 Ry
     enthalpy           new  =    -447.0825250240 Ry

     CASE: enthalpy          _new < enthalpy          _old

     new trust radius        =       0.0019955005 bohr
     Message from routine volume:
     axis vectors are left-handed
     new conv_thr            =            1.4E-11 Ry

     new unit-cell volume =   1698.15362 a.u.^3 (   251.64040 Ang^3 )
     density =      1.92882 g/cm^3

CELL_PARAMETERS (angstrom)
   2.530902044   0.000000000   0.000000000
   0.000000000  -5.006645889   0.000000000
   0.000000000   0.000000000  19.859035940

ATOMIC_POSITIONS (crystal)
C                0.0000000000        0.1615635074        0.7439874640
C                0.5000000000        0.2327237794        0.7030983147
C                0.5000000000       -0.0004243750        0.6530288859
C               -0.0000000000       -0.0003628523        0.6099950051
C                0.0000000000        0.2530526156        0.5677506854
C                0.5000000000        0.2529356969        0.5229354799
C                0.5000000000        0.0029944627        0.4778502308
C               -0.0000000000        0.0031788802        0.4327346449
C                0.0000000000        0.2499520383        0.3846657362
C                0.5000000000        0.2499369795        0.3378372881
C                0.5000000000       -0.0169767306        0.2968292877
C                0.0000000000       -0.0883110030        0.2559636127
C                0.0000000000        0.8383110030        0.7440363873
C                0.5000000000        0.7669767306        0.7031707123
C                0.5000000000        0.5000630205        0.6621627119
C                0.0000000000        0.5000479617        0.6153342638
C               -0.0000000000        0.7468211198        0.5672653551
C                0.5000000000        0.7470055373        0.5221497692
C                0.5000000000        0.4970643031        0.4770645201
C                0.0000000000        0.4969473844        0.4322493146
C               -0.0000000000        0.7503628523        0.3900049949
C                0.5000000000        0.7504243750        0.3469711141
C                0.5000000000        0.5172762206        0.2969016853
C                0.0000000000        0.5884364926        0.2560125360
H                0.0000000000        0.2480152627        0.7949017176
H                0.0000000000        0.7524654937        0.7950038768
H               -0.0000000000       -0.0024654937        0.2049961232
H                0.0000000000        0.5019847373        0.2050982824



     Writing config-only to output data dir /tmp/qe/slab.save/ :
     XML data file
     NEW-OLD atomic charge density approx. for the potential

     Check: negative core charge=   -0.000001

     negative rho (up, down):  5.081E-06 0.000E+00

     total cpu time spent up to now is     1152.7 secs

     Self-consistent Calculation

     iteration #  1     ecut=    90.00 Ry     beta= 0.30
     Davidson diagonalization with overlap
     ethr =  1.00E-06,  avg # of iterations =  2.0

     Threshold (ethr) on eigenvalues was too large:
     Diagonalizing with lowered threshold

     Davidson diagonalization with overlap
     ethr =  2.59E-09,  avg # of iterations =  4.4

     negative rho (up, down):  5.070E-06 0.000E+00

     total cpu time spent up to now is     1163.9 secs

     total energy              =    -447.08252890 Ry
     estimated scf accuracy    <       0.00000298 Ry

     iteration #  2     ecut=    90.00 Ry     beta= 0.30
     Davidson diagonalization with overlap
     ethr =  2.98E-09,  avg # of iterations =  2.0

     negative rho (up, down):  5.044E-06 0.000E+00

     total cpu time spent up to now is     1168.2 secs

     total energy              =    -447.08252896 Ry
     estimated scf accuracy    <       0.00000087 Ry

     iteration #  3     ecut=    90.00 Ry     beta= 0.30
     Davidson diagonalization with overlap
     ethr =  8.75E-10,  avg # of iterations =  1.4

     negative rho (up, down):  5.026E-06 0.000E+00

     total cpu time spent up to now is     1172.3 secs

     total energy              =    -447.08252898 Ry
     estimated scf accuracy    <       0.00000024 Ry

     iteration #  4     ecut=    90.00 Ry     beta= 0.30
     Davidson diagonalization with overlap
     ethr =  2.43E-10,  avg # of iterations =  1.9

     negative rho (up, down):  5.021E-06 0.000E+00

     total cpu time spent up to now is     1176.6 secs

     total energy              =    -447.08252900 Ry
     estimated scf accuracy    <       0.00000003 Ry

     iteration #  5     ecut=    90.00 Ry     beta= 0.30
     Davidson diagonalization with overlap
     ethr =  2.55E-11,  avg # of iterations =  2.4

     negative rho (up, down):  5.024E-06 0.000E+00

     total cpu time spent up to now is     1181.4 secs

     total energy              =    -447.08252900 Ry
     estimated scf accuracy    <          3.9E-09 Ry

     iteration #  6     ecut=    90.00 Ry     beta= 0.30
     Davidson diagonalization with overlap
     ethr =  3.91E-12,  avg # of iterations =  2.7

     negative rho (up, down):  5.025E-06 0.000E+00

     total cpu time spent up to now is     1186.6 secs

     total energy              =    -447.08252901 Ry
     estimated scf accuracy    <          5.3E-10 Ry

     iteration #  7     ecut=    90.00 Ry     beta= 0.30
     Davidson diagonalization with overlap
     ethr =  5.25E-13,  avg # of iterations =  2.9

     negative rho (up, down):  5.026E-06 0.000E+00

     total cpu time spent up to now is     1191.7 secs

     total energy              =    -447.08252900 Ry
     estimated scf accuracy    <          1.6E-10 Ry

     iteration #  8     ecut=    90.00 Ry     beta= 0.30
     Davidson diagonalization with overlap
     ethr =  1.64E-13,  avg # of iterations =  2.3

     negative rho (up, down):  5.026E-06 0.000E+00

     total cpu time spent up to now is     1196.9 secs

     total energy              =    -447.08252901 Ry
     estimated scf accuracy    <          2.2E-11 Ry

     iteration #  9     ecut=    90.00 Ry     beta= 0.30
     Davidson diagonalization with overlap
     ethr =  1.00E-13,  avg # of iterations =  1.1

     negative rho (up, down):  5.027E-06 0.000E+00

     total cpu time spent up to now is     1200.9 secs

     End of self-consistent calculation

          k = 0.0000-0.0000 0.0000 ( 24643 PWs)   bands (ev):

   -15.3990 -14.8497 -13.9063 -12.5407 -10.8986 -10.8069 -10.7416 -10.2282
   -10.1335  -9.3966  -9.3769  -8.6534  -6.7689  -6.6789  -6.5071  -5.1736
    -5.1713  -4.3650  -3.3946  -3.3905  -2.1208  -1.3551  -1.3507  -0.3172
     0.0398   0.1089   0.1842   0.5872   0.6414   0.8336   1.0838   1.8058
     2.2029   2.3196   2.3615   2.5774   2.9659   2.9713   3.0146   3.0943
     3.0959   3.1359   3.7111   3.7289   3.7289   3.8078   4.0459   5.1503
     5.2414   5.3455   8.2516   8.7474  10.2545  10.2835  10.3536  10.6955
    11.0709  11.2008  11.3103  11.5285

          k = 0.0000-0.1009 0.0000 ( 24675 PWs)   bands (ev):

   -15.2198 -14.6918 -13.7806 -12.5254 -12.2989 -11.6225 -10.9072 -10.2881
    -9.4582  -9.0009  -8.8174  -8.4031  -6.5964  -6.3348  -6.1704  -5.0604
    -4.8138  -4.2492  -3.4408  -3.0794  -2.1817  -1.3331  -1.1422  -0.7889
    -0.2156  -0.1715   0.0187   0.3025   0.6783   0.8014   1.1650   1.4474
     1.5920   2.0409   2.3267   2.3818   2.5224   2.5303   2.9975   3.0283
     3.0857   3.4819   3.6191   3.6521   3.7330   4.0201   4.2101   4.7679
     4.9324   5.2294   8.4756   8.9648  10.5051  10.7902  10.8180  11.2432
    11.2830  11.4355  11.5686  11.7373

          k = 0.0000-0.2018 0.0000 ( 24637 PWs)   bands (ev):

   -14.7088 -14.3152 -13.7317 -13.3440 -12.7829 -12.1799 -11.4765 -10.5821
    -9.7081  -8.8360  -7.9709  -7.6606  -6.0304  -5.5173  -5.3494  -4.7334
    -4.2272  -3.9880  -3.2422  -2.7762  -2.5622  -2.0716  -1.9132  -1.1407
    -0.7710  -0.4842  -0.0592   0.2276   0.5523   0.8888   1.0945   1.1843
     1.3591   1.4605   1.9093   1.9557   2.3476   2.4451   2.7792   2.9401
     3.0328   3.3394   3.4346   3.6474   3.9126   4.0979   4.2539   4.3880
     4.7269   5.1245   9.1175   9.5494  10.1637  10.4849  10.9995  11.1644
    11.2602  11.4077  11.7679  12.0430

          k = 0.0998-0.0000 0.0000 ( 24655 PWs)   bands (ev):

   -15.2162 -14.6679 -13.7266 -12.3652 -10.7266 -10.6334 -10.5708 -10.0591
    -9.9660  -9.2315  -9.2123  -8.4956  -6.6397  -6.5213  -6.4063  -5.0357
    -5.0341  -4.3048  -3.2939  -3.2892  -2.2581  -1.3293  -1.3085  -1.0699
    -0.9501   0.0213   0.1805   0.1846   0.6117   0.6611   0.9176   1.4352
     1.7981   1.9853   2.0972   2.1735   2.2657   2.3119   2.5072   2.5964
     2.7798   2.8071   3.0488   3.1018   3.2817   3.7117   3.7436   4.7099
     5.0181   5.1129   8.4349   8.9222  10.8012  10.9261  10.9880  11.2164
    11.6114  11.6994  11.7325  11.8473

          k = 0.0998-0.1009 0.0000 ( 24646 PWs)   bands (ev):

   -15.0373 -14.5103 -13.6012 -12.3488 -12.1224 -11.4484 -10.7377 -10.1225
    -9.2968  -8.8329  -8.6554  -8.2449  -6.4909  -6.1802  -6.0510  -4.9330
    -4.6835  -4.1730  -3.3642  -2.9544  -2.2520  -1.2980  -1.1491  -0.9701
    -0.8410  -0.6574  -0.0688   0.0186   0.2336   0.6661   0.7864   1.1601
     1.3581   1.5294   1.5919   1.7233   2.1794   2.3814   2.5161   2.6424
     2.7457   3.0404   3.0994   3.2607   3.3862   3.6860   3.7505   4.1256
     4.8322   5.0140   8.6591   9.1361  10.8871  11.3847  11.4395  11.7091
    11.7451  11.8046  12.0260  12.0680

          k = 0.0998-0.2018 0.0000 ( 24657 PWs)   bands (ev):

   -14.5271 -14.1343 -13.5518 -13.1648 -12.6054 -12.0051 -11.3052 -10.4154
    -9.5467  -8.6796  -7.8167  -7.4998  -5.9487  -5.4109  -5.2190  -4.6210
    -4.1213  -3.8426  -3.1196  -2.6613  -2.4532  -1.9793  -1.8071  -1.2411
    -0.8707  -0.6613  -0.3848  -0.3410  -0.1618   0.3007   0.4709   0.8125
     1.0641   1.1557   1.4613   1.4825   1.8307   1.9379   2.4126   2.5508
     2.6834   2.9781   3.2133   3.3505   3.7193   3.7373   3.8649   4.0671
     4.4090   4.5330   9.3010   9.7101  10.3352  10.6186  11.0571  11.3290
    11.9127  12.1383  12.3841  12.4008

          k = 0.1996-0.0000 0.0000 ( 24607 PWs)   bands (ev):

   -14.6700 -14.1250 -13.1910 -11.8442 -10.2183 -10.1155 -10.0640  -9.5557
    -9.4683  -8.7398  -8.7220  -8.0447  -6.5023  -6.0714  -6.0599  -4.6682
    -4.6680  -4.4558  -3.3602  -3.0737  -3.0658  -2.6120  -2.5681  -1.3916
    -1.1831  -1.0988  -0.8703   0.0419   0.1043   0.2790   0.4925   0.5229
     0.6188   0.9574   1.0513   1.0891   1.1983   1.3455   1.4051   1.8395
     1.9183   2.2427   2.2802   2.5585   2.7278   2.8852   3.7996   3.9976
     4.0918   4.9527   8.9576   9.3361  11.3794  11.6315  11.8322  11.9209
    12.1739  12.2045  12.4647  12.6777

          k = 0.1996-0.1009 0.0000 ( 24634 PWs)   bands (ev):

   -14.4920 -13.9682 -13.0661 -11.8237 -11.5961 -10.9300 -10.2363  -9.6351
    -8.8208  -8.3322  -8.1748  -7.7908  -6.3702  -5.7489  -5.7143  -4.6585
    -4.4425  -4.1162  -3.3313  -3.0999  -2.6223  -2.5041  -2.4420  -1.4755
    -1.2212  -1.1273  -0.9094  -0.4087  -0.2470  -0.0626  -0.0107   0.3068
     0.6004   0.6897   0.9749   1.0216   1.0685   1.5349   1.5830   1.7713
     2.0160   2.0883   2.2875   2.3741   2.7383   2.8743   3.2457   3.7149
     4.2242   4.5473   9.1697   9.5414  11.2074  11.6519  11.7393  11.8139
    11.9927  12.1991  12.8393  12.8990

          k = 0.1996-0.2018 0.0000 ( 24642 PWs)   bands (ev):

   -13.9842 -13.5939 -13.0150 -12.6303 -12.0765 -11.4854 -10.7974  -9.9235
    -9.0750  -8.2271  -7.3765  -7.0249  -5.8807  -5.2392  -4.9117  -4.3801
    -3.9612  -3.4437  -3.0227  -2.5551  -2.4214  -2.3560  -2.2467  -1.7787
    -1.7103  -1.6251  -1.4754  -0.9717  -0.8109  -0.4261  -0.4120  -0.1977
    -0.1036   0.3281   0.6991   0.9631   1.2099   1.3695   1.5636   1.7292
     2.0712   2.2361   2.3745   2.5434   2.7032   3.0490   3.1423   3.3857
     3.8742   3.8969   9.7599  10.0932  10.5981  10.7760  10.9092  11.2403
    11.6670  12.2398  12.3924  12.7341

          k = 0.2995-0.0000 0.0000 ( 24668 PWs)   bands (ev):

   -13.7682 -13.2303 -12.3130 -11.0044  -9.4341  -9.2633  -9.2408  -8.7335
    -8.6664  -7.9380  -7.9206  -7.5178  -7.2403  -5.7519  -5.4717  -5.3852
    -5.0666  -4.3491  -4.3418  -3.7844  -3.6071  -3.2409  -3.2342  -2.4231
    -2.1252  -1.5286  -1.4424  -1.3497  -1.3261  -0.8697  -0.8622  -0.3993
    -0.3288   0.1002   0.1191   0.5839   0.5870   1.1561   1.2189   1.2659
     1.4977   1.6072   1.9440   2.0003   2.0832   2.9033   3.2068   3.2421
     3.8236   4.5795   9.7859  10.0224  11.6535  11.6764  12.0282  12.1399
    12.3757  12.3788  12.4573  12.5565

          k = 0.2995-0.1009 0.0000 ( 24678 PWs)   bands (ev):

   -13.5916 -13.0747 -12.1886 -10.9710 -10.7326 -10.0835  -9.4453  -8.8817
    -8.0863  -7.5219  -7.4409  -7.2215  -7.0497  -5.6312  -5.4009  -5.2043
    -4.9364  -4.4333  -3.9010  -3.5996  -3.4912  -3.2507  -2.6001  -2.4374
    -2.3022  -2.1594  -1.8644  -1.3721  -1.2176  -0.7391  -0.4885  -0.3188
    -0.1409   0.1311   0.3519   0.4398   0.7754   0.8544   0.9406   1.1240
     1.4119   1.5078   1.6342   1.8282   2.2026   2.4715   2.5973   3.2829
     3.6129   3.8590   9.9775  10.2008  11.0172  11.6194  11.7344  12.0578
    12.3561  12.4338  12.4779  13.1123

          k = 0.2995-0.2018 0.0000 ( 24664 PWs)   bands (ev):

   -13.0879 -12.7030 -12.1309 -11.7516 -11.2099 -10.6403  -9.9808  -9.1493
    -8.3749  -7.6138  -6.9321  -6.6554  -6.1826  -5.6703  -5.2627  -4.8493
    -4.4266  -3.9225  -3.4387  -3.3117  -2.9965  -2.9310  -2.7944  -2.4344
    -2.1335  -1.8900  -1.7994  -1.5548  -1.4323  -0.9924  -0.8036  -0.6133
    -0.5851  -0.2901   0.0516   0.3609   0.5248   0.7042   0.9903   1.1975
     1.4885   1.5841   1.7118   1.8198   2.0412   2.1501   2.5367   2.6411
     3.0086   3.0165  10.2983  10.3909  10.6355  11.0663  11.1598  11.6450
    11.9253  12.4410  12.7035  12.9793

          k = 0.3993-0.0000 0.0000 ( 24732 PWs)   bands (ev):

   -12.5286 -12.0087 -11.1425 -10.0177  -9.3778  -8.3879  -8.2840  -8.0720
    -8.0596  -7.5719  -7.5515  -6.8549  -6.8504  -6.6507  -5.9628  -5.6513
    -5.2322  -5.1872  -5.1171  -4.8728  -4.2655  -4.0863  -4.0861  -2.8781
    -2.6618  -2.4777  -2.4522  -1.8071  -1.7756  -1.4164  -0.8792  -0.8252
    -0.6919  -0.6146  -0.3146  -0.1135  -0.1013   0.7276   0.7966   0.8229
     0.9589   1.3756   1.4316   2.1772   2.6364   2.6395   2.7184   3.1848
     3.6671   3.9424  10.8232  10.9100  11.3395  11.4087  11.5895  11.5978
    12.5686  12.5959  13.2221  13.2731

          k = 0.3993-0.1009 0.0000 ( 24696 PWs)   bands (ev):

   -12.3542 -11.8548 -11.0164  -9.9296  -9.5680  -9.2272  -8.9562  -8.3846
    -8.1494  -7.8155  -7.2070  -6.7572  -6.4030  -6.3451  -6.0112  -5.8698
    -5.4783  -5.1872  -4.7764  -4.2076  -3.9470  -3.5246  -3.4360  -3.0302
    -2.9280  -2.6707  -2.4328  -1.8747  -1.7917  -1.3083  -0.8300  -0.5583
    -0.3420  -0.2713  -0.2052   0.1579   0.1743   0.6652   0.7222   0.9137
     0.9885   1.2209   1.4264   1.5313   2.0463   2.1222   2.5488   2.8253
     2.9644   3.1644  10.5961  11.0577  11.2143  11.4387  11.7732  12.2047
    12.2575  12.5464  13.0511  13.2916

          k = 0.3993-0.2018 0.0000 ( 24655 PWs)   bands (ev):

   -11.8567 -11.4846 -10.9270 -10.5624 -10.0524  -9.5644  -9.0289  -8.6739
    -8.2224  -7.9069  -7.7792  -7.7538  -6.0084  -5.9578  -5.7541  -5.4239
    -5.1935  -5.0558  -4.8049  -4.2132  -3.5529  -2.8992  -2.7220  -2.4615
    -2.3548  -2.0972  -2.0025  -1.8141  -1.4989  -1.3149  -0.9137  -0.6391
    -0.5236  -0.1540   0.1127   0.2318   0.3829   0.4489   0.8130   0.8410
     0.9830   1.0174   1.1203   1.2853   1.4657   1.5006   1.6947   1.9165
     2.1118   2.2170  10.5473  10.9796  11.1645  11.4017  11.9820  12.1925
    12.3039  12.4825  12.5467  12.8437

          k =-0.4991 0.0000 0.0000 ( 24782 PWs)   bands (ev):

   -11.0209 -10.9767 -10.6464 -10.4588 -10.1502  -8.8727  -8.5578  -7.0942
    -6.6786  -6.6609  -6.6561  -6.6511  -6.4101  -6.2785  -6.2768  -6.2392
    -6.2219  -5.9183  -5.8936  -5.4954  -4.9892  -4.9890  -4.4567  -3.8619
    -2.2864  -2.0680  -2.0142  -1.9142  -1.8814  -1.2491  -1.2402  -1.1397
    -0.9779  -0.8821  -0.7525  -0.3161  -0.2992   0.5212   0.5778   0.6271
     0.8105   0.9590   1.3819   2.4100   2.5604   3.0775   3.0844   3.1793
     3.3089   3.3331  11.1056  11.1601  11.3652  11.4145  11.9283  11.9326
    12.4862  12.5635  12.5997  12.6007

          k =-0.4991-0.1009 0.0000 ( 24712 PWs)   bands (ev):

   -10.8527 -10.8033 -10.5000 -10.2971 -10.0067  -8.8184  -8.5307  -8.1266
    -8.0783  -7.6986  -7.5891  -7.4063  -6.7195  -6.1937  -5.5008  -5.4940
    -5.2542  -5.1230  -5.0024  -4.9049  -4.8266  -4.7494  -4.2447  -3.8191
    -2.4544  -2.4091  -2.1384  -1.7999  -1.6784  -1.0974  -1.0432  -0.7361
    -0.6591  -0.6410  -0.5521  -0.0899  -0.0518   0.4689   0.5760   0.6964
     0.8241   1.1347   1.4009   2.1358   2.2481   2.3234   2.4128   2.4251
     2.5531   2.6387  10.7784  11.2337  11.4156  11.8074  11.9676  12.1390
    12.4168  12.6197  12.8879  13.0265

          k =-0.4991-0.2018 0.0000 ( 24638 PWs)   bands (ev):

   -10.3848 -10.2996 -10.1503  -9.8711  -9.6912  -9.3328  -9.1955  -8.9357
    -8.6500  -8.4565  -8.3777  -8.2252  -6.3751  -6.2738  -5.8861  -5.6126
    -5.3355  -4.9042  -4.7387  -4.1652  -4.0016  -3.7487  -3.5920  -3.4033
    -1.9303  -1.5147  -1.4662  -1.4247  -1.3382  -1.0820  -1.0541  -0.6094
    -0.5809  -0.3258   0.1440   0.2754   0.4446   0.5706   0.6403   0.7161
     0.7235   0.7987   0.9839   1.0116   1.0872   1.1877   1.4516   1.5009
     1.7255   1.7857  11.1114  11.1822  11.5655  11.7747  11.8172  12.1443
    12.2300  12.6778  12.7861  12.9559

     the Fermi energy is     6.7992 ev

!    total energy              =    -447.08252901 Ry
     estimated scf accuracy    <          2.1E-12 Ry
     smearing contrib. (-TS)   =       0.00000000 Ry
     internal energy E=F+TS    =    -447.08252901 Ry

     The total energy is F=E-TS. E is the sum of the following terms:
     one-electron contribution =   -3183.20555336 Ry
     hartree contribution      =    1641.30574659 Ry
     xc contribution           =    -115.11457905 Ry
     ewald contribution        =    1357.84773650 Ry
     one-center paw contrib.   =    -147.91587968 Ry

     convergence has been achieved in   9 iterations

     negative rho (up, down):  5.027E-06 0.000E+00

     Forces acting on atoms (cartesian axes, Ry/au):

     atom    1 type  1   force =     0.00000000   -0.00039283   -0.00011728
     atom    2 type  1   force =    -0.00000000   -0.00023477   -0.00032464
     atom    3 type  1   force =     0.00000000    0.00022173    0.00002759
     atom    4 type  1   force =     0.00000000    0.00014481   -0.00008830
     atom    5 type  1   force =    -0.00000000   -0.00004375    0.00010227
     atom    6 type  1   force =     0.00000000   -0.00000540    0.00012884
     atom    7 type  1   force =     0.00000000    0.00002720    0.00008634
     atom    8 type  1   force =     0.00000000    0.00002425    0.00021405
     atom    9 type  1   force =    -0.00000000    0.00021734   -0.00005559
     atom   10 type  1   force =    -0.00000000    0.00019447   -0.00001580
     atom   11 type  1   force =     0.00000000   -0.00017808   -0.00019547
     atom   12 type  1   force =     0.00000000   -0.00008686   -0.00006232
     atom   13 type  1   force =     0.00000000    0.00008686    0.00006232
     atom   14 type  1   force =     0.00000000    0.00017808    0.00019547
     atom   15 type  1   force =    -0.00000000   -0.00019447    0.00001580
     atom   16 type  1   force =    -0.00000000   -0.00021734    0.00005559
     atom   17 type  1   force =     0.00000000   -0.00002425   -0.00021405
     atom   18 type  1   force =     0.00000000   -0.00002720   -0.00008634
     atom   19 type  1   force =     0.00000000    0.00000540   -0.00012884
     atom   20 type  1   force =    -0.00000000    0.00004375   -0.00010227
     atom   21 type  1   force =     0.00000000   -0.00014481    0.00008830
     atom   22 type  1   force =     0.00000000   -0.00022173   -0.00002759
     atom   23 type  1   force =     0.00000000    0.00023477    0.00032464
     atom   24 type  1   force =     0.00000000    0.00039283    0.00011728
     atom   25 type  2   force =     0.00000000    0.00021075   -0.00005298
     atom   26 type  2   force =     0.00000000    0.00017176    0.00007137
     atom   27 type  2   force =     0.00000000   -0.00017176   -0.00007137
     atom   28 type  2   force =     0.00000000   -0.00021075    0.00005298

     Total force =     0.001219     Total SCF correction =     0.000002


     Computing stress (Cartesian axis) and pressure


     negative rho (up, down):  5.027E-06 0.000E+00
          total   stress  (Ry/bohr**3)                   (kbar)     P=       -0.17
  -0.00000013   0.00000000   0.00000000           -0.02        0.00        0.00
   0.00000000  -0.00000038   0.00000064            0.00       -0.06        0.09
   0.00000000   0.00000064  -0.00000291            0.00        0.09       -0.43

     Energy error            =      4.0E-06 Ry
     Gradient error          =      3.9E-04 Ry/Bohr
     Cell gradient error     =      5.5E-02 kbar

     number of scf cycles    =  17
     number of bfgs steps    =  16

     enthalpy           old  =    -447.0825250240 Ry
     enthalpy           new  =    -447.0825290060 Ry

     CASE: enthalpy          _new < enthalpy          _old

     new trust radius        =       0.0010077666 bohr
     Message from routine volume:
     axis vectors are left-handed
     new conv_thr            =            1.0E-11 Ry

     new unit-cell volume =   1698.13173 a.u.^3 (   251.63716 Ang^3 )
     density =      1.92884 g/cm^3

CELL_PARAMETERS (angstrom)
   2.530918345   0.000000000   0.000000000
   0.000000000  -5.006549117   0.000000000
   0.000000000   0.000000000  19.859035940

ATOMIC_POSITIONS (crystal)
C                0.0000000000        0.1616242369        0.7439654026
C                0.5000000000        0.2327571997        0.7030734119
C                0.5000000000       -0.0004705283        0.6530226963
C               -0.0000000000       -0.0003960561        0.6099898027
C                0.0000000000        0.2530618367        0.5677571177
C                0.5000000000        0.2529415883        0.5229435332
C                0.5000000000        0.0029937127        0.4778590786
C               -0.0000000000        0.0031755422        0.4327501707
C                0.0000000000        0.2499079911        0.3846730085
C                0.5000000000        0.2498982759        0.3378495759
C                0.5000000000       -0.0169520027        0.2968306304
C                0.0000000000       -0.0883038702        0.2559768765
C                0.0000000000        0.8383038702        0.7440231235
C                0.5000000000        0.7669520027        0.7031693696
C                0.5000000000        0.5001017241        0.6621504241
C                0.0000000000        0.5000920089        0.6153269915
C               -0.0000000000        0.7468244578        0.5672498293
C                0.5000000000        0.7470062873        0.5221409214
C                0.5000000000        0.4970584117        0.4770564668
C                0.0000000000        0.4969381633        0.4322428823
C               -0.0000000000        0.7503960561        0.3900101973
C                0.5000000000        0.7504705283        0.3469773037
C                0.5000000000        0.5172428003        0.2969265881
C                0.0000000000        0.5883757631        0.2560345974
H                0.0000000000        0.2479806217        0.7948837205
H                0.0000000000        0.7524382519        0.7949890647
H               -0.0000000000       -0.0024382519        0.2050109353
H                0.0000000000        0.5020193783        0.2051162795



     Writing config-only to output data dir /tmp/qe/slab.save/ :
     XML data file
     NEW-OLD atomic charge density approx. for the potential

     Check: negative core charge=   -0.000001

     negative rho (up, down):  5.053E-06 0.000E+00

     total cpu time spent up to now is     1219.9 secs

     Self-consistent Calculation

     iteration #  1     ecut=    90.00 Ry     beta= 0.30
     Davidson diagonalization with overlap
     ethr =  1.00E-06,  avg # of iterations =  2.0

     Threshold (ethr) on eigenvalues was too large:
     Diagonalizing with lowered threshold

     Davidson diagonalization with overlap
     ethr =  5.79E-10,  avg # of iterations =  5.0

     negative rho (up, down):  5.047E-06 0.000E+00

     total cpu time spent up to now is     1231.5 secs

     total energy              =    -447.08253059 Ry
     estimated scf accuracy    <       0.00000068 Ry

     iteration #  2     ecut=    90.00 Ry     beta= 0.30
     Davidson diagonalization with overlap
     ethr =  6.77E-10,  avg # of iterations =  1.9

     negative rho (up, down):  5.036E-06 0.000E+00

     total cpu time spent up to now is     1235.7 secs

     total energy              =    -447.08253059 Ry
     estimated scf accuracy    <       0.00000022 Ry

     iteration #  3     ecut=    90.00 Ry     beta= 0.30
     Davidson diagonalization with overlap
     ethr =  2.16E-10,  avg # of iterations =  1.7

     negative rho (up, down):  5.030E-06 0.000E+00

     total cpu time spent up to now is     1240.1 secs

     total energy              =    -447.08253060 Ry
     estimated scf accuracy    <       0.00000006 Ry

     iteration #  4     ecut=    90.00 Ry     beta= 0.30
     Davidson diagonalization with overlap
     ethr =  5.55E-11,  avg # of iterations =  1.9

     negative rho (up, down):  5.028E-06 0.000E+00

     total cpu time spent up to now is     1244.5 secs

     total energy              =    -447.08253060 Ry
     estimated scf accuracy    <          6.7E-09 Ry

     iteration #  5     ecut=    90.00 Ry     beta= 0.30
     Davidson diagonalization with overlap
     ethr =  6.69E-12,  avg # of iterations =  2.1

     negative rho (up, down):  5.029E-06 0.000E+00

     total cpu time spent up to now is     1249.4 secs

     total energy              =    -447.08253060 Ry
     estimated scf accuracy    <          8.5E-10 Ry

     iteration #  6     ecut=    90.00 Ry     beta= 0.30
     Davidson diagonalization with overlap
     ethr =  8.49E-13,  avg # of iterations =  2.2

     negative rho (up, down):  5.030E-06 0.000E+00

     total cpu time spent up to now is     1254.4 secs

     total energy              =    -447.08253060 Ry
     estimated scf accuracy    <          1.5E-10 Ry

     iteration #  7     ecut=    90.00 Ry     beta= 0.30
     Davidson diagonalization with overlap
     ethr =  1.46E-13,  avg # of iterations =  3.0

     negative rho (up, down):  5.030E-06 0.000E+00

     total cpu time spent up to now is     1259.5 secs

     total energy              =    -447.08253060 Ry
     estimated scf accuracy    <          2.7E-11 Ry

     iteration #  8     ecut=    90.00 Ry     beta= 0.30
     Davidson diagonalization with overlap
     ethr =  1.00E-13,  avg # of iterations =  1.4

     negative rho (up, down):  5.031E-06 0.000E+00

     total cpu time spent up to now is     1263.5 secs

     End of self-consistent calculation

          k = 0.0000-0.0000 0.0000 ( 24643 PWs)   bands (ev):

   -15.3998 -14.8503 -13.9065 -12.5406 -10.8992 -10.8076 -10.7415 -10.2289
   -10.1342  -9.3975  -9.3778  -8.6530  -6.7699  -6.6795  -6.5064  -5.1741
    -5.1717  -4.3645  -3.3950  -3.3906  -2.1204  -1.3547  -1.3500  -0.3183
     0.0392   0.1095   0.1833   0.5873   0.6417   0.8334   1.0831   1.8056
     2.2036   2.3192   2.3619   2.5780   2.9648   2.9704   3.0152   3.0934
     3.0950   3.1363   3.7106   3.7274   3.7274   3.8075   4.0465   5.1502
     5.2410   5.3461   8.2520   8.7479  10.2538  10.2830  10.3536  10.6953
    11.0708  11.2006  11.3103  11.5283

          k = 0.0000-0.1009 0.0000 ( 24675 PWs)   bands (ev):

   -15.2206 -14.6923 -13.7808 -12.5256 -12.2995 -11.6234 -10.9073 -10.2886
    -9.4588  -9.0016  -8.8179  -8.4030  -6.5964  -6.3354  -6.1706  -5.0607
    -4.8140  -4.2490  -3.4412  -3.0793  -2.1815  -1.3330  -1.1416  -0.7892
    -0.2154  -0.1725   0.0181   0.3017   0.6789   0.8018   1.1644   1.4471
     1.5919   2.0397   2.3260   2.3825   2.5214   2.5312   2.9975   3.0270
     3.0862   3.4810   3.6193   3.6529   3.7324   4.0192   4.2090   4.7680
     4.9329   5.2289   8.4760   8.9652  10.5050  10.7897  10.8173  11.2428
    11.2828  11.4354  11.5682  11.7372

          k = 0.0000-0.2018 0.0000 ( 24637 PWs)   bands (ev):

   -14.7095 -14.3154 -13.7320 -13.3448 -12.7838 -12.1801 -11.4771 -10.5824
    -9.7086  -8.8359  -7.9710  -7.6608  -6.0298  -5.5175  -5.3500  -4.7336
    -4.2280  -3.9884  -3.2425  -2.7763  -2.5619  -2.0721  -1.9133  -1.1404
    -0.7711  -0.4843  -0.0596   0.2266   0.5518   0.8893   1.0937   1.1847
     1.3596   1.4593   1.9077   1.9559   2.3471   2.4455   2.7778   2.9408
     3.0331   3.3387   3.4351   3.6483   3.9116   4.0984   4.2547   4.3876
     4.7258   5.1238   9.1179   9.5496  10.1639  10.4849  10.9991  11.1632
    11.2594  11.4071  11.7674  12.0424

          k = 0.0998-0.0000 0.0000 ( 24655 PWs)   bands (ev):

   -15.2170 -14.6685 -13.7269 -12.3651 -10.7272 -10.6340 -10.5708 -10.0599
    -9.9666  -9.2324  -9.2132  -8.4952  -6.6406  -6.5218  -6.4057  -5.0362
    -5.0345  -4.3044  -3.2942  -3.2894  -2.2580  -1.3289  -1.3080  -1.0706
    -0.9510   0.0210   0.1810   0.1840   0.6120   0.6610   0.9170   1.4352
     1.7979   1.9857   2.0966   2.1727   2.2649   2.3111   2.5069   2.5969
     2.7799   2.8065   3.0478   3.1012   3.2815   3.7122   3.7431   4.7098
     5.0185   5.1128   8.4354   8.9227  10.8016  10.9258  10.9876  11.2163
    11.6112  11.6992  11.7329  11.8476

          k = 0.0998-0.1009 0.0000 ( 24646 PWs)   bands (ev):

   -15.0381 -14.5108 -13.6013 -12.3491 -12.1230 -11.4493 -10.7377 -10.1231
    -9.2974  -8.8336  -8.6558  -8.2447  -6.4908  -6.1808  -6.0513  -4.9333
    -4.6838  -4.1729  -3.3645  -2.9543  -2.2520  -1.2979  -1.1489  -0.9706
    -0.8416  -0.6578  -0.0687   0.0179   0.2332   0.6660   0.7867   1.1593
     1.3577   1.5293   1.5913   1.7230   2.1787   2.3814   2.5168   2.6421
     2.7452   3.0403   3.0995   3.2599   3.3853   3.6861   3.7509   4.1253
     4.8325   5.0141   8.6596   9.1366  10.8873  11.3848  11.4394  11.7087
    11.7447  11.8044  12.0257  12.0677

          k = 0.0998-0.2018 0.0000 ( 24657 PWs)   bands (ev):

   -14.5277 -14.1345 -13.5521 -13.1656 -12.6064 -12.0054 -11.3059 -10.4157
    -9.5472  -8.6795  -7.8169  -7.5001  -5.9482  -5.4110  -5.2196  -4.6213
    -4.1220  -3.8430  -3.1199  -2.6614  -2.4529  -1.9799  -1.8072  -1.2412
    -0.8710  -0.6617  -0.3854  -0.3412  -0.1623   0.3003   0.4699   0.8117
     1.0637   1.1555   1.4616   1.4823   1.8306   1.9375   2.4128   2.5506
     2.6831   2.9780   3.2135   3.3509   3.7194   3.7375   3.8642   4.0671
     4.4091   4.5328   9.3014   9.7104  10.3355  10.6185  11.0565  11.3277
    11.9128  12.1388  12.3836  12.4004

          k = 0.1996-0.0000 0.0000 ( 24607 PWs)   bands (ev):

   -14.6708 -14.1256 -13.1913 -11.8441 -10.2188 -10.1161 -10.0641  -9.5564
    -9.4690  -8.7407  -8.7230  -8.0443  -6.5024  -6.0719  -6.0603  -4.6686
    -4.6683  -4.4559  -3.3606  -3.0740  -3.0664  -2.6125  -2.5685  -1.3916
    -1.1828  -1.0986  -0.8701   0.0414   0.1039   0.2791   0.4917   0.5221
     0.6182   0.9578   1.0509   1.0888   1.1974   1.3444   1.4042   1.8400
     1.9180   2.2425   2.2810   2.5590   2.7273   2.8857   3.7990   3.9980
     4.0922   4.9525   8.9581   9.3366  11.3798  11.6315  11.8324  11.9214
    12.1738  12.2050  12.4648  12.6773

          k = 0.1996-0.1009 0.0000 ( 24634 PWs)   bands (ev):

   -14.4928 -13.9687 -13.0662 -11.8239 -11.5968 -10.9310 -10.2364  -9.6356
    -8.8214  -8.3329  -8.1752  -7.7907  -6.3699  -5.7494  -5.7149  -4.6585
    -4.4429  -4.1167  -3.3316  -3.1006  -2.6224  -2.5045  -2.4423  -1.4756
    -1.2216  -1.1273  -0.9098  -0.4093  -0.2473  -0.0629  -0.0112   0.3063
     0.5999   0.6896   0.9749   1.0211   1.0679   1.5346   1.5827   1.7707
     2.0156   2.0884   2.2875   2.3737   2.7392   2.8745   3.2459   3.7151
     4.2243   4.5474   9.1701   9.5418  11.2075  11.6524  11.7395  11.8144
    11.9926  12.1993  12.8390  12.8994

          k = 0.1996-0.2018 0.0000 ( 24642 PWs)   bands (ev):

   -13.9848 -13.5941 -13.0153 -12.6311 -12.0775 -11.4856 -10.7981  -9.9238
    -9.0755  -8.2270  -7.3766  -7.0251  -5.8804  -5.2392  -4.9122  -4.3806
    -3.9620  -3.4442  -3.0229  -2.5556  -2.4219  -2.3561  -2.2468  -1.7792
    -1.7108  -1.6253  -1.4760  -0.9724  -0.8118  -0.4263  -0.4127  -0.1981
    -0.1038   0.3276   0.6988   0.9628   1.2099   1.3695   1.5639   1.7292
     2.0713   2.2358   2.3742   2.5432   2.7031   3.0490   3.1434   3.3860
     3.8744   3.8973   9.7603  10.0935  10.5981  10.7760  10.9096  11.2402
    11.6671  12.2400  12.3927  12.7345

          k = 0.2995-0.0000 0.0000 ( 24668 PWs)   bands (ev):

   -13.7690 -13.2309 -12.3133 -11.0044  -9.4343  -9.2639  -9.2412  -8.7343
    -8.6671  -7.9390  -7.9216  -7.5174  -7.2405  -5.7524  -5.4724  -5.3857
    -5.0670  -4.3496  -4.3424  -3.7846  -3.6074  -3.2416  -3.2350  -2.4229
    -2.1249  -1.5291  -1.4431  -1.3502  -1.3268  -0.8702  -0.8629  -0.3990
    -0.3285   0.0997   0.1185   0.5836   0.5869   1.1553   1.2198   1.2653
     1.4973   1.6081   1.9445   2.0012   2.0828   2.9026   3.2071   3.2425
     3.8229   4.5793   9.7863  10.0228  11.6540  11.6775  12.0285  12.1403
    12.3765  12.3792  12.4586  12.5567

          k = 0.2995-0.1009 0.0000 ( 24678 PWs)   bands (ev):

   -13.5924 -13.0753 -12.1887 -10.9712 -10.7333 -10.0845  -9.4453  -8.8824
    -8.0869  -7.5224  -7.4411  -7.2218  -7.0499  -5.6315  -5.4014  -5.2050
    -4.9369  -4.4340  -3.9016  -3.5999  -3.4913  -3.2514  -2.6003  -2.4378
    -2.3023  -2.1599  -1.8650  -1.3727  -1.2183  -0.7392  -0.4885  -0.3188
    -0.1412   0.1310   0.3516   0.4395   0.7750   0.8543   0.9400   1.1236
     1.4121   1.5079   1.6346   1.8283   2.2032   2.4715   2.5974   3.2831
     3.6128   3.8589   9.9780  10.2013  11.0179  11.6201  11.7352  12.0575
    12.3563  12.4343  12.4784  13.1122

          k = 0.2995-0.2018 0.0000 ( 24664 PWs)   bands (ev):

   -13.0886 -12.7032 -12.1312 -11.7524 -11.2109 -10.6406  -9.9814  -9.1496
    -8.3756  -7.6138  -6.9318  -6.6555  -6.1831  -5.6707  -5.2632  -4.8501
    -4.4275  -3.9229  -3.4390  -3.3118  -2.9970  -2.9315  -2.7949  -2.4349
    -2.1341  -1.8907  -1.8001  -1.5554  -1.4327  -0.9927  -0.8037  -0.6136
    -0.5855  -0.2905   0.0516   0.3608   0.5246   0.7037   0.9899   1.1976
     1.4889   1.5839   1.7124   1.8193   2.0410   2.1503   2.5378   2.6411
     3.0087   3.0168  10.2990  10.3911  10.6358  11.0662  11.1604  11.6450
    11.9255  12.4410  12.7031  12.9797

          k = 0.3993-0.0000 0.0000 ( 24732 PWs)   bands (ev):

   -12.5294 -12.0093 -11.1428 -10.0178  -9.3784  -8.3880  -8.2841  -8.0725
    -8.0601  -7.5727  -7.5521  -6.8559  -6.8513  -6.6511  -5.9630  -5.6515
    -5.2329  -5.1876  -5.1181  -4.8735  -4.2654  -4.0872  -4.0870  -2.8778
    -2.6618  -2.4785  -2.4528  -1.8077  -1.7761  -1.4163  -0.8793  -0.8254
    -0.6925  -0.6148  -0.3145  -0.1139  -0.1019   0.7281   0.7959   0.8227
     0.9603   1.3765   1.4322   2.1768   2.6358   2.6399   2.7188   3.1841
     3.6663   3.9420  10.8239  10.9106  11.3401  11.4099  11.5903  11.5988
    12.5699  12.5964  13.2230  13.2730

          k = 0.3993-0.1009 0.0000 ( 24696 PWs)   bands (ev):

   -12.3550 -11.8554 -11.0166  -9.9297  -9.5689  -9.2278  -8.9573  -8.3850
    -8.1491  -7.8158  -7.2077  -6.7578  -6.4034  -6.3461  -6.0121  -5.8701
    -5.4790  -5.1874  -4.7772  -4.2079  -3.9474  -3.5254  -3.4368  -3.0304
    -2.9285  -2.6711  -2.4331  -1.8752  -1.7923  -1.3080  -0.8300  -0.5590
    -0.3423  -0.2712  -0.2056   0.1577   0.1740   0.6650   0.7217   0.9142
     0.9889   1.2215   1.4267   1.5314   2.0462   2.1221   2.5488   2.8252
     2.9639   3.1640  10.5969  11.0582  11.2150  11.4394  11.7740  12.2052
    12.2587  12.5468  13.0516  13.2920

          k = 0.3993-0.2018 0.0000 ( 24655 PWs)   bands (ev):

   -11.8574 -11.4849 -10.9273 -10.5633 -10.0534  -9.5647  -9.0296  -8.6748
    -8.2230  -7.9067  -7.7797  -7.7537  -6.0092  -5.9587  -5.7550  -5.4240
    -5.1937  -5.0562  -4.8056  -4.2136  -3.5534  -2.8995  -2.7218  -2.4623
    -2.3552  -2.0980  -2.0030  -1.8145  -1.4993  -1.3152  -0.9143  -0.6391
    -0.5241  -0.1542   0.1122   0.2319   0.3824   0.4490   0.8128   0.8407
     0.9830   1.0170   1.1203   1.2851   1.4656   1.5009   1.6955   1.9170
     2.1122   2.2170  10.5482  10.9803  11.1650  11.4013  11.9823  12.1926
    12.3042  12.4825  12.5464  12.8441

          k =-0.4991 0.0000 0.0000 ( 24782 PWs)   bands (ev):

   -11.0217 -10.9775 -10.6471 -10.4594 -10.1507  -8.8723  -8.5573  -7.0946
    -6.6797  -6.6617  -6.6567  -6.6517  -6.4107  -6.2791  -6.2775  -6.2401
    -6.2220  -5.9194  -5.8947  -5.4956  -4.9901  -4.9899  -4.4568  -3.8617
    -2.2859  -2.0685  -2.0155  -1.9147  -1.8821  -1.2486  -1.2409  -1.1398
    -0.9785  -0.8826  -0.7517  -0.3167  -0.2999   0.5218   0.5772   0.6269
     0.8115   0.9603   1.3826   2.4105   2.5607   3.0771   3.0842   3.1790
     3.3079   3.3321  11.1063  11.1612  11.3659  11.4156  11.9293  11.9332
    12.4868  12.5646  12.6007  12.6020

          k =-0.4991-0.1009 0.0000 ( 24712 PWs)   bands (ev):

   -10.8535 -10.8041 -10.5006 -10.2977 -10.0071  -8.8180  -8.5302  -8.1275
    -8.0789  -7.6998  -7.5897  -7.4070  -6.7202  -6.1939  -5.5008  -5.4950
    -5.2549  -5.1234  -5.0031  -4.9054  -4.8276  -4.7504  -4.2449  -3.8189
    -2.4544  -2.4099  -2.1389  -1.8009  -1.6788  -1.0972  -1.0426  -0.7367
    -0.6592  -0.6415  -0.5527  -0.0900  -0.0522   0.4685   0.5753   0.6975
     0.8246   1.1361   1.4016   2.1361   2.2479   2.3232   2.4127   2.4249
     2.5522   2.6379  10.7793  11.2345  11.4165  11.8081  11.9684  12.1397
    12.4177  12.6203  12.8886  13.0272

          k =-0.4991-0.2018 0.0000 ( 24638 PWs)   bands (ev):

   -10.3854 -10.3004 -10.1506  -9.8715  -9.6913  -9.3338  -9.1967  -8.9361
    -8.6516  -8.4561  -8.3788  -8.2248  -6.3755  -6.2745  -5.8873  -5.6127
    -5.3362  -4.9048  -4.7387  -4.1654  -4.0019  -3.7491  -3.5926  -3.4038
    -1.9302  -1.5147  -1.4666  -1.4258  -1.3388  -1.0824  -1.0545  -0.6096
    -0.5809  -0.3262   0.1431   0.2748   0.4446   0.5702   0.6403   0.7158
     0.7233   0.7984   0.9834   1.0112   1.0879   1.1878   1.4529   1.5018
     1.7255   1.7857  11.1126  11.1830  11.5662  11.7757  11.8165  12.1426
    12.2304  12.6782  12.7868  12.9547

     the Fermi energy is     6.7993 ev

!    total energy              =    -447.08253060 Ry
     estimated scf accuracy    <          2.3E-12 Ry
     smearing contrib. (-TS)   =       0.00000000 Ry
     internal energy E=F+TS    =    -447.08253060 Ry

     The total energy is F=E-TS. E is the sum of the following terms:
     one-electron contribution =   -3183.77140283 Ry
     hartree contribution      =    1641.58846160 Ry
     xc contribution           =    -115.11585112 Ry
     ewald contribution        =    1358.13217429 Ry
     one-center paw contrib.   =    -147.91591254 Ry

     convergence has been achieved in   8 iterations

     negative rho (up, down):  5.031E-06 0.000E+00

     Forces acting on atoms (cartesian axes, Ry/au):

     atom    1 type  1   force =    -0.00000000   -0.00008151   -0.00015015
     atom    2 type  1   force =     0.00000000   -0.00005693   -0.00008679
     atom    3 type  1   force =     0.00000000    0.00002363   -0.00006676
     atom    4 type  1   force =     0.00000000    0.00002291   -0.00010230
     atom    5 type  1   force =     0.00000000   -0.00004565   -0.00000381
     atom    6 type  1   force =    -0.00000000   -0.00003326   -0.00002296
     atom    7 type  1   force =     0.00000000   -0.00002862    0.00004497
     atom    8 type  1   force =     0.00000000   -0.00001882    0.00003981
     atom    9 type  1   force =     0.00000000    0.00006606   -0.00001908
     atom   10 type  1   force =     0.00000000    0.00005915   -0.00000674
     atom   11 type  1   force =    -0.00000000    0.00001851   -0.00003929
     atom   12 type  1   force =     0.00000000   -0.00000113   -0.00021249
     atom   13 type  1   force =     0.00000000    0.00000113    0.00021249
     atom   14 type  1   force =    -0.00000000   -0.00001851    0.00003929
     atom   15 type  1   force =     0.00000000   -0.00005915    0.00000674
     atom   16 type  1   force =     0.00000000   -0.00006606    0.00001908
     atom   17 type  1   force =     0.00000000    0.00001882   -0.00003981
     atom   18 type  1   force =     0.00000000    0.00002862   -0.00004497
     atom   19 type  1   force =    -0.00000000    0.00003326    0.00002296
     atom   20 type  1   force =     0.00000000    0.00004565    0.00000381
     atom   21 type  1   force =     0.00000000   -0.00002291    0.00010230
     atom   22 type  1   force =     0.00000000   -0.00002363    0.00006676
     atom   23 type  1   force =    -0.00000000    0.00005693    0.00008679
     atom   24 type  1   force =    -0.00000000    0.00008151    0.00015015
     atom   25 type  2   force =     0.00000000    0.00007777    0.00003829
     atom   26 type  2   force =     0.00000000    0.00010637    0.00010248
     atom   27 type  2   force =     0.00000000   -0.00010637   -0.00010248
     atom   28 type  2   force =     0.00000000   -0.00007777   -0.00003829

     Total force =     0.000546     Total SCF correction =     0.000002


     Computing stress (Cartesian axis) and pressure


     negative rho (up, down):  5.031E-06 0.000E+00
          total   stress  (Ry/bohr**3)                   (kbar)     P=       -0.02
  -0.00000004   0.00000000   0.00000000           -0.01        0.00        0.00
   0.00000000  -0.00000013   0.00000028            0.00       -0.02        0.04
   0.00000000   0.00000028  -0.00000021            0.00        0.04       -0.03

     Energy error            =      1.6E-06 Ry
     Gradient error          =      2.1E-04 Ry/Bohr
     Cell gradient error     =      1.9E-02 kbar

     number of scf cycles    =  18
     number of bfgs steps    =  17

     enthalpy           old  =    -447.0825290060 Ry
     enthalpy           new  =    -447.0825306048 Ry

     CASE: enthalpy          _new < enthalpy          _old

     new trust radius        =       0.0003861528 bohr
     Message from routine volume:
     axis vectors are left-handed
     new conv_thr            =            1.0E-11 Ry

     new unit-cell volume =   1698.10417 a.u.^3 (   251.63308 Ang^3 )
     density =      1.92888 g/cm^3

CELL_PARAMETERS (angstrom)
   2.530912529   0.000000000   0.000000000
   0.000000000  -5.006479358   0.000000000
   0.000000000   0.000000000  19.859035940

ATOMIC_POSITIONS (crystal)
C                0.0000000000        0.1616504671        0.7439610159
C                0.5000000000        0.2327713032        0.7030701050
C                0.5000000000       -0.0004837915        0.6530237239
C               -0.0000000000       -0.0004065099        0.6099888712
C                0.0000000000        0.2530688234        0.5677605107
C                0.5000000000        0.2529468014        0.5229452416
C                0.5000000000        0.0029966829        0.4778620136
C               -0.0000000000        0.0031760223        0.4327530948
C                0.0000000000        0.2498894111        0.3846716832
C                0.5000000000        0.2498818264        0.3378486269
C                0.5000000000       -0.0169496220        0.2968246676
C                0.0000000000       -0.0882987597        0.2559666678
C                0.0000000000        0.8382987597        0.7440333322
C                0.5000000000        0.7669496220        0.7031753324
C                0.5000000000        0.5001181736        0.6621513731
C                0.0000000000        0.5001105889        0.6153283168
C               -0.0000000000        0.7468239777        0.5672469052
C                0.5000000000        0.7470033171        0.5221379864
C                0.5000000000        0.4970531986        0.4770547584
C                0.0000000000        0.4969311766        0.4322394893
C               -0.0000000000        0.7504065099        0.3900111288
C                0.5000000000        0.7504837915        0.3469762761
C                0.5000000000        0.5172286968        0.2969298950
C               -0.0000000000        0.5883495329        0.2560389841
H                0.0000000000        0.2479769392        0.7948860971
H                0.0000000000        0.7524034619        0.7949943774
H                0.0000000000       -0.0024034619        0.2050056226
H                0.0000000000        0.5020230608        0.2051139029



     Writing config-only to output data dir /tmp/qe/slab.save/ :
     XML data file
     NEW-OLD atomic charge density approx. for the potential

     Check: negative core charge=   -0.000001

     negative rho (up, down):  5.025E-06 0.000E+00

     total cpu time spent up to now is     1282.6 secs

     Self-consistent Calculation

     iteration #  1     ecut=    90.00 Ry     beta= 0.30
     Davidson diagonalization with overlap
     ethr =  1.00E-06,  avg # of iterations =  2.0

     Threshold (ethr) on eigenvalues was too large:
     Diagonalizing with lowered threshold

     Davidson diagonalization with overlap
     ethr =  4.44E-11,  avg # of iterations =  5.6

     negative rho (up, down):  5.026E-06 0.000E+00

     total cpu time spent up to now is     1294.4 secs

     total energy              =    -447.08253090 Ry
     estimated scf accuracy    <       0.00000009 Ry

     iteration #  2     ecut=    90.00 Ry     beta= 0.30
     Davidson diagonalization with overlap
     ethr =  9.19E-11,  avg # of iterations =  1.9

     negative rho (up, down):  5.028E-06 0.000E+00

     total cpu time spent up to now is     1298.7 secs

     total energy              =    -447.08253090 Ry
     estimated scf accuracy    <       0.00000002 Ry

     iteration #  3     ecut=    90.00 Ry     beta= 0.30
     Davidson diagonalization with overlap
     ethr =  2.36E-11,  avg # of iterations =  2.0

     negative rho (up, down):  5.029E-06 0.000E+00

     total cpu time spent up to now is     1303.3 secs

     total energy              =    -447.08253091 Ry
     estimated scf accuracy    <          5.0E-09 Ry

     iteration #  4     ecut=    90.00 Ry     beta= 0.30
     Davidson diagonalization with overlap
     ethr =  5.03E-12,  avg # of iterations =  1.7

     negative rho (up, down):  5.030E-06 0.000E+00

     total cpu time spent up to now is     1307.5 secs

     total energy              =    -447.08253091 Ry
     estimated scf accuracy    <          6.7E-10 Ry

     iteration #  5     ecut=    90.00 Ry     beta= 0.30
     Davidson diagonalization with overlap
     ethr =  6.69E-13,  avg # of iterations =  2.3

     negative rho (up, down):  5.030E-06 0.000E+00

     total cpu time spent up to now is     1312.3 secs

     total energy              =    -447.08253091 Ry
     estimated scf accuracy    <          1.1E-10 Ry

     iteration #  6     ecut=    90.00 Ry     beta= 0.30
     Davidson diagonalization with overlap
     ethr =  1.05E-13,  avg # of iterations =  2.4

     negative rho (up, down):  5.030E-06 0.000E+00

     total cpu time spent up to now is     1317.2 secs

     total energy              =    -447.08253091 Ry
     estimated scf accuracy    <          2.9E-11 Ry

     iteration #  7     ecut=    90.00 Ry     beta= 0.30
     Davidson diagonalization with overlap
     ethr =  1.00E-13,  avg # of iterations =  1.2

     negative rho (up, down):  5.029E-06 0.000E+00

     total cpu time spent up to now is     1321.2 secs

     End of self-consistent calculation

          k = 0.0000-0.0000 0.0000 ( 24643 PWs)   bands (ev):

   -15.3997 -14.8500 -13.9062 -12.5403 -10.8990 -10.8074 -10.7414 -10.2288
   -10.1340  -9.3974  -9.3777  -8.6528  -6.7700  -6.6794  -6.5062  -5.1742
    -5.1714  -4.3643  -3.3952  -3.3904  -2.1203  -1.3549  -1.3495  -0.3181
     0.0395   0.1095   0.1838   0.5879   0.6413   0.8337   1.0835   1.8059
     2.2037   2.3196   2.3614   2.5785   2.9651   2.9707   3.0156   3.0937
     3.0952   3.1360   3.7108   3.7275   3.7275   3.8078   4.0465   5.1502
     5.2414   5.3461   8.2522   8.7482  10.2542  10.2834  10.3540  10.6959
    11.0711  11.2010  11.3107  11.5283

          k = 0.0000-0.1009 0.0000 ( 24675 PWs)   bands (ev):

   -15.2205 -14.6920 -13.7804 -12.5253 -12.2993 -11.6235 -10.9071 -10.2885
    -9.4587  -9.0014  -8.8176  -8.4027  -6.5963  -6.3354  -6.1705  -5.0606
    -4.8140  -4.2488  -3.4413  -3.0791  -2.1814  -1.3330  -1.1412  -0.7891
    -0.2152  -0.1722   0.0182   0.3021   0.6795   0.8015   1.1649   1.4470
     1.5921   2.0398   2.3265   2.3830   2.5215   2.5311   2.9972   3.0272
     3.0865   3.4811   3.6194   3.6530   3.7330   4.0194   4.2092   4.7680
     4.9329   5.2293   8.4762   8.9655  10.5054  10.7901  10.8176  11.2429
    11.2831  11.4358  11.5683  11.7376

          k = 0.0000-0.2018 0.0000 ( 24637 PWs)   bands (ev):

   -14.7093 -14.3149 -13.7317 -13.3447 -12.7837 -12.1800 -11.4770 -10.5824
    -9.7086  -8.8357  -7.9709  -7.6606  -6.0295  -5.5173  -5.3501  -4.7334
    -4.2280  -3.9882  -3.2422  -2.7761  -2.5617  -2.0720  -1.9130  -1.1406
    -0.7710  -0.4841  -0.0596   0.2270   0.5524   0.8891   1.0941   1.1847
     1.3600   1.4593   1.9081   1.9560   2.3471   2.4454   2.7783   2.9406
     3.0334   3.3387   3.4351   3.6485   3.9122   4.0984   4.2548   4.3878
     4.7261   5.1241   9.1181   9.5498  10.1641  10.4850  10.9994  11.1627
    11.2595  11.4072  11.7676  12.0425

          k = 0.0998-0.0000 0.0000 ( 24655 PWs)   bands (ev):

   -15.2169 -14.6682 -13.7266 -12.3648 -10.7270 -10.6338 -10.5707 -10.0598
    -9.9664  -9.2323  -9.2131  -8.4949  -6.6407  -6.5218  -6.4056  -5.0363
    -5.0342  -4.3042  -3.2944  -3.2891  -2.2579  -1.3290  -1.3075  -1.0703
    -0.9508   0.0213   0.1814   0.1843   0.6124   0.6606   0.9172   1.4355
     1.7982   1.9860   2.0965   2.1730   2.2651   2.3114   2.5069   2.5974
     2.7804   2.8064   3.0479   3.1012   3.2817   3.7124   3.7433   4.7100
     5.0186   5.1129   8.4356   8.9229  10.8020  10.9262  10.9881  11.2169
    11.6115  11.6992  11.7332  11.8477

          k = 0.0998-0.1009 0.0000 ( 24646 PWs)   bands (ev):

   -15.0380 -14.5105 -13.6010 -12.3488 -12.1228 -11.4494 -10.7375 -10.1230
    -9.2973  -8.8334  -8.6556  -8.2445  -6.4907  -6.1808  -6.0512  -4.9332
    -4.6837  -4.1727  -3.3646  -2.9542  -2.2519  -1.2980  -1.1484  -0.9703
    -0.8414  -0.6576  -0.0682   0.0182   0.2334   0.6662   0.7867   1.1594
     1.3580   1.5295   1.5913   1.7230   2.1788   2.3816   2.5169   2.6425
     2.7454   3.0405   3.0997   3.2601   3.3855   3.6862   3.7511   4.1255
     4.8326   5.0142   8.6597   9.1368  10.8875  11.3850  11.4393  11.7091
    11.7450  11.8045  12.0257  12.0681

          k = 0.0998-0.2018 0.0000 ( 24657 PWs)   bands (ev):

   -14.5276 -14.1340 -13.5519 -13.1656 -12.6062 -12.0053 -11.3058 -10.4157
    -9.5472  -8.6793  -7.8168  -7.4998  -5.9479  -5.4108  -5.2196  -4.6210
    -4.1221  -3.8428  -3.1196  -2.6612  -2.4527  -1.9798  -1.8069  -1.2413
    -0.8706  -0.6614  -0.3850  -0.3409  -0.1622   0.3005   0.4700   0.8118
     1.0638   1.1557   1.4618   1.4824   1.8305   1.9377   2.4128   2.5508
     2.6834   2.9782   3.2134   3.3509   3.7196   3.7378   3.8645   4.0673
     4.4093   4.5330   9.3015   9.7105  10.3356  10.6186  11.0562  11.3272
    11.9131  12.1388  12.3838  12.4008

          k = 0.1996-0.0000 0.0000 ( 24607 PWs)   bands (ev):

   -14.6708 -14.1253 -13.1910 -11.8438 -10.2186 -10.1159 -10.0640  -9.5563
    -9.4688  -8.7406  -8.7229  -8.0440  -6.5023  -6.0718  -6.0603  -4.6684
    -4.6684  -4.4557  -3.3605  -3.0738  -3.0665  -2.6121  -2.5682  -1.3913
    -1.1824  -1.0986  -0.8699   0.0413   0.1041   0.2795   0.4919   0.5224
     0.6184   0.9580   1.0510   1.0888   1.1976   1.3443   1.4045   1.8403
     1.9181   2.2424   2.2813   2.5593   2.7275   2.8858   3.7992   3.9981
     4.0924   4.9526   8.9582   9.3367  11.3800  11.6320  11.8328  11.9218
    12.1738  12.2053  12.4650  12.6772

          k = 0.1996-0.1009 0.0000 ( 24634 PWs)   bands (ev):

   -14.4926 -13.9684 -13.0659 -11.8236 -11.5966 -10.9310 -10.2361  -9.6356
    -8.8213  -8.3327  -8.1750  -7.7904  -6.3698  -5.7493  -5.7150  -4.6582
    -4.4427  -4.1167  -3.3316  -3.1004  -2.6223  -2.5041  -2.4420  -1.4751
    -1.2215  -1.1271  -0.9096  -0.4092  -0.2469  -0.0628  -0.0109   0.3064
     0.5999   0.6899   0.9753   1.0210   1.0681   1.5347   1.5829   1.7709
     2.0154   2.0888   2.2878   2.3737   2.7394   2.8747   3.2460   3.7152
     4.2244   4.5475   9.1703   9.5420  11.2076  11.6525  11.7396  11.8145
    11.9926  12.1994  12.8393  12.8995

          k = 0.1996-0.2018 0.0000 ( 24642 PWs)   bands (ev):

   -13.9846 -13.5937 -13.0150 -12.6311 -12.0773 -11.4856 -10.7980  -9.9237
    -9.0755  -8.2268  -7.3764  -7.0249  -5.8802  -5.2390  -4.9122  -4.3804
    -3.9619  -3.4441  -3.0227  -2.5553  -2.4214  -2.3559  -2.2466  -1.7791
    -1.7104  -1.6250  -1.4759  -0.9724  -0.8117  -0.4261  -0.4124  -0.1979
    -0.1038   0.3276   0.6990   0.9631   1.2101   1.3696   1.5638   1.7294
     2.0714   2.2360   2.3744   2.5434   2.7031   3.0490   3.1435   3.3864
     3.8746   3.8975   9.7604  10.0936  10.5980  10.7759  10.9098  11.2400
    11.6670  12.2400  12.3927  12.7345

          k = 0.2995-0.0000 0.0000 ( 24668 PWs)   bands (ev):

   -13.7689 -13.2306 -12.3130 -11.0040  -9.4341  -9.2638  -9.2412  -8.7342
    -8.6669  -7.9389  -7.9215  -7.5170  -7.2402  -5.7522  -5.4724  -5.3856
    -5.0667  -4.3496  -4.3424  -3.7844  -3.6070  -3.2415  -3.2350  -2.4225
    -2.1246  -1.5288  -1.4429  -1.3500  -1.3267  -0.8700  -0.8627  -0.3989
    -0.3282   0.0999   0.1184   0.5835   0.5870   1.1553   1.2205   1.2649
     1.4972   1.6087   1.9449   2.0014   2.0831   2.9028   3.2072   3.2426
     3.8231   4.5795   9.7865  10.0230  11.6541  11.6776  12.0287  12.1406
    12.3770  12.3795  12.4586  12.5570

          k = 0.2995-0.1009 0.0000 ( 24678 PWs)   bands (ev):

   -13.5923 -13.0750 -12.1884 -10.9709 -10.7332 -10.0845  -9.4451  -8.8824
    -8.0868  -7.5222  -7.4408  -7.2216  -7.0496  -5.6311  -5.4014  -5.2049
    -4.9367  -4.4340  -3.9015  -3.5996  -3.4912  -3.2513  -2.5999  -2.4377
    -2.3021  -2.1597  -1.8650  -1.3726  -1.2181  -0.7390  -0.4881  -0.3187
    -0.1411   0.1312   0.3517   0.4397   0.7750   0.8544   0.9400   1.1237
     1.4126   1.5077   1.6349   1.8286   2.2034   2.4717   2.5976   3.2832
     3.6129   3.8590   9.9781  10.2014  11.0180  11.6202  11.7355  12.0571
    12.3566  12.4343  12.4786  13.1122

          k = 0.2995-0.2018 0.0000 ( 24664 PWs)   bands (ev):

   -13.0884 -12.7027 -12.1310 -11.7524 -11.2107 -10.6405  -9.9813  -9.1496
    -8.3756  -7.6136  -6.9314  -6.6551  -6.1830  -5.6705  -5.2629  -4.8500
    -4.4274  -3.9228  -3.4388  -3.3114  -2.9968  -2.9312  -2.7948  -2.4347
    -2.1339  -1.8906  -1.7999  -1.5554  -1.4325  -0.9925  -0.8035  -0.6135
    -0.5854  -0.2903   0.0517   0.3608   0.5247   0.7039   0.9900   1.1977
     1.4893   1.5838   1.7124   1.8194   2.0412   2.1505   2.5382   2.6412
     3.0088   3.0171  10.2992  10.3912  10.6359  11.0660  11.1606  11.6449
    11.9255  12.4411  12.7029  12.9800

          k = 0.3993-0.0000 0.0000 ( 24732 PWs)   bands (ev):

   -12.5294 -12.0090 -11.1425 -10.0176  -9.3784  -8.3875  -8.2836  -8.0724
    -8.0600  -7.5725  -7.5518  -6.8558  -6.8512  -6.6508  -5.9627  -5.6513
    -5.2329  -5.1875  -5.1180  -4.8734  -4.2651  -4.0871  -4.0869  -2.8775
    -2.6614  -2.4784  -2.4527  -1.8076  -1.7760  -1.4161  -0.8793  -0.8252
    -0.6926  -0.6148  -0.3144  -0.1139  -0.1020   0.7288   0.7955   0.8224
     0.9610   1.3769   1.4326   2.1770   2.6361   2.6400   2.7190   3.1843
     3.6666   3.9422  10.8240  10.9106  11.3401  11.4100  11.5905  11.5990
    12.5698  12.5967  13.2232  13.2725

          k = 0.3993-0.1009 0.0000 ( 24696 PWs)   bands (ev):

   -12.3549 -11.8551 -11.0163  -9.9295  -9.5688  -9.2278  -8.9572  -8.3847
    -8.1485  -7.8156  -7.2075  -6.7577  -6.4031  -6.3460  -6.0119  -5.8699
    -5.4788  -5.1872  -4.7770  -4.2076  -3.9473  -3.5253  -3.4366  -3.0301
    -2.9285  -2.6711  -2.4328  -1.8751  -1.7922  -1.3078  -0.8298  -0.5590
    -0.3422  -0.2710  -0.2056   0.1578   0.1741   0.6649   0.7219   0.9148
     0.9888   1.2220   1.4271   1.5316   2.0465   2.1223   2.5489   2.8254
     2.9642   3.1642  10.5971  11.0583  11.2151  11.4396  11.7741  12.2052
    12.2590  12.5467  13.0517  13.2920

          k = 0.3993-0.2018 0.0000 ( 24655 PWs)   bands (ev):

   -11.8572 -11.4844 -10.9270 -10.5632 -10.0532  -9.5646  -9.0295  -8.6748
    -8.2229  -7.9060  -7.7795  -7.7533  -6.0091  -5.9585  -5.7549  -5.4238
    -5.1935  -5.0559  -4.8053  -4.2134  -3.5532  -2.8992  -2.7215  -2.4622
    -2.3551  -2.0979  -2.0030  -1.8143  -1.4991  -1.3151  -0.9142  -0.6390
    -0.5240  -0.1541   0.1123   0.2319   0.3824   0.4492   0.8129   0.8406
     0.9832   1.0172   1.1206   1.2852   1.4658   1.5010   1.6959   1.9175
     2.1124   2.2173  10.5483  10.9805  11.1650  11.4011  11.9823  12.1926
    12.3041  12.4824  12.5462  12.8442

          k =-0.4991 0.0000 0.0000 ( 24782 PWs)   bands (ev):

   -11.0216 -10.9774 -10.6468 -10.4593 -10.1505  -8.8716  -8.5566  -7.0943
    -6.6796  -6.6616  -6.6565  -6.6516  -6.4106  -6.2790  -6.2773  -6.2400
    -6.2217  -5.9193  -5.8946  -5.4954  -4.9899  -4.9897  -4.4565  -3.8615
    -2.2855  -2.0683  -2.0156  -1.9147  -1.8821  -1.2484  -1.2410  -1.1395
    -0.9785  -0.8826  -0.7514  -0.3168  -0.3000   0.5214   0.5775   0.6275
     0.8116   0.9608   1.3831   2.4107   2.5608   3.0774   3.0842   3.1793
     3.3082   3.3324  11.1066  11.1615  11.3659  11.4157  11.9293  11.9333
    12.4867  12.5647  12.6007  12.6021

          k =-0.4991-0.1009 0.0000 ( 24712 PWs)   bands (ev):

   -10.8533 -10.8040 -10.5003 -10.2975 -10.0070  -8.8173  -8.5296  -8.1275
    -8.0788  -7.6997  -7.5897  -7.4069  -6.7200  -6.1936  -5.5006  -5.4948
    -5.2548  -5.1233  -5.0029  -4.9052  -4.8275  -4.7502  -4.2446  -3.8187
    -2.4543  -2.4100  -2.1387  -1.8011  -1.6788  -1.0968  -1.0424  -0.7367
    -0.6590  -0.6415  -0.5528  -0.0900  -0.0522   0.4684   0.5754   0.6978
     0.8247   1.1367   1.4022   2.1363   2.2482   2.3232   2.4129   2.4252
     2.5525   2.6382  10.7795  11.2345  11.4167  11.8081  11.9685  12.1398
    12.4179  12.6203  12.8887  13.0272

          k =-0.4991-0.2018 0.0000 ( 24638 PWs)   bands (ev):

   -10.3851 -10.3002 -10.1501  -9.8711  -9.6911  -9.3337  -9.1968  -8.9359
    -8.6518  -8.4554  -8.3789  -8.2243  -6.3752  -6.2744  -5.8872  -5.6124
    -5.3361  -4.9046  -4.7383  -4.1652  -4.0018  -3.7488  -3.5924  -3.4036
    -1.9299  -1.5145  -1.4665  -1.4258  -1.3388  -1.0823  -1.0543  -0.6096
    -0.5809  -0.3260   0.1430   0.2746   0.4449   0.5703   0.6405   0.7160
     0.7235   0.7985   0.9836   1.0115   1.0880   1.1878   1.4537   1.5024
     1.7257   1.7859  11.1130  11.1834  11.5663  11.7759  11.8162  12.1420
    12.2303  12.6781  12.7868  12.9541

     the Fermi energy is     6.7994 ev

!    total energy              =    -447.08253091 Ry
     estimated scf accuracy    <          2.1E-12 Ry
     smearing contrib. (-TS)   =       0.00000000 Ry
     internal energy E=F+TS    =    -447.08253091 Ry

     The total energy is F=E-TS. E is the sum of the following terms:
     one-electron contribution =   -3183.74466219 Ry
     hartree contribution      =    1641.57566277 Ry
     xc contribution           =    -115.11575836 Ry
     ewald contribution        =    1358.11813871 Ry
     one-center paw contrib.   =    -147.91591183 Ry

     convergence has been achieved in   7 iterations

     negative rho (up, down):  5.029E-06 0.000E+00

     Forces acting on atoms (cartesian axes, Ry/au):

     atom    1 type  1   force =     0.00000000    0.00000494    0.00004342
     atom    2 type  1   force =     0.00000000    0.00001078   -0.00005596
     atom    3 type  1   force =     0.00000000   -0.00002759   -0.00006116
     atom    4 type  1   force =     0.00000000   -0.00002519   -0.00004846
     atom    5 type  1   force =    -0.00000000   -0.00003464   -0.00004361
     atom    6 type  1   force =     0.00000000   -0.00002022    0.00000170
     atom    7 type  1   force =    -0.00000000   -0.00002169   -0.00000391
     atom    8 type  1   force =     0.00000000   -0.00002308    0.00001534
     atom    9 type  1   force =     0.00000000    0.00000012    0.00000162
     atom   10 type  1   force =     0.00000000    0.00002204    0.00000710
     atom   11 type  1   force =     0.00000000    0.00005613   -0.00005020
     atom   12 type  1   force =     0.00000000    0.00006472    0.00001910
     atom   13 type  1   force =     0.00000000   -0.00006472   -0.00001910
     atom   14 type  1   force =     0.00000000   -0.00005613    0.00005020
     atom   15 type  1   force =     0.00000000   -0.00002204   -0.00000710
     atom   16 type  1   force =     0.00000000   -0.00000012   -0.00000162
     atom   17 type  1   force =     0.00000000    0.00002308   -0.00001534
     atom   18 type  1   force =    -0.00000000    0.00002169    0.00000391
     atom   19 type  1   force =     0.00000000    0.00002022   -0.00000170
     atom   20 type  1   force =    -0.00000000    0.00003464    0.00004361
     atom   21 type  1   force =     0.00000000    0.00002519    0.00004846
     atom   22 type  1   force =     0.00000000    0.00002759    0.00006116
     atom   23 type  1   force =     0.00000000   -0.00001078    0.00005596
     atom   24 type  1   force =    -0.00000000   -0.00000494   -0.00004342
     atom   25 type  2   force =     0.00000000    0.00005733   -0.00004369
     atom   26 type  2   force =    -0.00000000    0.00007072    0.00014468
     atom   27 type  2   force =    -0.00000000   -0.00007072   -0.00014468
     atom   28 type  2   force =     0.00000000   -0.00005733    0.00004369

     Total force =     0.000344     Total SCF correction =     0.000002


     Computing stress (Cartesian axis) and pressure


     negative rho (up, down):  5.029E-06 0.000E+00
          total   stress  (Ry/bohr**3)                   (kbar)     P=       -0.03
  -0.00000003   0.00000000   0.00000000           -0.00        0.00        0.00
   0.00000000   0.00000009   0.00000012            0.00        0.01        0.02
   0.00000000   0.00000012  -0.00000063            0.00        0.02       -0.09

     Energy error            =      3.0E-07 Ry
     Gradient error          =      1.4E-04 Ry/Bohr
     Cell gradient error     =      1.3E-02 kbar

     number of scf cycles    =  19
     number of bfgs steps    =  18

     enthalpy           old  =    -447.0825306048 Ry
     enthalpy           new  =    -447.0825309064 Ry

     CASE: enthalpy          _new < enthalpy          _old

     new trust radius        =       0.0003374916 bohr
     Message from routine volume:
     axis vectors are left-handed
     new conv_thr            =            1.0E-11 Ry

     new unit-cell volume =   1698.09741 a.u.^3 (   251.63207 Ang^3 )
     density =      1.92888 g/cm^3

CELL_PARAMETERS (angstrom)
   2.530905599   0.000000000   0.000000000
   0.000000000  -5.006473122   0.000000000
   0.000000000   0.000000000  19.859035940

ATOMIC_POSITIONS (crystal)
C                0.0000000000        0.1616590475        0.7439628508
C                0.5000000000        0.2327755472        0.7030687319
C                0.5000000000       -0.0004845230        0.6530234325
C               -0.0000000000       -0.0004066405        0.6099877480
C               -0.0000000000        0.2530747254        0.5677605786
C                0.5000000000        0.2529500865        0.5229458265
C                0.5000000000        0.0029993632        0.4778625311
C               -0.0000000000        0.0031783055        0.4327539964
C                0.0000000000        0.2498834820        0.3846702783
C                0.5000000000        0.2498739202        0.3378470918
C                0.5000000000       -0.0169545771        0.2968199142
C                0.0000000000       -0.0883038425        0.2559622902
C                0.0000000000        0.8383038425        0.7440377098
C                0.5000000000        0.7669545771        0.7031800858
C                0.5000000000        0.5001260798        0.6621529082
C                0.0000000000        0.5001165180        0.6153297217
C               -0.0000000000        0.7468216945        0.5672460036
C                0.5000000000        0.7470006368        0.5221374689
C                0.5000000000        0.4970499135        0.4770541735
C               -0.0000000000        0.4969252746        0.4322394214
C               -0.0000000000        0.7504066405        0.3900122520
C                0.5000000000        0.7504845230        0.3469765675
C                0.5000000000        0.5172244528        0.2969312681
C               -0.0000000000        0.5883409525        0.2560371492
H                0.0000000000        0.2479650340        0.7948875364
H                0.0000000000        0.7523876699        0.7950024412
H               -0.0000000000       -0.0023876699        0.2049975588
H                0.0000000000        0.5020349660        0.2051124636



     Writing config-only to output data dir /tmp/qe/slab.save/ :
     XML data file
     NEW-OLD atomic charge density approx. for the potential

     Check: negative core charge=   -0.000001

     negative rho (up, down):  5.023E-06 0.000E+00

     total cpu time spent up to now is     1340.2 secs

     Self-consistent Calculation

     iteration #  1     ecut=    90.00 Ry     beta= 0.30
     Davidson diagonalization with overlap
     ethr =  1.00E-06,  avg # of iterations =  1.9

     Threshold (ethr) on eigenvalues was too large:
     Diagonalizing with lowered threshold

     Davidson diagonalization with overlap
     ethr =  2.84E-11,  avg # of iterations =  4.9

     negative rho (up, down):  5.024E-06 0.000E+00

     total cpu time spent up to now is     1351.0 secs

     total energy              =    -447.08253100 Ry
     estimated scf accuracy    <       0.00000004 Ry

     iteration #  2     ecut=    90.00 Ry     beta= 0.30
     Davidson diagonalization with overlap
     ethr =  3.84E-11,  avg # of iterations =  1.8

     negative rho (up, down):  5.027E-06 0.000E+00

     total cpu time spent up to now is     1355.2 secs

     total energy              =    -447.08253100 Ry
     estimated scf accuracy    <       0.00000001 Ry

     iteration #  3     ecut=    90.00 Ry     beta= 0.30
     Davidson diagonalization with overlap
     ethr =  1.04E-11,  avg # of iterations =  2.0

     negative rho (up, down):  5.028E-06 0.000E+00

     total cpu time spent up to now is     1359.9 secs

     total energy              =    -447.08253100 Ry
     estimated scf accuracy    <          2.1E-09 Ry

     iteration #  4     ecut=    90.00 Ry     beta= 0.30
     Davidson diagonalization with overlap
     ethr =  2.12E-12,  avg # of iterations =  1.4

     negative rho (up, down):  5.029E-06 0.000E+00

     total cpu time spent up to now is     1364.0 secs

     total energy              =    -447.08253100 Ry
     estimated scf accuracy    <          4.3E-10 Ry

     iteration #  5     ecut=    90.00 Ry     beta= 0.30
     Davidson diagonalization with overlap
     ethr =  4.33E-13,  avg # of iterations =  2.0

     negative rho (up, down):  5.029E-06 0.000E+00

     total cpu time spent up to now is     1368.7 secs

     total energy              =    -447.08253100 Ry
     estimated scf accuracy    <          3.6E-11 Ry

     iteration #  6     ecut=    90.00 Ry     beta= 0.30
     Davidson diagonalization with overlap
     ethr =  1.00E-13,  avg # of iterations =  1.5

     negative rho (up, down):  5.028E-06 0.000E+00

     total cpu time spent up to now is     1372.8 secs

     total energy              =    -447.08253100 Ry
     estimated scf accuracy    <          1.0E-11 Ry

     iteration #  7     ecut=    90.00 Ry     beta= 0.30
     Davidson diagonalization with overlap
     ethr =  1.00E-13,  avg # of iterations =  1.0

     negative rho (up, down):  5.028E-06 0.000E+00

     total cpu time spent up to now is     1376.7 secs

     End of self-consistent calculation

          k = 0.0000-0.0000 0.0000 ( 24643 PWs)   bands (ev):

   -15.3996 -14.8497 -13.9060 -12.5401 -10.8989 -10.8074 -10.7414 -10.2287
   -10.1339  -9.3972  -9.3775  -8.6527  -6.7700  -6.6793  -6.5061  -5.1741
    -5.1713  -4.3643  -3.3951  -3.3903  -2.1204  -1.3548  -1.3495  -0.3179
     0.0396   0.1094   0.1841   0.5881   0.6412   0.8338   1.0838   1.8061
     2.2035   2.3198   2.3614   2.5786   2.9651   2.9707   3.0157   3.0938
     3.0954   3.1361   3.7109   3.7279   3.7279   3.8080   4.0464   5.1504
     5.2414   5.3460   8.2522   8.7482  10.2543  10.2835  10.3543  10.6961
    11.0713  11.2012  11.3108  11.5282

          k = 0.0000-0.1009 0.0000 ( 24675 PWs)   bands (ev):

   -15.2204 -14.6918 -13.7802 -12.5252 -12.2993 -11.6233 -10.9070 -10.2884
    -9.4587  -9.0013  -8.8175  -8.4027  -6.5962  -6.3353  -6.1705  -5.0604
    -4.8138  -4.2488  -3.4411  -3.0790  -2.1814  -1.3329  -1.1411  -0.7890
    -0.2151  -0.1721   0.0182   0.3025   0.6795   0.8015   1.1651   1.4470
     1.5922   2.0399   2.3267   2.3829   2.5217   2.5311   2.9972   3.0273
     3.0866   3.4814   3.6195   3.6530   3.7330   4.0197   4.2094   4.7681
     4.9329   5.2293   8.4762   8.9655  10.5055  10.7903  10.8177  11.2429
    11.2833  11.4360  11.5683  11.7377

          k = 0.0000-0.2018 0.0000 ( 24637 PWs)   bands (ev):

   -14.7092 -14.3146 -13.7316 -13.3446 -12.7835 -12.1800 -11.4770 -10.5823
    -9.7086  -8.8356  -7.9708  -7.6605  -6.0295  -5.5172  -5.3500  -4.7334
    -4.2278  -3.9881  -3.2421  -2.7759  -2.5616  -2.0721  -1.9128  -1.1404
    -0.7709  -0.4841  -0.0596   0.2272   0.5528   0.8892   1.0942   1.1847
     1.3601   1.4595   1.9082   1.9559   2.3474   2.4454   2.7783   2.9406
     3.0333   3.3390   3.4351   3.6485   3.9122   4.0983   4.2548   4.3881
     4.7261   5.1242   9.1181   9.5498  10.1640  10.4850  10.9996  11.1626
    11.2596  11.4074  11.7676  12.0425

          k = 0.0998-0.0000 0.0000 ( 24655 PWs)   bands (ev):

   -15.2168 -14.6680 -13.7264 -12.3646 -10.7269 -10.6338 -10.5707 -10.0597
    -9.9663  -9.2321  -9.2129  -8.4949  -6.6407  -6.5217  -6.4054  -5.0361
    -5.0341  -4.3042  -3.2943  -3.2891  -2.2579  -1.3289  -1.3074  -1.0702
    -0.9506   0.0214   0.1815   0.1844   0.6125   0.6606   0.9173   1.4355
     1.7984   1.9861   2.0965   2.1729   2.2652   2.3115   2.5069   2.5973
     2.7805   2.8066   3.0482   3.1014   3.2817   3.7125   3.7434   4.7100
     5.0185   5.1131   8.4355   8.9229  10.8021  10.9263  10.9883  11.2171
    11.6116  11.6991  11.7333  11.8478

          k = 0.0998-0.1009 0.0000 ( 24646 PWs)   bands (ev):

   -15.0379 -14.5102 -13.6008 -12.3487 -12.1228 -11.4492 -10.7375 -10.1229
    -9.2973  -8.8333  -8.6554  -8.2444  -6.4906  -6.1807  -6.0512  -4.9330
    -4.6835  -4.1728  -3.3645  -2.9541  -2.2519  -1.2979  -1.1483  -0.9701
    -0.8412  -0.6576  -0.0680   0.0184   0.2334   0.6662   0.7868   1.1596
     1.3581   1.5297   1.5914   1.7230   2.1789   2.3817   2.5169   2.6425
     2.7454   3.0405   3.0997   3.2604   3.3856   3.6862   3.7511   4.1256
     4.8326   5.0142   8.6597   9.1368  10.8876  11.3851  11.4392  11.7092
    11.7452  11.8045  12.0256  12.0683

          k = 0.0998-0.2018 0.0000 ( 24657 PWs)   bands (ev):

   -14.5274 -14.1337 -13.5518 -13.1655 -12.6061 -12.0052 -11.3057 -10.4156
    -9.5471  -8.6792  -7.8167  -7.4998  -5.9478  -5.4107  -5.2195  -4.6211
    -4.1219  -3.8426  -3.1196  -2.6610  -2.4526  -1.9798  -1.8067  -1.2411
    -0.8705  -0.6614  -0.3847  -0.3407  -0.1620   0.3006   0.4700   0.8119
     1.0640   1.1559   1.4619   1.4824   1.8306   1.9377   2.4129   2.5508
     2.6834   2.9783   3.2135   3.3510   3.7196   3.7379   3.8646   4.0674
     4.4093   4.5330   9.3015   9.7105  10.3356  10.6186  11.0561  11.3271
    11.9132  12.1388  12.3839  12.4011

          k = 0.1996-0.0000 0.0000 ( 24607 PWs)   bands (ev):

   -14.6707 -14.1251 -13.1908 -11.8437 -10.2185 -10.1159 -10.0640  -9.5562
    -9.4687  -8.7404  -8.7227  -8.0440  -6.5023  -6.0717  -6.0601  -4.6683
    -4.6682  -4.4557  -3.3604  -3.0737  -3.0664  -2.6118  -2.5680  -1.3911
    -1.1824  -1.0985  -0.8699   0.0415   0.1042   0.2796   0.4919   0.5224
     0.6185   0.9579   1.0511   1.0889   1.1978   1.3445   1.4047   1.8403
     1.9183   2.2424   2.2813   2.5594   2.7276   2.8857   3.7994   3.9981
     4.0923   4.9528   8.9582   9.3367  11.3801  11.6322  11.8330  11.9218
    12.1737  12.2053  12.4651  12.6770

          k = 0.1996-0.1009 0.0000 ( 24634 PWs)   bands (ev):

   -14.4926 -13.9682 -13.0657 -11.8235 -11.5965 -10.9309 -10.2361  -9.6355
    -8.8213  -8.3326  -8.1748  -7.7904  -6.3697  -5.7492  -5.7149  -4.6581
    -4.4426  -4.1166  -3.3314  -3.1004  -2.6222  -2.5038  -2.4418  -1.4750
    -1.2214  -1.1271  -0.9095  -0.4090  -0.2469  -0.0628  -0.0108   0.3066
     0.6000   0.6900   0.9753   1.0211   1.0681   1.5347   1.5832   1.7710
     2.0154   2.0890   2.2878   2.3737   2.7394   2.8748   3.2460   3.7152
     4.2245   4.5476   9.1703   9.5420  11.2075  11.6524  11.7396  11.8145
    11.9924  12.1994  12.8393  12.8995

          k = 0.1996-0.2018 0.0000 ( 24642 PWs)   bands (ev):

   -13.9845 -13.5934 -13.0149 -12.6310 -12.0772 -11.4855 -10.7979  -9.9236
    -9.0755  -8.2267  -7.3764  -7.0248  -5.8801  -5.2389  -4.9120  -4.3804
    -3.9618  -3.4439  -3.0226  -2.5551  -2.4211  -2.3557  -2.2464  -1.7790
    -1.7102  -1.6249  -1.4758  -0.9723  -0.8116  -0.4261  -0.4123  -0.1979
    -0.1036   0.3278   0.6990   0.9631   1.2102   1.3697   1.5638   1.7296
     2.0715   2.2360   2.3744   2.5434   2.7032   3.0490   3.1435   3.3864
     3.8746   3.8975   9.7604  10.0936  10.5980  10.7759  10.9097  11.2399
    11.6670  12.2399  12.3927  12.7345

          k = 0.2995-0.0000 0.0000 ( 24668 PWs)   bands (ev):

   -13.7688 -13.2303 -12.3128 -11.0039  -9.4340  -9.2637  -9.2411  -8.7341
    -8.6668  -7.9386  -7.9213  -7.5169  -7.2401  -5.7521  -5.4722  -5.3854
    -5.0667  -4.3495  -4.3423  -3.7843  -3.6069  -3.2413  -3.2348  -2.4224
    -2.1246  -1.5287  -1.4428  -1.3500  -1.3267  -0.8699  -0.8626  -0.3990
    -0.3282   0.1000   0.1184   0.5836   0.5870   1.1554   1.2204   1.2650
     1.4972   1.6089   1.9450   2.0013   2.0833   2.9030   3.2072   3.2425
     3.8234   4.5796   9.7864  10.0229  11.6541  11.6777  12.0287  12.1407
    12.3768  12.3796  12.4586  12.5570

          k = 0.2995-0.1009 0.0000 ( 24678 PWs)   bands (ev):

   -13.5922 -13.0747 -12.1882 -10.9708 -10.7331 -10.0844  -9.4450  -8.8823
    -8.0868  -7.5221  -7.4406  -7.2214  -7.0494  -5.6309  -5.4013  -5.2048
    -4.9366  -4.4339  -3.9013  -3.5995  -3.4909  -3.2511  -2.5998  -2.4376
    -2.3020  -2.1596  -1.8649  -1.3725  -1.2179  -0.7390  -0.4881  -0.3186
    -0.1412   0.1313   0.3518   0.4398   0.7751   0.8545   0.9401   1.1238
     1.4126   1.5078   1.6350   1.8287   2.2034   2.4718   2.5976   3.2833
     3.6131   3.8591   9.9780  10.2014  11.0180  11.6201  11.7356  12.0570
    12.3568  12.4341  12.4785  13.1122

          k = 0.2995-0.2018 0.0000 ( 24664 PWs)   bands (ev):

   -13.0882 -12.7024 -12.1309 -11.7523 -11.2106 -10.6404  -9.9813  -9.1494
    -8.3755  -7.6135  -6.9313  -6.6549  -6.1829  -5.6704  -5.2627  -4.8499
    -4.4272  -3.9227  -3.4386  -3.3113  -2.9966  -2.9311  -2.7946  -2.4347
    -2.1338  -1.8904  -1.7998  -1.5552  -1.4324  -0.9924  -0.8034  -0.6134
    -0.5853  -0.2901   0.0517   0.3609   0.5248   0.7040   0.9900   1.1977
     1.4894   1.5839   1.7125   1.8194   2.0412   2.1506   2.5383   2.6413
     3.0089   3.0171  10.2991  10.3911  10.6358  11.0660  11.1605  11.6447
    11.9255  12.4411  12.7027  12.9800

          k = 0.3993-0.0000 0.0000 ( 24732 PWs)   bands (ev):

   -12.5293 -12.0088 -11.1423 -10.0174  -9.3783  -8.3873  -8.2834  -8.0723
    -8.0599  -7.5724  -7.5517  -6.8556  -6.8510  -6.6507  -5.9626  -5.6511
    -5.2329  -5.1875  -5.1179  -4.8733  -4.2650  -4.0868  -4.0866  -2.8774
    -2.6613  -2.4784  -2.4526  -1.8075  -1.7760  -1.4161  -0.8791  -0.8252
    -0.6925  -0.6147  -0.3145  -0.1138  -0.1019   0.7288   0.7956   0.8225
     0.9611   1.3770   1.4326   2.1771   2.6364   2.6400   2.7189   3.1846
     3.6669   3.9424  10.8239  10.9105  11.3401  11.4099  11.5905  11.5990
    12.5699  12.5964  13.2230  13.2717

          k = 0.3993-0.1009 0.0000 ( 24696 PWs)   bands (ev):

   -12.3548 -11.8548 -11.0161  -9.9293  -9.5688  -9.2278  -8.9571  -8.3845
    -8.1483  -7.8153  -7.2074  -6.7576  -6.4030  -6.3459  -6.0118  -5.8698
    -5.4787  -5.1871  -4.7769  -4.2075  -3.9471  -3.5250  -3.4365  -3.0300
    -2.9284  -2.6710  -2.4328  -1.8750  -1.7920  -1.3077  -0.8298  -0.5590
    -0.3422  -0.2711  -0.2056   0.1579   0.1742   0.6650   0.7219   0.9149
     0.9888   1.2222   1.4273   1.5317   2.0467   2.1224   2.5489   2.8254
     2.9644   3.1643  10.5970  11.0582  11.2150  11.4395  11.7740  12.2050
    12.2591  12.5466  13.0516  13.2919

          k = 0.3993-0.2018 0.0000 ( 24655 PWs)   bands (ev):

   -11.8571 -11.4841 -10.9269 -10.5631 -10.0531  -9.5645  -9.0295  -8.6746
    -8.2228  -7.9057  -7.7794  -7.7532  -6.0090  -5.9583  -5.7547  -5.4237
    -5.1934  -5.0559  -4.8053  -4.2133  -3.5531  -2.8991  -2.7214  -2.4621
    -2.3549  -2.0979  -2.0028  -1.8143  -1.4989  -1.3150  -0.9142  -0.6390
    -0.5239  -0.1541   0.1125   0.2321   0.3825   0.4492   0.8129   0.8406
     0.9833   1.0173   1.1207   1.2853   1.4660   1.5011   1.6960   1.9177
     2.1124   2.2173  10.5483  10.9804  11.1650  11.4010  11.9822  12.1926
    12.3041  12.4824  12.5461  12.8442

          k =-0.4991 0.0000 0.0000 ( 24782 PWs)   bands (ev):

   -11.0214 -10.9773 -10.6465 -10.4591 -10.1504  -8.8714  -8.5564  -7.0942
    -6.6796  -6.6615  -6.6565  -6.6515  -6.4105  -6.2789  -6.2772  -6.2399
    -6.2216  -5.9191  -5.8944  -5.4952  -4.9896  -4.9895  -4.4564  -3.8615
    -2.2853  -2.0683  -2.0157  -1.9146  -1.8820  -1.2481  -1.2410  -1.1395
    -0.9785  -0.8827  -0.7513  -0.3168  -0.3000   0.5216   0.5776   0.6275
     0.8116   0.9609   1.3832   2.4105   2.5608   3.0776   3.0843   3.1794
     3.3085   3.3327  11.1065  11.1615  11.3658  11.4156  11.9292  11.9331
    12.4866  12.5643  12.6006  12.6021

          k =-0.4991-0.1009 0.0000 ( 24712 PWs)   bands (ev):

   -10.8532 -10.8039 -10.5000 -10.2974 -10.0068  -8.8170  -8.5294  -8.1275
    -8.0787  -7.6995  -7.5895  -7.4068  -6.7200  -6.1936  -5.5004  -5.4947
    -5.2546  -5.1233  -5.0027  -4.9050  -4.8273  -4.7500  -4.2445  -3.8186
    -2.4541  -2.4099  -2.1387  -1.8010  -1.6786  -1.0968  -1.0423  -0.7367
    -0.6589  -0.6414  -0.5529  -0.0899  -0.0521   0.4686   0.5754   0.6979
     0.8247   1.1368   1.4024   2.1363   2.2483   2.3232   2.4130   2.4253
     2.5528   2.6384  10.7795  11.2344  11.4167  11.8081  11.9684  12.1397
    12.4178  12.6201  12.8885  13.0269

          k =-0.4991-0.2018 0.0000 ( 24638 PWs)   bands (ev):

   -10.3849 -10.3001 -10.1497  -9.8709  -9.6910  -9.3336  -9.1968  -8.9358
    -8.6516  -8.4551  -8.3788  -8.2241  -6.3752  -6.2743  -5.8871  -5.6123
    -5.3360  -4.9046  -4.7382  -4.1650  -4.0016  -3.7488  -3.5924  -3.4035
    -1.9297  -1.5142  -1.4664  -1.4257  -1.3388  -1.0822  -1.0545  -0.6095
    -0.5809  -0.3259   0.1430   0.2746   0.4451   0.5705   0.6407   0.7161
     0.7235   0.7986   0.9839   1.0117   1.0881   1.1878   1.4540   1.5026
     1.7257   1.7859  11.1130  11.1833  11.5662  11.7759  11.8161  12.1420
    12.2302  12.6780  12.7867  12.9540

     the Fermi energy is     6.7993 ev

!    total energy              =    -447.08253100 Ry
     estimated scf accuracy    <          5.5E-13 Ry
     smearing contrib. (-TS)   =       0.00000000 Ry
     internal energy E=F+TS    =    -447.08253100 Ry

     The total energy is F=E-TS. E is the sum of the following terms:
     one-electron contribution =   -3183.67983591 Ry
     hartree contribution      =    1641.54344797 Ry
     xc contribution           =    -115.11550716 Ry
     ewald contribution        =    1358.08527038 Ry
     one-center paw contrib.   =    -147.91590628 Ry

     convergence has been achieved in   7 iterations

     negative rho (up, down):  5.028E-06 0.000E+00

     Forces acting on atoms (cartesian axes, Ry/au):

     atom    1 type  1   force =     0.00000000    0.00005181   -0.00003671
     atom    2 type  1   force =    -0.00000000    0.00001989    0.00001633
     atom    3 type  1   force =     0.00000000   -0.00003398   -0.00002282
     atom    4 type  1   force =     0.00000000   -0.00002120   -0.00001852
     atom    5 type  1   force =     0.00000000   -0.00001215   -0.00001707
     atom    6 type  1   force =     0.00000000   -0.00001344   -0.00000285
     atom    7 type  1   force =     0.00000000   -0.00001078    0.00000046
     atom    8 type  1   force =     0.00000000   -0.00000317   -0.00000323
     atom    9 type  1   force =     0.00000000   -0.00000068    0.00001585
     atom   10 type  1   force =     0.00000000    0.00000524    0.00000685
     atom   11 type  1   force =     0.00000000    0.00004959    0.00001579
     atom   12 type  1   force =     0.00000000    0.00002258   -0.00004776
     atom   13 type  1   force =     0.00000000   -0.00002258    0.00004776
     atom   14 type  1   force =     0.00000000   -0.00004959   -0.00001579
     atom   15 type  1   force =     0.00000000   -0.00000524   -0.00000685
     atom   16 type  1   force =     0.00000000    0.00000068   -0.00001585
     atom   17 type  1   force =     0.00000000    0.00000317    0.00000323
     atom   18 type  1   force =     0.00000000    0.00001078   -0.00000046
     atom   19 type  1   force =     0.00000000    0.00001344    0.00000285
     atom   20 type  1   force =    -0.00000000    0.00001215    0.00001707
     atom   21 type  1   force =    -0.00000000    0.00002120    0.00001852
     atom   22 type  1   force =     0.00000000    0.00003398    0.00002282
     atom   23 type  1   force =    -0.00000000   -0.00001989   -0.00001633
     atom   24 type  1   force =     0.00000000   -0.00005181    0.00003671
     atom   25 type  2   force =     0.00000000    0.00001259   -0.00000633
     atom   26 type  2   force =     0.00000000    0.00000520    0.00003164
     atom   27 type  2   force =     0.00000000   -0.00000520   -0.00003164
     atom   28 type  2   force =     0.00000000   -0.00001259    0.00000633

     Total force =     0.000173     Total SCF correction =     0.000002


     Computing stress (Cartesian axis) and pressure


     negative rho (up, down):  5.028E-06 0.000E+00
          total   stress  (Ry/bohr**3)                   (kbar)     P=       -0.06
   0.00000001   0.00000000   0.00000000            0.00        0.00        0.00
   0.00000000   0.00000007  -0.00000012            0.00        0.01       -0.02
   0.00000000  -0.00000012  -0.00000124            0.00       -0.02       -0.18

     Energy error            =      9.5E-08 Ry
     Gradient error          =      5.2E-05 Ry/Bohr
     Cell gradient error     =      1.0E-02 kbar
     Message from routine volume:
     axis vectors are left-handed

     bfgs converged in  20 scf cycles and  19 bfgs steps
     (criteria: energy <  1.0E-05 Ry, force <  1.0E-04 Ry/Bohr, cell <  1.0E-01 kbar)

     End of BFGS Geometry Optimization

     Final enthalpy           =    -447.0825310010 Ry

     File /tmp/qe/slab.bfgs deleted, as requested
Begin final coordinates
     new unit-cell volume =   1698.09741 a.u.^3 (   251.63207 Ang^3 )
     density =      1.92888 g/cm^3

CELL_PARAMETERS (angstrom)
   2.530905599   0.000000000   0.000000000
   0.000000000  -5.006473122   0.000000000
   0.000000000   0.000000000  19.859035940

ATOMIC_POSITIONS (crystal)
C                0.0000000000        0.1616590475        0.7439628508
C                0.5000000000        0.2327755472        0.7030687319
C                0.5000000000       -0.0004845230        0.6530234325
C               -0.0000000000       -0.0004066405        0.6099877480
C               -0.0000000000        0.2530747254        0.5677605786
C                0.5000000000        0.2529500865        0.5229458265
C                0.5000000000        0.0029993632        0.4778625311
C               -0.0000000000        0.0031783055        0.4327539964
C                0.0000000000        0.2498834820        0.3846702783
C                0.5000000000        0.2498739202        0.3378470918
C                0.5000000000       -0.0169545771        0.2968199142
C                0.0000000000       -0.0883038425        0.2559622902
C                0.0000000000        0.8383038425        0.7440377098
C                0.5000000000        0.7669545771        0.7031800858
C                0.5000000000        0.5001260798        0.6621529082
C                0.0000000000        0.5001165180        0.6153297217
C               -0.0000000000        0.7468216945        0.5672460036
C                0.5000000000        0.7470006368        0.5221374689
C                0.5000000000        0.4970499135        0.4770541735
C               -0.0000000000        0.4969252746        0.4322394214
C               -0.0000000000        0.7504066405        0.3900122520
C                0.5000000000        0.7504845230        0.3469765675
C                0.5000000000        0.5172244528        0.2969312681
C               -0.0000000000        0.5883409525        0.2560371492
H                0.0000000000        0.2479650340        0.7948875364
H                0.0000000000        0.7523876699        0.7950024412
H               -0.0000000000       -0.0023876699        0.2049975588
H                0.0000000000        0.5020349660        0.2051124636
End final coordinates



     Writing config-only to output data dir /tmp/qe/slab.save/ :
     XML data file

     Final scf calculation at the relaxed structure.
     The G-vectors are recalculated for the final unit cell
     Results may differ from those at the preceding step.

     Parallelization info
     --------------------
     sticks:   dense  smooth     PW     G-vecs:    dense   smooth      PW
     Min         325     161     46                69283    24485    3794
     Max         326     162     47                69296    24510    3807
     Sum        2605    1293    373               554321   195919   30417

     Using Slab Decomposition



     bravais-lattice index     =            0
     lattice parameter (alat)  =       4.7740  a.u.
     unit-cell volume          =    1698.0974 (a.u.)^3
     number of atoms/cell      =           28
     number of atomic types    =            2
     number of electrons       =       100.00
     number of Kohn-Sham states=           60
     kinetic-energy cutoff     =      90.0000  Ry
     charge density cutoff     =     720.0000  Ry
     scf convergence threshold =      1.0E-11
     mixing beta               =       0.3000
     number of iterations used =            8  plain     mixing
     press convergence thresh. =      1.0E-01
     Exchange-correlation= PBE
                           (   1   4   3   4   0   0   0)

     celldm(1)=   4.773978  celldm(2)=   0.000000  celldm(3)=   0.000000
     celldm(4)=   0.000000  celldm(5)=   0.000000  celldm(6)=   0.000000

     crystal axes: (cart. coord. in units of alat)
               a(1) = (   1.001831   0.000000   0.000000 )  
               a(2) = (   0.000000  -1.981757   0.000000 )  
               a(3) = (   0.000000   0.000000   7.860979 )  

     reciprocal axes: (cart. coord. in units 2 pi/alat)
               b(1) = (  0.998173 -0.000000 -0.000000 )  
               b(2) = ( -0.000000 -0.504603 -0.000000 )  
               b(3) = ( -0.000000 -0.000000  0.127211 )  


     PseudoPot. # 1 for C  read from file:
     ./C.pbe-n-kjpaw_psl.1.0.0.UPF
     MD5 check sum: 5d2aebdfa2cae82b50a7e79e9516da0f
     Pseudo is Projector augmented-wave + core cor, Zval =  4.0
     Generated using "atomic" code by A. Dal Corso  v.5.1
     Shape of augmentation charge: PSQ
     Using radial grid of 1073 points,  4 beta functions with: 
                l(1) =   0
                l(2) =   0
                l(3) =   1
                l(4) =   1
     Q(r) pseudized with 0 coefficients 


     PseudoPot. # 2 for H  read from file:
     ./H_ONCV_PBE-1.0.oncvpsp.upf
     MD5 check sum: 1790becc920ee074925cf490c71280fe
     Pseudo is Norm-conserving, Zval =  1.0
     Generated using ONCVPSP code by D. R. Hamann
     Using radial grid of 1166 points,  2 beta functions with: 
                l(1) =   0
                l(2) =   0

     atomic species   valence    mass     pseudopotential
     C                 4.00    12.01100     C ( 1.00)
     H                 1.00     1.00800     H ( 1.00)

      4 Sym. Ops., with inversion, found ( 2 have fractional translation)



   Cartesian axes

     site n.     atom                  positions (alat units)
         1        C      tau(   1) = (   0.0000000  -0.3203689   5.8482760  )
         2        C      tau(   2) = (   0.5009154  -0.4613045   5.5268082  )
         3        C      tau(   3) = (   0.5009154   0.0009602   5.1334032  )
         4        C      tau(   4) = (  -0.0000000   0.0008059   4.7951006  )
         5        C      tau(   5) = (  -0.0000000  -0.5015325   4.4631537  )
         6        C      tau(   6) = (   0.5009154  -0.5012855   4.1108659  )
         7        C      tau(   7) = (   0.5009154  -0.0059440   3.7564671  )
         8        C      tau(   8) = (  -0.0000000  -0.0062986   3.4018699  )
         9        C      tau(   9) = (   0.0000000  -0.4952083   3.0238848  )
        10        C      tau(  10) = (   0.5009154  -0.4951893   2.6558087  )
        11        C      tau(  11) = (   0.5009154   0.0335998   2.3332950  )
        12        C      tau(  12) = (   0.0000000   0.1749967   2.0121141  )
        13        C      tau(  13) = (   0.0000000  -1.6613143   5.8488644  )
        14        C      tau(  14) = (   0.5009154  -1.5199174   5.5276835  )
        15        C      tau(  15) = (   0.5009154  -0.9911282   5.2051698  )
        16        C      tau(  16) = (   0.0000000  -0.9911093   4.8370937  )
        17        C      tau(  17) = (  -0.0000000  -1.4800189   4.4591086  )
        18        C      tau(  18) = (   0.5009154  -1.4803735   4.1045114  )
        19        C      tau(  19) = (   0.5009154  -0.9850320   3.7501126  )
        20        C      tau(  20) = (  -0.0000000  -0.9847850   3.3978248  )
        21        C      tau(  21) = (  -0.0000000  -1.4871234   3.0658779  )
        22        C      tau(  22) = (   0.5009154  -1.4872777   2.7275753  )
        23        C      tau(  23) = (   0.5009154  -1.0250130   2.3341703  )
        24        C      tau(  24) = (  -0.0000000  -1.1659486   2.0127025  )
        25        H      tau(  25) = (   0.0000000  -0.4914064   6.2485938  )
        26        H      tau(  26) = (   0.0000000  -1.4910493   6.2494971  )
        27        H      tau(  27) = (  -0.0000000   0.0047318   1.6114814  )
        28        H      tau(  28) = (   0.0000000  -0.9949112   1.6123847  )

     number of k points=    18  Marzari-Vanderbilt smearing, width (Ry)=  0.0100
                       cart. coord. in units 2pi/alat
        k(    1) = (   0.0000000  -0.0000000   0.0000000), wk =   0.0400000
        k(    2) = (   0.0000000  -0.1009206   0.0000000), wk =   0.0800000
        k(    3) = (   0.0000000  -0.2018411   0.0000000), wk =   0.0800000
        k(    4) = (   0.0998173  -0.0000000   0.0000000), wk =   0.0800000
        k(    5) = (   0.0998173  -0.1009206   0.0000000), wk =   0.1600000
        k(    6) = (   0.0998173  -0.2018411   0.0000000), wk =   0.1600000
        k(    7) = (   0.1996345  -0.0000000   0.0000000), wk =   0.0800000
        k(    8) = (   0.1996345  -0.1009206   0.0000000), wk =   0.1600000
        k(    9) = (   0.1996345  -0.2018411   0.0000000), wk =   0.1600000
        k(   10) = (   0.2994518  -0.0000000   0.0000000), wk =   0.0800000
        k(   11) = (   0.2994518  -0.1009206   0.0000000), wk =   0.1600000
        k(   12) = (   0.2994518  -0.2018411   0.0000000), wk =   0.1600000
        k(   13) = (   0.3992690  -0.0000000   0.0000000), wk =   0.0800000
        k(   14) = (   0.3992690  -0.1009206   0.0000000), wk =   0.1600000
        k(   15) = (   0.3992690  -0.2018411   0.0000000), wk =   0.1600000
        k(   16) = (  -0.4990863   0.0000000   0.0000000), wk =   0.0400000
        k(   17) = (  -0.4990863  -0.1009206   0.0000000), wk =   0.0800000
        k(   18) = (  -0.4990863  -0.2018411   0.0000000), wk =   0.0800000

     Dense  grid:   554321 G-vectors     FFT dimensions: (  45,  96, 324)

     Smooth grid:   195919 G-vectors     FFT dimensions: (  30,  60, 240)

     Estimated max dynamical RAM per process >     228.86 MB

     Estimated total dynamical RAM >       1.79 GB

     Initial potential from superposition of free atoms

     starting charge      99.9990, renormalised to     100.0000
     Starting wfcs are  100 randomized atomic wfcs
     Checking if some PAW data can be deallocated... 

     total cpu time spent up to now is     1398.2 secs

     Self-consistent Calculation

     iteration #  1     ecut=    90.00 Ry     beta= 0.30
     Davidson diagonalization with overlap
     c_bands:  1 eigenvalues not converged
     c_bands:  2 eigenvalues not converged
     c_bands:  4 eigenvalues not converged
     c_bands:  1 eigenvalues not converged
     c_bands:  4 eigenvalues not converged
     c_bands:  1 eigenvalues not converged
     c_bands:  4 eigenvalues not converged
     c_bands:  4 eigenvalues not converged
     c_bands:  3 eigenvalues not converged
     c_bands:  1 eigenvalues not converged
     c_bands:  5 eigenvalues not converged
     c_bands:  1 eigenvalues not converged
     c_bands:  4 eigenvalues not converged
     c_bands:  4 eigenvalues not converged
     c_bands:  2 eigenvalues not converged
     ethr =  1.00E-06,  avg # of iterations = 24.7

     negative rho (up, down):  2.107E-07 0.000E+00

     total cpu time spent up to now is     1417.8 secs

     total energy              =    -447.21456492 Ry
     estimated scf accuracy    <       2.00556076 Ry

     iteration #  2     ecut=    90.00 Ry     beta= 0.30
     Davidson diagonalization with overlap
     ethr =  2.01E-03,  avg # of iterations =  2.6

     negative rho (up, down):  2.879E-06 0.000E+00

     total cpu time spent up to now is     1422.3 secs

     total energy              =    -447.04842559 Ry
     estimated scf accuracy    <       0.62769049 Ry

     iteration #  3     ecut=    90.00 Ry     beta= 0.30
     Davidson diagonalization with overlap
     ethr =  6.28E-04,  avg # of iterations =  6.7

     negative rho (up, down):  3.603E-06 0.000E+00

     total cpu time spent up to now is     1427.7 secs

     total energy              =    -447.07725971 Ry
     estimated scf accuracy    <       0.07074775 Ry

     iteration #  4     ecut=    90.00 Ry     beta= 0.30
     Davidson diagonalization with overlap
     ethr =  7.07E-05,  avg # of iterations =  6.6

     negative rho (up, down):  4.596E-06 0.000E+00

     total cpu time spent up to now is     1433.0 secs

     total energy              =    -447.08162522 Ry
     estimated scf accuracy    <       0.00758641 Ry

     iteration #  5     ecut=    90.00 Ry     beta= 0.30
     Davidson diagonalization with overlap
     c_bands:  1 eigenvalues not converged
     ethr =  7.59E-06,  avg # of iterations =  8.7

     negative rho (up, down):  5.208E-06 0.000E+00

     total cpu time spent up to now is     1439.3 secs

     total energy              =    -447.08234424 Ry
     estimated scf accuracy    <       0.00110466 Ry

     iteration #  6     ecut=    90.00 Ry     beta= 0.30
     Davidson diagonalization with overlap
     ethr =  1.10E-06,  avg # of iterations =  8.0

     negative rho (up, down):  5.274E-06 0.000E+00

     total cpu time spent up to now is     1445.5 secs

     total energy              =    -447.08244670 Ry
     estimated scf accuracy    <       0.00030842 Ry

     iteration #  7     ecut=    90.00 Ry     beta= 0.30
     Davidson diagonalization with overlap
     ethr =  3.08E-07,  avg # of iterations =  4.4

     negative rho (up, down):  5.507E-06 0.000E+00

     total cpu time spent up to now is     1450.9 secs

     total energy              =    -447.08248898 Ry
     estimated scf accuracy    <       0.00011470 Ry

     iteration #  8     ecut=    90.00 Ry     beta= 0.30
     Davidson diagonalization with overlap
     ethr =  1.15E-07,  avg # of iterations =  2.5

     negative rho (up, down):  5.487E-06 0.000E+00

     total cpu time spent up to now is     1455.7 secs

     total energy              =    -447.08251555 Ry
     estimated scf accuracy    <       0.00000599 Ry

     iteration #  9     ecut=    90.00 Ry     beta= 0.30
     Davidson diagonalization with overlap
     ethr =  5.99E-09,  avg # of iterations =  3.0

     negative rho (up, down):  5.535E-06 0.000E+00

     total cpu time spent up to now is     1460.9 secs

     total energy              =    -447.08251740 Ry
     estimated scf accuracy    <       0.00000133 Ry

     iteration # 10     ecut=    90.00 Ry     beta= 0.30
     Davidson diagonalization with overlap
     ethr =  1.33E-09,  avg # of iterations =  2.2

     negative rho (up, down):  5.566E-06 0.000E+00

     total cpu time spent up to now is     1465.3 secs

     total energy              =    -447.08251745 Ry
     estimated scf accuracy    <       0.00000034 Ry

     iteration # 11     ecut=    90.00 Ry     beta= 0.30
     Davidson diagonalization with overlap
     ethr =  3.39E-10,  avg # of iterations =  2.4

     negative rho (up, down):  5.587E-06 0.000E+00

     total cpu time spent up to now is     1470.4 secs

     total energy              =    -447.08251755 Ry
     estimated scf accuracy    <       0.00000004 Ry

     iteration # 12     ecut=    90.00 Ry     beta= 0.30
     Davidson diagonalization with overlap
     ethr =  4.25E-11,  avg # of iterations =  2.6

     negative rho (up, down):  5.608E-06 0.000E+00

     total cpu time spent up to now is     1475.3 secs

     total energy              =    -447.08251756 Ry
     estimated scf accuracy    <          4.2E-09 Ry

     iteration # 13     ecut=    90.00 Ry     beta= 0.30
     Davidson diagonalization with overlap
     ethr =  4.18E-12,  avg # of iterations =  3.8

     negative rho (up, down):  5.623E-06 0.000E+00

     total cpu time spent up to now is     1481.4 secs

     total energy              =    -447.08251756 Ry
     estimated scf accuracy    <          2.1E-09 Ry

     iteration # 14     ecut=    90.00 Ry     beta= 0.30
     Davidson diagonalization with overlap
     ethr =  2.10E-12,  avg # of iterations =  2.4

     negative rho (up, down):  5.634E-06 0.000E+00

     total cpu time spent up to now is     1486.5 secs

     total energy              =    -447.08251756 Ry
     estimated scf accuracy    <          2.9E-10 Ry

     iteration # 15     ecut=    90.00 Ry     beta= 0.30
     Davidson diagonalization with overlap
     ethr =  2.90E-13,  avg # of iterations =  2.1

     negative rho (up, down):  5.642E-06 0.000E+00

     total cpu time spent up to now is     1491.8 secs

     total energy              =    -447.08251756 Ry
     estimated scf accuracy    <          2.4E-11 Ry

     iteration # 16     ecut=    90.00 Ry     beta= 0.30
     Davidson diagonalization with overlap
     ethr =  1.00E-13,  avg # of iterations =  1.4

     negative rho (up, down):  5.661E-06 0.000E+00

     total cpu time spent up to now is     1495.8 secs

     End of self-consistent calculation

          k = 0.0000-0.0000 0.0000 ( 24443 PWs)   bands (ev):

   -15.3996 -14.8497 -13.9060 -12.5401 -10.8989 -10.8074 -10.7414 -10.2287
   -10.1339  -9.3972  -9.3775  -8.6527  -6.7700  -6.6793  -6.5061  -5.1741
    -5.1713  -4.3643  -3.3951  -3.3903  -2.1204  -1.3548  -1.3495  -0.3179
     0.0396   0.1094   0.1841   0.5881   0.6412   0.8338   1.0838   1.8061
     2.2035   2.3198   2.3614   2.5786   2.9651   2.9707   3.0157   3.0938
     3.0954   3.1361   3.7109   3.7279   3.7279   3.8080   4.0464   5.1504
     5.2414   5.3460   8.2533   8.7485  10.2544  10.2836  10.3549  10.6962
    11.0715  11.2018  11.3109  11.5282

          k = 0.0000-0.1009 0.0000 ( 24469 PWs)   bands (ev):

   -15.2204 -14.6918 -13.7802 -12.5252 -12.2993 -11.6233 -10.9070 -10.2884
    -9.4586  -9.0013  -8.8175  -8.4027  -6.5962  -6.3353  -6.1704  -5.0604
    -4.8138  -4.2488  -3.4411  -3.0790  -2.1814  -1.3329  -1.1411  -0.7890
    -0.2151  -0.1721   0.0182   0.3025   0.6795   0.8015   1.1651   1.4470
     1.5922   2.0399   2.3267   2.3829   2.5217   2.5311   2.9972   3.0273
     3.0866   3.4814   3.6195   3.6530   3.7330   4.0197   4.2094   4.7681
     4.9329   5.2293   8.4773   8.9658  10.5061  10.7904  10.8178  11.2430
    11.2834  11.4361  11.5689  11.7379

          k = 0.0000-0.2018 0.0000 ( 24512 PWs)   bands (ev):

   -14.7091 -14.3146 -13.7316 -13.3446 -12.7835 -12.1799 -11.4770 -10.5823
    -9.7086  -8.8356  -7.9708  -7.6605  -6.0295  -5.5172  -5.3500  -4.7334
    -4.2278  -3.9881  -3.2421  -2.7759  -2.5616  -2.0721  -1.9128  -1.1404
    -0.7709  -0.4841  -0.0596   0.2272   0.5528   0.8892   1.0942   1.1847
     1.3601   1.4595   1.9082   1.9559   2.3474   2.4454   2.7783   2.9407
     3.0333   3.3390   3.4351   3.6485   3.9122   4.0983   4.2548   4.3881
     4.7261   5.1242   9.1191   9.5501  10.1649  10.4853  11.0000  11.1628
    11.2598  11.4075  11.7679  12.0440

          k = 0.0998-0.0000 0.0000 ( 24473 PWs)   bands (ev):

   -15.2168 -14.6680 -13.7264 -12.3646 -10.7269 -10.6338 -10.5707 -10.0596
    -9.9663  -9.2321  -9.2129  -8.4949  -6.6407  -6.5217  -6.4054  -5.0361
    -5.0341  -4.3042  -3.2943  -3.2891  -2.2579  -1.3289  -1.3074  -1.0702
    -0.9506   0.0215   0.1815   0.1844   0.6125   0.6606   0.9173   1.4355
     1.7984   1.9861   2.0965   2.1729   2.2652   2.3115   2.5069   2.5973
     2.7805   2.8066   3.0482   3.1014   3.2817   3.7125   3.7434   4.7100
     5.0185   5.1131   8.4366   8.9232  10.8032  10.9263  10.9884  11.2171
    11.6119  11.6991  11.7335  11.8479

          k = 0.0998-0.1009 0.0000 ( 24471 PWs)   bands (ev):

   -15.0379 -14.5102 -13.6008 -12.3487 -12.1228 -11.4492 -10.7375 -10.1229
    -9.2973  -8.8333  -8.6554  -8.2444  -6.4906  -6.1807  -6.0512  -4.9330
    -4.6835  -4.1728  -3.3645  -2.9541  -2.2519  -1.2979  -1.1483  -0.9701
    -0.8412  -0.6576  -0.0680   0.0184   0.2334   0.6662   0.7868   1.1596
     1.3581   1.5297   1.5914   1.7231   2.1789   2.3817   2.5169   2.6425
     2.7454   3.0405   3.0997   3.2604   3.3856   3.6863   3.7511   4.1256
     4.8326   5.0142   8.6608   9.1371  10.8885  11.3854  11.4394  11.7094
    11.7453  11.8050  12.0258  12.0704

          k = 0.0998-0.2018 0.0000 ( 24493 PWs)   bands (ev):

   -14.5274 -14.1337 -13.5518 -13.1655 -12.6061 -12.0052 -11.3057 -10.4156
    -9.5471  -8.6792  -7.8167  -7.4997  -5.9478  -5.4107  -5.2195  -4.6211
    -4.1219  -3.8426  -3.1196  -2.6610  -2.4526  -1.9798  -1.8067  -1.2411
    -0.8705  -0.6614  -0.3847  -0.3407  -0.1620   0.3006   0.4700   0.8119
     1.0640   1.1559   1.4619   1.4824   1.8306   1.9377   2.4129   2.5508
     2.6834   2.9783   3.2135   3.3510   3.7197   3.7379   3.8646   4.0674
     4.4094   4.5330   9.3024   9.7108  10.3364  10.6189  11.0564  11.3272
    11.9143  12.1390  12.3837  12.4012

          k = 0.1996-0.0000 0.0000 ( 24465 PWs)   bands (ev):

   -14.6707 -14.1251 -13.1908 -11.8437 -10.2185 -10.1159 -10.0640  -9.5562
    -9.4687  -8.7404  -8.7227  -8.0440  -6.5023  -6.0717  -6.0601  -4.6683
    -4.6681  -4.4557  -3.3604  -3.0737  -3.0664  -2.6118  -2.5680  -1.3911
    -1.1824  -1.0985  -0.8699   0.0415   0.1043   0.2796   0.4919   0.5224
     0.6185   0.9579   1.0511   1.0889   1.1978   1.3445   1.4047   1.8403
     1.9183   2.2424   2.2813   2.5594   2.7276   2.8857   3.7994   3.9981
     4.0923   4.9528   8.9591   9.3370  11.3816  11.6322  11.8331  11.9218
    12.1737  12.2054  12.4652  12.6775

          k = 0.1996-0.1009 0.0000 ( 24436 PWs)   bands (ev):

   -14.4925 -13.9681 -13.0657 -11.8235 -11.5965 -10.9308 -10.2361  -9.6355
    -8.8213  -8.3326  -8.1748  -7.7904  -6.3697  -5.7492  -5.7149  -4.6581
    -4.4426  -4.1166  -3.3314  -3.1004  -2.6222  -2.5038  -2.4418  -1.4750
    -1.2214  -1.1271  -0.9095  -0.4090  -0.2469  -0.0628  -0.0108   0.3066
     0.6000   0.6900   0.9753   1.0211   1.0681   1.5347   1.5832   1.7710
     2.0154   2.0890   2.2878   2.3737   2.7394   2.8748   3.2460   3.7153
     4.2245   4.5476   9.1711   9.5422  11.2081  11.6531  11.7398  11.8147
    11.9928  12.1997  12.8393  12.8997

          k = 0.1996-0.2018 0.0000 ( 24469 PWs)   bands (ev):

   -13.9845 -13.5934 -13.0149 -12.6310 -12.0771 -11.4855 -10.7979  -9.9236
    -9.0755  -8.2267  -7.3764  -7.0248  -5.8801  -5.2389  -4.9120  -4.3804
    -3.9618  -3.4439  -3.0226  -2.5551  -2.4211  -2.3557  -2.2464  -1.7790
    -1.7102  -1.6249  -1.4758  -0.9723  -0.8116  -0.4261  -0.4123  -0.1979
    -0.1036   0.3278   0.6990   0.9631   1.2102   1.3697   1.5638   1.7296
     2.0715   2.2361   2.3744   2.5435   2.7032   3.0490   3.1435   3.3864
     3.8746   3.8975   9.7611  10.0938  10.5982  10.7762  10.9099  11.2403
    11.6672  12.2401  12.3939  12.7351

          k = 0.2995-0.0000 0.0000 ( 24496 PWs)   bands (ev):

   -13.7688 -13.2303 -12.3128 -11.0039  -9.4340  -9.2637  -9.2411  -8.7341
    -8.6668  -7.9386  -7.9213  -7.5169  -7.2401  -5.7521  -5.4722  -5.3854
    -5.0667  -4.3495  -4.3423  -3.7843  -3.6069  -3.2413  -3.2348  -2.4224
    -2.1246  -1.5287  -1.4428  -1.3500  -1.3267  -0.8699  -0.8626  -0.3990
    -0.3282   0.1000   0.1184   0.5836   0.5870   1.1555   1.2204   1.2650
     1.4972   1.6089   1.9450   2.0013   2.0833   2.9030   3.2072   3.2425
     3.8234   4.5796   9.7870  10.0231  11.6542  11.6777  12.0295  12.1407
    12.3768  12.3804  12.4588  12.5570

          k = 0.2995-0.1009 0.0000 ( 24486 PWs)   bands (ev):

   -13.5922 -13.0747 -12.1882 -10.9708 -10.7331 -10.0844  -9.4450  -8.8823
    -8.0868  -7.5221  -7.4406  -7.2214  -7.0494  -5.6309  -5.4013  -5.2048
    -4.9366  -4.4339  -3.9013  -3.5995  -3.4909  -3.2511  -2.5998  -2.4376
    -2.3020  -2.1596  -1.8649  -1.3725  -1.2179  -0.7390  -0.4880  -0.3186
    -0.1412   0.1313   0.3518   0.4398   0.7751   0.8545   0.9401   1.1238
     1.4126   1.5078   1.6350   1.8287   2.2035   2.4718   2.5976   3.2833
     3.6131   3.8591   9.9786  10.2015  11.0181  11.6202  11.7357  12.0572
    12.3569  12.4342  12.4798  13.1129

          k = 0.2995-0.2018 0.0000 ( 24478 PWs)   bands (ev):

   -13.0882 -12.7024 -12.1309 -11.7523 -11.2106 -10.6404  -9.9813  -9.1494
    -8.3755  -7.6135  -6.9313  -6.6549  -6.1829  -5.6704  -5.2627  -4.8499
    -4.4272  -3.9227  -3.4386  -3.3113  -2.9966  -2.9311  -2.7946  -2.4347
    -2.1338  -1.8904  -1.7998  -1.5552  -1.4324  -0.9924  -0.8034  -0.6134
    -0.5853  -0.2901   0.0517   0.3609   0.5248   0.7040   0.9900   1.1977
     1.4894   1.5839   1.7125   1.8194   2.0412   2.1506   2.5383   2.6413
     3.0089   3.0171  10.2993  10.3912  10.6359  11.0661  11.1609  11.6449
    11.9258  12.4412  12.7029  12.9806

          k = 0.3993-0.0000 0.0000 ( 24494 PWs)   bands (ev):

   -12.5292 -12.0087 -11.1423 -10.0174  -9.3783  -8.3873  -8.2834  -8.0723
    -8.0599  -7.5723  -7.5517  -6.8556  -6.8510  -6.6507  -5.9626  -5.6511
    -5.2329  -5.1875  -5.1179  -4.8733  -4.2649  -4.0868  -4.0866  -2.8774
    -2.6613  -2.4784  -2.4526  -1.8075  -1.7760  -1.4161  -0.8791  -0.8252
    -0.6925  -0.6147  -0.3145  -0.1138  -0.1019   0.7289   0.7956   0.8225
     0.9611   1.3770   1.4326   2.1771   2.6364   2.6400   2.7189   3.1846
     3.6669   3.9424  10.8242  10.9106  11.3401  11.4100  11.5905  11.5990
    12.5699  12.5964  13.2235  13.2519

          k = 0.3993-0.1009 0.0000 ( 24512 PWs)   bands (ev):

   -12.3548 -11.8548 -11.0161  -9.9293  -9.5688  -9.2277  -8.9571  -8.3845
    -8.1483  -7.8153  -7.2074  -6.7576  -6.4030  -6.3459  -6.0117  -5.8698
    -5.4787  -5.1871  -4.7769  -4.2075  -3.9471  -3.5250  -3.4365  -3.0300
    -2.9284  -2.6710  -2.4328  -1.8750  -1.7920  -1.3077  -0.8298  -0.5590
    -0.3422  -0.2711  -0.2056   0.1579   0.1742   0.6650   0.7219   0.9149
     0.9888   1.2222   1.4273   1.5317   2.0467   2.1224   2.5489   2.8254
     2.9644   3.1643  10.5970  11.0584  11.2152  11.4396  11.7740  12.2051
    12.2591  12.5466  13.0517  13.2949

          k = 0.3993-0.2018 0.0000 ( 24474 PWs)   bands (ev):

   -11.8571 -11.4841 -10.9269 -10.5631 -10.0531  -9.5645  -9.0294  -8.6746
    -8.2228  -7.9057  -7.7794  -7.7532  -6.0090  -5.9583  -5.7547  -5.4237
    -5.1934  -5.0559  -4.8053  -4.2133  -3.5531  -2.8991  -2.7214  -2.4621
    -2.3549  -2.0979  -2.0028  -1.8143  -1.4989  -1.3150  -0.9141  -0.6390
    -0.5238  -0.1541   0.1125   0.2321   0.3825   0.4493   0.8129   0.8406
     0.9833   1.0173   1.1207   1.2853   1.4660   1.5011   1.6960   1.9177
     2.1124   2.2173  10.5483  10.9805  11.1651  11.4010  11.9824  12.1927
    12.3041  12.4824  12.5461  12.8443

          k =-0.4991 0.0000 0.0000 ( 24538 PWs)   bands (ev):

   -11.0214 -10.9773 -10.6465 -10.4591 -10.1504  -8.8714  -8.5564  -7.0942
    -6.6796  -6.6615  -6.6565  -6.6515  -6.4105  -6.2789  -6.2772  -6.2399
    -6.2216  -5.9191  -5.8944  -5.4952  -4.9896  -4.9894  -4.4564  -3.8615
    -2.2853  -2.0683  -2.0157  -1.9146  -1.8820  -1.2481  -1.2410  -1.1395
    -0.9785  -0.8827  -0.7513  -0.3168  -0.3000   0.5216   0.5776   0.6275
     0.8116   0.9609   1.3832   2.4106   2.5608   3.0776   3.0843   3.1794
     3.3085   3.3327  11.1065  11.1615  11.3658  11.4156  11.9292  11.9332
    12.4868  12.5644  12.6006  12.6021

          k =-0.4991-0.1009 0.0000 ( 24538 PWs)   bands (ev):

   -10.8532 -10.8039 -10.5000 -10.2973 -10.0068  -8.8170  -8.5294  -8.1275
    -8.0787  -7.6995  -7.5895  -7.4068  -6.7200  -6.1936  -5.5004  -5.4947
    -5.2546  -5.1233  -5.0027  -4.9050  -4.8273  -4.7500  -4.2445  -3.8186
    -2.4541  -2.4099  -2.1387  -1.8010  -1.6786  -1.0968  -1.0423  -0.7367
    -0.6589  -0.6414  -0.5529  -0.0899  -0.0521   0.4686   0.5754   0.6979
     0.8247   1.1368   1.4024   2.1363   2.2483   2.3232   2.4130   2.4253
     2.5528   2.6384  10.7795  11.2344  11.4167  11.8081  11.9684  12.1397
    12.4179  12.6202  12.8886  13.0271

          k =-0.4991-0.2018 0.0000 ( 24468 PWs)   bands (ev):

   -10.3849 -10.3001 -10.1497  -9.8709  -9.6910  -9.3336  -9.1968  -8.9357
    -8.6516  -8.4551  -8.3788  -8.2241  -6.3752  -6.2743  -5.8871  -5.6123
    -5.3360  -4.9046  -4.7382  -4.1650  -4.0016  -3.7488  -3.5924  -3.4035
    -1.9297  -1.5142  -1.4664  -1.4257  -1.3388  -1.0822  -1.0545  -0.6095
    -0.5809  -0.3259   0.1430   0.2746   0.4451   0.5705   0.6407   0.7161
     0.7235   0.7986   0.9839   1.0117   1.0881   1.1878   1.4540   1.5026
     1.7257   1.7859  11.1130  11.1833  11.5662  11.7759  11.8161  12.1420
    12.2302  12.6780  12.7587  12.7868

     the Fermi energy is     6.8015 ev

!    total energy              =    -447.08251756 Ry
     estimated scf accuracy    <          7.7E-12 Ry
     smearing contrib. (-TS)   =       0.00000000 Ry
     internal energy E=F+TS    =    -447.08251756 Ry

     The total energy is F=E-TS. E is the sum of the following terms:
     one-electron contribution =   -3183.67989301 Ry
     hartree contribution      =    1641.54351977 Ry
     xc contribution           =    -115.11550430 Ry
     ewald contribution        =    1358.08527038 Ry
     one-center paw contrib.   =    -147.91591040 Ry

     convergence has been achieved in  16 iterations

     negative rho (up, down):  5.661E-06 0.000E+00

     Forces acting on atoms (cartesian axes, Ry/au):

     atom    1 type  1   force =    -0.00000000    0.00005349   -0.00003629
     atom    2 type  1   force =     0.00000000    0.00002086    0.00001652
     atom    3 type  1   force =     0.00000000   -0.00003400   -0.00002301
     atom    4 type  1   force =    -0.00000000   -0.00002097   -0.00001792
     atom    5 type  1   force =     0.00000000   -0.00001303   -0.00001665
     atom    6 type  1   force =    -0.00000000   -0.00001390   -0.00000227
     atom    7 type  1   force =     0.00000000   -0.00001161    0.00000083
     atom    8 type  1   force =    -0.00000000   -0.00000419   -0.00000362
     atom    9 type  1   force =     0.00000000   -0.00000098    0.00001576
     atom   10 type  1   force =    -0.00000000    0.00000516    0.00000708
     atom   11 type  1   force =     0.00000000    0.00005053    0.00001587
     atom   12 type  1   force =    -0.00000000    0.00002337   -0.00004789
     atom   13 type  1   force =     0.00000000   -0.00002337    0.00004789
     atom   14 type  1   force =     0.00000000   -0.00005053   -0.00001587
     atom   15 type  1   force =    -0.00000000   -0.00000516   -0.00000708
     atom   16 type  1   force =     0.00000000    0.00000098   -0.00001576
     atom   17 type  1   force =    -0.00000000    0.00000419    0.00000362
     atom   18 type  1   force =     0.00000000    0.00001161   -0.00000083
     atom   19 type  1   force =    -0.00000000    0.00001390    0.00000227
     atom   20 type  1   force =     0.00000000    0.00001303    0.00001665
     atom   21 type  1   force =    -0.00000000    0.00002097    0.00001792
     atom   22 type  1   force =     0.00000000    0.00003400    0.00002301
     atom   23 type  1   force =     0.00000000   -0.00002086   -0.00001652
     atom   24 type  1   force =     0.00000000   -0.00005349    0.00003629
     atom   25 type  2   force =     0.00000000    0.00001232   -0.00000600
     atom   26 type  2   force =     0.00000000    0.00000547    0.00003197
     atom   27 type  2   force =     0.00000000   -0.00000547   -0.00003197
     atom   28 type  2   force =     0.00000000   -0.00001232    0.00000600

     Total force =     0.000175     Total SCF correction =     0.000005


     Computing stress (Cartesian axis) and pressure


     negative rho (up, down):  5.661E-06 0.000E+00
          total   stress  (Ry/bohr**3)                   (kbar)     P=       -0.06
   0.00000001   0.00000000   0.00000000            0.00        0.00        0.00
   0.00000000   0.00000002  -0.00000012            0.00        0.00       -0.02
   0.00000000  -0.00000012  -0.00000125            0.00       -0.02       -0.18


     Writing all to output data dir /tmp/qe/slab.save/ :
     XML data file, charge density, pseudopotentials, collected wavefunctions

     init_run     :      5.99s CPU      6.36s WALL (       2 calls)
     electrons    :   1097.23s CPU   1110.40s WALL (      21 calls)
     update_pot   :      4.56s CPU      4.64s WALL (      19 calls)
     forces       :     19.11s CPU     19.57s WALL (      21 calls)
     stress       :    364.87s CPU    366.35s WALL (      21 calls)

     Called by init_run:
     wfcinit      :      5.03s CPU      5.24s WALL (       2 calls)
     potinit      :      0.46s CPU      0.49s WALL (       2 calls)
     hinit0       :      0.15s CPU      0.21s WALL (       2 calls)

     Called by electrons:
     c_bands      :    876.68s CPU    883.71s WALL (     215 calls)
     sum_band     :    164.05s CPU    167.26s WALL (     215 calls)
     v_of_rho     :     19.61s CPU     19.99s WALL (     224 calls)
     newd         :     11.80s CPU     13.53s WALL (     224 calls)
     PAW_pot      :     29.68s CPU     29.79s WALL (     243 calls)
     mix_rho      :      1.64s CPU      1.70s WALL (     215 calls)

     Called by c_bands:
     init_us_2    :     26.84s CPU     27.07s WALL (    8874 calls)
     cegterg      :    834.96s CPU    841.56s WALL (    3875 calls)

     Called by *egterg:
     cdiaghg      :     42.74s CPU     43.08s WALL (   14882 calls)
     h_psi        :    602.11s CPU    607.56s WALL (   15481 calls)
     s_psi        :     51.39s CPU     51.59s WALL (   15481 calls)
     g_psi        :      3.98s CPU      4.00s WALL (   11570 calls)

     Called by h_psi:
     h_psi:calbec :     49.10s CPU     49.42s WALL (   15481 calls)
     vloc_psi     :    495.82s CPU    500.66s WALL (   15481 calls)
     add_vuspsi   :     53.11s CPU     53.32s WALL (   15481 calls)

     General routines
     calbec       :     77.25s CPU     77.72s WALL (   21583 calls)
     fft          :      9.87s CPU     10.39s WALL (    3426 calls)
     ffts         :      0.28s CPU      0.32s WALL (     439 calls)
     fftw         :    431.01s CPU    434.74s WALL ( 1442126 calls)
     interpolate  :      0.71s CPU      0.78s WALL (     224 calls)

     Parallel routines

     PWSCF        :  24m58.55s CPU  25m14.57s WALL


   This run was terminated on:  14:46:38   2Aug2026            

=------------------------------------------------------------------------------=
   JOB DONE.
=------------------------------------------------------------------------------=
Note: The following floating-point exceptions are signalling: IEEE_UNDERFLOW_FLAG IEEE_DENORMAL
Note: The following floating-point exceptions are signalling: IEEE_UNDERFLOW_FLAG IEEE_DENORMAL
Note: The following floating-point exceptions are signalling: IEEE_UNDERFLOW_FLAG IEEE_DENORMAL
Note: The following floating-point exceptions are signalling: IEEE_UNDERFLOW_FLAG IEEE_DENORMAL
Note: The following floating-point exceptions are signalling: IEEE_UNDERFLOW_FLAG IEEE_DENORMAL
Note: The following floating-point exceptions are signalling: IEEE_UNDERFLOW_FLAG IEEE_DENORMAL
Note: The following floating-point exceptions are signalling: IEEE_UNDERFLOW_FLAG IEEE_DENORMAL
Note: The following floating-point exceptions are signalling: IEEE_UNDERFLOW_FLAG IEEE_DENORMAL
