
     Program PWSCF v.7.3.1 starts on  1Aug2026 at 12:41:25 

     This program is part of the open-source Quantum ESPRESSO suite
     for quantum simulation of materials; please cite
         "P. Giannozzi et al., J. Phys.:Condens. Matter 21 395502 (2009);
         "P. Giannozzi et al., J. Phys.:Condens. Matter 29 465901 (2017);
         "P. Giannozzi et al., J. Chem. Phys. 152 154105 (2020);
          URL http://www.quantum-espresso.org", 
     in publications or presentations arising from this work. More details at
     http://www.quantum-espresso.org/quote

     Parallel version (MPI), running on     8 processors

     MPI processes distributed on     1 nodes
     186710 MiB available memory on the printing compute node when the environment starts

     Reading input from pw.in

     Current dimensions of program PWSCF are:
     Max number of different atomic species (ntypx) = 10
     Max number of k-points (npk) =  40000
     Max angular momentum in pseudopotentials (lmaxx) =  4
     file C.pbe-n-kjpaw_psl.1.0.0.UPF: wavefunction(s)  2S 2P renormalized
     Message from routine setup:
     using ibrav=0 with symmetry is DISCOURAGED, use correct ibrav instead

     R & G space division:  proc/nbgrp/npool/nimage =       8
     Subspace diagonalization in iterative solution of the eigenvalue problem:
     a serial algorithm will be used


     Parallelization info
     --------------------
     sticks:   dense  smooth     PW     G-vecs:    dense   smooth      PW
     Min         141      69     20                22561     7947    1292
     Max         142      70     21                22584     7978    1319
     Sum        1135     559    163               180617    63763   10419

     Using Slab Decomposition



     bravais-lattice index     =            0
     lattice parameter (alat)  =       4.7752  a.u.
     unit-cell volume          =     553.1394 (a.u.)^3
     number of atoms/cell      =            8
     number of atomic types    =            2
     number of electrons       =        26.00
     number of Kohn-Sham states=           17
     kinetic-energy cutoff     =      90.0000  Ry
     charge density cutoff     =     720.0000  Ry
     scf convergence threshold =      1.0E-08
     mixing beta               =       0.3000
     number of iterations used =            8  plain     mixing
     Exchange-correlation= PBE
                           (   1   4   3   4   0   0   0)

     celldm(1)=   4.775235  celldm(2)=   0.000000  celldm(3)=   0.000000
     celldm(4)=   0.000000  celldm(5)=   0.000000  celldm(6)=   0.000000

     crystal axes: (cart. coord. in units of alat)
               a(1) = (   1.000000   0.000000   0.000000 )  
               a(2) = (   0.500000   0.866025   0.000000 )  
               a(3) = (   0.000000   0.000000   5.865696 )  

     reciprocal axes: (cart. coord. in units 2 pi/alat)
               b(1) = (  1.000000 -0.577350  0.000000 )  
               b(2) = (  0.000000  1.154701  0.000000 )  
               b(3) = (  0.000000  0.000000  0.170483 )  


     PseudoPot. # 1 for C  read from file:
     ./C.pbe-n-kjpaw_psl.1.0.0.UPF
     MD5 check sum: 5d2aebdfa2cae82b50a7e79e9516da0f
     Pseudo is Projector augmented-wave + core cor, Zval =  4.0
     Generated using "atomic" code by A. Dal Corso  v.5.1
     Shape of augmentation charge: PSQ
     Using radial grid of 1073 points,  4 beta functions with: 
                l(1) =   0
                l(2) =   0
                l(3) =   1
                l(4) =   1
     Q(r) pseudized with 0 coefficients 


     PseudoPot. # 2 for H  read from file:
     ./H_ONCV_PBE-1.0.oncvpsp.upf
     MD5 check sum: 1790becc920ee074925cf490c71280fe
     Pseudo is Norm-conserving, Zval =  1.0
     Generated using ONCVPSP code by D. R. Hamann
     Using radial grid of 1166 points,  2 beta functions with: 
                l(1) =   0
                l(2) =   0

     atomic species   valence    mass     pseudopotential
     C                 4.00    12.01100     C ( 1.00)
     H                 1.00     1.00800     H ( 1.00)

     12 Sym. Ops., with inversion, found ( 6 have fractional translation)



   Cartesian axes

     site n.     atom                  positions (alat units)
         1        C      tau(   1) = (   0.5000000   0.2886751   3.8425963  )
         2        C      tau(   2) = (   1.0000000   0.5773503   3.6495395  )
         3        C      tau(   3) = (   1.0000000   0.5773503   3.0344995  )
         4        C      tau(   4) = (  -0.0000000   0.0000000   2.8311966  )
         5        C      tau(   5) = (   0.0000000   0.0000000   2.2161565  )
         6        C      tau(   6) = (   0.5000000   0.2886751   2.0230997  )
         7        H      tau(   7) = (   0.5000000   0.2886751   4.2814431  )
         8        H      tau(   8) = (   0.5000000   0.2886751   1.5842529  )

     number of k points=     7  Marzari-Vanderbilt smearing, width (Ry)=  0.0100
                       cart. coord. in units 2pi/alat
        k(    1) = (   0.0000000   0.0000000   0.0000000), wk =   0.0555556
        k(    2) = (   0.0000000   0.1924501   0.0000000), wk =   0.3333333
        k(    3) = (   0.0000000   0.3849002   0.0000000), wk =   0.3333333
        k(    4) = (   0.0000000  -0.5773503   0.0000000), wk =   0.1666667
        k(    5) = (   0.1666667   0.2886751   0.0000000), wk =   0.3333333
        k(    6) = (   0.1666667  -0.6735753   0.0000000), wk =   0.6666667
        k(    7) = (   0.3333333  -0.5773503   0.0000000), wk =   0.1111111

     Dense  grid:   180617 G-vectors     FFT dimensions: (  45,  45, 240)

     Smooth grid:    63763 G-vectors     FFT dimensions: (  30,  30, 180)

     Estimated max dynamical RAM per process >      38.73 MB

     Estimated total dynamical RAM >     309.86 MB

     Initial potential from superposition of free atoms

     starting charge      25.9997, renormalised to      26.0000
     Starting wfcs are   26 randomized atomic wfcs
     Checking if some PAW data can be deallocated... 

     total cpu time spent up to now is        0.4 secs

     Self-consistent Calculation

     iteration #  1     ecut=    90.00 Ry     beta= 0.30
     Davidson diagonalization with overlap
     ethr =  1.00E-02,  avg # of iterations =  2.9

     total cpu time spent up to now is        0.7 secs

     total energy              =    -113.01708005 Ry
     estimated scf accuracy    <       0.60714548 Ry

     iteration #  2     ecut=    90.00 Ry     beta= 0.30
     Davidson diagonalization with overlap
     ethr =  2.34E-03,  avg # of iterations =  3.0

     negative rho (up, down):  8.826E-08 0.000E+00

     total cpu time spent up to now is        1.0 secs

     total energy              =    -112.97838815 Ry
     estimated scf accuracy    <       0.18566988 Ry

     iteration #  3     ecut=    90.00 Ry     beta= 0.30
     Davidson diagonalization with overlap
     ethr =  7.14E-04,  avg # of iterations =  4.3

     negative rho (up, down):  4.762E-08 0.000E+00

     total cpu time spent up to now is        1.2 secs

     total energy              =    -112.98417337 Ry
     estimated scf accuracy    <       0.02665340 Ry

     iteration #  4     ecut=    90.00 Ry     beta= 0.30
     Davidson diagonalization with overlap
     ethr =  1.03E-04,  avg # of iterations =  5.4

     negative rho (up, down):  2.178E-08 0.000E+00

     total cpu time spent up to now is        1.5 secs

     total energy              =    -112.98529184 Ry
     estimated scf accuracy    <       0.00319368 Ry

     iteration #  5     ecut=    90.00 Ry     beta= 0.30
     Davidson diagonalization with overlap
     ethr =  1.23E-05,  avg # of iterations =  5.7

     negative rho (up, down):  1.069E-08 0.000E+00

     total cpu time spent up to now is        1.8 secs

     total energy              =    -112.98569538 Ry
     estimated scf accuracy    <       0.00023924 Ry

     iteration #  6     ecut=    90.00 Ry     beta= 0.30
     Davidson diagonalization with overlap
     ethr =  9.20E-07,  avg # of iterations =  4.3

     total cpu time spent up to now is        2.0 secs

     total energy              =    -112.98573017 Ry
     estimated scf accuracy    <       0.00007763 Ry

     iteration #  7     ecut=    90.00 Ry     beta= 0.30
     Davidson diagonalization with overlap
     ethr =  2.99E-07,  avg # of iterations =  2.0

     total cpu time spent up to now is        2.3 secs

     total energy              =    -112.98574508 Ry
     estimated scf accuracy    <       0.00002266 Ry

     iteration #  8     ecut=    90.00 Ry     beta= 0.30
     Davidson diagonalization with overlap
     ethr =  8.72E-08,  avg # of iterations =  2.0

     total cpu time spent up to now is        2.5 secs

     total energy              =    -112.98574893 Ry
     estimated scf accuracy    <       0.00000135 Ry

     iteration #  9     ecut=    90.00 Ry     beta= 0.30
     Davidson diagonalization with overlap
     ethr =  5.20E-09,  avg # of iterations =  3.0

     total cpu time spent up to now is        2.8 secs

     total energy              =    -112.98574913 Ry
     estimated scf accuracy    <       0.00000030 Ry

     iteration # 10     ecut=    90.00 Ry     beta= 0.30
     Davidson diagonalization with overlap
     ethr =  1.15E-09,  avg # of iterations =  2.1

     total cpu time spent up to now is        3.1 secs

     total energy              =    -112.98574912 Ry
     estimated scf accuracy    <       0.00000020 Ry

     iteration # 11     ecut=    90.00 Ry     beta= 0.30
     Davidson diagonalization with overlap
     ethr =  7.58E-10,  avg # of iterations =  2.0

     total cpu time spent up to now is        3.3 secs

     total energy              =    -112.98574916 Ry
     estimated scf accuracy    <       0.00000001 Ry

     iteration # 12     ecut=    90.00 Ry     beta= 0.30
     Davidson diagonalization with overlap
     ethr =  4.45E-11,  avg # of iterations =  2.3

     total cpu time spent up to now is        3.6 secs

     End of self-consistent calculation

          k = 0.0000 0.0000 0.0000 (  7951 PWs)   bands (ev):

   -16.8980 -15.4104 -13.1791  -8.3559  -5.2771  -1.3833   1.5224   1.5224
     2.1035   2.3795   2.3795   3.4651   3.4651   6.4020   6.6363   9.2038
    10.3630

          k = 0.0000 0.1925 0.0000 (  7973 PWs)   bands (ev):

   -16.2229 -14.7495 -12.5469  -7.7603  -4.7855  -1.4209  -0.9743  -0.2762
     0.3245   0.9976   1.3301   2.0116   2.5614   6.9695   7.3486   9.2617
    10.3420

          k = 0.0000 0.3849 0.0000 (  7984 PWs)   bands (ev):

   -14.2357 -12.8163 -10.7226  -6.8303  -5.7700  -4.5129  -3.8725  -2.6463
    -1.2632  -0.8464  -0.1794   1.0930   1.1444   8.5270   8.9155   9.6283
    10.4407

          k = 0.0000-0.5774 0.0000 (  7980 PWs)   bands (ev):

   -11.5198 -10.9801  -9.7608  -8.7973  -7.6162  -7.0985  -3.3373  -2.9075
    -1.8740  -1.5069  -0.7733   0.4757   0.5714   9.1166   9.4421  10.3638
    11.0743

          k = 0.1667 0.2887 0.0000 (  7955 PWs)   bands (ev):

   -14.8902 -13.4491 -11.3100  -6.7760  -4.2312  -3.6989  -2.9963  -2.3732
    -1.3860  -0.6371  -0.2698  -0.2673   1.7783   8.2743   8.5582  10.7063
    10.7894

          k = 0.1667-0.6736 0.0000 (  7985 PWs)   bands (ev):

   -12.3437 -11.0381  -9.2603  -7.9027  -7.1629  -5.5140  -3.9754  -3.5715
    -2.6882  -2.2444  -1.5076  -0.7090   0.4483   9.7983  10.5357  11.3148
    12.3695

          k = 0.3333-0.5774 0.0000 (  8007 PWs)   bands (ev):

    -9.8859  -9.8859  -8.7776  -8.4737  -7.0481  -7.0481  -4.9285  -4.6308
    -4.6308  -1.8895  -1.3077  -1.3077  -1.0005  10.7677  10.7677  11.4196
    13.1196

     the Fermi energy is     4.2493 ev

!    total energy              =    -112.98574916 Ry
     estimated scf accuracy    <          9.0E-09 Ry
     smearing contrib. (-TS)   =       0.00000000 Ry
     internal energy E=F+TS    =    -112.98574916 Ry

     The total energy is F=E-TS. E is the sum of the following terms:
     one-electron contribution =    -588.52843714 Ry
     hartree contribution      =     305.25968914 Ry
     xc contribution           =     -29.50981608 Ry
     ewald contribution        =     236.77085212 Ry
     one-center paw contrib.   =     -36.97803718 Ry

     convergence has been achieved in  12 iterations

     Forces acting on atoms (cartesian axes, Ry/au):

     atom    1 type  1   force =    -0.00000000   -0.00000000   -0.00043319
     atom    2 type  1   force =    -0.00000000   -0.00000000    0.00025737
     atom    3 type  1   force =    -0.00000000   -0.00000000   -0.00029541
     atom    4 type  1   force =    -0.00000000    0.00000000    0.00029541
     atom    5 type  1   force =    -0.00000000   -0.00000000   -0.00025737
     atom    6 type  1   force =     0.00000000    0.00000000    0.00043319
     atom    7 type  2   force =     0.00000000    0.00000000   -0.00000376
     atom    8 type  2   force =     0.00000000    0.00000000    0.00000376

     Total force =     0.000826     Total SCF correction =     0.000099
     SCF correction compared to forces is large: reduce conv_thr to get better values


     Computing stress (Cartesian axis) and pressure

          total   stress  (Ry/bohr**3)                   (kbar)     P=        3.81
   0.00004156   0.00000000   0.00000000            6.11        0.00        0.00
   0.00000000   0.00004156   0.00000000            0.00        6.11        0.00
   0.00000000   0.00000000  -0.00000542            0.00        0.00       -0.80


     Writing all to output data dir /tmp/qe/slab.save/ :
     XML data file, charge density, pseudopotentials, collected wavefunctions

     init_run     :      0.25s CPU      0.32s WALL (       1 calls)
     electrons    :      3.07s CPU      3.18s WALL (       1 calls)
     forces       :      0.08s CPU      0.09s WALL (       1 calls)
     stress       :      0.35s CPU      0.35s WALL (       1 calls)

     Called by init_run:
     wfcinit      :      0.08s CPU      0.09s WALL (       1 calls)
     potinit      :      0.07s CPU      0.08s WALL (       1 calls)
     hinit0       :      0.05s CPU      0.09s WALL (       1 calls)

     Called by electrons:
     c_bands      :      1.56s CPU      1.61s WALL (      12 calls)
     sum_band     :      0.57s CPU      0.59s WALL (      12 calls)
     v_of_rho     :      0.36s CPU      0.39s WALL (      13 calls)
     newd         :      0.19s CPU      0.20s WALL (      13 calls)
     PAW_pot      :      0.40s CPU      0.41s WALL (      13 calls)
     mix_rho      :      0.03s CPU      0.03s WALL (      12 calls)

     Called by c_bands:
     init_us_2    :      0.05s CPU      0.05s WALL (     189 calls)
     cegterg      :      1.48s CPU      1.53s WALL (      84 calls)

     Called by *egterg:
     cdiaghg      :      0.10s CPU      0.12s WALL (     357 calls)
     h_psi        :      1.27s CPU      1.29s WALL (     364 calls)
     s_psi        :      0.03s CPU      0.03s WALL (     364 calls)
     g_psi        :      0.01s CPU      0.01s WALL (     273 calls)

     Called by h_psi:
     h_psi:calbec :      0.05s CPU      0.05s WALL (     364 calls)
     vloc_psi     :      1.18s CPU      1.20s WALL (     364 calls)
     add_vuspsi   :      0.04s CPU      0.04s WALL (     364 calls)

     General routines
     calbec       :      0.07s CPU      0.08s WALL (     483 calls)
     fft          :      0.16s CPU      0.22s WALL (     192 calls)
     ffts         :      0.01s CPU      0.01s WALL (      25 calls)
     fftw         :      1.08s CPU      1.10s WALL (    9122 calls)
     interpolate  :      0.01s CPU      0.02s WALL (      13 calls)

     Parallel routines

     PWSCF        :      3.84s CPU      4.05s WALL


   This run was terminated on:  12:41:29   1Aug2026            

=------------------------------------------------------------------------------=
   JOB DONE.
=------------------------------------------------------------------------------=
Note: The following floating-point exceptions are signalling: IEEE_UNDERFLOW_FLAG IEEE_DENORMAL
Note: The following floating-point exceptions are signalling: IEEE_UNDERFLOW_FLAG IEEE_DENORMAL
Note: The following floating-point exceptions are signalling: IEEE_UNDERFLOW_FLAG IEEE_DENORMAL
Note: The following floating-point exceptions are signalling: IEEE_UNDERFLOW_FLAG IEEE_DENORMAL
Note: The following floating-point exceptions are signalling: IEEE_UNDERFLOW_FLAG IEEE_DENORMAL
Note: The following floating-point exceptions are signalling: IEEE_UNDERFLOW_FLAG IEEE_DENORMAL
Note: The following floating-point exceptions are signalling: IEEE_UNDERFLOW_FLAG IEEE_DENORMAL
Note: The following floating-point exceptions are signalling: IEEE_UNDERFLOW_FLAG IEEE_DENORMAL
