
     Program PWSCF v.7.3.1 starts on  1Aug2026 at 18:41:49 

     This program is part of the open-source Quantum ESPRESSO suite
     for quantum simulation of materials; please cite
         "P. Giannozzi et al., J. Phys.:Condens. Matter 21 395502 (2009);
         "P. Giannozzi et al., J. Phys.:Condens. Matter 29 465901 (2017);
         "P. Giannozzi et al., J. Chem. Phys. 152 154105 (2020);
          URL http://www.quantum-espresso.org", 
     in publications or presentations arising from this work. More details at
     http://www.quantum-espresso.org/quote

     Parallel version (MPI), running on     8 processors

     MPI processes distributed on     1 nodes
     183945 MiB available memory on the printing compute node when the environment starts

     Reading input from pw.in

     Current dimensions of program PWSCF are:
     Max number of different atomic species (ntypx) = 10
     Max number of k-points (npk) =  40000
     Max angular momentum in pseudopotentials (lmaxx) =  4
     file C.pbe-n-kjpaw_psl.1.0.0.UPF: wavefunction(s)  2S 2P renormalized
     Message from routine setup:
     using ibrav=0 with symmetry is DISCOURAGED, use correct ibrav instead

     R & G space division:  proc/nbgrp/npool/nimage =       8
     Subspace diagonalization in iterative solution of the eigenvalue problem:
     a serial algorithm will be used


     Parallelization info
     --------------------
     sticks:   dense  smooth     PW     G-vecs:    dense   smooth      PW
     Min         141      69     20                28831    10153    1648
     Max         142      70     21                28860    10188    1681
     Sum        1135     559    163               230819    81439   13277

     Using Slab Decomposition



     bravais-lattice index     =            0
     lattice parameter (alat)  =       4.7752  a.u.
     unit-cell volume          =     707.1318 (a.u.)^3
     number of atoms/cell      =           12
     number of atomic types    =            2
     number of electrons       =        42.00
     number of Kohn-Sham states=           25
     kinetic-energy cutoff     =      90.0000  Ry
     charge density cutoff     =     720.0000  Ry
     scf convergence threshold =      1.0E-08
     mixing beta               =       0.3000
     number of iterations used =            8  plain     mixing
     Exchange-correlation= PBE
                           (   1   4   3   4   0   0   0)

     celldm(1)=   4.775235  celldm(2)=   0.000000  celldm(3)=   0.000000
     celldm(4)=   0.000000  celldm(5)=   0.000000  celldm(6)=   0.000000

     crystal axes: (cart. coord. in units of alat)
               a(1) = (   1.000000   0.000000   0.000000 )  
               a(2) = (   0.500000   0.866025   0.000000 )  
               a(3) = (   0.000000   0.000000   7.498689 )  

     reciprocal axes: (cart. coord. in units 2 pi/alat)
               b(1) = (  1.000000 -0.577350  0.000000 )  
               b(2) = (  0.000000  1.154701  0.000000 )  
               b(3) = (  0.000000  0.000000  0.133357 )  


     PseudoPot. # 1 for C  read from file:
     ./C.pbe-n-kjpaw_psl.1.0.0.UPF
     MD5 check sum: 5d2aebdfa2cae82b50a7e79e9516da0f
     Pseudo is Projector augmented-wave + core cor, Zval =  4.0
     Generated using "atomic" code by A. Dal Corso  v.5.1
     Shape of augmentation charge: PSQ
     Using radial grid of 1073 points,  4 beta functions with: 
                l(1) =   0
                l(2) =   0
                l(3) =   1
                l(4) =   1
     Q(r) pseudized with 0 coefficients 


     PseudoPot. # 2 for H  read from file:
     ./H_ONCV_PBE-1.0.oncvpsp.upf
     MD5 check sum: 1790becc920ee074925cf490c71280fe
     Pseudo is Norm-conserving, Zval =  1.0
     Generated using ONCVPSP code by D. R. Hamann
     Using radial grid of 1166 points,  2 beta functions with: 
                l(1) =   0
                l(2) =   0

     atomic species   valence    mass     pseudopotential
     C                 4.00    12.01100     C ( 1.00)
     H                 1.00     1.00800     H ( 1.00)

     12 Sym. Ops., with inversion, found ( 6 have fractional translation)



   Cartesian axes

     site n.     atom                  positions (alat units)
         1        C      tau(   1) = (   0.5000000   0.2886751   5.4754137  )
         2        C      tau(   2) = (   1.0000000   0.5773503   5.2823440  )
         3        C      tau(   3) = (   1.0000000   0.5773503   4.6673994  )
         4        C      tau(   4) = (   0.0000000   0.0000000   4.4637581  )
         5        C      tau(   5) = (  -0.0000000   0.0000000   3.8513104  )
         6        C      tau(   6) = (   0.5000000   0.2886751   3.6473788  )
         7        C      tau(   7) = (   0.5000000   0.2886751   3.0349311  )
         8        C      tau(   8) = (   1.0000000   0.5773503   2.8312898  )
         9        C      tau(   9) = (   1.0000000   0.5773503   2.2163452  )
        10        C      tau(  10) = (  -0.0000000  -0.0000000   2.0232755  )
        11        H      tau(  11) = (   0.5000000   0.2886751   5.9143149  )
        12        H      tau(  12) = (  -0.0000000  -0.0000000   1.5843743  )

     number of k points=    12  Marzari-Vanderbilt smearing, width (Ry)=  0.0100
                       cart. coord. in units 2pi/alat
        k(    1) = (   0.0000000   0.0000000   0.0000000), wk =   0.0246914
        k(    2) = (   0.0000000   0.1283001   0.0000000), wk =   0.1481481
        k(    3) = (   0.0000000   0.2566001   0.0000000), wk =   0.1481481
        k(    4) = (   0.0000000   0.3849002   0.0000000), wk =   0.1481481
        k(    5) = (   0.0000000   0.5132002   0.0000000), wk =   0.1481481
        k(    6) = (   0.1111111   0.1924501   0.0000000), wk =   0.1481481
        k(    7) = (   0.1111111   0.3207501   0.0000000), wk =   0.2962963
        k(    8) = (   0.1111111   0.4490502   0.0000000), wk =   0.2962963
        k(    9) = (   0.1111111  -0.5773503   0.0000000), wk =   0.1481481
        k(   10) = (   0.2222222   0.3849002   0.0000000), wk =   0.1481481
        k(   11) = (   0.2222222  -0.6415003   0.0000000), wk =   0.2962963
        k(   12) = (   0.3333333  -0.5773503   0.0000000), wk =   0.0493827

     Dense  grid:   230819 G-vectors     FFT dimensions: (  45,  45, 320)

     Smooth grid:    81439 G-vectors     FFT dimensions: (  30,  30, 225)

     Estimated max dynamical RAM per process >      58.97 MB

     Estimated total dynamical RAM >     471.75 MB

     Check: negative core charge=   -0.000001

     Initial potential from superposition of free atoms

     starting charge      41.9996, renormalised to      42.0000
     Starting wfcs are   42 randomized atomic wfcs
     Checking if some PAW data can be deallocated... 

     total cpu time spent up to now is        0.6 secs

     Self-consistent Calculation

     iteration #  1     ecut=    90.00 Ry     beta= 0.30
     Davidson diagonalization with overlap
     ethr =  1.00E-02,  avg # of iterations =  2.5

     total cpu time spent up to now is        1.4 secs

     total energy              =    -186.78303321 Ry
     estimated scf accuracy    <       0.82448310 Ry

     iteration #  2     ecut=    90.00 Ry     beta= 0.30
     Davidson diagonalization with overlap
     ethr =  1.96E-03,  avg # of iterations =  4.0

     negative rho (up, down):  1.396E-07 0.000E+00

     total cpu time spent up to now is        2.1 secs

     total energy              =    -186.70989224 Ry
     estimated scf accuracy    <       0.27901876 Ry

     iteration #  3     ecut=    90.00 Ry     beta= 0.30
     Davidson diagonalization with overlap
     ethr =  6.64E-04,  avg # of iterations =  4.1

     negative rho (up, down):  4.988E-08 0.000E+00

     total cpu time spent up to now is        2.7 secs

     total energy              =    -186.72035904 Ry
     estimated scf accuracy    <       0.03362224 Ry

     iteration #  4     ecut=    90.00 Ry     beta= 0.30
     Davidson diagonalization with overlap
     ethr =  8.01E-05,  avg # of iterations =  5.3

     negative rho (up, down):  2.359E-08 0.000E+00

     total cpu time spent up to now is        3.5 secs

     total energy              =    -186.72263351 Ry
     estimated scf accuracy    <       0.00398545 Ry

     iteration #  5     ecut=    90.00 Ry     beta= 0.30
     Davidson diagonalization with overlap
     ethr =  9.49E-06,  avg # of iterations =  5.6

     negative rho (up, down):  1.437E-08 0.000E+00

     total cpu time spent up to now is        4.3 secs

     total energy              =    -186.72310220 Ry
     estimated scf accuracy    <       0.00039519 Ry

     iteration #  6     ecut=    90.00 Ry     beta= 0.30
     Davidson diagonalization with overlap
     ethr =  9.41E-07,  avg # of iterations =  3.3

     negative rho (up, down):  1.064E-08 0.000E+00

     total cpu time spent up to now is        5.0 secs

     total energy              =    -186.72315817 Ry
     estimated scf accuracy    <       0.00008759 Ry

     iteration #  7     ecut=    90.00 Ry     beta= 0.30
     Davidson diagonalization with overlap
     ethr =  2.09E-07,  avg # of iterations =  2.5

     total cpu time spent up to now is        5.7 secs

     total energy              =    -186.72317105 Ry
     estimated scf accuracy    <       0.00000969 Ry

     iteration #  8     ecut=    90.00 Ry     beta= 0.30
     Davidson diagonalization with overlap
     ethr =  2.31E-08,  avg # of iterations =  2.7

     total cpu time spent up to now is        6.4 secs

     total energy              =    -186.72317239 Ry
     estimated scf accuracy    <       0.00000211 Ry

     iteration #  9     ecut=    90.00 Ry     beta= 0.30
     Davidson diagonalization with overlap
     ethr =  5.03E-09,  avg # of iterations =  3.1

     total cpu time spent up to now is        7.1 secs

     total energy              =    -186.72317296 Ry
     estimated scf accuracy    <       0.00000160 Ry

     iteration # 10     ecut=    90.00 Ry     beta= 0.30
     Davidson diagonalization with overlap
     ethr =  3.81E-09,  avg # of iterations =  2.0

     total cpu time spent up to now is        7.8 secs

     total energy              =    -186.72317317 Ry
     estimated scf accuracy    <       0.00000015 Ry

     iteration # 11     ecut=    90.00 Ry     beta= 0.30
     Davidson diagonalization with overlap
     ethr =  3.67E-10,  avg # of iterations =  2.8

     total cpu time spent up to now is        8.5 secs

     total energy              =    -186.72317320 Ry
     estimated scf accuracy    <       0.00000002 Ry

     iteration # 12     ecut=    90.00 Ry     beta= 0.30
     Davidson diagonalization with overlap
     ethr =  4.31E-11,  avg # of iterations =  3.2

     total cpu time spent up to now is        9.3 secs

     total energy              =    -186.72317320 Ry
     estimated scf accuracy    <       0.00000003 Ry

     iteration # 13     ecut=    90.00 Ry     beta= 0.30
     Davidson diagonalization with overlap
     ethr =  4.31E-11,  avg # of iterations =  2.2

     total cpu time spent up to now is        9.9 secs

     End of self-consistent calculation

          k = 0.0000 0.0000 0.0000 ( 10111 PWs)   bands (ev):

   -15.1923 -14.5505 -13.5077 -12.1101 -10.5525  -6.7184  -4.8790  -2.4319
     0.2511   2.8349   3.3416   3.3416   3.7366   3.7366   4.3427   4.3427
     4.9417   5.0775   5.0775   5.7270   5.7270   8.3396   8.8169  11.0174
    11.9773

          k = 0.0000 0.1283 0.0000 ( 10209 PWs)   bands (ev):

   -14.8906 -14.2509 -13.2123 -11.8216 -10.2750  -6.4471  -4.6315  -2.2277
     0.3776   1.9075   2.3322   2.7018   2.7706   3.1246   3.1467   3.7907
     3.8214   4.4562   4.6195   4.8601   5.3065   8.6044   9.0942  11.1159
    11.8870

          k = 0.0000 0.2566 0.0000 ( 10173 PWs)   bands (ev):

   -13.9915 -13.3589 -12.3338 -10.9655  -9.4530  -5.6897  -3.9621  -1.7855
    -0.9994  -0.6094   0.2048   0.7393   1.1823   1.5155   2.0043   2.0050
     2.7479   2.8305   3.6181   4.2518   4.3560   9.4550   9.8138  11.1262
    11.6898

          k = 0.0000 0.3849 0.0000 ( 10192 PWs)   bands (ev):

   -12.5189 -11.9014 -10.9063  -9.5885  -8.1489  -5.0888  -4.4053  -3.6327
    -3.0815  -2.3864  -1.7246  -1.0905  -0.2448   0.5151   0.9009   1.0233
     1.7963   2.3051   2.7004   3.4376   3.4643  10.3928  10.8397  11.1964
    11.7466

          k = 0.0000 0.5132 0.0000 ( 10202 PWs)   bands (ev):

   -10.5611 -10.0068  -9.1882  -8.3040  -7.3677  -6.6710  -6.1267  -5.7598
    -4.9143  -3.6785  -2.0850  -1.0544  -0.4283  -0.0287   0.2450   0.4864
     1.2706   1.7556   2.1876   2.8892   2.9617  10.6586  11.3282  11.5491
    12.2153

          k = 0.1111 0.1925 0.0000 ( 10205 PWs)   bands (ev):

   -14.2901 -13.6550 -12.6252 -11.2491  -9.7249  -5.9288  -4.1670  -1.8724
     0.2679   0.2977   0.7664   0.8531   1.4993   2.0102   2.0311   2.7055
     2.9288   3.1338   3.6233   3.8871   4.8316   9.1917   9.6227  11.6899
    12.1030

          k = 0.1111 0.3208 0.0000 ( 10172 PWs)   bands (ev):

   -13.1032 -12.4787 -11.4695 -10.1271  -8.6517  -5.0933  -3.5630  -2.5714
    -2.0383  -1.5025  -1.1825  -0.4706  -0.1392   0.4688   1.0188   1.1136
     1.3691   1.9523   2.6290   2.9566   4.0913  10.3488  10.5769  11.7478
    12.6253

          k = 0.1111 0.4491 0.0000 ( 10184 PWs)   bands (ev):

   -11.3745 -10.7760  -9.8221  -8.5847  -7.2749  -5.6785  -5.5236  -4.7152
    -3.6188  -2.6932  -2.3511  -1.4157  -0.7451  -0.3796  -0.0749   0.2356
     0.8193   1.2908   2.0679   2.2250   3.1535  11.1765  11.8147  12.2464
    12.8368

          k = 0.1111-0.5774 0.0000 ( 10192 PWs)   bands (ev):

    -9.4635  -9.3195  -8.9104  -8.2515  -7.3207  -6.8078  -6.1140  -5.7897
    -4.7781  -4.6275  -1.3741  -1.3021  -1.0656  -0.5558  -0.4251  -0.0060
     0.3106   1.3598   1.4059   2.2422   2.6109  11.3789  12.1622  12.7728
    12.7732

          k = 0.2222 0.3849 0.0000 ( 10171 PWs)   bands (ev):

   -11.6548 -11.0483 -10.0753  -8.7935  -7.3958  -5.0588  -4.2858  -3.7581
    -3.0829  -2.6114  -2.0702  -1.9855  -1.0767  -1.0020  -0.2722  -0.0570
     0.2644   0.6819   1.2341   2.2657   3.2233  11.5495  11.8075  12.6935
    12.9117

          k = 0.2222-0.6415 0.0000 ( 10219 PWs)   bands (ev):

    -9.7462  -9.2106  -8.4275  -7.5984  -6.6764  -6.2162  -5.7411  -5.2490
    -4.7073  -3.8986  -2.6631  -2.3254  -1.9378  -1.4917  -1.0817  -0.3408
    -0.0482   0.3709   1.0318   1.5869   2.1618  11.9441  12.6864  13.1378
    13.5613

          k = 0.3333-0.5774 0.0000 ( 10245 PWs)   bands (ev):

    -7.9611  -7.9611  -7.9188  -7.8466  -6.6303  -6.6303  -5.3256  -5.3256
    -5.2554  -4.7694  -3.1212  -3.1212  -2.4968  -2.3112  -2.3112   0.2971
     0.2971   0.3670   1.0248   1.0436   1.0436  12.6176  12.6176  12.9255
    13.7015

     the Fermi energy is     7.1583 ev

!    total energy              =    -186.72317320 Ry
     estimated scf accuracy    <          3.3E-10 Ry
     smearing contrib. (-TS)   =      -0.00000000 Ry
     internal energy E=F+TS    =    -186.72317320 Ry

     The total energy is F=E-TS. E is the sum of the following terms:
     one-electron contribution =   -1203.29733072 Ry
     hartree contribution      =     622.59394245 Ry
     xc contribution           =     -48.24255593 Ry
     ewald contribution        =     503.85243234 Ry
     one-center paw contrib.   =     -61.62966134 Ry

     convergence has been achieved in  13 iterations

     Forces acting on atoms (cartesian axes, Ry/au):

     atom    1 type  1   force =     0.00000000   -0.00000000    0.00002161
     atom    2 type  1   force =     0.00000000    0.00000000    0.00000389
     atom    3 type  1   force =     0.00000000    0.00000000    0.00000409
     atom    4 type  1   force =    -0.00000000   -0.00000000   -0.00000189
     atom    5 type  1   force =    -0.00000000   -0.00000000    0.00001331
     atom    6 type  1   force =     0.00000000    0.00000000   -0.00001331
     atom    7 type  1   force =     0.00000000   -0.00000000    0.00000189
     atom    8 type  1   force =     0.00000000    0.00000000   -0.00000409
     atom    9 type  1   force =     0.00000000    0.00000000   -0.00000389
     atom   10 type  1   force =    -0.00000000   -0.00000000   -0.00002161
     atom   11 type  2   force =     0.00000000   -0.00000000   -0.00000220
     atom   12 type  2   force =     0.00000000    0.00000000    0.00000220

     Total force =     0.000037     Total SCF correction =     0.000021
     SCF correction compared to forces is large: reduce conv_thr to get better values


     Computing stress (Cartesian axis) and pressure

          total   stress  (Ry/bohr**3)                   (kbar)     P=        2.38
   0.00002481   0.00000000   0.00000000            3.65        0.00        0.00
   0.00000000   0.00002481   0.00000000            0.00        3.65        0.00
   0.00000000   0.00000000  -0.00000107            0.00        0.00       -0.16


     Writing all to output data dir /tmp/qe/slab.save/ :
     XML data file, charge density, pseudopotentials, collected wavefunctions

     init_run     :      0.52s CPU      0.56s WALL (       1 calls)
     electrons    :      9.18s CPU      9.33s WALL (       1 calls)
     forces       :      0.15s CPU      0.15s WALL (       1 calls)
     stress       :      1.12s CPU      1.13s WALL (       1 calls)

     Called by init_run:
     wfcinit      :      0.29s CPU      0.31s WALL (       1 calls)
     potinit      :      0.11s CPU      0.12s WALL (       1 calls)
     hinit0       :      0.05s CPU      0.06s WALL (       1 calls)

     Called by electrons:
     c_bands      :      6.08s CPU      6.17s WALL (      13 calls)
     sum_band     :      1.44s CPU      1.48s WALL (      13 calls)
     v_of_rho     :      0.54s CPU      0.56s WALL (      14 calls)
     newd         :      0.28s CPU      0.29s WALL (      14 calls)
     PAW_pot      :      0.86s CPU      0.86s WALL (      14 calls)
     mix_rho      :      0.05s CPU      0.05s WALL (      13 calls)

     Called by c_bands:
     init_us_2    :      0.17s CPU      0.17s WALL (     348 calls)
     cegterg      :      5.80s CPU      5.88s WALL (     156 calls)

     Called by *egterg:
     cdiaghg      :      0.38s CPU      0.39s WALL (     677 calls)
     h_psi        :      4.77s CPU      4.84s WALL (     689 calls)
     s_psi        :      0.18s CPU      0.18s WALL (     689 calls)
     g_psi        :      0.03s CPU      0.03s WALL (     521 calls)

     Called by h_psi:
     h_psi:calbec :      0.22s CPU      0.22s WALL (     689 calls)
     vloc_psi     :      4.31s CPU      4.37s WALL (     689 calls)
     add_vuspsi   :      0.21s CPU      0.22s WALL (     689 calls)

     General routines
     calbec       :      0.33s CPU      0.34s WALL (     905 calls)
     fft          :      0.23s CPU      0.25s WALL (     205 calls)
     ffts         :      0.01s CPU      0.01s WALL (      27 calls)
     fftw         :      3.86s CPU      3.91s WALL (   25520 calls)
     interpolate  :      0.02s CPU      0.02s WALL (      14 calls)

     Parallel routines

     PWSCF        :     11.07s CPU     11.32s WALL


   This run was terminated on:  18:42: 0   1Aug2026            

=------------------------------------------------------------------------------=
   JOB DONE.
=------------------------------------------------------------------------------=
Note: The following floating-point exceptions are signalling: IEEE_UNDERFLOW_FLAG IEEE_DENORMAL
Note: The following floating-point exceptions are signalling: IEEE_UNDERFLOW_FLAG IEEE_DENORMAL
Note: The following floating-point exceptions are signalling: IEEE_UNDERFLOW_FLAG IEEE_DENORMAL
Note: The following floating-point exceptions are signalling: IEEE_UNDERFLOW_FLAG IEEE_DENORMAL
Note: The following floating-point exceptions are signalling: IEEE_UNDERFLOW_FLAG IEEE_DENORMAL
Note: The following floating-point exceptions are signalling: IEEE_UNDERFLOW_FLAG IEEE_DENORMAL
Note: The following floating-point exceptions are signalling: IEEE_UNDERFLOW_FLAG IEEE_DENORMAL
Note: The following floating-point exceptions are signalling: IEEE_UNDERFLOW_FLAG IEEE_DENORMAL
