
     Program PWSCF v.7.3.1 starts on  2Aug2026 at 15:14: 6 

     This program is part of the open-source Quantum ESPRESSO suite
     for quantum simulation of materials; please cite
         "P. Giannozzi et al., J. Phys.:Condens. Matter 21 395502 (2009);
         "P. Giannozzi et al., J. Phys.:Condens. Matter 29 465901 (2017);
         "P. Giannozzi et al., J. Chem. Phys. 152 154105 (2020);
          URL http://www.quantum-espresso.org", 
     in publications or presentations arising from this work. More details at
     http://www.quantum-espresso.org/quote

     Parallel version (MPI), running on     8 processors

     MPI processes distributed on     1 nodes
     181756 MiB available memory on the printing compute node when the environment starts

     Reading input from pw.in

     Current dimensions of program PWSCF are:
     Max number of different atomic species (ntypx) = 10
     Max number of k-points (npk) =  40000
     Max angular momentum in pseudopotentials (lmaxx) =  4
     file C.pbe-n-kjpaw_psl.1.0.0.UPF: wavefunction(s)  2S 2P renormalized
     Message from routine setup:
     using ibrav=0 with symmetry is DISCOURAGED, use correct ibrav instead

     R & G space division:  proc/nbgrp/npool/nimage =       8
     Subspace diagonalization in iterative solution of the eigenvalue problem:
     a serial algorithm will be used


     Parallelization info
     --------------------
     sticks:   dense  smooth     PW     G-vecs:    dense   smooth      PW
     Min         141      69     20                31953    11255    1828
     Max         142      70     21                31986    11298    1863
     Sum        1135     559    163               255825    90305   14729

     Using Slab Decomposition



     bravais-lattice index     =            0
     lattice parameter (alat)  =       4.7744  a.u.
     unit-cell volume          =     783.7726 (a.u.)^3
     number of atoms/cell      =           14
     number of atomic types    =            2
     number of electrons       =        50.00
     number of Kohn-Sham states=           30
     kinetic-energy cutoff     =      90.0000  Ry
     charge density cutoff     =     720.0000  Ry
     scf convergence threshold =      1.0E-08
     mixing beta               =       0.3000
     number of iterations used =            8  plain     mixing
     Exchange-correlation= PBE
                           (   1   4   3   4   0   0   0)

     celldm(1)=   4.774375  celldm(2)=   0.000000  celldm(3)=   0.000000
     celldm(4)=   0.000000  celldm(5)=   0.000000  celldm(6)=   0.000000

     crystal axes: (cart. coord. in units of alat)
               a(1) = (   1.000000   0.000000   0.000000 )  
               a(2) = (   0.500000   0.866025   0.000000 )  
               a(3) = (   0.000000   0.000000   8.315912 )  

     reciprocal axes: (cart. coord. in units 2 pi/alat)
               b(1) = (  1.000000 -0.577350  0.000000 )  
               b(2) = (  0.000000  1.154701  0.000000 )  
               b(3) = (  0.000000  0.000000  0.120251 )  


     PseudoPot. # 1 for C  read from file:
     ./C.pbe-n-kjpaw_psl.1.0.0.UPF
     MD5 check sum: 5d2aebdfa2cae82b50a7e79e9516da0f
     Pseudo is Projector augmented-wave + core cor, Zval =  4.0
     Generated using "atomic" code by A. Dal Corso  v.5.1
     Shape of augmentation charge: PSQ
     Using radial grid of 1073 points,  4 beta functions with: 
                l(1) =   0
                l(2) =   0
                l(3) =   1
                l(4) =   1
     Q(r) pseudized with 0 coefficients 


     PseudoPot. # 2 for H  read from file:
     ./H_ONCV_PBE-1.0.oncvpsp.upf
     MD5 check sum: 1790becc920ee074925cf490c71280fe
     Pseudo is Norm-conserving, Zval =  1.0
     Generated using ONCVPSP code by D. R. Hamann
     Using radial grid of 1166 points,  2 beta functions with: 
                l(1) =   0
                l(2) =   0

     atomic species   valence    mass     pseudopotential
     C                 4.00    12.01100     C ( 1.00)
     H                 1.00     1.00800     H ( 1.00)

     12 Sym. Ops., with inversion, found ( 6 have fractional translation)



   Cartesian axes

     site n.     atom                  positions (alat units)
         1        C      tau(   1) = (   0.5000000   0.2886751   6.2925893  )
         2        C      tau(   2) = (   1.0000000   0.5773503   6.0994779  )
         3        C      tau(   3) = (   1.0000000   0.5773503   5.4844263  )
         4        C      tau(   4) = (  -0.0000000   0.0000000   5.2807401  )
         5        C      tau(   5) = (  -0.0000000   0.0000000   4.6682035  )
         6        C      tau(   6) = (   0.5000000   0.2886751   4.4641674  )
         7        C      tau(   7) = (   0.5000000   0.2886751   3.8517445  )
         8        C      tau(   8) = (   1.0000000   0.5773503   3.6477084  )
         9        C      tau(   9) = (   1.0000000   0.5773503   3.0351718  )
        10        C      tau(  10) = (   0.0000000  -0.0000000   2.8314855  )
        11        C      tau(  11) = (  -0.0000000  -0.0000000   2.2164340  )
        12        C      tau(  12) = (   0.5000000   0.2886751   2.0233226  )
        13        H      tau(  13) = (   0.5000000   0.2886751   6.7315903  )
        14        H      tau(  14) = (   0.5000000   0.2886751   1.5843216  )

     number of k points=    12  Marzari-Vanderbilt smearing, width (Ry)=  0.0100
                       cart. coord. in units 2pi/alat
        k(    1) = (   0.0000000   0.0000000   0.0000000), wk =   0.0246914
        k(    2) = (   0.0000000   0.1283001   0.0000000), wk =   0.1481481
        k(    3) = (   0.0000000   0.2566001   0.0000000), wk =   0.1481481
        k(    4) = (   0.0000000   0.3849002   0.0000000), wk =   0.1481481
        k(    5) = (   0.0000000   0.5132002   0.0000000), wk =   0.1481481
        k(    6) = (   0.1111111   0.1924501   0.0000000), wk =   0.1481481
        k(    7) = (   0.1111111   0.3207501   0.0000000), wk =   0.2962963
        k(    8) = (   0.1111111   0.4490502   0.0000000), wk =   0.2962963
        k(    9) = (   0.1111111  -0.5773503   0.0000000), wk =   0.1481481
        k(   10) = (   0.2222222   0.3849002   0.0000000), wk =   0.1481481
        k(   11) = (   0.2222222  -0.6415003   0.0000000), wk =   0.2962963
        k(   12) = (   0.3333333  -0.5773503   0.0000000), wk =   0.0493827

     Dense  grid:   255825 G-vectors     FFT dimensions: (  45,  45, 360)

     Smooth grid:    90305 G-vectors     FFT dimensions: (  30,  30, 240)

     Estimated max dynamical RAM per process >      69.99 MB

     Estimated total dynamical RAM >     559.95 MB

     Check: negative core charge=   -0.000001

     Initial potential from superposition of free atoms

     starting charge      49.9995, renormalised to      50.0000
     Starting wfcs are   50 randomized atomic wfcs
     Checking if some PAW data can be deallocated... 

     total cpu time spent up to now is        0.7 secs

     Self-consistent Calculation

     iteration #  1     ecut=    90.00 Ry     beta= 0.30
     Davidson diagonalization with overlap
     ethr =  1.00E-02,  avg # of iterations =  2.5

     total cpu time spent up to now is        1.7 secs

     total energy              =    -223.66610756 Ry
     estimated scf accuracy    <       0.93407846 Ry

     iteration #  2     ecut=    90.00 Ry     beta= 0.30
     Davidson diagonalization with overlap
     ethr =  1.87E-03,  avg # of iterations =  4.1

     negative rho (up, down):  2.251E-07 0.000E+00

     total cpu time spent up to now is        2.6 secs

     total energy              =    -223.57429504 Ry
     estimated scf accuracy    <       0.32610892 Ry

     iteration #  3     ecut=    90.00 Ry     beta= 0.30
     Davidson diagonalization with overlap
     ethr =  6.52E-04,  avg # of iterations =  4.6

     negative rho (up, down):  1.008E-07 0.000E+00

     total cpu time spent up to now is        3.4 secs

     total energy              =    -223.58806587 Ry
     estimated scf accuracy    <       0.03574541 Ry

     iteration #  4     ecut=    90.00 Ry     beta= 0.30
     Davidson diagonalization with overlap
     ethr =  7.15E-05,  avg # of iterations =  5.8

     negative rho (up, down):  3.500E-08 0.000E+00

     total cpu time spent up to now is        4.4 secs

     total energy              =    -223.59071004 Ry
     estimated scf accuracy    <       0.00446773 Ry

     iteration #  5     ecut=    90.00 Ry     beta= 0.30
     Davidson diagonalization with overlap
     ethr =  8.94E-06,  avg # of iterations =  4.4

     negative rho (up, down):  2.238E-08 0.000E+00

     total cpu time spent up to now is        5.3 secs

     total energy              =    -223.59122463 Ry
     estimated scf accuracy    <       0.00056367 Ry

     iteration #  6     ecut=    90.00 Ry     beta= 0.30
     Davidson diagonalization with overlap
     ethr =  1.13E-06,  avg # of iterations =  4.4

     negative rho (up, down):  1.122E-08 0.000E+00

     total cpu time spent up to now is        6.2 secs

     total energy              =    -223.59128060 Ry
     estimated scf accuracy    <       0.00013559 Ry

     iteration #  7     ecut=    90.00 Ry     beta= 0.30
     Davidson diagonalization with overlap
     ethr =  2.71E-07,  avg # of iterations =  2.9

     negative rho (up, down):  1.125E-08 0.000E+00

     total cpu time spent up to now is        7.1 secs

     total energy              =    -223.59129182 Ry
     estimated scf accuracy    <       0.00008041 Ry

     iteration #  8     ecut=    90.00 Ry     beta= 0.30
     Davidson diagonalization with overlap
     ethr =  1.61E-07,  avg # of iterations =  2.0

     total cpu time spent up to now is        8.0 secs

     total energy              =    -223.59131062 Ry
     estimated scf accuracy    <       0.00000996 Ry

     iteration #  9     ecut=    90.00 Ry     beta= 0.30
     Davidson diagonalization with overlap
     ethr =  1.99E-08,  avg # of iterations =  2.1

     total cpu time spent up to now is        8.8 secs

     total energy              =    -223.59131267 Ry
     estimated scf accuracy    <       0.00000068 Ry

     iteration # 10     ecut=    90.00 Ry     beta= 0.30
     Davidson diagonalization with overlap
     ethr =  1.37E-09,  avg # of iterations =  3.1

     total cpu time spent up to now is        9.7 secs

     total energy              =    -223.59131288 Ry
     estimated scf accuracy    <       0.00000039 Ry

     iteration # 11     ecut=    90.00 Ry     beta= 0.30
     Davidson diagonalization with overlap
     ethr =  7.74E-10,  avg # of iterations =  2.1

     total cpu time spent up to now is       10.5 secs

     total energy              =    -223.59131290 Ry
     estimated scf accuracy    <       0.00000006 Ry

     iteration # 12     ecut=    90.00 Ry     beta= 0.30
     Davidson diagonalization with overlap
     ethr =  1.25E-10,  avg # of iterations =  3.1

     total cpu time spent up to now is       11.4 secs

     End of self-consistent calculation

          k = 0.0000 0.0000 0.0000 ( 11213 PWs)   bands (ev):

   -14.5418 -14.0743 -13.3129 -12.2704 -10.9980  -9.6704  -6.1107  -4.6074
    -2.5815  -0.3148   2.0075   4.0200   4.0200   4.1572   4.3117   4.3117
     4.7670   4.7670   5.3537   5.3537   5.8834   5.9891   5.9891   6.5056
     6.5056   9.0414   9.5680  11.6955  12.5996  12.5996

          k = 0.0000 0.1283 0.0000 ( 11317 PWs)   bands (ev):

   -14.2397 -13.7737 -13.0151 -11.9771 -10.7116  -9.3942  -5.8387  -4.3545
    -2.3616  -0.1475   2.0755   2.5789   2.9236   3.3755   3.4034   3.7055
     3.9380   4.2165   4.2685   4.7152   4.8632   5.2579   5.5463   5.7444
     6.0886   9.3141   9.8281  11.8320  12.4360  13.2048

          k = 0.0000 0.2566 0.0000 ( 11301 PWs)   bands (ev):

   -13.3397 -12.8785 -12.1290 -11.1057  -9.8622  -8.5765  -5.0785  -3.6639
    -1.8167  -0.4480  -0.1145   0.4105   0.5316   1.3113   2.1245   2.1850
     2.3267   2.5483   2.8017   3.1124   3.8224   3.9728   4.5632   5.0816
     5.1427  10.1754  10.5311  11.7089  12.3070  12.8708

          k = 0.0000 0.3849 0.0000 ( 11306 PWs)   bands (ev):

   -11.8653 -11.4146 -10.6852  -9.6951  -8.5020  -7.2823  -4.4496  -3.8166
    -3.3172  -2.6309  -2.2066  -1.4838  -1.2093  -0.1702  -0.0625   1.0942
     1.1826   1.5598   2.1076   2.1468   2.8855   3.3429   3.6541   4.2383
     4.2532  11.0654  11.5168  11.7640  12.2865  12.7665

          k = 0.0000 0.5132 0.0000 ( 11312 PWs)   bands (ev):

    -9.9021  -9.4941  -8.8693  -8.1297  -7.3854  -6.5739  -5.9568  -5.6730
    -5.0838  -4.8038  -3.8814  -2.8187  -1.4594  -0.5297   0.2931   0.3375
     0.6381   1.0204   1.5090   1.6158   2.3653   2.7945   3.1445   3.6875
     3.7515  11.3054  11.8539  12.1880  12.5451  12.8706

          k = 0.1111 0.1925 0.0000 ( 11299 PWs)   bands (ev):

   -13.6386 -13.1758 -12.4231 -11.3946 -10.1434  -8.8469  -5.3187  -3.8773
    -1.9646   0.0854   0.9850   1.1508   1.2907   1.7905   2.0887   2.5795
     2.5853   2.9490   3.1528   3.7391   4.0273   4.0331   4.4556   4.7910
     5.6772   9.9097  10.3430  12.4332  12.7714  12.8429

          k = 0.1111 0.3208 0.0000 ( 11270 PWs)   bands (ev):

   -12.4504 -11.9948 -11.2560 -10.2499  -9.0320  -7.7799  -4.4766  -3.2040
    -2.0850  -1.5031  -1.2902  -0.9108  -0.1970  -0.0569   0.6579   0.9304
     1.1467   1.5760   2.1097   2.1615   2.4902   2.9091   3.4882   3.9870
     4.9025  11.0522  11.3222  12.2873  13.2281  13.5992

          k = 0.1111 0.4491 0.0000 ( 11296 PWs)   bands (ev):

   -10.7189 -10.2813  -9.5789  -8.6384  -7.5321  -6.4317  -4.9673  -4.9275
    -4.4060  -3.5727  -2.6079  -1.9356  -1.6466  -0.9360  -0.1297   0.1593
     0.3670   0.6135   1.0640   1.3639   2.0028   2.2718   2.9512   3.1538
     3.9485  11.8487  12.3770  12.9124  13.3717  13.8313

          k = 0.1111-0.5774 0.0000 ( 11326 PWs)   bands (ev):

    -8.7669  -8.6939  -8.4392  -7.9990  -7.3500  -6.5624  -6.0277  -5.7809
    -5.0725  -4.7230  -3.9684  -3.7641  -0.7862  -0.5286  -0.4464  -0.0801
     0.1437   0.3209   0.6035   1.2296   1.4563   2.3699   2.3852   3.0833
     3.3886  12.0139  12.7404  13.2835  13.3304  13.9047

          k = 0.2222 0.3849 0.0000 ( 11287 PWs)   bands (ev):

   -10.9999 -10.5569  -9.8424  -8.8768  -7.7191  -6.5350  -4.4093  -3.7361
    -3.2796  -2.8006  -2.2467  -1.7023  -1.6114  -1.2761  -0.6653  -0.3907
     0.0759   0.3797   0.7519   0.9245   1.2946   1.6719   2.2891   3.2475
     4.0141  12.3123  12.4441  13.3009  13.5145  14.1859

          k = 0.2222-0.6415 0.0000 ( 11329 PWs)   bands (ev):

    -9.0854  -8.6907  -8.0907  -7.3892  -6.7045  -5.9012  -5.4971  -5.2015
    -4.5768  -4.4717  -3.7703  -3.1168  -1.9781  -1.7534  -1.3076  -1.1350
    -0.6279  -0.2740   0.3152   0.6182   1.0842   1.2811   2.0484   2.4093
     2.9398  12.5969  13.2535  13.7616  14.1416  14.4555

          k = 0.3333-0.5774 0.0000 ( 11349 PWs)   bands (ev):

    -7.2570  -7.2570  -7.2534  -7.1534  -7.1534  -5.9303  -5.8973  -4.7271
    -4.7271  -4.5863  -4.2031  -4.2031  -2.4147  -2.2951  -2.2951  -1.6692
    -1.4873  -1.4873   0.8296   1.1289   1.1289   1.3425   1.7606   1.7606
     1.8883  13.2666  13.2666  13.5644  14.1733  14.1733

     the Fermi energy is     7.8865 ev

!    total energy              =    -223.59131292 Ry
     estimated scf accuracy    <          6.5E-09 Ry
     smearing contrib. (-TS)   =      -0.00000000 Ry
     internal energy E=F+TS    =    -223.59131292 Ry

     The total energy is F=E-TS. E is the sum of the following terms:
     one-electron contribution =   -1538.40146262 Ry
     hartree contribution      =     795.47769137 Ry
     xc contribution           =     -57.61331957 Ry
     ewald contribution        =     650.90116176 Ry
     one-center paw contrib.   =     -73.95538385 Ry

     convergence has been achieved in  12 iterations

     Forces acting on atoms (cartesian axes, Ry/au):

     atom    1 type  1   force =     0.00000000   -0.00000000    0.00007395
     atom    2 type  1   force =    -0.00000000   -0.00000000    0.00000008
     atom    3 type  1   force =     0.00000000    0.00000000    0.00001953
     atom    4 type  1   force =    -0.00000000   -0.00000000   -0.00001525
     atom    5 type  1   force =    -0.00000000    0.00000000   -0.00002545
     atom    6 type  1   force =     0.00000000    0.00000000   -0.00002159
     atom    7 type  1   force =     0.00000000   -0.00000000    0.00002159
     atom    8 type  1   force =     0.00000000    0.00000000    0.00002545
     atom    9 type  1   force =     0.00000000    0.00000000    0.00001525
     atom   10 type  1   force =    -0.00000000    0.00000000   -0.00001953
     atom   11 type  1   force =     0.00000000    0.00000000   -0.00000008
     atom   12 type  1   force =     0.00000000    0.00000000   -0.00007395
     atom   13 type  2   force =     0.00000000   -0.00000000   -0.00004351
     atom   14 type  2   force =     0.00000000    0.00000000    0.00004351

     Total force =     0.000135     Total SCF correction =     0.000098
     SCF correction compared to forces is large: reduce conv_thr to get better values


     Computing stress (Cartesian axis) and pressure

          total   stress  (Ry/bohr**3)                   (kbar)     P=        2.89
   0.00002971   0.00000000   0.00000000            4.37        0.00        0.00
   0.00000000   0.00002971   0.00000000            0.00        4.37        0.00
   0.00000000   0.00000000  -0.00000050            0.00        0.00       -0.07


     Writing all to output data dir /tmp/qe/slab.save/ :
     XML data file, charge density, pseudopotentials, collected wavefunctions

     init_run     :      0.62s CPU      0.67s WALL (       1 calls)
     electrons    :     10.50s CPU     10.67s WALL (       1 calls)
     forces       :      0.19s CPU      0.20s WALL (       1 calls)
     stress       :      1.64s CPU      1.65s WALL (       1 calls)

     Called by init_run:
     wfcinit      :      0.38s CPU      0.39s WALL (       1 calls)
     potinit      :      0.11s CPU      0.13s WALL (       1 calls)
     hinit0       :      0.05s CPU      0.06s WALL (       1 calls)

     Called by electrons:
     c_bands      :      7.23s CPU      7.33s WALL (      12 calls)
     sum_band     :      1.65s CPU      1.68s WALL (      12 calls)
     v_of_rho     :      0.57s CPU      0.59s WALL (      13 calls)
     newd         :      0.28s CPU      0.30s WALL (      13 calls)
     PAW_pot      :      0.80s CPU      0.81s WALL (      13 calls)
     mix_rho      :      0.05s CPU      0.05s WALL (      12 calls)

     Called by c_bands:
     init_us_2    :      0.20s CPU      0.22s WALL (     324 calls)
     cegterg      :      6.89s CPU      6.97s WALL (     144 calls)

     Called by *egterg:
     cdiaghg      :      0.50s CPU      0.51s WALL (     637 calls)
     h_psi        :      5.52s CPU      5.59s WALL (     649 calls)
     s_psi        :      0.27s CPU      0.27s WALL (     649 calls)
     g_psi        :      0.03s CPU      0.03s WALL (     493 calls)

     Called by h_psi:
     h_psi:calbec :      0.30s CPU      0.31s WALL (     649 calls)
     vloc_psi     :      4.86s CPU      4.92s WALL (     649 calls)
     add_vuspsi   :      0.32s CPU      0.32s WALL (     649 calls)

     General routines
     calbec       :      0.45s CPU      0.46s WALL (     853 calls)
     fft          :      0.23s CPU      0.28s WALL (     192 calls)
     ffts         :      0.01s CPU      0.01s WALL (      25 calls)
     fftw         :      4.26s CPU      4.30s WALL (   27622 calls)
     interpolate  :      0.02s CPU      0.03s WALL (      13 calls)

     Parallel routines

     PWSCF        :     13.06s CPU     13.35s WALL


   This run was terminated on:  15:14:19   2Aug2026            

=------------------------------------------------------------------------------=
   JOB DONE.
=------------------------------------------------------------------------------=
Note: The following floating-point exceptions are signalling: IEEE_UNDERFLOW_FLAG IEEE_DENORMAL
Note: The following floating-point exceptions are signalling: IEEE_UNDERFLOW_FLAG IEEE_DENORMAL
Note: The following floating-point exceptions are signalling: IEEE_UNDERFLOW_FLAG IEEE_DENORMAL
Note: The following floating-point exceptions are signalling: IEEE_UNDERFLOW_FLAG IEEE_DENORMAL
Note: The following floating-point exceptions are signalling: IEEE_UNDERFLOW_FLAG IEEE_DENORMAL
Note: The following floating-point exceptions are signalling: IEEE_UNDERFLOW_FLAG IEEE_DENORMAL
Note: The following floating-point exceptions are signalling: IEEE_UNDERFLOW_FLAG IEEE_DENORMAL
Note: The following floating-point exceptions are signalling: IEEE_UNDERFLOW_FLAG IEEE_DENORMAL
