
     Program PWSCF v.7.5 starts on  7Jul2026 at 13:35:28 

     This program is part of the open-source Quantum ESPRESSO suite
     for quantum simulation of materials; please cite
         "P. Giannozzi et al., J. Phys.:Condens. Matter 21 395502 (2009);
         "P. Giannozzi et al., J. Phys.:Condens. Matter 29 465901 (2017);
         "P. Giannozzi et al., J. Chem. Phys. 152 154105 (2020);
          URL http://www.quantum-espresso.org", 
     in publications or presentations arising from this work. More details at
     http://www.quantum-espresso.org/quote

     Serial version
     0 MiB available memory on the printing compute node when the environment starts

     Waiting for input...
     Reading input from standard input

     Current dimensions of program PWSCF are:
     Max number of different atomic species (ntypx) = 10
     Max number of k-points (npk) =  40000
     Max angular momentum in pseudopotentials (lmaxx) =  4
     file C.pbe-n-kjpaw_psl.1.0.0.UPF: wavefunction(s)  2S 2P renormalized
     Message from routine volume:
     axis vectors are left-handed
     Message from routine setup:
     using ibrav=0 with symmetry is DISCOURAGED, use correct ibrav instead


     G-vector sticks info
     --------------------
     sticks:   dense  smooth     PW     G-vecs:    dense   smooth      PW
     Sum        1231     619    191               175775    62241   10127

     Using Slab Decomposition



     bravais-lattice index     =            0
     lattice parameter (alat)  =       4.7991  a.u.
     unit-cell volume          =     990.8076 (a.u.)^3
     number of atoms/cell      =           16
     number of atomic types    =            2
     number of electrons       =        52.00
     number of Kohn-Sham states=           31
     kinetic-energy cutoff     =      60.0000  Ry
     charge density cutoff     =     480.0000  Ry
     scf convergence threshold =      1.0E-08
     mixing beta               =       0.3000
     number of iterations used =            8  plain     mixing
     Exchange-correlation= PBE
                           (   1   4   3   4   0   0   0)

     celldm(1)=   4.799112  celldm(2)=   0.000000  celldm(3)=   0.000000
     celldm(4)=   0.000000  celldm(5)=   0.000000  celldm(6)=   0.000000

     crystal axes: (cart. coord. in units of alat)
               a(1) = (   1.000000   0.000000   0.000000 )  
               a(2) = (   0.000000  -1.414214   0.000000 )  
               a(3) = (   0.000000   0.000000   6.338577 )  

     reciprocal axes: (cart. coord. in units 2 pi/alat)
               b(1) = (  1.000000 -0.000000 -0.000000 )  
               b(2) = ( -0.000000 -0.707107 -0.000000 )  
               b(3) = ( -0.000000 -0.000000  0.157764 )  


     PseudoPot. # 1 for C  read from file:
     ./C.pbe-n-kjpaw_psl.1.0.0.UPF
     MD5 check sum: 5d2aebdfa2cae82b50a7e79e9516da0f
     Pseudo is Projector augmented-wave + core cor, Zval =  4.0
     Generated using "atomic" code by A. Dal Corso  v.5.1
     Shape of augmentation charge: PSQ
     Using radial grid of 1073 points,  4 beta functions with: 
                l(1) =   0
                l(2) =   0
                l(3) =   1
                l(4) =   1
     Q(r) pseudized with 0 coefficients 


     PseudoPot. # 2 for H  read from file:
     ./H_ONCV_PBE-1.0.oncvpsp.upf
     MD5 check sum: 1790becc920ee074925cf490c71280fe
     Pseudo is Norm-conserving, Zval =  1.0
     Generated using ONCVPSP code by D. R. Hamann
     Using radial grid of 1166 points,  2 beta functions with: 
                l(1) =   0
                l(2) =   0

     atomic species   valence    mass     pseudopotential
     C                 4.00    12.01100     C ( 1.00)
     H                 1.00     1.00800     H ( 1.00)

      8 Sym. Ops., with inversion, found ( 6 have fractional translation)



   Cartesian axes

     site n.     atom                  positions (alat units)
         1        C      tau(   1) = (   0.0000000  -0.3611404   4.4027472  )
         2        C      tau(   2) = (   0.5000000  -0.6995197   4.4027472  )
         3        C      tau(   3) = (   0.0000000   0.0011500   3.9164582  )
         4        C      tau(   4) = (   0.5000000  -1.0618102   3.9164582  )
         5        C      tau(   5) = (   0.0000000  -0.3533013   3.4179171  )
         6        C      tau(   6) = (   0.5000000  -0.7073588   3.4179171  )
         7        C      tau(   7) = (   0.0000000  -0.0002520   2.9206601  )
         8        C      tau(   8) = (   0.5000000  -1.0604081   2.9206601  )
         9        C      tau(   9) = (   0.0000000  -0.3547034   2.4221190  )
        10        C      tau(  10) = (   0.5000000  -0.7059567   2.4221190  )
        11        C      tau(  11) = (   0.0000000   0.0075871   1.9358300  )
        12        C      tau(  12) = (   0.5000000  -1.0682472   1.9358300  )
        13        H      tau(  13) = (   0.0000000  -0.1238861   4.7655347  )
        14        H      tau(  14) = (   0.5000000  -0.9367741   4.7655347  )
        15        H      tau(  15) = (   0.0000000  -0.2296673   1.5730424  )
        16        H      tau(  16) = (   0.5000000  -0.8309929   1.5730424  )

     number of k points=    20  Marzari-Vanderbilt smearing, width (Ry)=  0.0100
                       cart. coord. in units 2pi/alat
        k(    1) = (   0.0000000  -0.0000000   0.0000000), wk =   0.0317460
        k(    2) = (   0.0000000  -0.1010153   0.0000000), wk =   0.0634921
        k(    3) = (   0.0000000  -0.2020305   0.0000000), wk =   0.0634921
        k(    4) = (   0.0000000  -0.3030458   0.0000000), wk =   0.0634921
        k(    5) = (   0.1111111  -0.0000000   0.0000000), wk =   0.0634921
        k(    6) = (   0.1111111  -0.1010153   0.0000000), wk =   0.1269841
        k(    7) = (   0.1111111  -0.2020305   0.0000000), wk =   0.1269841
        k(    8) = (   0.1111111  -0.3030458   0.0000000), wk =   0.1269841
        k(    9) = (   0.2222222  -0.0000000   0.0000000), wk =   0.0634921
        k(   10) = (   0.2222222  -0.1010153   0.0000000), wk =   0.1269841
        k(   11) = (   0.2222222  -0.2020305   0.0000000), wk =   0.1269841
        k(   12) = (   0.2222222  -0.3030458   0.0000000), wk =   0.1269841
        k(   13) = (   0.3333333  -0.0000000   0.0000000), wk =   0.0634921
        k(   14) = (   0.3333333  -0.1010153   0.0000000), wk =   0.1269841
        k(   15) = (   0.3333333  -0.2020305   0.0000000), wk =   0.1269841
        k(   16) = (   0.3333333  -0.3030458   0.0000000), wk =   0.1269841
        k(   17) = (   0.4444444  -0.0000000   0.0000000), wk =   0.0634921
        k(   18) = (   0.4444444  -0.1010153   0.0000000), wk =   0.1269841
        k(   19) = (   0.4444444  -0.2020305   0.0000000), wk =   0.1269841
        k(   20) = (   0.4444444  -0.3030458   0.0000000), wk =   0.1269841

     Dense  grid:   175775 G-vectors     FFT dimensions: (  36,  48, 216)

     Smooth grid:    62241 G-vectors     FFT dimensions: (  24,  36, 160)

     Estimated max dynamical RAM per process >     401.68 MB

     Check: negative core charge=   -0.000002

     Initial potential from superposition of free atoms

     starting charge      51.9995, renormalised to      52.0000

     negative rho (up, down):  7.206E-08 0.000E+00
     Starting wfcs are   52 randomized atomic wfcs

     total cpu time spent up to now is        2.1 secs

     Self-consistent Calculation

     iteration #  1     ecut=    60.00 Ry     beta= 0.30
     Davidson diagonalization with overlap
     ethr =  1.00E-02,  avg # of iterations =  2.8

     negative rho (up, down):  9.772E-07 0.000E+00

     total cpu time spent up to now is        6.5 secs

     total energy              =    -226.00893722 Ry
     estimated scf accuracy    <       1.17697933 Ry

     iteration #  2     ecut=    60.00 Ry     beta= 0.30
     Davidson diagonalization with overlap
     ethr =  2.26E-03,  avg # of iterations =  3.9

     negative rho (up, down):  7.723E-06 0.000E+00

     total cpu time spent up to now is        9.8 secs

     total energy              =    -225.92381124 Ry
     estimated scf accuracy    <       0.36673010 Ry

     iteration #  3     ecut=    60.00 Ry     beta= 0.30
     Davidson diagonalization with overlap
     ethr =  7.05E-04,  avg # of iterations =  5.3

     negative rho (up, down):  1.711E-05 0.000E+00

     total cpu time spent up to now is       13.5 secs

     total energy              =    -225.93671847 Ry
     estimated scf accuracy    <       0.05045588 Ry

     iteration #  4     ecut=    60.00 Ry     beta= 0.30
     Davidson diagonalization with overlap
     ethr =  9.70E-05,  avg # of iterations =  5.3

     negative rho (up, down):  2.278E-05 0.000E+00

     total cpu time spent up to now is       17.1 secs

     total energy              =    -225.93943221 Ry
     estimated scf accuracy    <       0.00500112 Ry

     iteration #  5     ecut=    60.00 Ry     beta= 0.30
     Davidson diagonalization with overlap
     c_bands:  1 eigenvalues not converged
     ethr =  9.62E-06,  avg # of iterations =  7.4

     negative rho (up, down):  2.158E-05 0.000E+00

     total cpu time spent up to now is       21.5 secs

     total energy              =    -225.93996292 Ry
     estimated scf accuracy    <       0.00051968 Ry

     iteration #  6     ecut=    60.00 Ry     beta= 0.30
     Davidson diagonalization with overlap
     ethr =  9.99E-07,  avg # of iterations =  4.2

     negative rho (up, down):  2.207E-05 0.000E+00

     total cpu time spent up to now is       25.3 secs

     total energy              =    -225.94006246 Ry
     estimated scf accuracy    <       0.00008365 Ry

     iteration #  7     ecut=    60.00 Ry     beta= 0.30
     Davidson diagonalization with overlap
     ethr =  1.61E-07,  avg # of iterations =  2.6

     negative rho (up, down):  2.154E-05 0.000E+00

     total cpu time spent up to now is       28.7 secs

     total energy              =    -225.94006973 Ry
     estimated scf accuracy    <       0.00002953 Ry

     iteration #  8     ecut=    60.00 Ry     beta= 0.30
     Davidson diagonalization with overlap
     ethr =  5.68E-08,  avg # of iterations =  2.1

     negative rho (up, down):  2.149E-05 0.000E+00

     total cpu time spent up to now is       31.9 secs

     total energy              =    -225.94007437 Ry
     estimated scf accuracy    <       0.00000267 Ry

     iteration #  9     ecut=    60.00 Ry     beta= 0.30
     Davidson diagonalization with overlap
     ethr =  5.13E-09,  avg # of iterations =  2.4

     negative rho (up, down):  2.146E-05 0.000E+00

     total cpu time spent up to now is       35.3 secs

     total energy              =    -225.94007499 Ry
     estimated scf accuracy    <       0.00000181 Ry

     iteration # 10     ecut=    60.00 Ry     beta= 0.30
     Davidson diagonalization with overlap
     ethr =  3.47E-09,  avg # of iterations =  2.0

     negative rho (up, down):  2.151E-05 0.000E+00

     total cpu time spent up to now is       38.6 secs

     total energy              =    -225.94007509 Ry
     estimated scf accuracy    <       0.00000035 Ry

     iteration # 11     ecut=    60.00 Ry     beta= 0.30
     Davidson diagonalization with overlap
     ethr =  6.64E-10,  avg # of iterations =  3.2

     negative rho (up, down):  2.157E-05 0.000E+00

     total cpu time spent up to now is       42.3 secs

     total energy              =    -225.94007523 Ry
     estimated scf accuracy    <       0.00000010 Ry

     iteration # 12     ecut=    60.00 Ry     beta= 0.30
     Davidson diagonalization with overlap
     ethr =  1.98E-10,  avg # of iterations =  2.2

     negative rho (up, down):  2.162E-05 0.000E+00

     total cpu time spent up to now is       45.5 secs

     total energy              =    -225.94007520 Ry
     estimated scf accuracy    <       0.00000009 Ry

     iteration # 13     ecut=    60.00 Ry     beta= 0.30
     Davidson diagonalization with overlap
     ethr =  1.78E-10,  avg # of iterations =  2.2

     negative rho (up, down):  2.179E-05 0.000E+00

     total cpu time spent up to now is       48.9 secs

     End of self-consistent calculation

          k = 0.0000-0.0000 0.0000 (  7789 PWs)   bands (ev):

   -15.9196 -14.8499 -13.1008 -10.9112  -8.7401  -7.6632  -7.4104  -6.4761
    -4.8931  -4.4889  -4.0226  -2.9997  -2.8192  -2.0975  -0.9667  -0.7664
    -0.4982  -0.1615   1.1281   1.6745   2.0426   2.6219   3.8621   3.8947
     4.2063   4.7283   6.8967   7.1781   9.6649   9.9621  10.7391

          k = 0.0000-0.1010 0.0000 (  7763 PWs)   bands (ev):

   -15.7354 -14.6714 -12.9398 -10.8295  -9.5579  -9.2716  -6.8665  -6.0537
    -5.6096  -4.1159  -3.6018  -3.0764  -1.9293  -1.8642  -1.1061  -0.7924
    -0.0128   0.1384   1.2156   1.4369   2.2523   2.5739   3.6096   3.6611
     3.9888   4.1632   7.1002   7.4105   9.8543   9.9595  10.8532

          k = 0.0000-0.2020 0.0000 (  7739 PWs)   bands (ev):

   -15.1854 -14.1419 -12.4805 -11.4539 -10.6410 -10.5955  -7.3649  -6.7524
    -5.4767  -4.4235  -3.1002  -1.8117  -1.7562  -0.8296  -0.2764  -0.2253
     0.3278   0.4208   1.4550   1.9278   1.9839   2.4134   2.8926   2.9687
     3.1959   3.4628   7.7420   7.9876  10.1290  10.3049  10.7819

          k = 0.0000-0.3030 0.0000 (  7720 PWs)   bands (ev):

   -14.2789 -13.3215 -12.9663 -12.1925 -11.5660 -10.9291  -7.7355  -7.0909
    -5.6831  -4.7320  -2.9910  -1.9665  -0.4076   0.0620   0.5559   0.7307
     1.0738   1.0894   1.6695   1.7309   1.8873   2.0536   2.0626   2.1849
     2.5116   2.6004   8.7778   8.8236   9.8312  10.2368  10.6089

          k = 0.1111-0.0000 0.0000 (  7762 PWs)   bands (ev):

   -15.6959 -14.6287 -12.8837 -10.6994  -8.5361  -7.4635  -7.3496  -6.4230
    -4.8541  -4.2985  -3.8177  -2.8482  -2.8029  -1.9707  -1.9021  -1.1298
    -0.6960  -0.5161   0.2023   1.5658   1.6946   1.9920   2.9240   3.3781
     3.6508   4.1012   7.1085   7.4064   9.6871  10.8215  10.8431

          k = 0.1111-0.1010 0.0000 (  7757 PWs)   bands (ev):

   -15.5123 -14.4510 -12.7236 -10.6198  -9.3791  -9.0802  -6.7195  -5.9255
    -5.5378  -4.0181  -3.4882  -3.0595  -1.9180  -1.7010  -1.6960  -1.0981
    -0.8691   0.0932   0.3596   1.3956   1.6726   1.9773   2.6396   2.6860
     3.6189   4.0300   7.3390   7.6402  10.0175  11.0815  11.2829

          k = 0.1111-0.2020 0.0000 (  7736 PWs)   bands (ev):

   -14.9640 -13.9235 -12.2673 -11.2530 -10.4376 -10.3996  -7.1861  -6.5645
    -5.3271  -4.2967  -3.0881  -2.1564  -1.8157  -1.1561  -0.7126  -0.2279
    -0.1596   0.0841   0.9365   1.3604   1.5080   1.5584   1.7037   2.0710
     3.1942   3.8034   7.9958   8.2541  10.6372  11.1152  11.3885

          k = 0.1111-0.3030 0.0000 (  7734 PWs)   bands (ev):

   -14.0609 -13.1071 -12.7547 -11.9841 -11.3603 -10.7279  -7.5392  -6.8998
    -5.5087  -4.5640  -2.8949  -1.8706  -1.1798  -0.4455  -0.3007   0.1138
     0.4564   0.5617   0.8728   1.0943   1.1549   1.5613   1.8481   2.2031
     2.6790   2.7930   9.0352   9.1542  10.3233  10.5120  11.4357

          k = 0.2222-0.0000 0.0000 (  7758 PWs)   bands (ev):

   -15.0283 -13.9690 -12.2361 -10.0678  -7.9271  -7.4704  -6.8662  -6.5515
    -5.0007  -3.7469  -3.6331  -3.2200  -2.9814  -2.7615  -2.4271  -1.4137
    -1.3317  -0.7370  -0.5566   0.0302   1.0503   1.1120   1.5054   1.7074
     2.0312   3.6982   7.8142   8.0479   9.9569  10.0951  10.5914

          k = 0.2222-0.1010 0.0000 (  7777 PWs)   bands (ev):

   -14.8465 -13.7934 -12.0792  -9.9951  -8.9143  -8.5350  -6.4535  -5.8093
    -5.6633  -3.9934  -3.5654  -3.4795  -2.4596  -2.4005  -1.8586  -1.3011
    -1.0844  -0.6250  -0.4712   0.2331   0.3721   0.5419   1.3261   1.5329
     2.8741   3.3356   8.0591   8.2986  10.5145  10.6025  10.7785

          k = 0.2222-0.2020 0.0000 (  7778 PWs)   bands (ev):

   -14.3040 -13.2730 -11.6327 -10.6736  -9.8338  -9.8315  -6.7127  -6.0760
    -4.9810  -4.8301  -3.3713  -3.3462  -2.5293  -1.8791  -1.2520  -0.9539
    -0.6770  -0.4978  -0.4113   0.0975   0.1982   0.5053   0.9926   1.7754
     2.6368   3.2450   8.7266   8.9421  11.2402  11.7239  11.8187

          k = 0.2222-0.3030 0.0000 (  7779 PWs)   bands (ev):

   -13.4128 -12.4705 -12.1301 -11.3677 -10.7506 -10.1311  -6.9877  -6.3624
    -5.0691  -4.1379  -3.8217  -2.7755  -2.5019  -2.2056  -1.5586  -1.3792
    -1.1701  -0.8886   0.1931   0.9896   1.0841   1.0984   1.3047   1.5891
     2.3107   2.6786   9.7118   9.8295  11.0979  11.1868  12.4421

          k = 0.3333-0.0000 0.0000 (  7808 PWs)   bands (ev):

   -13.9289 -12.8832 -11.1714  -9.0296  -8.6777  -7.7231  -6.9227  -6.1342
    -5.8769  -4.1000  -3.9827  -3.1754  -2.9022  -2.2869  -1.9812  -1.9546
    -1.8473  -0.8426  -0.7366  -0.5651  -0.4319  -0.1818   0.1587   0.2593
     1.0882   2.9434   8.9532   8.9777   9.7862  10.1353  11.2292

          k = 0.3333-0.1010 0.0000 (  7810 PWs)   bands (ev):

   -13.7510 -12.7123 -11.0206  -9.0097  -8.8466  -8.0779  -6.7568  -6.6073
    -6.1882  -4.3386  -4.0281  -3.1645  -3.0886  -2.3682  -1.9818  -1.7432
    -1.6914  -1.2152  -0.7358  -0.6924  -0.4074  -0.2309   0.4655   0.8836
     1.2806   2.7596   9.2016   9.3078  10.2497  10.4791  11.1501

          k = 0.3333-0.2020 0.0000 (  7788 PWs)   bands (ev):

   -13.2222 -12.2078 -10.5945  -9.8926  -9.0398  -8.8602  -6.7803  -6.3788
    -6.2757  -4.9484  -4.1599  -3.7341  -3.5600  -3.2498  -2.4804  -2.1239
    -1.5484  -0.5281  -0.2968  -0.2376  -0.0141   0.3443   0.4958   0.8039
     2.1522   2.2775   9.8296   9.9262  11.2226  11.4493  11.8724

          k = 0.3333-0.3030 0.0000 (  7768 PWs)   bands (ev):

   -12.3615 -11.4419 -11.1480 -10.3889  -9.7734  -9.1703  -6.3623  -6.0620
    -5.7264  -5.5212  -4.9525  -4.5289  -3.7247  -3.3640  -2.8519  -2.7272
    -1.4318  -0.7815  -0.2654  -0.1180   0.5606   0.9023   1.2090   1.4183
     1.7145   2.2565  10.5556  10.6367  11.9563  12.0396  12.2775

          k = 0.4444-0.0000 0.0000 (  7824 PWs)   bands (ev):

   -12.4266 -11.4014 -10.5956  -9.7203  -9.5998  -7.9597  -7.6145  -5.8941
    -5.5433  -4.5070  -3.8353  -3.0424  -2.7791  -2.3862  -1.9105  -1.5392
    -1.5289  -1.3890  -1.1382  -1.0320  -1.0160  -0.9312  -0.8933   0.0951
     0.6900   1.8828   9.5675  10.1773  10.3639  10.5957  10.7430

          k = 0.4444-0.1010 0.0000 (  7823 PWs)   bands (ev):

   -12.2589 -11.2420 -10.4697  -9.5869  -9.4813  -7.9008  -7.5087  -5.8751
    -5.8494  -5.7389  -4.2034  -4.0520  -3.1421  -2.4658  -2.0081  -1.7940
    -1.4732  -1.1997  -0.8960  -0.7957  -0.6993  -0.4555  -0.2446   0.2331
     0.8041   1.8660  10.1754  10.1797  10.3295  10.8236  11.2191

          k = 0.4444-0.2020 0.0000 (  7797 PWs)   bands (ev):

   -11.7693 -10.7806 -10.1902  -9.2936  -9.1455  -7.8513  -7.3212  -7.0411
    -6.6221  -5.9543  -5.6060  -5.1766  -3.3945  -3.3430  -2.3329  -2.1615
    -1.6067  -1.3656  -0.8458  -0.2332   0.0112   0.0794   0.5170   0.9861
     1.2106   1.7940  10.7259  10.8759  11.1452  11.3253  11.8418

          k = 0.4444-0.3030 0.0000 (  7778 PWs)   bands (ev):

   -11.0218 -10.2994 -10.0594  -9.3964  -8.5940  -8.0688  -7.7677  -7.0866
    -6.9019  -6.6775  -6.2078  -6.1008  -3.7238  -3.4000  -2.8032  -2.4662
    -1.7781  -1.5054  -0.7102  -0.3769   0.1833   0.2806   1.3335   1.4410
     1.6727   1.7368  11.2971  11.3047  11.8926  12.0225  12.9515

     the Fermi energy is     5.4268 ev

!    total energy              =    -225.94007522 Ry
     estimated scf accuracy    <          2.0E-09 Ry
     smearing contrib. (-TS)   =       0.00000000 Ry
     internal energy E=F+TS    =    -225.94007522 Ry

     The total energy is F=E-TS. E is the sum of the following terms:
     one-electron contribution =   -1219.88173604 Ry
     hartree contribution      =     633.85633604 Ry
     xc contribution           =     -59.03438301 Ry
     ewald contribution        =     493.07332399 Ry
     one-center paw contrib.   =     -73.95361620 Ry

     convergence has been achieved in  13 iterations

     negative rho (up, down):  2.179E-05 0.000E+00

     Forces acting on atoms (cartesian axes, Ry/au):

     atom    1 type  1   force =    -0.00000000   -0.00216482   -0.00003268
     atom    2 type  1   force =    -0.00000000    0.00216482   -0.00003268
     atom    3 type  1   force =    -0.00000000    0.00069373    0.00024638
     atom    4 type  1   force =    -0.00000000   -0.00069373    0.00024638
     atom    5 type  1   force =     0.00000000   -0.00048709   -0.00002232
     atom    6 type  1   force =     0.00000000    0.00048709   -0.00002232
     atom    7 type  1   force =     0.00000000    0.00048709    0.00002232
     atom    8 type  1   force =    -0.00000000   -0.00048709    0.00002232
     atom    9 type  1   force =     0.00000000   -0.00069373   -0.00024638
     atom   10 type  1   force =    -0.00000000    0.00069373   -0.00024638
     atom   11 type  1   force =    -0.00000000    0.00216482    0.00003268
     atom   12 type  1   force =     0.00000000   -0.00216482    0.00003268
     atom   13 type  2   force =     0.00000000   -0.00197481   -0.00107350
     atom   14 type  2   force =    -0.00000000    0.00197481   -0.00107350
     atom   15 type  2   force =     0.00000000    0.00197481    0.00107350
     atom   16 type  2   force =    -0.00000000   -0.00197481    0.00107350

     Total force =     0.006487     Total SCF correction =     0.000139


     Computing stress (Cartesian axis) and pressure


     negative rho (up, down):  2.179E-05 0.000E+00
          total   stress  (Ry/bohr**3)                   (kbar)     P=        2.49
  -0.00005583   0.00000000   0.00000000           -8.21        0.00        0.00
   0.00000000   0.00015557   0.00000000            0.00       22.89        0.00
   0.00000000   0.00000000  -0.00004906            0.00        0.00       -7.22


     Writing all to output data dir ./tmp/slab.save/ :
     XML data file, charge density, pseudopotentials, collected wavefunctions

     init_run     :      1.96s CPU      2.09s WALL (       1 calls)
     electrons    :     42.57s CPU     46.77s WALL (       1 calls)
     forces       :      0.46s CPU      0.52s WALL (       1 calls)
     stress       :      1.35s CPU      1.60s WALL (       1 calls)

     Called by init_run:
     wfcinit      :      1.54s CPU      1.64s WALL (       1 calls)
     potinit      :      0.23s CPU      0.25s WALL (       1 calls)
     hinit0       :      0.12s CPU      0.13s WALL (       1 calls)

     Called by electrons:
     c_bands      :     33.68s CPU     37.30s WALL (      13 calls)
     sum_band     :      5.60s CPU      5.90s WALL (      13 calls)
     v_of_rho     :      0.79s CPU      0.85s WALL (      14 calls)
     newd         :      0.46s CPU      0.56s WALL (      14 calls)
     PAW_pot      :      2.10s CPU      2.24s WALL (      14 calls)
     mix_rho      :      0.10s CPU      0.12s WALL (      13 calls)

     Called by c_bands:
     init_us_2    :      0.59s CPU      0.64s WALL (     580 calls)
     cegterg      :     32.52s CPU     36.10s WALL (     260 calls)

     Called by *egterg:
     cdiaghg      :      0.72s CPU      0.78s WALL (    1174 calls)
     h_psi        :     25.55s CPU     27.07s WALL (    1194 calls)
     s_psi        :      1.98s CPU      2.43s WALL (    1194 calls)
     g_psi        :      0.13s CPU      0.13s WALL (     914 calls)

     Called by h_psi:
     h_psi:calbec :      2.50s CPU      3.16s WALL (    1194 calls)
     vloc_psi     :     20.69s CPU     20.92s WALL (    1194 calls)
                                        0.00s GPU  (    1194 calls)
     add_vuspsi   :      2.26s CPU      2.82s WALL (    1194 calls)

     General routines
     calbec       :      3.99s CPU      5.01s WALL (    1794 calls)
     fft          :      0.49s CPU      0.49s WALL (     205 calls)
     ffts         :      0.02s CPU      0.02s WALL (      27 calls)
     fftw         :     21.84s CPU     21.94s WALL (   52312 calls)
     interpolate  :      0.05s CPU      0.05s WALL (      14 calls)


     PWSCF        :     46.38s CPU     51.05s WALL


   This run was terminated on:  13:36:19   7Jul2026            

=------------------------------------------------------------------------------=
   JOB DONE.
=------------------------------------------------------------------------------=
Note: The following floating-point exceptions are signalling: IEEE_INVALID_FLAG IEEE_DIVIDE_BY_ZERO IEEE_OVERFLOW_FLAG IEEE_UNDERFLOW_FLAG
