
     Program PWSCF v.7.3.1 starts on  1Aug2026 at 12:48: 4 

     This program is part of the open-source Quantum ESPRESSO suite
     for quantum simulation of materials; please cite
         "P. Giannozzi et al., J. Phys.:Condens. Matter 21 395502 (2009);
         "P. Giannozzi et al., J. Phys.:Condens. Matter 29 465901 (2017);
         "P. Giannozzi et al., J. Chem. Phys. 152 154105 (2020);
          URL http://www.quantum-espresso.org", 
     in publications or presentations arising from this work. More details at
     http://www.quantum-espresso.org/quote

     Parallel version (MPI), running on     8 processors

     MPI processes distributed on     1 nodes
     187298 MiB available memory on the printing compute node when the environment starts

     Reading input from pw.in

     Current dimensions of program PWSCF are:
     Max number of different atomic species (ntypx) = 10
     Max number of k-points (npk) =  40000
     Max angular momentum in pseudopotentials (lmaxx) =  4
     file C.pbe-n-kjpaw_psl.1.0.0.UPF: wavefunction(s)  2S 2P renormalized
     Message from routine volume:
     axis vectors are left-handed
     Message from routine setup:
     using ibrav=0 with symmetry is DISCOURAGED, use correct ibrav instead

     R & G space division:  proc/nbgrp/npool/nimage =       8
     Subspace diagonalization in iterative solution of the eigenvalue problem:
     a serial algorithm will be used


     Parallelization info
     --------------------
     sticks:   dense  smooth     PW     G-vecs:    dense   smooth      PW
     Min         230     115     32                79762    28201    4354
     Max         231     116     33                79801    28238    4393
     Sum        1845     921    263               638287   225707   35023

     Using Slab Decomposition



     bravais-lattice index     =            0
     lattice parameter (alat)  =       4.7752  a.u.
     unit-cell volume          =    1956.0156 (a.u.)^3
     number of atoms/cell      =           16
     number of atomic types    =            2
     number of electrons       =        52.00
     number of Kohn-Sham states=           31
     kinetic-energy cutoff     =      90.0000  Ry
     charge density cutoff     =     720.0000  Ry
     scf convergence threshold =      1.0E-08
     mixing beta               =       0.3000
     number of iterations used =            8  plain     mixing
     Exchange-correlation= PBE
                           (   1   4   3   4   0   0   0)

     celldm(1)=   4.775235  celldm(2)=   0.000000  celldm(3)=   0.000000
     celldm(4)=   0.000000  celldm(5)=   0.000000  celldm(6)=   0.000000

     crystal axes: (cart. coord. in units of alat)
               a(1) = (   1.000000   0.000000   0.000000 )  
               a(2) = (   0.000000  -1.414214   0.000000 )  
               a(3) = (   0.000000   0.000000  12.702024 )  

     reciprocal axes: (cart. coord. in units 2 pi/alat)
               b(1) = (  1.000000 -0.000000 -0.000000 )  
               b(2) = ( -0.000000 -0.707107 -0.000000 )  
               b(3) = ( -0.000000 -0.000000  0.078728 )  


     PseudoPot. # 1 for C  read from file:
     ./C.pbe-n-kjpaw_psl.1.0.0.UPF
     MD5 check sum: 5d2aebdfa2cae82b50a7e79e9516da0f
     Pseudo is Projector augmented-wave + core cor, Zval =  4.0
     Generated using "atomic" code by A. Dal Corso  v.5.1
     Shape of augmentation charge: PSQ
     Using radial grid of 1073 points,  4 beta functions with: 
                l(1) =   0
                l(2) =   0
                l(3) =   1
                l(4) =   1
     Q(r) pseudized with 0 coefficients 


     PseudoPot. # 2 for H  read from file:
     ./H_ONCV_PBE-1.0.oncvpsp.upf
     MD5 check sum: 1790becc920ee074925cf490c71280fe
     Pseudo is Norm-conserving, Zval =  1.0
     Generated using ONCVPSP code by D. R. Hamann
     Using radial grid of 1166 points,  2 beta functions with: 
                l(1) =   0
                l(2) =   0

     atomic species   valence    mass     pseudopotential
     C                 4.00    12.01100     C ( 1.00)
     H                 1.00     1.00800     H ( 1.00)

      4 Sym. Ops. (no inversion) found ( 2 have fractional translation)



   Cartesian axes

     site n.     atom                  positions (alat units)
         1        C      tau(   1) = (  -0.0000000  -0.3611404   4.4247609  )
         2        C      tau(   2) = (   0.5000000  -0.6995197   4.4247609  )
         3        C      tau(   3) = (   0.0000000   0.0011500   3.9360405  )
         4        C      tau(   4) = (   0.5000000  -1.0618102   3.9360405  )
         5        C      tau(   5) = (   0.0000000  -0.3533013   3.4350066  )
         6        C      tau(   6) = (   0.5000000  -0.7073588   3.4350066  )
         7        C      tau(   7) = (   0.0000000  -0.0002520   2.9352634  )
         8        C      tau(   8) = (   0.5000000  -1.0604081   2.9352634  )
         9        C      tau(   9) = (  -0.0000000  -0.3547034   2.4342296  )
        10        C      tau(  10) = (   0.5000000  -0.7059567   2.4342296  )
        11        C      tau(  11) = (  -0.0000000   0.0075871   1.9455091  )
        12        C      tau(  12) = (   0.5000000  -1.0682472   1.9455091  )
        13        H      tau(  13) = (   0.0000000  -0.1238861   4.7893624  )
        14        H      tau(  14) = (   0.5000000  -0.9367741   4.7893624  )
        15        H      tau(  15) = (   0.0000000  -0.2296673   1.5809076  )
        16        H      tau(  16) = (   0.5000000  -0.8309929   1.5809076  )

     number of k points=    20  Marzari-Vanderbilt smearing, width (Ry)=  0.0100
                       cart. coord. in units 2pi/alat
        k(    1) = (   0.0000000  -0.0000000   0.0000000), wk =   0.0317460
        k(    2) = (   0.0000000  -0.1010153   0.0000000), wk =   0.0634921
        k(    3) = (   0.0000000  -0.2020305   0.0000000), wk =   0.0634921
        k(    4) = (   0.0000000  -0.3030458   0.0000000), wk =   0.0634921
        k(    5) = (   0.1111111  -0.0000000   0.0000000), wk =   0.0634921
        k(    6) = (   0.1111111  -0.1010153   0.0000000), wk =   0.1269841
        k(    7) = (   0.1111111  -0.2020305   0.0000000), wk =   0.1269841
        k(    8) = (   0.1111111  -0.3030458   0.0000000), wk =   0.1269841
        k(    9) = (   0.2222222  -0.0000000   0.0000000), wk =   0.0634921
        k(   10) = (   0.2222222  -0.1010153   0.0000000), wk =   0.1269841
        k(   11) = (   0.2222222  -0.2020305   0.0000000), wk =   0.1269841
        k(   12) = (   0.2222222  -0.3030458   0.0000000), wk =   0.1269841
        k(   13) = (   0.3333333  -0.0000000   0.0000000), wk =   0.0634921
        k(   14) = (   0.3333333  -0.1010153   0.0000000), wk =   0.1269841
        k(   15) = (   0.3333333  -0.2020305   0.0000000), wk =   0.1269841
        k(   16) = (   0.3333333  -0.3030458   0.0000000), wk =   0.1269841
        k(   17) = (   0.4444444  -0.0000000   0.0000000), wk =   0.0634921
        k(   18) = (   0.4444444  -0.1010153   0.0000000), wk =   0.1269841
        k(   19) = (   0.4444444  -0.2020305   0.0000000), wk =   0.1269841
        k(   20) = (   0.4444444  -0.3030458   0.0000000), wk =   0.1269841

     Dense  grid:   638287 G-vectors     FFT dimensions: (  48,  60, 540)

     Smooth grid:   225707 G-vectors     FFT dimensions: (  30,  48, 375)

     Estimated max dynamical RAM per process >     184.83 MB

     Estimated total dynamical RAM >       1.44 GB

     Initial potential from superposition of free atoms

     starting charge      51.9995, renormalised to      52.0000

     negative rho (up, down):  7.903E-05 0.000E+00
     Starting wfcs are   52 randomized atomic wfcs
     Checking if some PAW data can be deallocated... 

     total cpu time spent up to now is        2.1 secs

     Self-consistent Calculation

     iteration #  1     ecut=    90.00 Ry     beta= 0.30
     Davidson diagonalization with overlap
     ethr =  1.00E-02,  avg # of iterations =  2.9

     negative rho (up, down):  8.243E-05 0.000E+00

     total cpu time spent up to now is        5.9 secs

     total energy              =    -226.01728948 Ry
     estimated scf accuracy    <       1.18151137 Ry

     iteration #  2     ecut=    90.00 Ry     beta= 0.30
     Davidson diagonalization with overlap
     ethr =  2.27E-03,  avg # of iterations =  3.9

     negative rho (up, down):  9.921E-05 0.000E+00

     total cpu time spent up to now is        9.0 secs

     total energy              =    -225.92425281 Ry
     estimated scf accuracy    <       0.37815369 Ry

     iteration #  3     ecut=    90.00 Ry     beta= 0.30
     Davidson diagonalization with overlap
     ethr =  7.27E-04,  avg # of iterations =  8.9

     negative rho (up, down):  1.091E-04 0.000E+00

     total cpu time spent up to now is       12.9 secs

     total energy              =    -225.93929528 Ry
     estimated scf accuracy    <       0.05107209 Ry

     iteration #  4     ecut=    90.00 Ry     beta= 0.30
     Davidson diagonalization with overlap
     ethr =  9.82E-05,  avg # of iterations =  6.6

     negative rho (up, down):  1.161E-04 0.000E+00

     total cpu time spent up to now is       16.3 secs

     total energy              =    -225.94251196 Ry
     estimated scf accuracy    <       0.00523610 Ry

     iteration #  5     ecut=    90.00 Ry     beta= 0.30
     Davidson diagonalization with overlap
     ethr =  1.01E-05,  avg # of iterations =  7.9

     negative rho (up, down):  1.167E-04 0.000E+00

     total cpu time spent up to now is       20.4 secs

     total energy              =    -225.94314721 Ry
     estimated scf accuracy    <       0.00055809 Ry

     iteration #  6     ecut=    90.00 Ry     beta= 0.30
     Davidson diagonalization with overlap
     ethr =  1.07E-06,  avg # of iterations =  5.2

     negative rho (up, down):  1.173E-04 0.000E+00

     total cpu time spent up to now is       24.2 secs

     total energy              =    -225.94326665 Ry
     estimated scf accuracy    <       0.00007365 Ry

     iteration #  7     ecut=    90.00 Ry     beta= 0.30
     Davidson diagonalization with overlap
     ethr =  1.42E-07,  avg # of iterations =  3.8

     negative rho (up, down):  1.179E-04 0.000E+00

     total cpu time spent up to now is       27.4 secs

     total energy              =    -225.94327289 Ry
     estimated scf accuracy    <       0.00001552 Ry

     iteration #  8     ecut=    90.00 Ry     beta= 0.30
     Davidson diagonalization with overlap
     ethr =  2.98E-08,  avg # of iterations =  2.2

     negative rho (up, down):  1.180E-04 0.000E+00

     total cpu time spent up to now is       30.7 secs

     total energy              =    -225.94327481 Ry
     estimated scf accuracy    <       0.00000337 Ry

     iteration #  9     ecut=    90.00 Ry     beta= 0.30
     Davidson diagonalization with overlap
     ethr =  6.48E-09,  avg # of iterations =  2.6

     negative rho (up, down):  1.184E-04 0.000E+00

     total cpu time spent up to now is       34.1 secs

     total energy              =    -225.94327567 Ry
     estimated scf accuracy    <       0.00000101 Ry

     iteration # 10     ecut=    90.00 Ry     beta= 0.30
     Davidson diagonalization with overlap
     ethr =  1.94E-09,  avg # of iterations =  2.0

     negative rho (up, down):  1.186E-04 0.000E+00

     total cpu time spent up to now is       37.3 secs

     total energy              =    -225.94327571 Ry
     estimated scf accuracy    <       0.00000021 Ry

     iteration # 11     ecut=    90.00 Ry     beta= 0.30
     Davidson diagonalization with overlap
     ethr =  3.96E-10,  avg # of iterations =  3.0

     negative rho (up, down):  1.188E-04 0.000E+00

     total cpu time spent up to now is       40.7 secs

     total energy              =    -225.94327577 Ry
     estimated scf accuracy    <       0.00000004 Ry

     iteration # 12     ecut=    90.00 Ry     beta= 0.30
     Davidson diagonalization with overlap
     ethr =  6.75E-11,  avg # of iterations =  3.1

     negative rho (up, down):  1.189E-04 0.000E+00

     total cpu time spent up to now is       44.3 secs

     total energy              =    -225.94327578 Ry
     estimated scf accuracy    <       0.00000002 Ry

     iteration # 13     ecut=    90.00 Ry     beta= 0.30
     Davidson diagonalization with overlap
     ethr =  3.37E-11,  avg # of iterations =  2.0

     negative rho (up, down):  1.193E-04 0.000E+00

     total cpu time spent up to now is       47.5 secs

     End of self-consistent calculation

          k = 0.0000-0.0000 0.0000 ( 28305 PWs)   bands (ev):

   -19.9469 -18.8758 -17.1237 -14.9286 -12.7456 -11.6397 -11.3214 -10.3877
    -8.8040  -8.4634  -8.0288  -6.9598  -6.7282  -6.1194  -4.8977  -4.7153
    -4.4056  -4.0934  -2.8030  -2.2563  -1.8637  -1.3053  -0.0379  -0.0250
     0.3003   0.8173   2.9737   3.1481   3.8701   4.1562   4.6665

          k = 0.0000-0.1010 0.0000 ( 28219 PWs)   bands (ev):

   -19.7608 -18.6954 -16.9607 -14.8436 -13.5220 -13.2592 -10.8359 -10.0018
    -9.5580  -8.0577  -7.5796  -7.0109  -5.8787  -5.8594  -5.0319  -4.7220
    -3.9436  -3.7831  -2.7147  -2.4842  -1.6562  -1.3527  -0.3089  -0.2584
     0.1080   0.2552   3.2136   3.3507   4.1082   4.3949   4.8980

          k = 0.0000-0.2020 0.0000 ( 28184 PWs)   bands (ev):

   -19.2051 -18.1601 -16.4951 -15.4359 -14.6463 -14.5812 -11.3433 -10.7494
    -9.4424  -8.4110  -7.0461  -5.7359  -5.7351  -4.7650  -4.2021  -4.1683
    -3.5676  -3.5068  -2.4733  -1.9613  -1.9565  -1.5118  -1.0250  -0.9398
    -0.6900  -0.4030   3.8370   3.9904   4.8243   5.0914   5.5927

          k = 0.0000-0.3030 0.0000 ( 28144 PWs)   bands (ev):

   -18.2892 -17.3288 -16.9653 -16.1913 -15.5710 -14.9292 -11.7300 -11.0822
    -9.6714  -8.7166  -6.9688  -5.9422  -4.3930  -3.8346  -3.3639  -3.2277
    -2.8337  -2.8057  -2.2443  -2.1935  -1.9873  -1.8588  -1.8151  -1.7402
    -1.3601  -1.2699   4.7676   5.0055   5.8827   6.0329   6.1730

          k = 0.1111-0.0000 0.0000 ( 28255 PWs)   bands (ev):

   -19.7208 -18.6523 -16.9043 -14.7146 -12.5397 -11.4389 -11.2550 -10.3293
    -8.7603  -8.2708  -7.8208  -6.8066  -6.7083  -5.9207  -5.9184  -5.0775
    -4.6430  -4.4216  -3.7430  -2.3619  -2.2433  -1.9155  -1.0033  -0.5169
    -0.2636   0.1939   3.2200   3.3536   4.1551   4.4408   4.9267

          k = 0.1111-0.1010 0.0000 ( 28205 PWs)   bands (ev):

   -19.5353 -18.4726 -16.7422 -14.6316 -13.3395 -13.0650 -10.6833  -9.8682
    -9.4791  -7.9560  -7.4670  -6.9915  -5.8463  -5.7129  -5.6422  -5.0223
    -4.8160  -3.8279  -3.5842  -2.5238  -2.2642  -1.9299  -1.2590  -1.2407
    -0.3003   0.1294   3.4589   3.5861   4.3955   4.6805   5.1711

          k = 0.1111-0.2020 0.0000 ( 28204 PWs)   bands (ev):

   -18.9812 -17.9394 -16.2797 -15.2321 -14.4408 -14.3826 -11.1602 -10.5574
    -9.2885  -8.2744  -7.0261  -6.0959  -5.7562  -5.1310  -4.6472  -4.1755
    -4.0701  -3.8449  -2.9896  -2.5458  -2.4213  -2.3530  -2.1905  -1.8730
    -0.7068  -0.0888   4.1057   4.2431   5.1132   5.3876   5.8765

          k = 0.1111-0.3030 0.0000 ( 28165 PWs)   bands (ev):

   -18.0686 -17.1119 -16.7511 -15.9805 -15.3630 -14.7259 -11.5298 -10.8874
    -9.4931  -8.5447  -6.8635  -5.8385  -5.0971  -4.3735  -4.2612  -3.8082
    -3.4629  -3.3787  -3.0565  -2.8344  -2.7746  -2.3400  -2.0433  -1.6803
    -1.2146  -1.0977   5.0840   5.2655   6.2807   6.3905   6.5213

          k = 0.2222-0.0000 0.0000 ( 28206 PWs)   bands (ev):

   -19.0461 -17.9854 -16.2498 -14.0763 -11.9250 -11.3658 -10.8381 -10.4485
    -8.8990  -7.7126  -7.6108  -7.2138  -6.8808  -6.7380  -6.3804  -5.3858
    -5.3406  -4.6392  -4.4988  -3.9313  -2.8937  -2.8088  -2.4180  -2.2027
    -1.8619  -0.2153   3.9269   4.0448   5.0170   5.2828   5.7304

          k = 0.2222-0.1010 0.0000 ( 28156 PWs)   bands (ev):

   -18.8622 -17.8079 -16.0908 -14.0001 -12.8603 -12.5091 -10.3996  -9.7424
    -9.5920  -7.9392  -7.5573  -7.4201  -6.4204  -6.3521  -5.8164  -5.2271
    -5.0818  -4.5659  -4.4211  -3.6993  -3.5411  -3.3906  -2.5954  -2.3894
    -1.0321  -0.5866   4.1734   4.2948   5.2587   5.5295   5.9882

          k = 0.2222-0.2020 0.0000 ( 28153 PWs)   bands (ev):

   -18.3139 -17.2817 -15.6381 -14.6428 -13.8304 -13.8057 -10.6719 -10.0535
    -8.9277  -8.7654  -7.3527  -7.3008  -6.4819  -5.8301  -5.1738  -4.9354
    -4.6059  -4.4527  -4.3455  -3.8417  -3.7377  -3.4122  -2.9149  -2.1536
    -1.2909  -0.6644   4.8362   4.9638   5.9779   6.2448   6.7030

          k = 0.2222-0.3030 0.0000 ( 28187 PWs)   bands (ev):

   -17.4129 -16.4678 -16.1182 -15.3564 -14.7462 -14.1226 -10.9653 -10.3376
    -9.0383  -8.1040  -7.7519  -6.7135  -6.4343  -6.1761  -5.5077  -5.3245
    -5.1393  -4.8403  -3.7812  -2.9542  -2.8226  -2.8197  -2.6095  -2.3204
    -1.6010  -1.2302   5.7950   5.9231   7.1055   7.2314   7.2842

          k = 0.3333-0.0000 0.0000 ( 28144 PWs)   bands (ev):

   -17.9343 -16.8875 -15.1731 -13.0269 -12.6018 -11.6473 -10.9113 -10.0583
    -9.8430  -8.0246  -7.9489  -7.1421  -6.8572  -6.2653  -5.9423  -5.8883
    -5.7936  -4.7970  -4.6724  -4.5041  -4.4223  -4.1157  -3.7598  -3.6439
    -2.8310  -0.9843   4.9829   5.1566   5.9521   6.1395   6.4631

          k = 0.3333-0.1010 0.0000 ( 28168 PWs)   bands (ev):

   -17.7543 -16.7145 -15.0202 -12.9873 -12.7855 -12.0119 -10.7351 -10.5912
   -10.1121  -8.2794  -7.9947  -7.1342  -7.0700  -6.3024  -5.9123  -5.6970
    -5.6480  -5.1708  -4.6716  -4.6187  -4.3462  -4.2056  -3.4692  -3.0390
    -2.6370  -1.1717   5.2855   5.4098   6.4079   6.5836   6.7021

          k = 0.3333-0.2020 0.0000 ( 28227 PWs)   bands (ev):

   -17.2191 -16.2037 -14.5877 -13.8381 -12.9924 -12.8451 -10.7560 -10.3152
   -10.2423  -8.8907  -8.1364  -7.7128  -7.4987  -7.2014  -6.4576  -6.1061
    -5.4901  -4.4553  -4.2567  -4.1637  -3.9425  -3.5860  -3.4562  -3.1348
    -1.7727  -1.6633   5.9144   6.0335   7.3541   7.4097   7.6125

          k = 0.3333-0.3030 0.0000 ( 28267 PWs)   bands (ev):

   -16.3475 -15.4249 -15.1198 -14.3625 -13.7558 -13.1496 -10.3133 -10.0252
    -9.6746  -9.4781  -8.9030  -8.4779  -7.7015  -7.3445  -6.8204  -6.7072
    -5.3943  -4.7306  -4.2026  -4.0483  -3.3928  -3.0374  -2.7308  -2.5073
    -2.2297  -1.6681   6.6848   6.7124   8.0934   8.1240   8.4504

          k = 0.4444-0.0000 0.0000 ( 28130 PWs)   bands (ev):

   -16.4139 -15.3877 -14.5570 -13.7044 -13.5605 -11.9192 -11.5953  -9.8520
    -9.5188  -8.4651  -7.7931  -6.9825  -6.7271  -6.3295  -5.8529  -5.4843
    -5.4490  -5.3306  -5.0846  -4.9689  -4.9555  -4.8616  -4.8277  -3.8421
    -3.2826  -2.0663   5.7149   6.3153   6.4507   6.7419   6.8939

          k = 0.4444-0.1010 0.0000 ( 28216 PWs)   bands (ev):

   -16.2436 -15.2259 -14.4268 -13.5676 -13.4391 -11.8576 -11.4872  -9.8313
    -9.8254  -9.7075  -8.1608  -8.0009  -7.1009  -6.4232  -5.9594  -5.7282
    -5.4136  -5.1466  -4.8330  -4.7312  -4.6406  -4.3867  -4.1802  -3.6980
    -3.1644  -2.0828   6.3201   6.3381   6.4389   6.9749   7.3964

          k = 0.4444-0.2020 0.0000 ( 28243 PWs)   bands (ev):

   -15.7458 -14.7565 -14.1332 -13.2477 -13.1101 -11.8042 -11.3021 -11.0234
   -10.6129  -9.9074  -9.5669  -9.1404  -7.3694  -7.3077  -6.2840  -6.0984
    -5.5697  -5.3260  -4.7905  -4.1742  -3.9390  -3.8589  -3.4105  -2.9662
    -2.7294  -2.1550   6.8757   6.9794   7.3009   7.4615   8.0192

          k = 0.4444-0.3030 0.0000 ( 28266 PWs)   bands (ev):

   -14.9828 -14.2405 -14.0179 -13.3387 -12.5566 -12.0226 -11.7696 -11.0720
   -10.8954 -10.6436 -10.1832 -10.0539  -7.7052  -7.3727  -6.7540  -6.4076
    -5.7460  -5.4662  -4.6609  -4.3211  -3.7750  -3.6695  -2.6218  -2.4966
    -2.2738  -2.2019   7.4073   7.4218   8.0216   8.1444   9.2088

     the Fermi energy is     1.6040 ev

!    total energy              =    -225.94327578 Ry
     estimated scf accuracy    <          9.1E-10 Ry
     smearing contrib. (-TS)   =       0.00000000 Ry
     internal energy E=F+TS    =    -225.94327578 Ry

     The total energy is F=E-TS. E is the sum of the following terms:
     one-electron contribution =   -5846.45943407 Ry
     hartree contribution      =    2939.65831250 Ry
     xc contribution           =     -59.13950441 Ry
     ewald contribution        =    2813.95438947 Ry
     one-center paw contrib.   =     -73.95703927 Ry

     convergence has been achieved in  13 iterations

     negative rho (up, down):  1.193E-04 0.000E+00

     Forces acting on atoms (cartesian axes, Ry/au):

     atom    1 type  1   force =     0.00000000    0.00002847    0.00006181
     atom    2 type  1   force =     0.00000000   -0.00002847    0.00006181
     atom    3 type  1   force =     0.00000000    0.00006232    0.00000290
     atom    4 type  1   force =     0.00000000   -0.00006232    0.00000290
     atom    5 type  1   force =     0.00000000   -0.00006512    0.00000459
     atom    6 type  1   force =     0.00000000    0.00006512    0.00000459
     atom    7 type  1   force =     0.00000000    0.00006514    0.00000061
     atom    8 type  1   force =     0.00000000   -0.00006514    0.00000061
     atom    9 type  1   force =     0.00000000   -0.00006239   -0.00001054
     atom   10 type  1   force =     0.00000000    0.00006239   -0.00001054
     atom   11 type  1   force =     0.00000000   -0.00002847   -0.00005893
     atom   12 type  1   force =     0.00000000    0.00002847   -0.00005893
     atom   13 type  2   force =     0.00000000   -0.00002715   -0.00009800
     atom   14 type  2   force =     0.00000000    0.00002715   -0.00009800
     atom   15 type  2   force =     0.00000000    0.00002715    0.00009757
     atom   16 type  2   force =     0.00000000   -0.00002715    0.00009757

     Total force =     0.000303     Total SCF correction =     0.000061
     SCF correction compared to forces is large: reduce conv_thr to get better values


     Computing stress (Cartesian axis) and pressure


     negative rho (up, down):  1.193E-04 0.000E+00
          total   stress  (Ry/bohr**3)                   (kbar)     P=       13.14
   0.00008669   0.00000000   0.00000000           12.75        0.00        0.00
   0.00000000   0.00018251   0.00000000            0.00       26.85        0.00
   0.00000000   0.00000000  -0.00000116            0.00        0.00       -0.17


     Writing all to output data dir /tmp/qe/slab.save/ :
     XML data file, charge density, pseudopotentials, collected wavefunctions

     init_run     :      1.98s CPU      2.06s WALL (       1 calls)
     electrons    :     44.69s CPU     45.36s WALL (       1 calls)
     forces       :      0.59s CPU      0.64s WALL (       1 calls)
     stress       :      6.58s CPU      6.65s WALL (       1 calls)

     Called by init_run:
     wfcinit      :      1.53s CPU      1.56s WALL (       1 calls)
     potinit      :      0.18s CPU      0.20s WALL (       1 calls)
     hinit0       :      0.07s CPU      0.08s WALL (       1 calls)

     Called by electrons:
     c_bands      :     34.65s CPU     34.95s WALL (      13 calls)
     sum_band     :      7.03s CPU      7.22s WALL (      13 calls)
     v_of_rho     :      1.37s CPU      1.42s WALL (      14 calls)
     newd         :      0.76s CPU      0.88s WALL (      14 calls)
     PAW_pot      :      0.86s CPU      0.87s WALL (      14 calls)
     mix_rho      :      0.13s CPU      0.14s WALL (      13 calls)

     Called by c_bands:
     init_us_2    :      1.16s CPU      1.17s WALL (     580 calls)
     cegterg      :     32.94s CPU     33.22s WALL (     260 calls)

     Called by *egterg:
     cdiaghg      :      1.19s CPU      1.20s WALL (    1342 calls)
     h_psi        :     26.30s CPU     26.56s WALL (    1362 calls)
     s_psi        :      1.57s CPU      1.58s WALL (    1362 calls)
     g_psi        :      0.17s CPU      0.17s WALL (    1082 calls)

     Called by h_psi:
     h_psi:calbec :      1.56s CPU      1.57s WALL (    1362 calls)
     vloc_psi     :     22.64s CPU     22.85s WALL (    1362 calls)
     add_vuspsi   :      1.93s CPU      1.94s WALL (    1362 calls)

     General routines
     calbec       :      2.32s CPU      2.36s WALL (    1722 calls)
     fft          :      0.60s CPU      0.66s WALL (     205 calls)
     ffts         :      0.02s CPU      0.02s WALL (      27 calls)
     fftw         :     19.37s CPU     19.54s WALL (   54202 calls)
     interpolate  :      0.05s CPU      0.06s WALL (      14 calls)

     Parallel routines

     PWSCF        :     54.06s CPU     55.06s WALL


   This run was terminated on:  12:48:59   1Aug2026            

=------------------------------------------------------------------------------=
   JOB DONE.
=------------------------------------------------------------------------------=
Note: The following floating-point exceptions are signalling: IEEE_UNDERFLOW_FLAG IEEE_DENORMAL
Note: The following floating-point exceptions are signalling: IEEE_UNDERFLOW_FLAG IEEE_DENORMAL
Note: The following floating-point exceptions are signalling: IEEE_UNDERFLOW_FLAG IEEE_DENORMAL
Note: The following floating-point exceptions are signalling: IEEE_UNDERFLOW_FLAG IEEE_DENORMAL
Note: The following floating-point exceptions are signalling: IEEE_UNDERFLOW_FLAG IEEE_DENORMAL
Note: The following floating-point exceptions are signalling: IEEE_UNDERFLOW_FLAG IEEE_DENORMAL
Note: The following floating-point exceptions are signalling: IEEE_UNDERFLOW_FLAG IEEE_DENORMAL
Note: The following floating-point exceptions are signalling: IEEE_UNDERFLOW_FLAG IEEE_DENORMAL
