
     Program PWSCF v.7.3.1 starts on  1Aug2026 at 12:30:57 

     This program is part of the open-source Quantum ESPRESSO suite
     for quantum simulation of materials; please cite
         "P. Giannozzi et al., J. Phys.:Condens. Matter 21 395502 (2009);
         "P. Giannozzi et al., J. Phys.:Condens. Matter 29 465901 (2017);
         "P. Giannozzi et al., J. Chem. Phys. 152 154105 (2020);
          URL http://www.quantum-espresso.org", 
     in publications or presentations arising from this work. More details at
     http://www.quantum-espresso.org/quote

     Parallel version (MPI), running on     8 processors

     MPI processes distributed on     1 nodes
     187851 MiB available memory on the printing compute node when the environment starts

     Reading input from pw.in

     Current dimensions of program PWSCF are:
     Max number of different atomic species (ntypx) = 10
     Max number of k-points (npk) =  40000
     Max angular momentum in pseudopotentials (lmaxx) =  4
     file C.pbe-n-kjpaw_psl.1.0.0.UPF: wavefunction(s)  2S 2P renormalized
     Message from routine volume:
     axis vectors are left-handed
     Message from routine setup:
     using ibrav=0 with symmetry is DISCOURAGED, use correct ibrav instead

     R & G space division:  proc/nbgrp/npool/nimage =       8
     Subspace diagonalization in iterative solution of the eigenvalue problem:
     a serial algorithm will be used


     Parallelization info
     --------------------
     sticks:   dense  smooth     PW     G-vecs:    dense   smooth      PW
     Min         206     103     29                33525    11859    1853
     Max         208     104     30                33528    11871    1870
     Sum        1657     829    239               268217    94901   14891

     Using Slab Decomposition



     bravais-lattice index     =            0
     lattice parameter (alat)  =       4.7752  a.u.
     unit-cell volume          =     980.9734 (a.u.)^3
     number of atoms/cell      =           16
     number of atomic types    =            2
     number of electrons       =        52.00
     number of Kohn-Sham states=           31
     kinetic-energy cutoff     =      80.0000  Ry
     charge density cutoff     =     640.0000  Ry
     scf convergence threshold =      1.0E-08
     mixing beta               =       0.3000
     number of iterations used =            8  plain     mixing
     Exchange-correlation= PBE
                           (   1   4   3   4   0   0   0)

     celldm(1)=   4.775235  celldm(2)=   0.000000  celldm(3)=   0.000000
     celldm(4)=   0.000000  celldm(5)=   0.000000  celldm(6)=   0.000000

     crystal axes: (cart. coord. in units of alat)
               a(1) = (   1.000000   0.000000   0.000000 )  
               a(2) = (   0.000000  -1.414214   0.000000 )  
               a(3) = (   0.000000   0.000000   6.370270 )  

     reciprocal axes: (cart. coord. in units 2 pi/alat)
               b(1) = (  1.000000 -0.000000 -0.000000 )  
               b(2) = ( -0.000000 -0.707107 -0.000000 )  
               b(3) = ( -0.000000 -0.000000  0.156979 )  


     PseudoPot. # 1 for C  read from file:
     ./C.pbe-n-kjpaw_psl.1.0.0.UPF
     MD5 check sum: 5d2aebdfa2cae82b50a7e79e9516da0f
     Pseudo is Projector augmented-wave + core cor, Zval =  4.0
     Generated using "atomic" code by A. Dal Corso  v.5.1
     Shape of augmentation charge: PSQ
     Using radial grid of 1073 points,  4 beta functions with: 
                l(1) =   0
                l(2) =   0
                l(3) =   1
                l(4) =   1
     Q(r) pseudized with 0 coefficients 


     PseudoPot. # 2 for H  read from file:
     ./H_ONCV_PBE-1.0.oncvpsp.upf
     MD5 check sum: 1790becc920ee074925cf490c71280fe
     Pseudo is Norm-conserving, Zval =  1.0
     Generated using ONCVPSP code by D. R. Hamann
     Using radial grid of 1166 points,  2 beta functions with: 
                l(1) =   0
                l(2) =   0

     atomic species   valence    mass     pseudopotential
     C                 4.00    12.01100     C ( 1.00)
     H                 1.00     1.00800     H ( 1.00)

      8 Sym. Ops., with inversion, found ( 6 have fractional translation)



   Cartesian axes

     site n.     atom                  positions (alat units)
         1        C      tau(   1) = (  -0.0000000  -0.3611404   4.4247609  )
         2        C      tau(   2) = (   0.5000000  -0.6995197   4.4247609  )
         3        C      tau(   3) = (   0.0000000   0.0011500   3.9360405  )
         4        C      tau(   4) = (   0.5000000  -1.0618102   3.9360405  )
         5        C      tau(   5) = (   0.0000000  -0.3533013   3.4350066  )
         6        C      tau(   6) = (   0.5000000  -0.7073588   3.4350066  )
         7        C      tau(   7) = (   0.0000000  -0.0002520   2.9352634  )
         8        C      tau(   8) = (   0.5000000  -1.0604081   2.9352634  )
         9        C      tau(   9) = (  -0.0000000  -0.3547034   2.4342296  )
        10        C      tau(  10) = (   0.5000000  -0.7059567   2.4342296  )
        11        C      tau(  11) = (  -0.0000000   0.0075871   1.9455091  )
        12        C      tau(  12) = (   0.5000000  -1.0682472   1.9455091  )
        13        H      tau(  13) = (   0.0000000  -0.1238861   4.7893624  )
        14        H      tau(  14) = (   0.5000000  -0.9367741   4.7893624  )
        15        H      tau(  15) = (   0.0000000  -0.2296673   1.5809076  )
        16        H      tau(  16) = (   0.5000000  -0.8309929   1.5809076  )

     number of k points=    20  Marzari-Vanderbilt smearing, width (Ry)=  0.0100
                       cart. coord. in units 2pi/alat
        k(    1) = (   0.0000000  -0.0000000   0.0000000), wk =   0.0317460
        k(    2) = (   0.0000000  -0.1010153   0.0000000), wk =   0.0634921
        k(    3) = (   0.0000000  -0.2020305   0.0000000), wk =   0.0634921
        k(    4) = (   0.0000000  -0.3030458   0.0000000), wk =   0.0634921
        k(    5) = (   0.1111111  -0.0000000   0.0000000), wk =   0.0634921
        k(    6) = (   0.1111111  -0.1010153   0.0000000), wk =   0.1269841
        k(    7) = (   0.1111111  -0.2020305   0.0000000), wk =   0.1269841
        k(    8) = (   0.1111111  -0.3030458   0.0000000), wk =   0.1269841
        k(    9) = (   0.2222222  -0.0000000   0.0000000), wk =   0.0634921
        k(   10) = (   0.2222222  -0.1010153   0.0000000), wk =   0.1269841
        k(   11) = (   0.2222222  -0.2020305   0.0000000), wk =   0.1269841
        k(   12) = (   0.2222222  -0.3030458   0.0000000), wk =   0.1269841
        k(   13) = (   0.3333333  -0.0000000   0.0000000), wk =   0.0634921
        k(   14) = (   0.3333333  -0.1010153   0.0000000), wk =   0.1269841
        k(   15) = (   0.3333333  -0.2020305   0.0000000), wk =   0.1269841
        k(   16) = (   0.3333333  -0.3030458   0.0000000), wk =   0.1269841
        k(   17) = (   0.4444444  -0.0000000   0.0000000), wk =   0.0634921
        k(   18) = (   0.4444444  -0.1010153   0.0000000), wk =   0.1269841
        k(   19) = (   0.4444444  -0.2020305   0.0000000), wk =   0.1269841
        k(   20) = (   0.4444444  -0.3030458   0.0000000), wk =   0.1269841

     Dense  grid:   268217 G-vectors     FFT dimensions: (  40,  60, 250)

     Smooth grid:    94901 G-vectors     FFT dimensions: (  30,  40, 180)

     Estimated max dynamical RAM per process >      77.95 MB

     Estimated total dynamical RAM >     623.62 MB

     Initial potential from superposition of free atoms

     starting charge      51.9995, renormalised to      52.0000
     Starting wfcs are   52 randomized atomic wfcs
     Checking if some PAW data can be deallocated... 

     total cpu time spent up to now is        1.3 secs

     Self-consistent Calculation

     iteration #  1     ecut=    80.00 Ry     beta= 0.30
     Davidson diagonalization with overlap
     ethr =  1.00E-02,  avg # of iterations =  2.8

     negative rho (up, down):  2.634E-08 0.000E+00

     total cpu time spent up to now is        2.9 secs

     total energy              =    -226.01376161 Ry
     estimated scf accuracy    <       1.19549695 Ry

     iteration #  2     ecut=    80.00 Ry     beta= 0.30
     Davidson diagonalization with overlap
     ethr =  2.30E-03,  avg # of iterations =  4.0

     negative rho (up, down):  4.601E-07 0.000E+00

     total cpu time spent up to now is        4.2 secs

     total energy              =    -225.92592241 Ry
     estimated scf accuracy    <       0.37485301 Ry

     iteration #  3     ecut=    80.00 Ry     beta= 0.30
     Davidson diagonalization with overlap
     ethr =  7.21E-04,  avg # of iterations =  5.1

     negative rho (up, down):  1.694E-06 0.000E+00

     total cpu time spent up to now is        5.6 secs

     total energy              =    -225.93921848 Ry
     estimated scf accuracy    <       0.05189771 Ry

     iteration #  4     ecut=    80.00 Ry     beta= 0.30
     Davidson diagonalization with overlap
     ethr =  9.98E-05,  avg # of iterations =  5.5

     negative rho (up, down):  2.832E-06 0.000E+00

     total cpu time spent up to now is        7.0 secs

     total energy              =    -225.94228724 Ry
     estimated scf accuracy    <       0.00515726 Ry

     iteration #  5     ecut=    80.00 Ry     beta= 0.30
     Davidson diagonalization with overlap
     c_bands:  1 eigenvalues not converged
     ethr =  9.92E-06,  avg # of iterations =  7.0

     negative rho (up, down):  2.644E-06 0.000E+00

     total cpu time spent up to now is        8.7 secs

     total energy              =    -225.94286226 Ry
     estimated scf accuracy    <       0.00054458 Ry

     iteration #  6     ecut=    80.00 Ry     beta= 0.30
     Davidson diagonalization with overlap
     ethr =  1.05E-06,  avg # of iterations =  4.0

     negative rho (up, down):  2.691E-06 0.000E+00

     total cpu time spent up to now is       10.2 secs

     total energy              =    -225.94296964 Ry
     estimated scf accuracy    <       0.00007764 Ry

     iteration #  7     ecut=    80.00 Ry     beta= 0.30
     Davidson diagonalization with overlap
     ethr =  1.49E-07,  avg # of iterations =  2.6

     negative rho (up, down):  2.534E-06 0.000E+00

     total cpu time spent up to now is       11.5 secs

     total energy              =    -225.94297639 Ry
     estimated scf accuracy    <       0.00002294 Ry

     iteration #  8     ecut=    80.00 Ry     beta= 0.30
     Davidson diagonalization with overlap
     ethr =  4.41E-08,  avg # of iterations =  2.1

     negative rho (up, down):  2.478E-06 0.000E+00

     total cpu time spent up to now is       12.9 secs

     total energy              =    -225.94298003 Ry
     estimated scf accuracy    <       0.00000281 Ry

     iteration #  9     ecut=    80.00 Ry     beta= 0.30
     Davidson diagonalization with overlap
     ethr =  5.40E-09,  avg # of iterations =  2.7

     negative rho (up, down):  2.428E-06 0.000E+00

     total cpu time spent up to now is       14.3 secs

     total energy              =    -225.94298069 Ry
     estimated scf accuracy    <       0.00000236 Ry

     iteration # 10     ecut=    80.00 Ry     beta= 0.30
     Davidson diagonalization with overlap
     ethr =  4.55E-09,  avg # of iterations =  2.0

     negative rho (up, down):  2.407E-06 0.000E+00

     total cpu time spent up to now is       15.6 secs

     total energy              =    -225.94298088 Ry
     estimated scf accuracy    <       0.00000028 Ry

     iteration # 11     ecut=    80.00 Ry     beta= 0.30
     Davidson diagonalization with overlap
     ethr =  5.43E-10,  avg # of iterations =  3.4

     negative rho (up, down):  2.399E-06 0.000E+00

     total cpu time spent up to now is       17.1 secs

     total energy              =    -225.94298101 Ry
     estimated scf accuracy    <       0.00000012 Ry

     iteration # 12     ecut=    80.00 Ry     beta= 0.30
     Davidson diagonalization with overlap
     ethr =  2.29E-10,  avg # of iterations =  2.1

     negative rho (up, down):  2.395E-06 0.000E+00

     total cpu time spent up to now is       18.3 secs

     total energy              =    -225.94298099 Ry
     estimated scf accuracy    <       0.00000006 Ry

     iteration # 13     ecut=    80.00 Ry     beta= 0.30
     Davidson diagonalization with overlap
     ethr =  1.08E-10,  avg # of iterations =  2.8

     negative rho (up, down):  2.393E-06 0.000E+00

     total cpu time spent up to now is       19.7 secs

     End of self-consistent calculation

          k = 0.0000-0.0000 0.0000 ( 11877 PWs)   bands (ev):

   -15.9419 -14.8708 -13.1188 -10.9237  -8.7406  -7.6348  -7.3165  -6.3827
    -4.7990  -4.4585  -4.0238  -2.9549  -2.7232  -2.1144  -0.8928  -0.7104
    -0.4007  -0.0885   1.2019   1.7488   2.1413   2.6996   3.9663   3.9800
     4.3052   4.8222   6.9571   7.2300   9.7259  10.1506  10.8754

          k = 0.0000-0.1010 0.0000 ( 11865 PWs)   bands (ev):

   -15.7558 -14.6904 -12.9558 -10.8387  -9.5170  -9.2542  -6.8309  -5.9969
    -5.5530  -4.0528  -3.5746  -3.0059  -1.8738  -1.8544  -1.0269  -0.7170
     0.0614   0.2218   1.2901   1.5207   2.3489   2.6522   3.6961   3.7467
     4.1126   4.2601   7.1619   7.4676   9.9173  10.1234  11.0263

          k = 0.0000-0.2020 0.0000 ( 11855 PWs)   bands (ev):

   -15.2001 -14.1551 -12.4902 -11.4309 -10.6414 -10.5761  -7.3383  -6.7445
    -5.4374  -4.4060  -3.0411  -1.7309  -1.7302  -0.7600  -0.1972  -0.1633
     0.4373   0.4982   1.5315   2.0436   2.0485   2.4931   2.9800   3.0651
     3.3151   3.6019   7.8100   8.0541  10.2705  10.3847  10.8879

          k = 0.0000-0.3030 0.0000 ( 11832 PWs)   bands (ev):

   -14.2842 -13.3238 -12.9603 -12.1864 -11.5661 -10.9243  -7.7251  -7.0773
    -5.6664  -4.7117  -2.9639  -1.9372  -0.3881   0.1703   0.6410   0.7772
     1.1713   1.1993   1.7607   1.8113   2.0176   2.1462   2.1899   2.2647
     2.6447   2.7351   8.8570   8.9029   9.9259  10.3318  10.7379

          k = 0.1111-0.0000 0.0000 ( 11879 PWs)   bands (ev):

   -15.7159 -14.6473 -12.8994 -10.7097  -8.5347  -7.4340  -7.2501  -6.3242
    -4.7554  -4.2658  -3.8159  -2.8017  -2.7034  -1.9158  -1.9134  -1.0725
    -0.6381  -0.4167   0.2618   1.6431   1.7616   2.0895   3.0017   3.4877
     3.7413   4.1988   7.1713   7.4625   9.7714  10.9719  10.9942

          k = 0.1111-0.1010 0.0000 ( 11849 PWs)   bands (ev):

   -15.5303 -14.4676 -12.7373 -10.6267  -9.3346  -9.0600  -6.6784  -5.8633
    -5.4742  -3.9511  -3.4620  -2.9865  -1.8414  -1.7080  -1.6373  -1.0173
    -0.8110   0.1770   0.4206   1.4811   1.7406   2.0751   2.7459   2.7643
     3.7047   4.1342   7.4033   7.7002  10.0903  11.1954  11.4723

          k = 0.1111-0.2020 0.0000 ( 11838 PWs)   bands (ev):

   -14.9763 -13.9344 -12.2748 -11.2271 -10.4359 -10.3776  -7.1552  -6.5525
    -5.2836  -4.2694  -3.0211  -2.0910  -1.7512  -1.1260  -0.6423  -0.1705
    -0.0652   0.1601   1.0153   1.4592   1.5835   1.6520   1.8144   2.1320
     3.2982   3.9161   8.0668   8.3226  10.7138  11.2342  11.5019

          k = 0.1111-0.3030 0.0000 ( 11837 PWs)   bands (ev):

   -14.0637 -13.1069 -12.7461 -11.9755 -11.3580 -10.7210  -7.5248  -6.8825
    -5.4881  -4.5398  -2.8585  -1.8335  -1.0922  -0.3685  -0.2562   0.1967
     0.5419   0.6262   0.9485   1.1705   1.2302   1.6650   1.9616   2.3246
     2.7903   2.9072   9.1182   9.2358  10.4183  10.6091  11.5625

          k = 0.2222-0.0000 0.0000 ( 11840 PWs)   bands (ev):

   -15.0411 -13.9804 -12.2448 -10.0714  -7.9200  -7.3609  -6.8332  -6.4435
    -4.8941  -3.7076  -3.6059  -3.2088  -2.8759  -2.7330  -2.3755  -1.3809
    -1.3357  -0.6342  -0.4939   0.0736   1.1113   1.1962   1.5869   1.8023
     2.1430   3.7897   7.8856   8.1193  10.1068  10.2028  10.7497

          k = 0.2222-0.1010 0.0000 ( 11830 PWs)   bands (ev):

   -14.8573 -13.8029 -12.0859  -9.9952  -8.8553  -8.5041  -6.3946  -5.7374
    -5.5871  -3.9343  -3.5524  -3.4152  -2.4154  -2.3472  -1.8114  -1.2221
    -1.0769  -0.5610  -0.4162   0.3056   0.4639   0.6144   1.4096   1.6156
     2.9728   3.4183   8.1329   8.3701  10.6126  10.7590  10.9460

          k = 0.2222-0.2020 0.0000 ( 11839 PWs)   bands (ev):

   -14.3089 -13.2766 -11.6332 -10.6378  -9.8255  -9.8006  -6.6670  -6.0485
    -4.9228  -4.7605  -3.3478  -3.2958  -2.4770  -1.8253  -1.1689  -0.9305
    -0.6010  -0.4479  -0.3404   0.1632   0.2673   0.5927   1.0900   1.8514
     2.7141   3.3405   8.8072   9.0202  11.3363  11.8873  11.9818

          k = 0.2222-0.3030 0.0000 ( 11834 PWs)   bands (ev):

   -13.4079 -12.4628 -12.1132 -11.3514 -10.7412 -10.1177  -6.9603  -6.3327
    -5.0333  -4.0990  -3.7470  -2.7086  -2.4293  -2.1711  -1.5027  -1.3196
    -1.1343  -0.8354   0.2237   1.0507   1.1824   1.1852   1.3954   1.6846
     2.4040   2.7747   9.8054   9.9221  11.1993  11.2917  12.5561

          k = 0.3333-0.0000 0.0000 ( 11864 PWs)   bands (ev):

   -13.9294 -12.8825 -11.1682  -9.0219  -8.5968  -7.6423  -6.9063  -6.0534
    -5.8381  -4.0197  -3.9440  -3.1371  -2.8522  -2.2603  -1.9374  -1.8833
    -1.7887  -0.7922  -0.6675  -0.4991  -0.4174  -0.1107   0.2451   0.3611
     1.1740   3.0206   9.0516   9.0801   9.9312  10.2620  11.3433

          k = 0.3333-0.1010 0.0000 ( 11875 PWs)   bands (ev):

   -13.7494 -12.7095 -11.0153  -8.9823  -8.7806  -8.0069  -6.7301  -6.5863
    -6.1072  -4.2744  -3.9897  -3.1293  -3.0651  -2.2974  -1.9074  -1.6921
    -1.6431  -1.1658  -0.6666  -0.6137  -0.3413  -0.2006   0.5358   0.9660
     1.3679   2.8332   9.2969   9.4048  10.4020  10.6324  11.2911

          k = 0.3333-0.2020 0.0000 ( 11856 PWs)   bands (ev):

   -13.2142 -12.1987 -10.5828  -9.8331  -8.9874  -8.8402  -6.7510  -6.3103
    -6.2373  -4.8858  -4.1315  -3.7079  -3.4938  -3.1964  -2.4526  -2.1012
    -1.4852  -0.4504  -0.2517  -0.1587   0.0624   0.4190   0.5488   0.8702
     2.2322   2.3416   9.9282  10.0257  11.3828  11.6026  12.0340

          k = 0.3333-0.3030 0.0000 ( 11846 PWs)   bands (ev):

   -12.3425 -11.4199 -11.1148 -10.3575  -9.7508  -9.1447  -6.3084  -6.0202
    -5.6696  -5.4731  -4.8980  -4.4729  -3.6965  -3.3396  -2.8155  -2.7024
    -1.3894  -0.7257  -0.1976  -0.0434   0.6122   0.9676   1.2742   1.4976
     1.7752   2.3368  10.6665  10.7438  12.0655  12.1565  12.4417

          k = 0.4444-0.0000 0.0000 ( 11880 PWs)   bands (ev):

   -12.4089 -11.3827 -10.5520  -9.6995  -9.5555  -7.9143  -7.5904  -5.8471
    -5.5138  -4.4602  -3.7881  -2.9776  -2.7221  -2.3245  -1.8479  -1.4794
    -1.4441  -1.3256  -1.0796  -0.9640  -0.9506  -0.8566  -0.8227   0.1628
     0.7223   1.9386   9.7142  10.3234  10.4943  10.7473  10.8979

          k = 0.4444-0.1010 0.0000 ( 11886 PWs)   bands (ev):

   -12.2387 -11.2208 -10.4218  -9.5627  -9.4341  -7.8527  -7.4823  -5.8264
    -5.8204  -5.7025  -4.1558  -3.9960  -3.0959  -2.4183  -1.9545  -1.7233
    -1.4087  -1.1417  -0.8280  -0.7262  -0.6357  -0.3818  -0.1752   0.3069
     0.8406   1.9221  10.3277  10.3292  10.4644  10.9668  11.3464

          k = 0.4444-0.2020 0.0000 ( 11853 PWs)   bands (ev):

   -11.7409 -10.7514 -10.1283  -9.2428  -9.1052  -7.7993  -7.2971  -7.0185
    -6.6078  -5.9024  -5.5621  -5.1354  -3.3645  -3.3028  -2.2791  -2.0935
    -1.5648  -1.3211  -0.7855  -0.1692   0.0660   0.1461   0.5945   1.0387
     1.2756   1.8499  10.8636  11.0084  11.3071  11.4607  12.0012

          k = 0.4444-0.3030 0.0000 ( 11850 PWs)   bands (ev):

   -10.9778 -10.2356 -10.0129  -9.3337  -8.5517  -8.0176  -7.7647  -7.0671
    -6.8903  -6.6387  -6.1782  -6.0490  -3.7002  -3.3678  -2.7491  -2.4027
    -1.7411  -1.4613  -0.6559  -0.3161   0.2300   0.3355   1.3831   1.5083
     1.7312   1.8030  11.4176  11.4213  12.0274  12.1476  13.1114

     the Fermi energy is     5.5354 ev

!    total energy              =    -225.94298100 Ry
     estimated scf accuracy    <          3.5E-09 Ry
     smearing contrib. (-TS)   =       0.00000000 Ry
     internal energy E=F+TS    =    -225.94298100 Ry

     The total energy is F=E-TS. E is the sum of the following terms:
     one-electron contribution =   -1231.91632399 Ry
     hartree contribution      =     640.03986689 Ry
     xc contribution           =     -59.13968163 Ry
     ewald contribution        =     499.03024464 Ry
     one-center paw contrib.   =     -73.95708691 Ry

     convergence has been achieved in  13 iterations

     negative rho (up, down):  2.393E-06 0.000E+00

     Forces acting on atoms (cartesian axes, Ry/au):

     atom    1 type  1   force =     0.00000000    0.00002185    0.00002997
     atom    2 type  1   force =     0.00000000   -0.00002185    0.00002997
     atom    3 type  1   force =     0.00000000    0.00006350    0.00001666
     atom    4 type  1   force =     0.00000000   -0.00006350    0.00001666
     atom    5 type  1   force =     0.00000000   -0.00005993   -0.00000699
     atom    6 type  1   force =     0.00000000    0.00005993   -0.00000699
     atom    7 type  1   force =     0.00000000    0.00005993    0.00000699
     atom    8 type  1   force =     0.00000000   -0.00005993    0.00000699
     atom    9 type  1   force =     0.00000000   -0.00006350   -0.00001666
     atom   10 type  1   force =     0.00000000    0.00006350   -0.00001666
     atom   11 type  1   force =     0.00000000   -0.00002185   -0.00002997
     atom   12 type  1   force =     0.00000000    0.00002185   -0.00002997
     atom   13 type  2   force =     0.00000000   -0.00001475   -0.00007680
     atom   14 type  2   force =     0.00000000    0.00001475   -0.00007680
     atom   15 type  2   force =     0.00000000    0.00001475    0.00007680
     atom   16 type  2   force =     0.00000000   -0.00001475    0.00007680

     Total force =     0.000249     Total SCF correction =     0.000139
     SCF correction compared to forces is large: reduce conv_thr to get better values


     Computing stress (Cartesian axis) and pressure


     negative rho (up, down):  2.393E-06 0.000E+00
          total   stress  (Ry/bohr**3)                   (kbar)     P=       25.95
   0.00017111   0.00000000   0.00000000           25.17        0.00        0.00
   0.00000000   0.00036222   0.00000000            0.00       53.28        0.00
   0.00000000   0.00000000  -0.00000411            0.00        0.00       -0.60


     Writing all to output data dir /tmp/qe/slab.save/ :
     XML data file, charge density, pseudopotentials, collected wavefunctions

     init_run     :      0.89s CPU      1.12s WALL (       1 calls)
     electrons    :     18.13s CPU     18.42s WALL (       1 calls)
     forces       :      0.25s CPU      0.26s WALL (       1 calls)
     stress       :      2.76s CPU      2.78s WALL (       1 calls)

     Called by init_run:
     wfcinit      :      0.65s CPU      0.77s WALL (       1 calls)
     potinit      :      0.11s CPU      0.15s WALL (       1 calls)
     hinit0       :      0.05s CPU      0.10s WALL (       1 calls)

     Called by electrons:
     c_bands      :     13.71s CPU     13.90s WALL (      13 calls)
     sum_band     :      2.74s CPU      2.80s WALL (      13 calls)
     v_of_rho     :      0.52s CPU      0.54s WALL (      14 calls)
     newd         :      0.32s CPU      0.35s WALL (      14 calls)
     PAW_pot      :      0.86s CPU      0.87s WALL (      14 calls)
     mix_rho      :      0.05s CPU      0.05s WALL (      13 calls)

     Called by c_bands:
     init_us_2    :      0.40s CPU      0.41s WALL (     580 calls)
     cegterg      :     13.05s CPU     13.23s WALL (     260 calls)

     Called by *egterg:
     cdiaghg      :      1.02s CPU      1.13s WALL (    1183 calls)
     h_psi        :     10.17s CPU     10.33s WALL (    1203 calls)
     s_psi        :      0.55s CPU      0.55s WALL (    1203 calls)
     g_psi        :      0.07s CPU      0.07s WALL (     923 calls)

     Called by h_psi:
     h_psi:calbec :      0.61s CPU      0.63s WALL (    1203 calls)
     vloc_psi     :      8.84s CPU      8.97s WALL (    1203 calls)
     add_vuspsi   :      0.64s CPU      0.65s WALL (    1203 calls)

     General routines
     calbec       :      0.87s CPU      0.89s WALL (    1563 calls)
     fft          :      0.24s CPU      0.31s WALL (     205 calls)
     ffts         :      0.01s CPU      0.03s WALL (      27 calls)
     fftw         :      7.93s CPU      8.04s WALL (   52414 calls)
     interpolate  :      0.02s CPU      0.04s WALL (      14 calls)

     Parallel routines

     PWSCF        :     22.17s CPU     22.89s WALL


   This run was terminated on:  12:31:20   1Aug2026            

=------------------------------------------------------------------------------=
   JOB DONE.
=------------------------------------------------------------------------------=
Note: The following floating-point exceptions are signalling: IEEE_UNDERFLOW_FLAG IEEE_DENORMAL
Note: The following floating-point exceptions are signalling: IEEE_UNDERFLOW_FLAG IEEE_DENORMAL
Note: The following floating-point exceptions are signalling: IEEE_UNDERFLOW_FLAG IEEE_DENORMAL
Note: The following floating-point exceptions are signalling: IEEE_UNDERFLOW_FLAG IEEE_DENORMAL
Note: The following floating-point exceptions are signalling: IEEE_UNDERFLOW_FLAG IEEE_DENORMAL
Note: The following floating-point exceptions are signalling: IEEE_UNDERFLOW_FLAG IEEE_DENORMAL
Note: The following floating-point exceptions are signalling: IEEE_UNDERFLOW_FLAG IEEE_DENORMAL
Note: The following floating-point exceptions are signalling: IEEE_UNDERFLOW_FLAG IEEE_DENORMAL
