
     Program PWSCF v.7.3.1 starts on  1Aug2026 at 12:30:56 

     This program is part of the open-source Quantum ESPRESSO suite
     for quantum simulation of materials; please cite
         "P. Giannozzi et al., J. Phys.:Condens. Matter 21 395502 (2009);
         "P. Giannozzi et al., J. Phys.:Condens. Matter 29 465901 (2017);
         "P. Giannozzi et al., J. Chem. Phys. 152 154105 (2020);
          URL http://www.quantum-espresso.org", 
     in publications or presentations arising from this work. More details at
     http://www.quantum-espresso.org/quote

     Parallel version (MPI), running on     8 processors

     MPI processes distributed on     1 nodes
     187304 MiB available memory on the printing compute node when the environment starts

     Reading input from pw.in

     Current dimensions of program PWSCF are:
     Max number of different atomic species (ntypx) = 10
     Max number of k-points (npk) =  40000
     Max angular momentum in pseudopotentials (lmaxx) =  4
     file C.pbe-n-kjpaw_psl.1.0.0.UPF: wavefunction(s)  2S 2P renormalized
     Message from routine volume:
     axis vectors are left-handed
     Message from routine setup:
     using ibrav=0 with symmetry is DISCOURAGED, use correct ibrav instead

     R & G space division:  proc/nbgrp/npool/nimage =       8
     Subspace diagonalization in iterative solution of the eigenvalue problem:
     a serial algorithm will be used


     Parallelization info
     --------------------
     sticks:   dense  smooth     PW     G-vecs:    dense   smooth      PW
     Min         257     129     37                46863    16565    2539
     Max         258     130     38                46880    16580    2546
     Sum        2063    1037    299               375003   132581   20337

     Using Slab Decomposition



     bravais-lattice index     =            0
     lattice parameter (alat)  =       4.7752  a.u.
     unit-cell volume          =     980.9734 (a.u.)^3
     number of atoms/cell      =           16
     number of atomic types    =            2
     number of electrons       =        52.00
     number of Kohn-Sham states=           31
     kinetic-energy cutoff     =     100.0000  Ry
     charge density cutoff     =     800.0000  Ry
     scf convergence threshold =      1.0E-08
     mixing beta               =       0.3000
     number of iterations used =            8  plain     mixing
     Exchange-correlation= PBE
                           (   1   4   3   4   0   0   0)

     celldm(1)=   4.775235  celldm(2)=   0.000000  celldm(3)=   0.000000
     celldm(4)=   0.000000  celldm(5)=   0.000000  celldm(6)=   0.000000

     crystal axes: (cart. coord. in units of alat)
               a(1) = (   1.000000   0.000000   0.000000 )  
               a(2) = (   0.000000  -1.414214   0.000000 )  
               a(3) = (   0.000000   0.000000   6.370270 )  

     reciprocal axes: (cart. coord. in units 2 pi/alat)
               b(1) = (  1.000000 -0.000000 -0.000000 )  
               b(2) = ( -0.000000 -0.707107 -0.000000 )  
               b(3) = ( -0.000000 -0.000000  0.156979 )  


     PseudoPot. # 1 for C  read from file:
     ./C.pbe-n-kjpaw_psl.1.0.0.UPF
     MD5 check sum: 5d2aebdfa2cae82b50a7e79e9516da0f
     Pseudo is Projector augmented-wave + core cor, Zval =  4.0
     Generated using "atomic" code by A. Dal Corso  v.5.1
     Shape of augmentation charge: PSQ
     Using radial grid of 1073 points,  4 beta functions with: 
                l(1) =   0
                l(2) =   0
                l(3) =   1
                l(4) =   1
     Q(r) pseudized with 0 coefficients 


     PseudoPot. # 2 for H  read from file:
     ./H_ONCV_PBE-1.0.oncvpsp.upf
     MD5 check sum: 1790becc920ee074925cf490c71280fe
     Pseudo is Norm-conserving, Zval =  1.0
     Generated using ONCVPSP code by D. R. Hamann
     Using radial grid of 1166 points,  2 beta functions with: 
                l(1) =   0
                l(2) =   0

     atomic species   valence    mass     pseudopotential
     C                 4.00    12.01100     C ( 1.00)
     H                 1.00     1.00800     H ( 1.00)

      8 Sym. Ops., with inversion, found ( 6 have fractional translation)



   Cartesian axes

     site n.     atom                  positions (alat units)
         1        C      tau(   1) = (  -0.0000000  -0.3611404   4.4247609  )
         2        C      tau(   2) = (   0.5000000  -0.6995197   4.4247609  )
         3        C      tau(   3) = (   0.0000000   0.0011500   3.9360405  )
         4        C      tau(   4) = (   0.5000000  -1.0618102   3.9360405  )
         5        C      tau(   5) = (   0.0000000  -0.3533013   3.4350066  )
         6        C      tau(   6) = (   0.5000000  -0.7073588   3.4350066  )
         7        C      tau(   7) = (   0.0000000  -0.0002520   2.9352634  )
         8        C      tau(   8) = (   0.5000000  -1.0604081   2.9352634  )
         9        C      tau(   9) = (  -0.0000000  -0.3547034   2.4342296  )
        10        C      tau(  10) = (   0.5000000  -0.7059567   2.4342296  )
        11        C      tau(  11) = (  -0.0000000   0.0075871   1.9455091  )
        12        C      tau(  12) = (   0.5000000  -1.0682472   1.9455091  )
        13        H      tau(  13) = (   0.0000000  -0.1238861   4.7893624  )
        14        H      tau(  14) = (   0.5000000  -0.9367741   4.7893624  )
        15        H      tau(  15) = (   0.0000000  -0.2296673   1.5809076  )
        16        H      tau(  16) = (   0.5000000  -0.8309929   1.5809076  )

     number of k points=    20  Marzari-Vanderbilt smearing, width (Ry)=  0.0100
                       cart. coord. in units 2pi/alat
        k(    1) = (   0.0000000  -0.0000000   0.0000000), wk =   0.0317460
        k(    2) = (   0.0000000  -0.1010153   0.0000000), wk =   0.0634921
        k(    3) = (   0.0000000  -0.2020305   0.0000000), wk =   0.0634921
        k(    4) = (   0.0000000  -0.3030458   0.0000000), wk =   0.0634921
        k(    5) = (   0.1111111  -0.0000000   0.0000000), wk =   0.0634921
        k(    6) = (   0.1111111  -0.1010153   0.0000000), wk =   0.1269841
        k(    7) = (   0.1111111  -0.2020305   0.0000000), wk =   0.1269841
        k(    8) = (   0.1111111  -0.3030458   0.0000000), wk =   0.1269841
        k(    9) = (   0.2222222  -0.0000000   0.0000000), wk =   0.0634921
        k(   10) = (   0.2222222  -0.1010153   0.0000000), wk =   0.1269841
        k(   11) = (   0.2222222  -0.2020305   0.0000000), wk =   0.1269841
        k(   12) = (   0.2222222  -0.3030458   0.0000000), wk =   0.1269841
        k(   13) = (   0.3333333  -0.0000000   0.0000000), wk =   0.0634921
        k(   14) = (   0.3333333  -0.1010153   0.0000000), wk =   0.1269841
        k(   15) = (   0.3333333  -0.2020305   0.0000000), wk =   0.1269841
        k(   16) = (   0.3333333  -0.3030458   0.0000000), wk =   0.1269841
        k(   17) = (   0.4444444  -0.0000000   0.0000000), wk =   0.0634921
        k(   18) = (   0.4444444  -0.1010153   0.0000000), wk =   0.1269841
        k(   19) = (   0.4444444  -0.2020305   0.0000000), wk =   0.1269841
        k(   20) = (   0.4444444  -0.3030458   0.0000000), wk =   0.1269841

     Dense  grid:   375003 G-vectors     FFT dimensions: (  48,  64, 288)

     Smooth grid:   132581 G-vectors     FFT dimensions: (  32,  48, 200)

     Estimated max dynamical RAM per process >     108.88 MB

     Estimated total dynamical RAM >     871.02 MB

     Initial potential from superposition of free atoms

     starting charge      51.9995, renormalised to      52.0000
     Starting wfcs are   52 randomized atomic wfcs
     Checking if some PAW data can be deallocated... 

     total cpu time spent up to now is        1.5 secs

     Self-consistent Calculation

     iteration #  1     ecut=   100.00 Ry     beta= 0.30
     Davidson diagonalization with overlap
     ethr =  1.00E-02,  avg # of iterations =  2.8

     total cpu time spent up to now is        3.4 secs

     total energy              =    -226.01409159 Ry
     estimated scf accuracy    <       1.19562605 Ry

     iteration #  2     ecut=   100.00 Ry     beta= 0.30
     Davidson diagonalization with overlap
     ethr =  2.30E-03,  avg # of iterations =  4.0

     total cpu time spent up to now is        5.1 secs

     total energy              =    -225.92628935 Ry
     estimated scf accuracy    <       0.37491773 Ry

     iteration #  3     ecut=   100.00 Ry     beta= 0.30
     Davidson diagonalization with overlap
     ethr =  7.21E-04,  avg # of iterations =  5.5

     total cpu time spent up to now is        6.8 secs

     total energy              =    -225.93957729 Ry
     estimated scf accuracy    <       0.05194295 Ry

     iteration #  4     ecut=   100.00 Ry     beta= 0.30
     Davidson diagonalization with overlap
     ethr =  9.99E-05,  avg # of iterations =  4.6

     negative rho (up, down):  1.472E-08 0.000E+00

     total cpu time spent up to now is        8.6 secs

     total energy              =    -225.94272072 Ry
     estimated scf accuracy    <       0.00514833 Ry

     iteration #  5     ecut=   100.00 Ry     beta= 0.30
     Davidson diagonalization with overlap
     c_bands:  1 eigenvalues not converged
     ethr =  9.90E-06,  avg # of iterations =  8.8

     negative rho (up, down):  1.840E-08 0.000E+00

     total cpu time spent up to now is       10.7 secs

     total energy              =    -225.94330280 Ry
     estimated scf accuracy    <       0.00054910 Ry

     iteration #  6     ecut=   100.00 Ry     beta= 0.30
     Davidson diagonalization with overlap
     ethr =  1.06E-06,  avg # of iterations =  5.3

     negative rho (up, down):  2.553E-08 0.000E+00

     total cpu time spent up to now is       12.7 secs

     total energy              =    -225.94340985 Ry
     estimated scf accuracy    <       0.00008781 Ry

     iteration #  7     ecut=   100.00 Ry     beta= 0.30
     Davidson diagonalization with overlap
     ethr =  1.69E-07,  avg # of iterations =  3.1

     negative rho (up, down):  2.559E-08 0.000E+00

     total cpu time spent up to now is       14.3 secs

     total energy              =    -225.94341801 Ry
     estimated scf accuracy    <       0.00002926 Ry

     iteration #  8     ecut=   100.00 Ry     beta= 0.30
     Davidson diagonalization with overlap
     ethr =  5.63E-08,  avg # of iterations =  2.1

     negative rho (up, down):  2.669E-08 0.000E+00

     total cpu time spent up to now is       16.0 secs

     total energy              =    -225.94342288 Ry
     estimated scf accuracy    <       0.00000308 Ry

     iteration #  9     ecut=   100.00 Ry     beta= 0.30
     Davidson diagonalization with overlap
     ethr =  5.93E-09,  avg # of iterations =  2.5

     negative rho (up, down):  2.669E-08 0.000E+00

     total cpu time spent up to now is       17.7 secs

     total energy              =    -225.94342366 Ry
     estimated scf accuracy    <       0.00000202 Ry

     iteration # 10     ecut=   100.00 Ry     beta= 0.30
     Davidson diagonalization with overlap
     ethr =  3.89E-09,  avg # of iterations =  2.0

     negative rho (up, down):  2.684E-08 0.000E+00

     total cpu time spent up to now is       19.3 secs

     total energy              =    -225.94342377 Ry
     estimated scf accuracy    <       0.00000042 Ry

     iteration # 11     ecut=   100.00 Ry     beta= 0.30
     Davidson diagonalization with overlap
     ethr =  8.03E-10,  avg # of iterations =  3.0

     negative rho (up, down):  2.701E-08 0.000E+00

     total cpu time spent up to now is       21.0 secs

     total energy              =    -225.94342392 Ry
     estimated scf accuracy    <       0.00000008 Ry

     iteration # 12     ecut=   100.00 Ry     beta= 0.30
     Davidson diagonalization with overlap
     ethr =  1.48E-10,  avg # of iterations =  3.0

     negative rho (up, down):  2.707E-08 0.000E+00

     total cpu time spent up to now is       22.8 secs

     total energy              =    -225.94342389 Ry
     estimated scf accuracy    <       0.00000011 Ry

     iteration # 13     ecut=   100.00 Ry     beta= 0.30
     Davidson diagonalization with overlap
     ethr =  1.48E-10,  avg # of iterations =  2.6

     negative rho (up, down):  2.726E-08 0.000E+00

     total cpu time spent up to now is       24.5 secs

     End of self-consistent calculation

          k = 0.0000-0.0000 0.0000 ( 16631 PWs)   bands (ev):

   -15.9420 -14.8709 -13.1189 -10.9238  -8.7407  -7.6349  -7.3166  -6.3828
    -4.7991  -4.4585  -4.0238  -2.9549  -2.7233  -2.1145  -0.8928  -0.7104
    -0.4008  -0.0885   1.2019   1.7488   2.1412   2.6996   3.9662   3.9799
     4.3052   4.8222   6.9496   7.2293   9.7108  10.1505  10.8749

          k = 0.0000-0.1010 0.0000 ( 16595 PWs)   bands (ev):

   -15.7560 -14.6905 -12.9559 -10.8387  -9.5171  -9.2543  -6.8310  -5.9969
    -5.5531  -4.0528  -3.5747  -3.0060  -1.8738  -1.8545  -1.0270  -0.7171
     0.0614   0.2217   1.2901   1.5207   2.3488   2.6522   3.6961   3.7467
     4.1126   4.2601   7.1546   7.4669   9.9023  10.1231  11.0259

          k = 0.0000-0.2020 0.0000 ( 16588 PWs)   bands (ev):

   -15.2003 -14.1552 -12.4903 -11.4311 -10.6415 -10.5763  -7.3384  -6.7445
    -5.4375  -4.4061  -3.0412  -1.7310  -1.7302  -0.7601  -0.1972  -0.1634
     0.4373   0.4982   1.5315   2.0436   2.0484   2.4931   2.9799   3.0650
     3.3151   3.6019   7.8032   8.0535  10.2700  10.3742  10.8835

          k = 0.0000-0.3030 0.0000 ( 16602 PWs)   bands (ev):

   -14.2844 -13.3239 -12.9605 -12.1865 -11.5662 -10.9244  -7.7251  -7.0773
    -5.6665  -4.7117  -2.9639  -1.9373  -0.3882   0.1703   0.6410   0.7772
     1.1712   1.1992   1.7606   1.8113   2.0175   2.1461   2.1898   2.2647
     2.6447   2.7351   8.8516   8.9025   9.9247  10.3277  10.7372

          k = 0.1111-0.0000 0.0000 ( 16557 PWs)   bands (ev):

   -15.7160 -14.6474 -12.8995 -10.7098  -8.5348  -7.4341  -7.2502  -6.3244
    -4.7555  -4.2659  -3.8159  -2.8017  -2.7034  -1.9159  -1.9135  -1.0725
    -0.6382  -0.4168   0.2618   1.6431   1.7616   2.0894   3.0017   3.4877
     3.7412   4.1987   7.1643   7.4618   9.7585  10.9718  10.9908

          k = 0.1111-0.1010 0.0000 ( 16592 PWs)   bands (ev):

   -15.5305 -14.4677 -12.7374 -10.6268  -9.3347  -9.0602  -6.6784  -5.8634
    -5.4743  -3.9512  -3.4620  -2.9866  -1.8415  -1.7080  -1.6373  -1.0174
    -0.8111   0.1769   0.4206   1.4810   1.7406   2.0751   2.7459   2.7642
     3.7046   4.1341   7.3963   7.6996  10.0760  11.1942  11.4719

          k = 0.1111-0.2020 0.0000 ( 16578 PWs)   bands (ev):

   -14.9764 -13.9345 -12.2749 -11.2273 -10.4360 -10.3777  -7.1553  -6.5525
    -5.2837  -4.2695  -3.0212  -2.0911  -1.7513  -1.1261  -0.6423  -0.1706
    -0.0653   0.1600   1.0153   1.4591   1.5835   1.6520   1.8143   2.1320
     3.2982   3.9160   8.0603   8.3220  10.7002  11.2336  11.4996

          k = 0.1111-0.3030 0.0000 ( 16611 PWs)   bands (ev):

   -14.0638 -13.1071 -12.7462 -11.9756 -11.3581 -10.7211  -7.5249  -6.8826
    -5.4882  -4.5399  -2.8586  -1.8336  -1.0923  -0.3686  -0.2563   0.1966
     0.5419   0.6262   0.9484   1.1705   1.2302   1.6649   1.9615   2.3246
     2.7902   2.9072   9.1129   9.2354  10.4168  10.6049  11.5619

          k = 0.2222-0.0000 0.0000 ( 16563 PWs)   bands (ev):

   -15.0413 -13.9805 -12.2449 -10.0715  -7.9201  -7.3610  -6.8333  -6.4436
    -4.8942  -3.7076  -3.6059  -3.2089  -2.8760  -2.7331  -2.3755  -1.3809
    -1.3357  -0.6343  -0.4939   0.0736   1.1112   1.1961   1.5868   1.8023
     2.1429   3.7896   7.8798   8.1188  10.1066  10.1936  10.7460

          k = 0.2222-0.1010 0.0000 ( 16583 PWs)   bands (ev):

   -14.8574 -13.8030 -12.0860  -9.9953  -8.8555  -8.5042  -6.3947  -5.7375
    -5.5871  -3.9343  -3.5524  -3.4152  -2.4155  -2.3473  -1.8114  -1.2222
    -1.0769  -0.5611  -0.4162   0.3056   0.4638   0.6143   1.4095   1.6155
     2.9727   3.4183   8.1270   8.3696  10.6003  10.7588  10.9450

          k = 0.2222-0.2020 0.0000 ( 16568 PWs)   bands (ev):

   -14.3091 -13.2768 -11.6333 -10.6379  -9.8256  -9.8008  -6.6670  -6.0486
    -4.9228  -4.7606  -3.3478  -3.2958  -2.4771  -1.8253  -1.1690  -0.9305
    -0.6010  -0.4479  -0.3405   0.1632   0.2672   0.5926   1.0900   1.8514
     2.7141   3.3404   8.8016   9.0197  11.3230  11.8873  11.9824

          k = 0.2222-0.3030 0.0000 ( 16575 PWs)   bands (ev):

   -13.4081 -12.4629 -12.1134 -11.3515 -10.7414 -10.1178  -6.9604  -6.3327
    -5.0334  -4.0991  -3.7471  -2.7086  -2.4294  -2.1712  -1.5028  -1.3197
    -1.1344  -0.8354   0.2237   1.0507   1.1824   1.1852   1.3954   1.6846
     2.4039   2.7747   9.8013   9.9217  11.1968  11.2884  12.5441

          k = 0.3333-0.0000 0.0000 ( 16571 PWs)   bands (ev):

   -13.9295 -12.8826 -11.1682  -9.0220  -8.5969  -7.6424  -6.9064  -6.0535
    -5.8382  -4.0198  -3.9441  -3.1372  -2.8523  -2.2604  -1.9374  -1.8834
    -1.7888  -0.7922  -0.6676  -0.4992  -0.4175  -0.1108   0.2451   0.3610
     1.1739   3.0205   9.0479   9.0798   9.9300  10.2617  11.3332

          k = 0.3333-0.1010 0.0000 ( 16559 PWs)   bands (ev):

   -13.7495 -12.7096 -11.0154  -8.9824  -8.7807  -8.0070  -6.7302  -6.5864
    -6.1073  -4.2745  -3.9898  -3.1293  -3.0652  -2.2975  -1.9074  -1.6921
    -1.6431  -1.1659  -0.6667  -0.6138  -0.3413  -0.2007   0.5358   0.9659
     1.3679   2.8331   9.2930   9.4045  10.4012  10.6322  11.2909

          k = 0.3333-0.2020 0.0000 ( 16545 PWs)   bands (ev):

   -13.2143 -12.1988 -10.5829  -9.8333  -8.9875  -8.8402  -6.7511  -6.3104
    -6.2373  -4.8858  -4.1315  -3.7080  -3.4939  -3.1965  -2.4527  -2.1012
    -1.4853  -0.4504  -0.2518  -0.1587   0.0623   0.4190   0.5487   0.8702
     2.2322   2.3416   9.9247  10.0253  11.3827  11.6016  12.0318

          k = 0.3333-0.3030 0.0000 ( 16550 PWs)   bands (ev):

   -12.3426 -11.4200 -11.1150 -10.3576  -9.7509  -9.1448  -6.3084  -6.0203
    -5.6697  -5.4732  -4.8981  -4.4730  -3.6966  -3.3397  -2.8155  -2.7024
    -1.3894  -0.7257  -0.1977  -0.0434   0.6122   0.9676   1.2741   1.4975
     1.7752   2.3367  10.6648  10.7436  12.0622  12.1552  12.4403

          k = 0.4444-0.0000 0.0000 ( 16560 PWs)   bands (ev):

   -12.4090 -11.3828 -10.5522  -9.6996  -9.5556  -7.9143  -7.5905  -5.8471
    -5.5139  -4.4603  -3.7882  -2.9777  -2.7222  -2.3246  -1.8480  -1.4795
    -1.4441  -1.3257  -1.0796  -0.9640  -0.9506  -0.8566  -0.8228   0.1628
     0.7223   1.9386   9.7140  10.3233  10.4942  10.7473  10.8978

          k = 0.4444-0.1010 0.0000 ( 16559 PWs)   bands (ev):

   -12.2388 -11.2210 -10.4220  -9.5628  -9.4342  -7.8528  -7.4824  -5.8265
    -5.8205  -5.7026  -4.1559  -3.9961  -3.0960  -2.4183  -1.9546  -1.7233
    -1.4088  -1.1417  -0.8281  -0.7262  -0.6357  -0.3818  -0.1753   0.3069
     0.8405   1.9221  10.3277  10.3288  10.4643  10.9663  11.3445

          k = 0.4444-0.2020 0.0000 ( 16531 PWs)   bands (ev):

   -11.7410 -10.7516 -10.1284  -9.2429  -9.1053  -7.7994  -7.2972  -7.0186
    -6.6079  -5.9025  -5.5621  -5.1355  -3.3645  -3.3028  -2.2791  -2.0936
    -1.5648  -1.3211  -0.7855  -0.1693   0.0659   0.1460   0.5944   1.0386
     1.2755   1.8498  10.8631  11.0084  11.3070  11.4605  12.0003

          k = 0.4444-0.3030 0.0000 ( 16513 PWs)   bands (ev):

   -10.9780 -10.2357 -10.0130  -9.3338  -8.5518  -8.0177  -7.7648  -7.0672
    -6.8904  -6.6388  -6.1783  -6.0491  -3.7003  -3.3678  -2.7491  -2.4028
    -1.7411  -1.4613  -0.6559  -0.3162   0.2299   0.3354   1.3831   1.5083
     1.7311   1.8029  11.4174  11.4213  12.0274  12.1475  13.1113

     the Fermi energy is     5.5353 ev

!    total energy              =    -225.94342391 Ry
     estimated scf accuracy    <          1.4E-09 Ry
     smearing contrib. (-TS)   =       0.00000000 Ry
     internal energy E=F+TS    =    -225.94342391 Ry

     The total energy is F=E-TS. E is the sum of the following terms:
     one-electron contribution =   -1231.91681363 Ry
     hartree contribution      =     640.03985106 Ry
     xc contribution           =     -59.13969488 Ry
     ewald contribution        =     499.03024464 Ry
     one-center paw contrib.   =     -73.95701109 Ry

     convergence has been achieved in  13 iterations

     negative rho (up, down):  2.726E-08 0.000E+00

     Forces acting on atoms (cartesian axes, Ry/au):

     atom    1 type  1   force =     0.00000000    0.00002957    0.00006289
     atom    2 type  1   force =     0.00000000   -0.00002957    0.00006289
     atom    3 type  1   force =     0.00000000    0.00006916    0.00001290
     atom    4 type  1   force =     0.00000000   -0.00006916    0.00001290
     atom    5 type  1   force =     0.00000000   -0.00005769    0.00001266
     atom    6 type  1   force =     0.00000000    0.00005769    0.00001266
     atom    7 type  1   force =     0.00000000    0.00005769   -0.00001266
     atom    8 type  1   force =     0.00000000   -0.00005769   -0.00001266
     atom    9 type  1   force =     0.00000000   -0.00006916   -0.00001290
     atom   10 type  1   force =     0.00000000    0.00006916   -0.00001290
     atom   11 type  1   force =     0.00000000   -0.00002957   -0.00006289
     atom   12 type  1   force =     0.00000000    0.00002957   -0.00006289
     atom   13 type  2   force =     0.00000000   -0.00003053   -0.00009747
     atom   14 type  2   force =     0.00000000    0.00003053   -0.00009747
     atom   15 type  2   force =     0.00000000    0.00003053    0.00009747
     atom   16 type  2   force =     0.00000000   -0.00003053    0.00009747

     Total force =     0.000308     Total SCF correction =     0.000107
     SCF correction compared to forces is large: reduce conv_thr to get better values


     Computing stress (Cartesian axis) and pressure


     negative rho (up, down):  2.726E-08 0.000E+00
          total   stress  (Ry/bohr**3)                   (kbar)     P=       26.22
   0.00017302   0.00000000   0.00000000           25.45        0.00        0.00
   0.00000000   0.00036395   0.00000000            0.00       53.54        0.00
   0.00000000   0.00000000  -0.00000231            0.00        0.00       -0.34


     Writing all to output data dir /tmp/qe/slab.save/ :
     XML data file, charge density, pseudopotentials, collected wavefunctions

     init_run     :      1.09s CPU      1.32s WALL (       1 calls)
     electrons    :     22.65s CPU     22.99s WALL (       1 calls)
     forces       :      0.35s CPU      0.36s WALL (       1 calls)
     stress       :      3.90s CPU      3.92s WALL (       1 calls)

     Called by init_run:
     wfcinit      :      0.79s CPU      0.92s WALL (       1 calls)
     potinit      :      0.13s CPU      0.16s WALL (       1 calls)
     hinit0       :      0.06s CPU      0.11s WALL (       1 calls)

     Called by electrons:
     c_bands      :     17.05s CPU     17.28s WALL (      13 calls)
     sum_band     :      3.54s CPU      3.60s WALL (      13 calls)
     v_of_rho     :      0.76s CPU      0.79s WALL (      14 calls)
     newd         :      0.45s CPU      0.48s WALL (      14 calls)
     PAW_pot      :      0.86s CPU      0.88s WALL (      14 calls)
     mix_rho      :      0.07s CPU      0.08s WALL (      13 calls)

     Called by c_bands:
     init_us_2    :      0.60s CPU      0.62s WALL (     580 calls)
     cegterg      :     16.08s CPU     16.29s WALL (     260 calls)

     Called by *egterg:
     cdiaghg      :      1.09s CPU      1.19s WALL (    1247 calls)
     h_psi        :     12.05s CPU     12.25s WALL (    1267 calls)
     s_psi        :      0.83s CPU      0.83s WALL (    1267 calls)
     g_psi        :      0.10s CPU      0.10s WALL (     987 calls)

     Called by h_psi:
     h_psi:calbec :      0.87s CPU      0.90s WALL (    1267 calls)
     vloc_psi     :     10.07s CPU     10.23s WALL (    1267 calls)
     add_vuspsi   :      1.01s CPU      1.02s WALL (    1267 calls)

     General routines
     calbec       :      1.27s CPU      1.30s WALL (    1627 calls)
     fft          :      0.35s CPU      0.42s WALL (     205 calls)
     ffts         :      0.01s CPU      0.02s WALL (      27 calls)
     fftw         :      8.23s CPU      8.34s WALL (   52872 calls)
     interpolate  :      0.03s CPU      0.04s WALL (      14 calls)

     Parallel routines

     PWSCF        :     28.15s CPU     28.93s WALL


   This run was terminated on:  12:31:25   1Aug2026            

=------------------------------------------------------------------------------=
   JOB DONE.
=------------------------------------------------------------------------------=
Note: The following floating-point exceptions are signalling: IEEE_UNDERFLOW_FLAG IEEE_DENORMAL
Note: The following floating-point exceptions are signalling: IEEE_UNDERFLOW_FLAG IEEE_DENORMAL
Note: The following floating-point exceptions are signalling: IEEE_UNDERFLOW_FLAG IEEE_DENORMAL
Note: The following floating-point exceptions are signalling: IEEE_UNDERFLOW_FLAG IEEE_DENORMAL
Note: The following floating-point exceptions are signalling: IEEE_UNDERFLOW_FLAG IEEE_DENORMAL
Note: The following floating-point exceptions are signalling: IEEE_UNDERFLOW_FLAG IEEE_DENORMAL
Note: The following floating-point exceptions are signalling: IEEE_UNDERFLOW_FLAG IEEE_DENORMAL
Note: The following floating-point exceptions are signalling: IEEE_UNDERFLOW_FLAG IEEE_DENORMAL
