
     Program PWSCF v.7.3.1 starts on  1Aug2026 at 18:41:15 

     This program is part of the open-source Quantum ESPRESSO suite
     for quantum simulation of materials; please cite
         "P. Giannozzi et al., J. Phys.:Condens. Matter 21 395502 (2009);
         "P. Giannozzi et al., J. Phys.:Condens. Matter 29 465901 (2017);
         "P. Giannozzi et al., J. Chem. Phys. 152 154105 (2020);
          URL http://www.quantum-espresso.org", 
     in publications or presentations arising from this work. More details at
     http://www.quantum-espresso.org/quote

     Parallel version (MPI), running on     8 processors

     MPI processes distributed on     1 nodes
     187229 MiB available memory on the printing compute node when the environment starts

     Reading input from pw.in

     Current dimensions of program PWSCF are:
     Max number of different atomic species (ntypx) = 10
     Max number of k-points (npk) =  40000
     Max angular momentum in pseudopotentials (lmaxx) =  4
     file C.pbe-n-kjpaw_psl.1.0.0.UPF: wavefunction(s)  2S 2P renormalized
     Message from routine volume:
     axis vectors are left-handed
     Message from routine setup:
     using ibrav=0 with symmetry is DISCOURAGED, use correct ibrav instead

     R & G space division:  proc/nbgrp/npool/nimage =       8
     Subspace diagonalization in iterative solution of the eigenvalue problem:
     a serial algorithm will be used


     Parallelization info
     --------------------
     sticks:   dense  smooth     PW     G-vecs:    dense   smooth      PW
     Min         326     163     46                69834    24681    3754
     Max         327     164     47                69855    24694    3769
     Sum        2609    1305    373               558717   197527   30105

     Using Slab Decomposition



     bravais-lattice index     =            0
     lattice parameter (alat)  =       4.7752  a.u.
     unit-cell volume          =    1711.7337 (a.u.)^3
     number of atoms/cell      =           28
     number of atomic types    =            2
     number of electrons       =       100.00
     number of Kohn-Sham states=           60
     kinetic-energy cutoff     =      90.0000  Ry
     charge density cutoff     =     720.0000  Ry
     scf convergence threshold =      1.0E-08
     mixing beta               =       0.3000
     number of iterations used =            8  plain     mixing
     Exchange-correlation= PBE
                           (   1   4   3   4   0   0   0)

     celldm(1)=   4.775235  celldm(2)=   0.000000  celldm(3)=   0.000000
     celldm(4)=   0.000000  celldm(5)=   0.000000  celldm(6)=   0.000000

     crystal axes: (cart. coord. in units of alat)
               a(1) = (   1.000000   0.000000   0.000000 )  
               a(2) = (   0.000000  -2.000000   0.000000 )  
               a(3) = (   0.000000   0.000000   7.859987 )  

     reciprocal axes: (cart. coord. in units 2 pi/alat)
               b(1) = (  1.000000 -0.000000 -0.000000 )  
               b(2) = ( -0.000000 -0.500000 -0.000000 )  
               b(3) = ( -0.000000 -0.000000  0.127227 )  


     PseudoPot. # 1 for C  read from file:
     ./C.pbe-n-kjpaw_psl.1.0.0.UPF
     MD5 check sum: 5d2aebdfa2cae82b50a7e79e9516da0f
     Pseudo is Projector augmented-wave + core cor, Zval =  4.0
     Generated using "atomic" code by A. Dal Corso  v.5.1
     Shape of augmentation charge: PSQ
     Using radial grid of 1073 points,  4 beta functions with: 
                l(1) =   0
                l(2) =   0
                l(3) =   1
                l(4) =   1
     Q(r) pseudized with 0 coefficients 


     PseudoPot. # 2 for H  read from file:
     ./H_ONCV_PBE-1.0.oncvpsp.upf
     MD5 check sum: 1790becc920ee074925cf490c71280fe
     Pseudo is Norm-conserving, Zval =  1.0
     Generated using ONCVPSP code by D. R. Hamann
     Using radial grid of 1166 points,  2 beta functions with: 
                l(1) =   0
                l(2) =   0

     atomic species   valence    mass     pseudopotential
     C                 4.00    12.01100     C ( 1.00)
     H                 1.00     1.00800     H ( 1.00)

      4 Sym. Ops., with inversion, found ( 2 have fractional translation)



   Cartesian axes

     site n.     atom                  positions (alat units)
         1        C      tau(   1) = (   0.0000000  -0.6789289   5.8454716  )
         2        C      tau(   2) = (   0.5000000  -0.5361776   5.5244411  )
         3        C      tau(   3) = (   0.5000000   0.0002262   5.2044189  )
         4        C      tau(   4) = (  -0.0000000   0.0001763   4.8363182  )
         5        C      tau(   5) = (   0.0000000  -0.4939013   4.4622272  )
         6        C      tau(   6) = (   0.5000000  -0.4938812   4.1099686  )
         7        C      tau(   7) = (   0.5000000  -0.0061188   3.7500187  )
         8        C      tau(   8) = (  -0.0000000  -0.0060987   3.3977600  )
         9        C      tau(   9) = (   0.0000000  -0.5001763   3.0236691  )
        10        C      tau(  10) = (   0.5000000  -0.5002262   2.6555683  )
        11        C      tau(  11) = (   0.5000000   0.0361776   2.3355461  )
        12        C      tau(  12) = (  -0.0000000   0.1789289   2.0145156  )
        13        C      tau(  13) = (   0.0000000  -1.3212263   5.8460518  )
        14        C      tau(  14) = (   0.5000000  -1.4644346   5.5252850  )
        15        C      tau(  15) = (   0.5000000  -1.0010052   5.1306338  )
        16        C      tau(  16) = (   0.0000000  -1.0008164   4.7925325  )
        17        C      tau(  17) = (  -0.0000000  -1.5063305   4.4581214  )
        18        C      tau(  18) = (   0.5000000  -1.5062515   4.1036681  )
        19        C      tau(  19) = (   0.5000000  -0.9937485   3.7563192  )
        20        C      tau(  20) = (  -0.0000000  -0.9936695   3.4018659  )
        21        C      tau(  21) = (  -0.0000000  -1.4991836   3.0674547  )
        22        C      tau(  22) = (   0.5000000  -1.4989948   2.7293535  )
        23        C      tau(  23) = (   0.5000000  -1.0355654   2.3347022  )
        24        C      tau(  24) = (   0.0000000  -1.1787737   2.0139355  )
        25        H      tau(  25) = (   0.0000000  -0.5088542   6.2461934  )
        26        H      tau(  26) = (   0.0000000  -1.4905364   6.2470596  )
        27        H      tau(  27) = (   0.0000000   0.0088542   1.6137938  )
        28        H      tau(  28) = (  -0.0000000  -1.0094636   1.6129276  )

     number of k points=    15  Marzari-Vanderbilt smearing, width (Ry)=  0.0100
                       cart. coord. in units 2pi/alat
        k(    1) = (   0.0000000  -0.0000000   0.0000000), wk =   0.0444444
        k(    2) = (   0.0000000  -0.1000000   0.0000000), wk =   0.0888889
        k(    3) = (   0.0000000  -0.2000000   0.0000000), wk =   0.0888889
        k(    4) = (   0.1111111  -0.0000000   0.0000000), wk =   0.0888889
        k(    5) = (   0.1111111  -0.1000000   0.0000000), wk =   0.1777778
        k(    6) = (   0.1111111  -0.2000000   0.0000000), wk =   0.1777778
        k(    7) = (   0.2222222  -0.0000000   0.0000000), wk =   0.0888889
        k(    8) = (   0.2222222  -0.1000000   0.0000000), wk =   0.1777778
        k(    9) = (   0.2222222  -0.2000000   0.0000000), wk =   0.1777778
        k(   10) = (   0.3333333  -0.0000000   0.0000000), wk =   0.0888889
        k(   11) = (   0.3333333  -0.1000000   0.0000000), wk =   0.1777778
        k(   12) = (   0.3333333  -0.2000000   0.0000000), wk =   0.1777778
        k(   13) = (   0.4444444  -0.0000000   0.0000000), wk =   0.0888889
        k(   14) = (   0.4444444  -0.1000000   0.0000000), wk =   0.1777778
        k(   15) = (   0.4444444  -0.2000000   0.0000000), wk =   0.1777778

     Dense  grid:   558717 G-vectors     FFT dimensions: (  45,  96, 324)

     Smooth grid:   197527 G-vectors     FFT dimensions: (  30,  60, 240)

     Estimated max dynamical RAM per process >     219.79 MB

     Estimated total dynamical RAM >       1.72 GB

     Initial potential from superposition of free atoms

     starting charge      99.9990, renormalised to     100.0000
     Starting wfcs are  100 randomized atomic wfcs
     Checking if some PAW data can be deallocated... 

     total cpu time spent up to now is        2.7 secs

     Self-consistent Calculation

     iteration #  1     ecut=    90.00 Ry     beta= 0.30
     Davidson diagonalization with overlap
     ethr =  1.00E-02,  avg # of iterations =  2.7

     negative rho (up, down):  1.118E-07 0.000E+00

     total cpu time spent up to now is        7.7 secs

     total energy              =    -447.22204569 Ry
     estimated scf accuracy    <       1.87870509 Ry

     iteration #  2     ecut=    90.00 Ry     beta= 0.30
     Davidson diagonalization with overlap
     ethr =  1.88E-03,  avg # of iterations =  4.9

     negative rho (up, down):  2.241E-06 0.000E+00

     total cpu time spent up to now is       12.0 secs

     total energy              =    -447.04581958 Ry
     estimated scf accuracy    <       0.63705481 Ry

     iteration #  3     ecut=    90.00 Ry     beta= 0.30
     Davidson diagonalization with overlap
     ethr =  6.37E-04,  avg # of iterations =  6.1

     negative rho (up, down):  3.025E-06 0.000E+00

     total cpu time spent up to now is       16.5 secs

     total energy              =    -447.07215033 Ry
     estimated scf accuracy    <       0.07493628 Ry

     iteration #  4     ecut=    90.00 Ry     beta= 0.30
     Davidson diagonalization with overlap
     ethr =  7.49E-05,  avg # of iterations =  9.0

     negative rho (up, down):  3.855E-06 0.000E+00

     total cpu time spent up to now is       21.8 secs

     total energy              =    -447.07831611 Ry
     estimated scf accuracy    <       0.00778702 Ry

     iteration #  5     ecut=    90.00 Ry     beta= 0.30
     Davidson diagonalization with overlap
     ethr =  7.79E-06,  avg # of iterations =  6.9

     negative rho (up, down):  4.821E-06 0.000E+00

     total cpu time spent up to now is       27.2 secs

     total energy              =    -447.07938554 Ry
     estimated scf accuracy    <       0.00121830 Ry

     iteration #  6     ecut=    90.00 Ry     beta= 0.30
     Davidson diagonalization with overlap
     c_bands:  1 eigenvalues not converged
     ethr =  1.22E-06,  avg # of iterations =  7.8

     negative rho (up, down):  4.859E-06 0.000E+00

     total cpu time spent up to now is       32.5 secs

     total energy              =    -447.07948251 Ry
     estimated scf accuracy    <       0.00037471 Ry

     iteration #  7     ecut=    90.00 Ry     beta= 0.30
     Davidson diagonalization with overlap
     ethr =  3.75E-07,  avg # of iterations =  3.9

     negative rho (up, down):  5.228E-06 0.000E+00

     total cpu time spent up to now is       37.1 secs

     total energy              =    -447.07954743 Ry
     estimated scf accuracy    <       0.00012753 Ry

     iteration #  8     ecut=    90.00 Ry     beta= 0.30
     Davidson diagonalization with overlap
     ethr =  1.28E-07,  avg # of iterations =  2.5

     negative rho (up, down):  5.188E-06 0.000E+00

     total cpu time spent up to now is       41.3 secs

     total energy              =    -447.07958007 Ry
     estimated scf accuracy    <       0.00001346 Ry

     iteration #  9     ecut=    90.00 Ry     beta= 0.30
     Davidson diagonalization with overlap
     ethr =  1.35E-08,  avg # of iterations =  2.1

     negative rho (up, down):  5.215E-06 0.000E+00

     total cpu time spent up to now is       45.3 secs

     total energy              =    -447.07958232 Ry
     estimated scf accuracy    <       0.00000085 Ry

     iteration # 10     ecut=    90.00 Ry     beta= 0.30
     Davidson diagonalization with overlap
     ethr =  8.46E-10,  avg # of iterations =  3.7

     negative rho (up, down):  5.241E-06 0.000E+00

     total cpu time spent up to now is       50.4 secs

     total energy              =    -447.07958258 Ry
     estimated scf accuracy    <       0.00000038 Ry

     iteration # 11     ecut=    90.00 Ry     beta= 0.30
     Davidson diagonalization with overlap
     ethr =  3.78E-10,  avg # of iterations =  2.0

     negative rho (up, down):  5.257E-06 0.000E+00

     total cpu time spent up to now is       54.6 secs

     total energy              =    -447.07958266 Ry
     estimated scf accuracy    <       0.00000004 Ry

     iteration # 12     ecut=    90.00 Ry     beta= 0.30
     Davidson diagonalization with overlap
     ethr =  4.15E-11,  avg # of iterations =  2.5

     negative rho (up, down):  5.317E-06 0.000E+00

     total cpu time spent up to now is       58.9 secs

     End of self-consistent calculation

          k = 0.0000-0.0000 0.0000 ( 24667 PWs)   bands (ev):

   -15.4061 -14.8610 -13.9219 -12.5597 -10.9615 -10.9037 -10.8080 -10.3262
   -10.2233  -9.4975  -9.4796  -8.6906  -6.7718  -6.7066  -6.5087  -5.2071
    -5.2055  -4.3995  -3.4367  -3.4311  -2.1544  -1.3951  -1.3916  -0.3103
    -0.1748   0.0766   0.1850   0.4710   0.5961   0.7077   1.0769   1.6580
     2.1686   2.2989   2.3118   2.5124   2.8881   2.8929   2.9915   3.0193
     3.0203   3.1171   3.5616   3.6613   3.6614   3.7607   4.0047   4.9953
     5.1583   5.3001   8.1941   8.6875  10.0899  10.1015  10.2886  10.4593
    10.9151  11.1281  11.1364  11.2811

          k = 0.0000-0.1000 0.0000 ( 24689 PWs)   bands (ev):

   -15.2311 -14.7083 -13.8024 -12.5598 -12.3512 -11.6745 -10.9527 -10.3338
    -9.5453  -9.1278  -8.9410  -8.4547  -6.5983  -6.3809  -6.1846  -5.1060
    -4.8604  -4.2963  -3.4781  -3.1299  -2.2488  -1.3821  -1.2392  -0.9338
    -0.3260  -0.1693  -0.1034   0.2978   0.6325   0.7380   1.1520   1.3684
     1.4827   1.9911   2.2974   2.3497   2.4749   2.4816   2.9696   2.9770
     3.0395   3.4172   3.5456   3.6018   3.6632   3.9361   4.1327   4.6909
     4.8777   5.1398   8.4136   8.9005  10.4605  10.6976  10.7240  11.1183
    11.1465  11.2326  11.4489  11.5590

          k = 0.0000-0.2000 0.0000 ( 24657 PWs)   bands (ev):

   -14.7341 -14.3497 -13.7661 -13.3747 -12.8095 -12.2117 -11.5063 -10.6170
    -9.7482  -8.8981  -8.0602  -7.7893  -6.0475  -5.5693  -5.4220  -4.8068
    -4.3106  -4.0753  -3.3760  -2.8698  -2.6335  -2.1379  -2.0424  -1.1931
    -0.8420  -0.5984  -0.0950   0.2148   0.5312   0.8312   1.0714   1.1238
     1.2778   1.4374   1.8868   1.9283   2.3157   2.3925   2.7401   2.9311
     2.9583   3.2889   3.4282   3.6035   3.8467   4.0708   4.2195   4.3060
     4.6243   5.0218   9.0399   9.4664  10.0627  10.3786  10.9430  11.0885
    11.2058  11.3582  11.7022  11.9805

          k = 0.1111-0.0000 0.0000 ( 24685 PWs)   bands (ev):

   -15.1797 -14.6358 -13.6993 -12.3421 -10.7470 -10.6885 -10.5973 -10.1167
   -10.0158  -9.2926  -9.2753  -8.4951  -6.6024  -6.5108  -6.3931  -5.0355
    -5.0348  -4.3263  -3.3115  -3.3052  -2.3347  -1.3891  -1.3659  -1.1871
    -1.0984  -0.1505   0.0065   0.0665   0.5450   0.6015   0.7746   1.2973
     1.6504   1.8276   1.8902   1.9485   2.0467   2.0884   2.3716   2.5117
     2.6472   2.6593   2.8839   2.9672   3.1634   3.5447   3.5913   4.5530
     4.8836   4.9497   8.4197   8.8961  10.7120  10.7222  10.9254  11.0666
    11.4935  11.5391  11.7374  11.9314

          k = 0.1111-0.1000 0.0000 ( 24678 PWs)   bands (ev):

   -15.0050 -14.4834 -13.5800 -12.3408 -12.1326 -11.4587 -10.7425 -10.1286
    -9.3447  -8.9197  -8.7395  -8.2589  -6.4635  -6.1892  -6.0402  -4.9479
    -4.6996  -4.2014  -3.3835  -2.9740  -2.3343  -1.3459  -1.2648  -1.1281
    -0.9877  -0.7749  -0.1907  -0.1757   0.1338   0.5705   0.7049   0.9638
     1.1917   1.3951   1.4367   1.6039   1.9882   2.2347   2.4229   2.5146
     2.5968   2.8860   2.9685   3.0685   3.1859   3.5847   3.6564   3.9121
     4.7199   4.8844   8.6387   9.1049  10.8151  11.2944  11.3460  11.6366
    11.6708  11.7524  11.9045  11.9957

          k = 0.1111-0.2000 0.0000 ( 24660 PWs)   bands (ev):

   -14.5090 -14.1255 -13.5432 -13.1527 -12.5895 -11.9951 -11.2940 -10.4103
    -9.5478  -8.7035  -7.8683  -7.5899  -5.9445  -5.4347  -5.2624  -4.6692
    -4.1777  -3.8950  -3.2217  -2.7251  -2.4979  -2.0223  -1.9163  -1.3381
    -1.0020  -0.7991  -0.5163  -0.4559  -0.3095   0.1715   0.3121   0.6381
     0.9540   1.0001   1.3553   1.3792   1.7079   1.7933   2.2992   2.4448
     2.5390   2.8488   3.1101   3.2760   3.5752   3.5982   3.6664   3.8988
     4.3063   4.3754   9.2640   9.6596  10.2713  10.5388  10.9392  11.2363
    11.8854  12.0313  12.3307  12.5780

          k = 0.2222-0.0000 0.0000 ( 24650 PWs)   bands (ev):

   -14.5036 -13.9638 -13.0366 -11.6980 -10.1127 -10.0472  -9.9761  -9.4934
    -9.4011  -8.6833  -8.6677  -7.9459  -6.5252  -5.9617  -5.9597  -4.6916
    -4.6005  -4.5603  -3.7026  -3.0957  -3.0787  -2.9617  -2.8148  -1.8084
    -1.2392  -1.1571  -0.9815  -0.3489  -0.2603  -0.1075   0.0250   0.0658
     0.5306   0.7208   0.7367   0.8619   1.0235   1.0628   1.1861   1.5144
     1.7514   2.0663   2.1219   2.3381   2.5914   2.7163   3.6504   3.7053
     3.8433   4.7408   9.0631   9.4078  11.4105  11.4481  11.7034  11.8374
    12.0738  12.1357  12.3589  12.5418

          k = 0.2222-0.1000 0.0000 ( 24662 PWs)   bands (ev):

   -14.3299 -13.8125 -12.9179 -11.6905 -11.4818 -10.8172 -10.1227  -9.5270
    -8.7548  -8.3004  -8.1428  -7.7062  -6.3945  -5.6708  -5.6338  -4.7223
    -4.4849  -4.1306  -3.5683  -3.2213  -2.8744  -2.7238  -2.5517  -1.8330
    -1.4650  -1.3657  -1.0537  -0.6592  -0.4850  -0.3645  -0.1621  -0.0710
     0.4127   0.5900   0.6340   0.8243   0.8306   1.2047   1.2743   1.4286
     1.8069   1.9612   2.0305   2.1843   2.5959   2.6779   3.0034   3.5523
     3.9962   4.2904   9.2653   9.6039  11.1672  11.5047  11.6579  11.7056
    11.9040  12.0844  12.6341  12.7737

          k = 0.2222-0.2000 0.0000 ( 24645 PWs)   bands (ev):

   -13.8369 -13.4567 -12.8788 -12.4910 -11.9349 -11.3522 -10.6661  -9.8026
    -8.9661  -8.1456  -7.3270  -7.0038  -5.9338  -5.2848  -4.9335  -4.4303
    -4.0317  -3.4427  -3.2112  -2.7960  -2.7154  -2.5144  -2.3849  -1.9869
    -1.9299  -1.8044  -1.6543  -1.2564  -1.0081  -0.7700  -0.5161  -0.3966
    -0.1968   0.0024   0.5900   0.6313   1.0084   1.1726   1.4036   1.4922
     1.7718   1.9508   2.0952   2.3380   2.4722   2.8127   2.9853   3.1674
     3.6287   3.6443   9.8031  10.1220  10.4818  10.7073  10.8546  11.1834
    11.5722  12.1650  12.3814  12.6748

          k = 0.3333-0.0000 0.0000 ( 24704 PWs)   bands (ev):

   -13.3900 -12.8600 -11.9563 -10.6753  -9.1862  -8.9959  -8.9844  -8.4848
    -8.4362  -7.7087  -7.7061  -7.6377  -7.5572  -6.0231  -5.7511  -5.2624
    -5.2512  -4.6103  -4.4468  -4.2541  -3.6416  -3.5315  -3.5282  -2.7103
    -2.4469  -2.0227  -1.9264  -1.7066  -1.6950  -1.0603  -1.0522  -0.9228
    -0.3809  -0.0626  -0.0437   0.2294   0.2380   1.0227   1.0436   1.1160
     1.3098   1.4553   1.6396   1.7347   2.0607   2.8341   2.9001   2.9592
     3.6391   4.2429  10.0702  10.2625  11.4139  11.4470  11.8793  11.9145
    12.2922  12.3570  12.4447  12.5905

          k = 0.3333-0.1000 0.0000 ( 24693 PWs)   bands (ev):

   -13.2182 -12.7102 -11.8380 -10.6454 -10.4203  -9.7775  -9.1797  -8.6491
    -7.9173  -7.5212  -7.4007  -7.2306  -7.1154  -5.9010  -5.7061  -5.4562
    -5.1357  -4.6258  -4.2569  -3.8529  -3.5509  -3.2824  -2.8653  -2.8237
    -2.6258  -2.3888  -2.2453  -1.6696  -1.6355  -0.9629  -0.9021  -0.5981
    -0.3521   0.0264   0.2094   0.4604   0.4942   0.5735   0.7740   1.0377
     1.2255   1.2915   1.4477   1.5173   1.9521   2.2333   2.4769   3.0237
     3.2875   3.4994  10.2346  10.4045  10.8222  11.4609  11.7033  12.1024
    12.2092  12.3038  12.6417  13.0039

          k = 0.3333-0.2000 0.0000 ( 24674 PWs)   bands (ev):

   -12.7303 -12.3573 -11.7885 -11.4080 -10.8684 -10.3168  -9.6718  -8.8754
    -8.1761  -7.5366  -7.1579  -7.0006  -6.0509  -5.8829  -5.5665  -5.3225
    -4.9465  -4.3972  -3.8563  -3.4320  -3.1307  -3.0012  -2.9381  -2.4602
    -2.3775  -2.0691  -1.8452  -1.8162  -1.5296  -1.1189  -0.9970  -0.8977
    -0.7461  -0.3648  -0.2359   0.2727   0.3874   0.5950   0.9174   0.9907
     1.2085   1.3254   1.5194   1.5238   1.7281   1.8348   2.2292   2.2683
     2.5967   2.6590  10.2540  10.4539  10.7225  11.0445  11.3394  11.7223
    12.0735  12.3801  12.6106  12.8429

          k = 0.4444-0.0000 0.0000 ( 24776 PWs)   bands (ev):

   -11.8706 -11.3734 -10.5833 -10.0350  -9.8935  -8.7065  -8.5185  -7.5620
    -7.5589  -7.1382  -7.1079  -6.6725  -6.6209  -6.3973  -6.3888  -5.8694
    -5.8557  -5.6851  -5.6594  -4.9854  -4.9301  -4.6428  -4.6412  -3.3035
    -2.5826  -2.5004  -2.4695  -1.6352  -1.6035  -1.4394  -1.2929  -1.0828
    -0.8925  -0.7210  -0.5290  -0.3494  -0.3375   0.5751   0.5826   0.5904
     0.8204   1.0916   1.2885   2.3986   2.4470   2.4945   2.7423   3.1021
     3.3555   3.4262  11.0427  11.0668  11.3217  11.3438  11.4783  11.5756
    12.5203  12.5363  12.8632  12.8669

          k = 0.4444-0.1000 0.0000 ( 24725 PWs)   bands (ev):

   -11.7016 -11.2256 -10.4590  -9.8693  -9.7553  -9.0223  -8.7060  -8.5006
    -8.2316  -7.6441  -7.2988  -7.2235  -6.4550  -6.4011  -5.9337  -5.6862
    -5.6579  -5.3467  -4.9082  -4.8853  -4.5207  -4.1676  -4.1199  -3.2650
    -2.7772  -2.6505  -2.3998  -1.7925  -1.6937  -1.2197  -0.9293  -0.7827
    -0.6364  -0.4751  -0.4276  -0.1137  -0.0349   0.5007   0.5506   0.6915
     0.8515   1.1854   1.2108   1.7020   1.9987   2.1026   2.3845   2.5199
     2.6001   2.7035  10.5922  11.2715  11.3863  11.5226  11.5942  12.1376
    12.2311  12.3612  13.0010  13.1113

          k = 0.4444-0.2000 0.0000 ( 24657 PWs)   bands (ev):

   -11.2218 -10.8731 -10.3314  -9.9807  -9.5373  -9.3783  -9.2598  -8.7812
    -8.4283  -8.2998  -8.1855  -8.0962  -6.2760  -6.2121  -5.8402  -5.7302
    -5.2959  -5.0675  -4.6900  -4.4924  -4.2824  -3.6374  -3.0357  -2.8216
    -2.2826  -2.0632  -1.9180  -1.5817  -1.2712  -1.1846  -0.8411  -0.7951
    -0.4782  -0.3145   0.0671   0.1240   0.3323   0.4591   0.5929   0.6267
     0.7231   0.7965   0.9982   1.0765   1.0907   1.2576   1.4662   1.5054
     1.8099   1.8194  10.7185  10.9766  11.3830  11.6042  11.8535  11.9748
    12.3061  12.4277  12.5277  12.6811

     the Fermi energy is     6.6623 ev

!    total energy              =    -447.07958267 Ry
     estimated scf accuracy    <          5.1E-09 Ry
     smearing contrib. (-TS)   =       0.00000000 Ry
     internal energy E=F+TS    =    -447.07958267 Ry

     The total energy is F=E-TS. E is the sum of the following terms:
     one-electron contribution =   -3168.42091416 Ry
     hartree contribution      =    1633.62615916 Ry
     xc contribution           =    -114.99045356 Ry
     ewald contribution        =    1350.61858164 Ry
     one-center paw contrib.   =    -147.91295573 Ry

     convergence has been achieved in  12 iterations

     negative rho (up, down):  5.317E-06 0.000E+00

     Forces acting on atoms (cartesian axes, Ry/au):

     atom    1 type  1   force =     0.00000000   -0.00004158   -0.00000719
     atom    2 type  1   force =     0.00000000   -0.00000863    0.00000968
     atom    3 type  1   force =     0.00000000    0.00000241   -0.00001527
     atom    4 type  1   force =     0.00000000   -0.00001237   -0.00000855
     atom    5 type  1   force =     0.00000000    0.00002251    0.00001121
     atom    6 type  1   force =    -0.00000000    0.00002792   -0.00000854
     atom    7 type  1   force =     0.00000000   -0.00002792    0.00000854
     atom    8 type  1   force =     0.00000000   -0.00002251   -0.00001121
     atom    9 type  1   force =     0.00000000    0.00001237    0.00000855
     atom   10 type  1   force =     0.00000000   -0.00000241    0.00001527
     atom   11 type  1   force =     0.00000000    0.00000863   -0.00000968
     atom   12 type  1   force =     0.00000000    0.00004158    0.00000719
     atom   13 type  1   force =     0.00000000    0.00002138   -0.00000191
     atom   14 type  1   force =     0.00000000    0.00004254   -0.00000697
     atom   15 type  1   force =     0.00000000    0.00004713   -0.00002176
     atom   16 type  1   force =     0.00000000    0.00002698    0.00000003
     atom   17 type  1   force =     0.00000000   -0.00001583    0.00002334
     atom   18 type  1   force =     0.00000000   -0.00002867   -0.00001696
     atom   19 type  1   force =    -0.00000000    0.00002867    0.00001696
     atom   20 type  1   force =     0.00000000    0.00001583   -0.00002334
     atom   21 type  1   force =    -0.00000000   -0.00002698   -0.00000003
     atom   22 type  1   force =     0.00000000   -0.00004713    0.00002176
     atom   23 type  1   force =     0.00000000   -0.00004254    0.00000697
     atom   24 type  1   force =     0.00000000   -0.00002138    0.00000191
     atom   25 type  2   force =     0.00000000   -0.00002781   -0.00003722
     atom   26 type  2   force =     0.00000000   -0.00001705    0.00005391
     atom   27 type  2   force =     0.00000000    0.00002781    0.00003722
     atom   28 type  2   force =     0.00000000    0.00001705   -0.00005391

     Total force =     0.000184     Total SCF correction =     0.000103
     SCF correction compared to forces is large: reduce conv_thr to get better values


     Computing stress (Cartesian axis) and pressure


     negative rho (up, down):  5.317E-06 0.000E+00
          total   stress  (Ry/bohr**3)                   (kbar)     P=      -14.25
   0.00006109   0.00000000   0.00000000            8.99        0.00        0.00
   0.00000000  -0.00035039  -0.00000007            0.00      -51.54       -0.01
   0.00000000  -0.00000007  -0.00000136            0.00       -0.01       -0.20


     Writing all to output data dir /tmp/qe/slab.save/ :
     XML data file, charge density, pseudopotentials, collected wavefunctions

     init_run     :      2.58s CPU      2.66s WALL (       1 calls)
     electrons    :     55.51s CPU     56.15s WALL (       1 calls)
     forces       :      0.84s CPU      0.86s WALL (       1 calls)
     stress       :     14.67s CPU     14.74s WALL (       1 calls)

     Called by init_run:
     wfcinit      :      2.11s CPU      2.14s WALL (       1 calls)
     potinit      :      0.23s CPU      0.24s WALL (       1 calls)
     hinit0       :      0.06s CPU      0.07s WALL (       1 calls)

     Called by electrons:
     c_bands      :     44.22s CPU     44.56s WALL (      12 calls)
     sum_band     :      7.90s CPU      8.09s WALL (      12 calls)
     v_of_rho     :      1.15s CPU      1.18s WALL (      13 calls)
     newd         :      0.70s CPU      0.79s WALL (      13 calls)
     PAW_pot      :      1.60s CPU      1.61s WALL (      13 calls)
     mix_rho      :      0.11s CPU      0.11s WALL (      12 calls)

     Called by c_bands:
     init_us_2    :      1.21s CPU      1.22s WALL (     405 calls)
     cegterg      :     42.29s CPU     42.60s WALL (     180 calls)

     Called by *egterg:
     cdiaghg      :      2.91s CPU      2.93s WALL (     993 calls)
     h_psi        :     30.89s CPU     31.17s WALL (    1008 calls)
     s_psi        :      2.82s CPU      2.83s WALL (    1008 calls)
     g_psi        :      0.19s CPU      0.19s WALL (     813 calls)

     Called by h_psi:
     h_psi:calbec :      2.68s CPU      2.70s WALL (    1008 calls)
     vloc_psi     :     25.08s CPU     25.30s WALL (    1008 calls)
     add_vuspsi   :      2.92s CPU      2.93s WALL (    1008 calls)

     General routines
     calbec       :      3.95s CPU      3.98s WALL (    1263 calls)
     fft          :      0.56s CPU      0.60s WALL (     192 calls)
     ffts         :      0.02s CPU      0.02s WALL (      25 calls)
     fftw         :     21.53s CPU     21.71s WALL (   70874 calls)
     interpolate  :      0.04s CPU      0.05s WALL (      13 calls)

     Parallel routines

     PWSCF        :   1m13.83s CPU   1m14.81s WALL


   This run was terminated on:  18:42:30   1Aug2026            

=------------------------------------------------------------------------------=
   JOB DONE.
=------------------------------------------------------------------------------=
Note: The following floating-point exceptions are signalling: IEEE_UNDERFLOW_FLAG IEEE_DENORMAL
Note: The following floating-point exceptions are signalling: IEEE_UNDERFLOW_FLAG IEEE_DENORMAL
Note: The following floating-point exceptions are signalling: IEEE_UNDERFLOW_FLAG IEEE_DENORMAL
Note: The following floating-point exceptions are signalling: IEEE_UNDERFLOW_FLAG IEEE_DENORMAL
Note: The following floating-point exceptions are signalling: IEEE_UNDERFLOW_FLAG IEEE_DENORMAL
Note: The following floating-point exceptions are signalling: IEEE_UNDERFLOW_FLAG IEEE_DENORMAL
Note: The following floating-point exceptions are signalling: IEEE_UNDERFLOW_FLAG IEEE_DENORMAL
Note: The following floating-point exceptions are signalling: IEEE_UNDERFLOW_FLAG IEEE_DENORMAL
