
     Program PWSCF v.7.5 starts on  7Jul2026 at 14:58: 0 

     This program is part of the open-source Quantum ESPRESSO suite
     for quantum simulation of materials; please cite
         "P. Giannozzi et al., J. Phys.:Condens. Matter 21 395502 (2009);
         "P. Giannozzi et al., J. Phys.:Condens. Matter 29 465901 (2017);
         "P. Giannozzi et al., J. Chem. Phys. 152 154105 (2020);
          URL http://www.quantum-espresso.org", 
     in publications or presentations arising from this work. More details at
     http://www.quantum-espresso.org/quote

     Serial version
     0 MiB available memory on the printing compute node when the environment starts

     Waiting for input...
     Reading input from standard input

     Current dimensions of program PWSCF are:
     Max number of different atomic species (ntypx) = 10
     Max number of k-points (npk) =  40000
     Max angular momentum in pseudopotentials (lmaxx) =  4
     file C.pbe-n-kjpaw_psl.1.0.0.UPF: wavefunction(s)  2S 2P renormalized
     Message from routine volume:
     axis vectors are left-handed
     Message from routine setup:
     using ibrav=0 with symmetry is DISCOURAGED, use correct ibrav instead


     G-vector sticks info
     --------------------
     sticks:   dense  smooth     PW     G-vecs:    dense   smooth      PW
     Sum        1223     607    181               172659    60957    9881

     Using Slab Decomposition



     bravais-lattice index     =            0
     lattice parameter (alat)  =       4.7752  a.u.
     unit-cell volume          =     971.1636 (a.u.)^3
     number of atoms/cell      =           16
     number of atomic types    =            2
     number of electrons       =        52.00
     number of Kohn-Sham states=           31
     kinetic-energy cutoff     =      60.0000  Ry
     charge density cutoff     =     480.0000  Ry
     scf convergence threshold =      1.0E-08
     mixing beta               =       0.3000
     number of iterations used =            8  plain     mixing
     Exchange-correlation= PBE
                           (   1   4   3   4   0   0   0)

     celldm(1)=   4.775235  celldm(2)=   0.000000  celldm(3)=   0.000000
     celldm(4)=   0.000000  celldm(5)=   0.000000  celldm(6)=   0.000000

     crystal axes: (cart. coord. in units of alat)
               a(1) = (   1.000000   0.000000   0.000000 )  
               a(2) = (   0.000000  -1.400071   0.000000 )  
               a(3) = (   0.000000   0.000000   6.370270 )  

     reciprocal axes: (cart. coord. in units 2 pi/alat)
               b(1) = (  1.000000 -0.000000 -0.000000 )  
               b(2) = ( -0.000000 -0.714249 -0.000000 )  
               b(3) = ( -0.000000 -0.000000  0.156979 )  


     PseudoPot. # 1 for C  read from file:
     ./C.pbe-n-kjpaw_psl.1.0.0.UPF
     MD5 check sum: 5d2aebdfa2cae82b50a7e79e9516da0f
     Pseudo is Projector augmented-wave + core cor, Zval =  4.0
     Generated using "atomic" code by A. Dal Corso  v.5.1
     Shape of augmentation charge: PSQ
     Using radial grid of 1073 points,  4 beta functions with: 
                l(1) =   0
                l(2) =   0
                l(3) =   1
                l(4) =   1
     Q(r) pseudized with 0 coefficients 


     PseudoPot. # 2 for H  read from file:
     ./H_ONCV_PBE-1.0.oncvpsp.upf
     MD5 check sum: 1790becc920ee074925cf490c71280fe
     Pseudo is Norm-conserving, Zval =  1.0
     Generated using ONCVPSP code by D. R. Hamann
     Using radial grid of 1166 points,  2 beta functions with: 
                l(1) =   0
                l(2) =   0

     atomic species   valence    mass     pseudopotential
     C                 4.00    12.01100     C ( 1.00)
     H                 1.00     1.00800     H ( 1.00)

      8 Sym. Ops., with inversion, found ( 6 have fractional translation)



   Cartesian axes

     site n.     atom                  positions (alat units)
         1        C      tau(   1) = (   0.0000000  -0.3575290   4.4247609  )
         2        C      tau(   2) = (   0.5000000  -0.6925245   4.4247609  )
         3        C      tau(   3) = (   0.0000000   0.0011385   3.9360405  )
         4        C      tau(   4) = (   0.5000000  -1.0511921   3.9360405  )
         5        C      tau(   5) = (   0.0000000  -0.3497683   3.4350066  )
         6        C      tau(   6) = (   0.5000000  -0.7002852   3.4350066  )
         7        C      tau(   7) = (   0.0000000  -0.0002495   2.9352634  )
         8        C      tau(   8) = (   0.5000000  -1.0498040   2.9352634  )
         9        C      tau(   9) = (   0.0000000  -0.3511564   2.4342296  )
        10        C      tau(  10) = (   0.5000000  -0.6988972   2.4342296  )
        11        C      tau(  11) = (   0.0000000   0.0075112   1.9455091  )
        12        C      tau(  12) = (   0.5000000  -1.0575648   1.9455091  )
        13        H      tau(  13) = (   0.0000000  -0.1226472   4.7893624  )
        14        H      tau(  14) = (   0.5000000  -0.9274064   4.7893624  )
        15        H      tau(  15) = (   0.0000000  -0.2273706   1.5809076  )
        16        H      tau(  16) = (   0.5000000  -0.8226829   1.5809076  )

     number of k points=    20  Marzari-Vanderbilt smearing, width (Ry)=  0.0100
                       cart. coord. in units 2pi/alat
        k(    1) = (   0.0000000  -0.0000000   0.0000000), wk =   0.0317460
        k(    2) = (   0.0000000  -0.1020356   0.0000000), wk =   0.0634921
        k(    3) = (   0.0000000  -0.2040712   0.0000000), wk =   0.0634921
        k(    4) = (   0.0000000  -0.3061068   0.0000000), wk =   0.0634921
        k(    5) = (   0.1111111  -0.0000000   0.0000000), wk =   0.0634921
        k(    6) = (   0.1111111  -0.1020356   0.0000000), wk =   0.1269841
        k(    7) = (   0.1111111  -0.2040712   0.0000000), wk =   0.1269841
        k(    8) = (   0.1111111  -0.3061068   0.0000000), wk =   0.1269841
        k(    9) = (   0.2222222  -0.0000000   0.0000000), wk =   0.0634921
        k(   10) = (   0.2222222  -0.1020356   0.0000000), wk =   0.1269841
        k(   11) = (   0.2222222  -0.2040712   0.0000000), wk =   0.1269841
        k(   12) = (   0.2222222  -0.3061068   0.0000000), wk =   0.1269841
        k(   13) = (   0.3333333  -0.0000000   0.0000000), wk =   0.0634921
        k(   14) = (   0.3333333  -0.1020356   0.0000000), wk =   0.1269841
        k(   15) = (   0.3333333  -0.2040712   0.0000000), wk =   0.1269841
        k(   16) = (   0.3333333  -0.3061068   0.0000000), wk =   0.1269841
        k(   17) = (   0.4444444  -0.0000000   0.0000000), wk =   0.0634921
        k(   18) = (   0.4444444  -0.1020356   0.0000000), wk =   0.1269841
        k(   19) = (   0.4444444  -0.2040712   0.0000000), wk =   0.1269841
        k(   20) = (   0.4444444  -0.3061068   0.0000000), wk =   0.1269841

     Dense  grid:   172659 G-vectors     FFT dimensions: (  36,  48, 216)

     Smooth grid:    60957 G-vectors     FFT dimensions: (  24,  36, 160)

     Estimated max dynamical RAM per process >     394.84 MB

     Check: negative core charge=   -0.000002

     Initial potential from superposition of free atoms

     starting charge      51.9995, renormalised to      52.0000

     negative rho (up, down):  9.830E-08 0.000E+00
     Starting wfcs are   52 randomized atomic wfcs

     total cpu time spent up to now is        1.9 secs

     Self-consistent Calculation

     iteration #  1     ecut=    60.00 Ry     beta= 0.30
     Davidson diagonalization with overlap
     ethr =  1.00E-02,  avg # of iterations =  2.8

     negative rho (up, down):  9.298E-07 0.000E+00

     total cpu time spent up to now is        5.4 secs

     total energy              =    -226.00506343 Ry
     estimated scf accuracy    <       1.22673438 Ry

     iteration #  2     ecut=    60.00 Ry     beta= 0.30
     Davidson diagonalization with overlap
     ethr =  2.36E-03,  avg # of iterations =  3.7

     negative rho (up, down):  8.008E-06 0.000E+00

     total cpu time spent up to now is        8.3 secs

     total energy              =    -225.91718546 Ry
     estimated scf accuracy    <       0.38043913 Ry

     iteration #  3     ecut=    60.00 Ry     beta= 0.30
     Davidson diagonalization with overlap
     ethr =  7.32E-04,  avg # of iterations =  5.6

     negative rho (up, down):  1.680E-05 0.000E+00

     total cpu time spent up to now is       11.6 secs

     total energy              =    -225.92974081 Ry
     estimated scf accuracy    <       0.05302632 Ry

     iteration #  4     ecut=    60.00 Ry     beta= 0.30
     Davidson diagonalization with overlap
     ethr =  1.02E-04,  avg # of iterations =  4.8

     negative rho (up, down):  2.155E-05 0.000E+00

     total cpu time spent up to now is       14.7 secs

     total energy              =    -225.93250915 Ry
     estimated scf accuracy    <       0.00529590 Ry

     iteration #  5     ecut=    60.00 Ry     beta= 0.30
     Davidson diagonalization with overlap
     c_bands:  1 eigenvalues not converged
     ethr =  1.02E-05,  avg # of iterations =  6.7

     negative rho (up, down):  2.039E-05 0.000E+00

     total cpu time spent up to now is       18.6 secs

     total energy              =    -225.93305801 Ry
     estimated scf accuracy    <       0.00054756 Ry

     iteration #  6     ecut=    60.00 Ry     beta= 0.30
     Davidson diagonalization with overlap
     c_bands:  1 eigenvalues not converged
     ethr =  1.05E-06,  avg # of iterations =  5.5

     negative rho (up, down):  2.030E-05 0.000E+00

     total cpu time spent up to now is       22.5 secs

     total energy              =    -225.93316594 Ry
     estimated scf accuracy    <       0.00007030 Ry

     iteration #  7     ecut=    60.00 Ry     beta= 0.30
     Davidson diagonalization with overlap
     ethr =  1.35E-07,  avg # of iterations =  3.0

     negative rho (up, down):  1.972E-05 0.000E+00

     total cpu time spent up to now is       25.5 secs

     total energy              =    -225.93317142 Ry
     estimated scf accuracy    <       0.00001853 Ry

     iteration #  8     ecut=    60.00 Ry     beta= 0.30
     Davidson diagonalization with overlap
     ethr =  3.56E-08,  avg # of iterations =  2.0

     negative rho (up, down):  1.949E-05 0.000E+00

     total cpu time spent up to now is       28.7 secs

     total energy              =    -225.93317389 Ry
     estimated scf accuracy    <       0.00000271 Ry

     iteration #  9     ecut=    60.00 Ry     beta= 0.30
     Davidson diagonalization with overlap
     ethr =  5.22E-09,  avg # of iterations =  2.9

     negative rho (up, down):  1.934E-05 0.000E+00

     total cpu time spent up to now is       32.2 secs

     total energy              =    -225.93317455 Ry
     estimated scf accuracy    <       0.00000260 Ry

     iteration # 10     ecut=    60.00 Ry     beta= 0.30
     Davidson diagonalization with overlap
     ethr =  5.00E-09,  avg # of iterations =  2.0

     negative rho (up, down):  1.931E-05 0.000E+00

     total cpu time spent up to now is       35.3 secs

     total energy              =    -225.93317470 Ry
     estimated scf accuracy    <       0.00000028 Ry

     iteration # 11     ecut=    60.00 Ry     beta= 0.30
     Davidson diagonalization with overlap
     ethr =  5.40E-10,  avg # of iterations =  3.3

     negative rho (up, down):  1.933E-05 0.000E+00

     total cpu time spent up to now is       39.3 secs

     total energy              =    -225.93317483 Ry
     estimated scf accuracy    <       0.00000009 Ry

     iteration # 12     ecut=    60.00 Ry     beta= 0.30
     Davidson diagonalization with overlap
     ethr =  1.75E-10,  avg # of iterations =  2.3

     negative rho (up, down):  1.935E-05 0.000E+00

     total cpu time spent up to now is       42.4 secs

     total energy              =    -225.93317483 Ry
     estimated scf accuracy    <       0.00000003 Ry

     iteration # 13     ecut=    60.00 Ry     beta= 0.30
     Davidson diagonalization with overlap
     ethr =  5.63E-11,  avg # of iterations =  2.0

     negative rho (up, down):  1.943E-05 0.000E+00

     total cpu time spent up to now is       45.5 secs

     End of self-consistent calculation

          k = 0.0000-0.0000 0.0000 (  7605 PWs)   bands (ev):

   -15.9617 -14.8878 -13.1285 -10.9181  -8.6975  -7.5072  -7.1699  -6.2408
    -4.6616  -4.3711  -4.0235  -2.8299  -2.5916  -2.1457  -0.9345  -0.5698
    -0.2802  -0.1231   1.1820   1.9069   2.2444   2.7032   4.0119   4.1510
     4.3858   4.8780   7.0184   7.2837   9.7952  10.1314  10.9147

          k = 0.0000-0.1020 0.0000 (  7599 PWs)   bands (ev):

   -15.7717 -14.7035 -12.9611 -10.8253  -9.4109  -9.1820  -6.7785  -5.9034
    -5.4404  -3.9426  -3.5161  -2.8756  -1.8913  -1.7146  -0.9056  -0.7552
     0.0301   0.3758   1.2729   1.6257   2.5114   2.6571   3.7262   3.8251
     4.3026   4.3098   7.2259   7.5240   9.9854  10.1118  11.0414

          k = 0.0000-0.2041 0.0000 (  7600 PWs)   bands (ev):

   -15.2044 -14.1563 -12.4820 -11.3600 -10.6070 -10.5078  -7.2961  -6.7299
    -5.3690  -4.3698  -2.9371  -1.6947  -1.5855  -0.6366  -0.2247  -0.0706
     0.4765   0.6163   1.5216   2.1258   2.2166   2.5002   3.0020   3.0969
     3.4744   3.8032   7.8849   8.1180  10.2775  10.4508  10.9451

          k = 0.0000-0.3061 0.0000 (  7606 PWs)   bands (ev):

   -14.2693 -13.3025 -12.9228 -12.1465 -11.5363 -10.8793  -7.7109  -7.0514
    -5.6358  -4.6724  -2.9159  -1.8862  -0.3675   0.3458   0.6306   0.8418
     1.1647   1.3887   1.7706   1.8132   2.1511   2.2016   2.2690   2.3992
     2.8275   2.9237   8.9522   8.9730   9.9908  10.4497  10.7804

          k = 0.1111-0.0000 0.0000 (  7581 PWs)   bands (ev):

   -15.7356 -14.6643 -12.9090 -10.7039  -8.4916  -7.3075  -7.1101  -6.1888
    -4.6244  -4.1793  -3.8151  -2.6782  -2.5782  -1.9463  -1.9462  -1.0988
    -0.4999  -0.3026   0.2497   1.7763   1.7972   2.1823   3.0419   3.6636
     3.8056   4.2717   7.2312   7.5169   9.8633  11.1583  11.1710

          k = 0.1111-0.1020 0.0000 (  7585 PWs)   bands (ev):

   -15.5461 -14.4806 -12.7425 -10.6132  -9.2294  -8.9879  -6.6257  -5.7706
    -5.3621  -3.8442  -3.4237  -2.8729  -1.7318  -1.7195  -1.6441  -0.9096
    -0.8165   0.3206   0.4242   1.5815   1.7552   2.2200   2.8119   2.8370
     3.7741   4.2750   7.4667   7.7579  10.1707  11.2014  11.6767

          k = 0.1111-0.2041 0.0000 (  7590 PWs)   bands (ev):

   -14.9804 -13.9355 -12.2665 -11.1563 -10.4016 -10.3095  -7.1125  -6.5368
    -5.2150  -4.2270  -2.9232  -2.0457  -1.6856  -1.1251  -0.5694  -0.0997
     0.0105   0.2520   1.1052   1.5107   1.6083   1.7165   1.9677   2.1878
     3.4208   4.0797   8.1424   8.3910  10.7963  11.2433  11.5761

          k = 0.1111-0.3061 0.0000 (  7610 PWs)   bands (ev):

   -14.0487 -13.0856 -12.7086 -11.9357 -11.3284 -10.6764  -7.5097  -6.8559
    -5.4566  -4.4997  -2.8066  -1.7796  -1.0592  -0.3266  -0.2472   0.2295
     0.5702   0.6801   0.9932   1.2487   1.2864   1.8127   2.1124   2.4860
     2.9609   3.0610   9.2157   9.3199  10.5061  10.7317  11.5939

          k = 0.2222-0.0000 0.0000 (  7616 PWs)   bands (ev):

   -15.0606 -13.9971 -12.2541 -10.0653  -7.8769  -7.2635  -6.7099  -6.3485
    -4.8006  -3.6232  -3.5929  -3.2059  -2.7844  -2.7168  -2.2563  -1.3629
    -1.3553  -0.5494  -0.3624   0.1164   1.1768   1.3398   1.6636   1.8815
     2.2999   3.8435   7.9482   8.1823  10.3026  10.3360  10.9385

          k = 0.2222-0.1020 0.0000 (  7615 PWs)   bands (ev):

   -14.8728 -13.8156 -12.0907  -9.9813  -8.7561  -8.4319  -6.3478  -5.6658
    -5.5090  -3.8822  -3.5583  -3.3622  -2.3403  -2.2971  -1.7323  -1.1472
    -1.0768  -0.4522  -0.3640   0.4022   0.5636   0.6870   1.4873   1.7333
     3.1098   3.4697   8.1987   8.4339  10.7223  10.9693  11.1573

          k = 0.2222-0.2041 0.0000 (  7623 PWs)   bands (ev):

   -14.3128 -13.2775 -11.6247 -10.5676  -9.7917  -9.7339  -6.6231  -6.0288
    -4.8559  -4.7303  -3.3330  -3.2950  -2.4272  -1.8061  -1.1085  -0.9156
    -0.4744  -0.4245  -0.2668   0.2662   0.3606   0.7280   1.2028   1.9419
     2.7800   3.4889   8.8852   9.0939  11.4409  12.0988  12.1743

          k = 0.2222-0.3061 0.0000 (  7634 PWs)   bands (ev):

   -13.3927 -12.4412 -12.0756 -11.3117 -10.7120 -10.0741  -6.9416  -6.3032
    -4.9982  -4.0560  -3.7186  -2.6844  -2.4018  -2.1499  -1.4772  -1.3030
    -1.1009  -0.8149   0.2422   1.1150   1.2959   1.2986   1.5533   1.8284
     2.5245   2.9437   9.9064  10.0191  11.3080  11.4133  12.6642

          k = 0.3333-0.0000 0.0000 (  7642 PWs)   bands (ev):

   -13.9481 -12.8983 -11.1765  -9.0150  -8.5778  -7.6213  -6.8635  -6.0277
    -5.7200  -3.9873  -3.8504  -3.0463  -2.7700  -2.2524  -1.8520  -1.8370
    -1.6762  -0.6975  -0.5759  -0.4518  -0.3627  -0.0111   0.3786   0.5036
     1.2271   3.0490   9.1366   9.1838  10.1313  10.4318  11.4830

          k = 0.3333-0.1020 0.0000 (  7653 PWs)   bands (ev):

   -13.7641 -12.7213 -11.0193  -8.9619  -8.7412  -7.9547  -6.7080  -6.5327
    -6.0737  -4.2351  -3.9588  -3.0637  -3.0187  -2.2422  -1.8224  -1.6105
    -1.5468  -1.0680  -0.5482  -0.5250  -0.2857  -0.1489   0.6527   1.0134
     1.5099   2.8617   9.3790   9.4937  10.6187  10.8424  11.4758

          k = 0.3333-0.2041 0.0000 (  7631 PWs)   bands (ev):

   -13.2171 -12.1986 -10.5735  -9.7681  -8.9258  -8.8073  -6.7471  -6.2759
    -6.2251  -4.8439  -4.1188  -3.6859  -3.4361  -3.1556  -2.4294  -2.0620
    -1.4216  -0.3625  -0.1991  -0.0231   0.1888   0.4987   0.6028   0.9717
     2.3686   2.3729  10.0169  10.1173  11.6090  11.8097  12.2388

          k = 0.3333-0.3061 0.0000 (  7615 PWs)   bands (ev):

   -12.3260 -11.3970 -11.0768 -10.3173  -9.7221  -9.1026  -6.2831  -6.0106
    -5.6325  -5.4518  -4.8679  -4.4359  -3.6830  -3.3281  -2.7874  -2.6788
    -1.3562  -0.6745  -0.1399   0.0395   0.6601   1.0546   1.3604   1.6406
     1.8343   2.4889  10.7820  10.8517  12.1735  12.2763  12.6637

          k = 0.4444-0.0000 0.0000 (  7664 PWs)   bands (ev):

   -12.4252 -11.3962 -10.5609  -9.7055  -9.5616  -7.9134  -7.5818  -5.8339
    -5.4721  -4.3494  -3.7485  -2.8546  -2.6209  -2.2072  -1.7651  -1.3687
    -1.3112  -1.2284  -1.0344  -0.8555  -0.8421  -0.7644  -0.7039   0.1931
     0.7108   1.9437   9.9127  10.5279  10.6406  10.9542  11.1034

          k = 0.4444-0.1020 0.0000 (  7657 PWs)   bands (ev):

   -12.2507 -11.2300 -10.4244  -9.5640  -9.4343  -7.8432  -7.4719  -5.8066
    -5.7698  -5.6183  -4.1036  -3.9098  -3.0473  -2.3384  -1.8749  -1.6609
    -1.3159  -1.0372  -0.7186  -0.6105  -0.5483  -0.2882  -0.0552   0.3899
     0.8376   1.9295  10.5196  10.5351  10.6277  11.1574  11.4999

          k = 0.4444-0.2041 0.0000 (  7635 PWs)   bands (ev):

   -11.7401 -10.7479 -10.1095  -9.2236  -9.0929  -7.7689  -7.2670  -6.9932
    -6.5691  -5.8658  -5.5127  -5.0853  -3.3245  -3.2833  -2.2186  -2.0582
    -1.4951  -1.2853  -0.7061  -0.1291   0.1796   0.2487   0.7411   1.0762
     1.3987   1.8620  11.0232  11.1538  11.5332  11.6288  12.2175

          k = 0.4444-0.3061 0.0000 (  7636 PWs)   bands (ev):

   -10.9560 -10.1964  -9.9876  -9.2934  -8.5238  -7.9780  -7.7586  -7.0455
    -6.8750  -6.6114  -6.1510  -6.0131  -3.6813  -3.3422  -2.7207  -2.3717
    -1.6905  -1.4031  -0.6285  -0.2871   0.3221   0.4324   1.4019   1.6022
     1.8040   1.9434  11.5475  11.5516  12.1900  12.2859  13.3848

     the Fermi energy is     5.7264 ev

!    total energy              =    -225.93317483 Ry
     estimated scf accuracy    <          1.5E-09 Ry
     smearing contrib. (-TS)   =       0.00000000 Ry
     internal energy E=F+TS    =    -225.93317483 Ry

     The total energy is F=E-TS. E is the sum of the following terms:
     one-electron contribution =   -1244.12073873 Ry
     hartree contribution      =     646.31672822 Ry
     xc contribution           =     -59.24341859 Ry
     ewald contribution        =     505.07299655 Ry
     one-center paw contrib.   =     -73.95874229 Ry

     convergence has been achieved in  13 iterations

     negative rho (up, down):  1.943E-05 0.000E+00

     Forces acting on atoms (cartesian axes, Ry/au):

     atom    1 type  1   force =    -0.00000000    0.00221912    0.00004633
     atom    2 type  1   force =     0.00000000   -0.00221912    0.00004633
     atom    3 type  1   force =     0.00000000   -0.00028796   -0.00052289
     atom    4 type  1   force =     0.00000000    0.00028796   -0.00052289
     atom    5 type  1   force =     0.00000000    0.00003004    0.00000756
     atom    6 type  1   force =     0.00000000   -0.00003004    0.00000756
     atom    7 type  1   force =     0.00000000   -0.00003004   -0.00000756
     atom    8 type  1   force =     0.00000000    0.00003004   -0.00000756
     atom    9 type  1   force =     0.00000000    0.00028796    0.00052289
     atom   10 type  1   force =     0.00000000   -0.00028796    0.00052289
     atom   11 type  1   force =     0.00000000   -0.00221912   -0.00004633
     atom   12 type  1   force =     0.00000000    0.00221912   -0.00004633
     atom   13 type  2   force =    -0.00000000    0.00386852    0.00195558
     atom   14 type  2   force =     0.00000000   -0.00386852    0.00195558
     atom   15 type  2   force =    -0.00000000   -0.00386852   -0.00195558
     atom   16 type  2   force =    -0.00000000    0.00386852   -0.00195558

     Total force =     0.009813     Total SCF correction =     0.000125


     Computing stress (Cartesian axis) and pressure


     negative rho (up, down):  1.943E-05 0.000E+00
          total   stress  (Ry/bohr**3)                   (kbar)     P=       45.56
   0.00020845   0.00000000   0.00000000           30.66        0.00        0.00
   0.00000000   0.00068441   0.00000000            0.00      100.68        0.00
   0.00000000   0.00000000   0.00003620            0.00        0.00        5.32


     Writing all to output data dir ./tmp/slab.save/ :
     XML data file, charge density, pseudopotentials, collected wavefunctions

     init_run     :      1.76s CPU      1.89s WALL (       1 calls)
     electrons    :     39.88s CPU     43.60s WALL (       1 calls)
     forces       :      0.44s CPU      0.50s WALL (       1 calls)
     stress       :      1.27s CPU      1.47s WALL (       1 calls)

     Called by init_run:
     wfcinit      :      1.37s CPU      1.47s WALL (       1 calls)
     potinit      :      0.21s CPU      0.23s WALL (       1 calls)
     hinit0       :      0.12s CPU      0.12s WALL (       1 calls)

     Called by electrons:
     c_bands      :     31.48s CPU     34.60s WALL (      13 calls)
     sum_band     :      5.24s CPU      5.58s WALL (      13 calls)
     v_of_rho     :      0.77s CPU      0.83s WALL (      14 calls)
     newd         :      0.44s CPU      0.54s WALL (      14 calls)
     PAW_pot      :      2.01s CPU      2.12s WALL (      14 calls)
     mix_rho      :      0.10s CPU      0.11s WALL (      13 calls)

     Called by c_bands:
     init_us_2    :      0.55s CPU      0.62s WALL (     580 calls)
     cegterg      :     30.39s CPU     33.48s WALL (     260 calls)

     Called by *egterg:
     cdiaghg      :      0.71s CPU      0.75s WALL (    1189 calls)
     h_psi        :     23.61s CPU     25.04s WALL (    1209 calls)
     s_psi        :      1.80s CPU      2.25s WALL (    1209 calls)
     g_psi        :      0.12s CPU      0.12s WALL (     929 calls)

     Called by h_psi:
     h_psi:calbec :      2.31s CPU      2.95s WALL (    1209 calls)
     vloc_psi     :     19.17s CPU     19.35s WALL (    1209 calls)
                                        0.00s GPU  (    1209 calls)
     add_vuspsi   :      2.04s CPU      2.60s WALL (    1209 calls)

     General routines
     calbec       :      3.70s CPU      4.66s WALL (    1809 calls)
     fft          :      0.47s CPU      0.48s WALL (     205 calls)
     ffts         :      0.02s CPU      0.02s WALL (      27 calls)
     fftw         :     20.22s CPU     20.34s WALL (   52260 calls)
     interpolate  :      0.05s CPU      0.05s WALL (      14 calls)


     PWSCF        :     43.39s CPU     47.52s WALL


   This run was terminated on:  14:58:48   7Jul2026            

=------------------------------------------------------------------------------=
   JOB DONE.
=------------------------------------------------------------------------------=
Note: The following floating-point exceptions are signalling: IEEE_INVALID_FLAG IEEE_DIVIDE_BY_ZERO IEEE_OVERFLOW_FLAG IEEE_UNDERFLOW_FLAG
