
     Program PWSCF v.7.3.1 starts on  1Aug2026 at 12:30:56 

     This program is part of the open-source Quantum ESPRESSO suite
     for quantum simulation of materials; please cite
         "P. Giannozzi et al., J. Phys.:Condens. Matter 21 395502 (2009);
         "P. Giannozzi et al., J. Phys.:Condens. Matter 29 465901 (2017);
         "P. Giannozzi et al., J. Chem. Phys. 152 154105 (2020);
          URL http://www.quantum-espresso.org", 
     in publications or presentations arising from this work. More details at
     http://www.quantum-espresso.org/quote

     Parallel version (MPI), running on     8 processors

     MPI processes distributed on     1 nodes
     187294 MiB available memory on the printing compute node when the environment starts

     Reading input from pw.in

     Current dimensions of program PWSCF are:
     Max number of different atomic species (ntypx) = 10
     Max number of k-points (npk) =  40000
     Max angular momentum in pseudopotentials (lmaxx) =  4
     file C.pbe-n-kjpaw_psl.1.0.0.UPF: wavefunction(s)  2S 2P renormalized
     Message from routine volume:
     axis vectors are left-handed
     Found identity + (  0.5000  0.0000  0.0000) symmetry
     This is a supercell, fractional translations are disabled
     Message from routine setup:
     using ibrav=0 with symmetry is DISCOURAGED, use correct ibrav instead

     R & G space division:  proc/nbgrp/npool/nimage =       8
     Subspace diagonalization in iterative solution of the eigenvalue problem:
     a serial algorithm will be used


     Parallelization info
     --------------------
     sticks:   dense  smooth     PW     G-vecs:    dense   smooth      PW
     Min         723     361     97               119353    42195    5883
     Max         724     362     98               119363    42204    5892
     Sum        5785    2893    777               954847   337587   47083

     Using Slab Decomposition



     bravais-lattice index     =            0
     lattice parameter (alat)  =       9.5505  a.u.
     unit-cell volume          =    2499.5129 (a.u.)^3
     number of atoms/cell      =           32
     number of atomic types    =            2
     number of electrons       =       104.00
     number of Kohn-Sham states=           62
     kinetic-energy cutoff     =     100.0000  Ry
     charge density cutoff     =     800.0000  Ry
     scf convergence threshold =      1.0E-08
     mixing beta               =       0.3000
     number of iterations used =            8  plain     mixing
     Exchange-correlation= PBE
                           (   1   4   3   4   0   0   0)

     celldm(1)=   9.550471  celldm(2)=   0.000000  celldm(3)=   0.000000
     celldm(4)=   0.000000  celldm(5)=   0.000000  celldm(6)=   0.000000

     crystal axes: (cart. coord. in units of alat)
               a(1) = (   1.000000   0.000000   0.000000 )  
               a(2) = (   0.000000  -1.000000   0.000000 )  
               a(3) = (   0.000000   0.000000   2.869333 )  

     reciprocal axes: (cart. coord. in units 2 pi/alat)
               b(1) = (  1.000000 -0.000000 -0.000000 )  
               b(2) = ( -0.000000 -1.000000 -0.000000 )  
               b(3) = ( -0.000000 -0.000000  0.348513 )  


     PseudoPot. # 1 for C  read from file:
     ./C.pbe-n-kjpaw_psl.1.0.0.UPF
     MD5 check sum: 5d2aebdfa2cae82b50a7e79e9516da0f
     Pseudo is Projector augmented-wave + core cor, Zval =  4.0
     Generated using "atomic" code by A. Dal Corso  v.5.1
     Shape of augmentation charge: PSQ
     Using radial grid of 1073 points,  4 beta functions with: 
                l(1) =   0
                l(2) =   0
                l(3) =   1
                l(4) =   1
     Q(r) pseudized with 0 coefficients 


     PseudoPot. # 2 for H  read from file:
     ./H_ONCV_PBE-1.0.oncvpsp.upf
     MD5 check sum: 1790becc920ee074925cf490c71280fe
     Pseudo is Norm-conserving, Zval =  1.0
     Generated using ONCVPSP code by D. R. Hamann
     Using radial grid of 1166 points,  2 beta functions with: 
                l(1) =   0
                l(2) =   0

     atomic species   valence    mass     pseudopotential
     C                 4.00    12.01100     C ( 1.00)
     H                 1.00     1.00800     H ( 1.00)

      4 Sym. Ops. (no inversion) found



   Cartesian axes

     site n.     atom                  positions (alat units)
         1        C      tau(   1) = (   0.0000000  -0.1582087   1.8592812  )
         2        C      tau(   2) = (   0.2500000  -0.2299149   1.6998931  )
         3        C      tau(   3) = (   0.2500000   0.0000000   1.4936626  )
         4        C      tau(   4) = (   0.0000000   0.0000000   1.3178300  )
         5        C      tau(   5) = (   0.0000000  -0.2700851   1.1694404  )
         6        C      tau(   6) = (   0.2500000  -0.3417913   1.0100523  )
         7        C      tau(   7) = (   0.0000000  -0.8417913   1.8592812  )
         8        C      tau(   8) = (   0.2500000  -0.7700851   1.6998931  )
         9        C      tau(   9) = (   0.2500000  -0.5000000   1.5515034  )
        10        C      tau(  10) = (   0.0000000  -0.5000000   1.3756708  )
        11        C      tau(  11) = (   0.0000000  -0.7299149   1.1694404  )
        12        C      tau(  12) = (   0.2500000  -0.6582087   1.0100523  )
        13        H      tau(  13) = (   0.0000000  -0.2449080   2.0590044  )
        14        H      tau(  14) = (   0.0000000  -0.7550920   2.0590044  )
        15        H      tau(  15) = (   0.2500000  -0.2550919   0.8103291  )
        16        H      tau(  16) = (   0.2500000  -0.7449081   0.8103291  )
        17        C      tau(  17) = (   0.5000000  -0.1582087   1.8592812  )
        18        C      tau(  18) = (   0.7500000  -0.2299149   1.6998931  )
        19        C      tau(  19) = (   0.7500000   0.0000000   1.4936626  )
        20        C      tau(  20) = (   0.5000000   0.0000000   1.3178300  )
        21        C      tau(  21) = (   0.5000000  -0.2700851   1.1694404  )
        22        C      tau(  22) = (   0.7500000  -0.3417913   1.0100523  )
        23        C      tau(  23) = (   0.5000000  -0.8417913   1.8592812  )
        24        C      tau(  24) = (   0.7500000  -0.7700851   1.6998931  )
        25        C      tau(  25) = (   0.7500000  -0.5000000   1.5515034  )
        26        C      tau(  26) = (   0.5000000  -0.5000000   1.3756708  )
        27        C      tau(  27) = (   0.5000000  -0.7299149   1.1694404  )
        28        C      tau(  28) = (   0.7500000  -0.6582087   1.0100523  )
        29        H      tau(  29) = (   0.5000000  -0.2449080   2.0590044  )
        30        H      tau(  30) = (   0.5000000  -0.7550920   2.0590044  )
        31        H      tau(  31) = (   0.7500000  -0.2550919   0.8103291  )
        32        H      tau(  32) = (   0.7500000  -0.7449081   0.8103291  )

     number of k points=     9  Marzari-Vanderbilt smearing, width (Ry)=  0.0100
                       cart. coord. in units 2pi/alat
        k(    1) = (   0.0000000  -0.0000000   0.0000000), wk =   0.0800000
        k(    2) = (   0.0000000  -0.2000000   0.0000000), wk =   0.1600000
        k(    3) = (   0.0000000  -0.4000000   0.0000000), wk =   0.1600000
        k(    4) = (   0.2000000  -0.2000000   0.0000000), wk =   0.3200000
        k(    5) = (   0.2000000  -0.4000000   0.0000000), wk =   0.3200000
        k(    6) = (   0.4000000  -0.4000000   0.0000000), wk =   0.3200000
        k(    7) = (  -0.2000000   0.0000000   0.0000000), wk =   0.1600000
        k(    8) = (  -0.4000000   0.0000000   0.0000000), wk =   0.1600000
        k(    9) = (  -0.4000000   0.2000000   0.0000000), wk =   0.3200000

     Dense  grid:   954847 G-vectors     FFT dimensions: (  90,  90, 250)

     Smooth grid:   337587 G-vectors     FFT dimensions: (  64,  64, 180)

     Estimated max dynamical RAM per process >     345.16 MB

     Estimated total dynamical RAM >       2.70 GB

     Initial potential from superposition of free atoms

     starting charge     103.9989, renormalised to     104.0000
     Starting wfcs are  104 randomized atomic wfcs
     Checking if some PAW data can be deallocated... 

     total cpu time spent up to now is        3.4 secs

     Self-consistent Calculation

     iteration #  1     ecut=   100.00 Ry     beta= 0.30
     Davidson diagonalization with overlap
     ethr =  1.00E-02,  avg # of iterations =  3.0

     total cpu time spent up to now is        8.8 secs

     total energy              =    -451.91476065 Ry
     estimated scf accuracy    <       2.44506415 Ry

     iteration #  2     ecut=   100.00 Ry     beta= 0.30
     Davidson diagonalization with overlap
     ethr =  2.35E-03,  avg # of iterations =  4.6

     negative rho (up, down):  3.661E-08 0.000E+00

     total cpu time spent up to now is       13.4 secs

     total energy              =    -451.75783843 Ry
     estimated scf accuracy    <       0.72325696 Ry

     iteration #  3     ecut=   100.00 Ry     beta= 0.30
     Davidson diagonalization with overlap
     ethr =  6.95E-04,  avg # of iterations =  7.9

     negative rho (up, down):  3.853E-08 0.000E+00

     total cpu time spent up to now is       19.0 secs

     total energy              =    -451.78455481 Ry
     estimated scf accuracy    <       0.10745340 Ry

     iteration #  4     ecut=   100.00 Ry     beta= 0.30
     Davidson diagonalization with overlap
     ethr =  1.03E-04,  avg # of iterations =  5.4

     negative rho (up, down):  1.874E-07 0.000E+00

     total cpu time spent up to now is       23.9 secs

     total energy              =    -451.79387206 Ry
     estimated scf accuracy    <       0.01067374 Ry

     iteration #  5     ecut=   100.00 Ry     beta= 0.30
     Davidson diagonalization with overlap
     c_bands:  1 eigenvalues not converged
     ethr =  1.03E-05,  avg # of iterations =  9.4

     negative rho (up, down):  1.287E-07 0.000E+00

     total cpu time spent up to now is       30.2 secs

     total energy              =    -451.79574090 Ry
     estimated scf accuracy    <       0.00278484 Ry

     iteration #  6     ecut=   100.00 Ry     beta= 0.30
     Davidson diagonalization with overlap
     ethr =  2.68E-06,  avg # of iterations =  7.3

     negative rho (up, down):  1.690E-07 0.000E+00

     total cpu time spent up to now is       35.6 secs

     total energy              =    -451.79608487 Ry
     estimated scf accuracy    <       0.00032812 Ry

     iteration #  7     ecut=   100.00 Ry     beta= 0.30
     Davidson diagonalization with overlap
     ethr =  3.16E-07,  avg # of iterations =  3.1

     negative rho (up, down):  1.804E-07 0.000E+00

     total cpu time spent up to now is       40.4 secs

     total energy              =    -451.79613105 Ry
     estimated scf accuracy    <       0.00004673 Ry

     iteration #  8     ecut=   100.00 Ry     beta= 0.30
     Davidson diagonalization with overlap
     ethr =  4.49E-08,  avg # of iterations =  3.2

     negative rho (up, down):  1.781E-07 0.000E+00

     total cpu time spent up to now is       45.2 secs

     total energy              =    -451.79614089 Ry
     estimated scf accuracy    <       0.00001985 Ry

     iteration #  9     ecut=   100.00 Ry     beta= 0.30
     Davidson diagonalization with overlap
     ethr =  1.91E-08,  avg # of iterations =  2.1

     negative rho (up, down):  1.808E-07 0.000E+00

     total cpu time spent up to now is       49.9 secs

     total energy              =    -451.79614498 Ry
     estimated scf accuracy    <       0.00000233 Ry

     iteration # 10     ecut=   100.00 Ry     beta= 0.30
     Davidson diagonalization with overlap
     ethr =  2.24E-09,  avg # of iterations =  3.8

     negative rho (up, down):  1.788E-07 0.000E+00

     total cpu time spent up to now is       55.1 secs

     total energy              =    -451.79614510 Ry
     estimated scf accuracy    <       0.00000144 Ry

     iteration # 11     ecut=   100.00 Ry     beta= 0.30
     Davidson diagonalization with overlap
     ethr =  1.38E-09,  avg # of iterations =  2.9

     negative rho (up, down):  1.796E-07 0.000E+00

     total cpu time spent up to now is       59.9 secs

     total energy              =    -451.79614548 Ry
     estimated scf accuracy    <       0.00000006 Ry

     iteration # 12     ecut=   100.00 Ry     beta= 0.30
     Davidson diagonalization with overlap
     ethr =  5.77E-11,  avg # of iterations =  3.3

     negative rho (up, down):  1.802E-07 0.000E+00

     total cpu time spent up to now is       64.8 secs

     total energy              =    -451.79614547 Ry
     estimated scf accuracy    <       0.00000003 Ry

     iteration # 13     ecut=   100.00 Ry     beta= 0.30
     Davidson diagonalization with overlap
     ethr =  2.69E-11,  avg # of iterations =  4.6

     negative rho (up, down):  1.803E-07 0.000E+00

     total cpu time spent up to now is       70.5 secs

     total energy              =    -451.79614547 Ry
     estimated scf accuracy    <       0.00000004 Ry

     iteration # 14     ecut=   100.00 Ry     beta= 0.30
     Davidson diagonalization with overlap
     ethr =  2.69E-11,  avg # of iterations =  2.7

     negative rho (up, down):  1.813E-07 0.000E+00

     total cpu time spent up to now is       75.1 secs

     End of self-consistent calculation

          k = 0.0000-0.0000 0.0000 ( 42171 PWs)   bands (ev):

   -17.7365 -16.0426 -13.3844 -13.3844 -13.1653 -12.9579 -12.8591 -11.8376
   -11.5619 -11.5619  -9.2936  -9.2936  -9.0375  -8.8362  -8.8362  -8.7017
    -8.1487  -8.1487  -7.8479  -7.7725  -7.7725  -5.4174  -5.3764  -5.1807
    -4.8116  -4.8116  -3.9141  -3.9141  -3.4817  -3.4817  -2.6859  -2.2175
    -2.2143  -2.2143  -2.1213  -2.1213  -1.9101  -1.7693  -1.6573  -1.2008
    -1.1739  -1.1739   0.2225   0.4049   0.4049   0.4339   0.5392   0.8083
     0.8622   0.9921   1.3435   1.6794   5.4261   5.8913   7.4676   7.7470
     7.7687   8.3919   8.6201   8.9957   8.9957   9.1658

          k = 0.0000-0.2000 0.0000 ( 42263 PWs)   bands (ev):

   -17.5715 -16.0587 -14.2559 -13.3606 -13.2278 -13.2278 -11.7164 -11.5794
   -11.5794 -11.5553 -10.3250 -10.3250  -9.1347  -8.5598  -8.5598  -8.1740
    -7.7717  -7.6267  -7.6267  -7.4643  -7.4643  -5.9218  -5.0481  -4.9219
    -4.9219  -4.7792  -3.8349  -3.8349  -3.2788  -3.2788  -3.2187  -2.5466
    -2.3050  -2.3050  -1.9237  -1.8788  -1.8788  -1.8493  -1.3322  -1.2214
    -1.1956  -1.1956  -0.3782  -0.3053  -0.3053  -0.2297   0.3861   0.5936
     1.2242   1.3222   1.3434   1.6252   5.6597   6.0941   7.7802   8.1282
     8.2553   8.5214   8.6087   8.8244   8.9132   8.9132

          k = 0.0000-0.4000 0.0000 ( 42168 PWs)   bands (ev):

   -17.0973 -16.4370 -14.5989 -14.1010 -12.7961 -12.7961 -11.9653 -11.9653
   -11.3589 -10.9879 -10.8308 -10.8308  -9.0013  -9.0013  -8.6172  -7.7910
    -7.2633  -7.1373  -7.1373  -6.8015  -6.8015  -6.3061  -5.0008  -4.6067
    -4.6067  -4.4749  -3.9877  -3.6906  -3.6906  -3.2285  -3.2285  -3.1342
    -2.1493  -2.0387  -2.0386  -1.9341  -1.9341  -1.6850  -1.5878  -1.4126
    -1.4126  -1.2827  -1.2827  -1.1189  -0.4953  -0.3332   0.0594   0.1047
     0.8717   1.2420   1.7410   1.8279   6.3100   6.6625   7.3615   7.5893
     8.2305   8.5963   8.6120   8.6120   8.8711   8.9451

          k = 0.2000-0.2000 0.0000 ( 42203 PWs)   bands (ev):

   -17.3887 -15.8790 -14.7048 -14.0819 -13.2928 -13.1897 -11.6734 -11.5528
   -11.3892 -11.0676 -10.8774  -9.9543  -9.0337  -8.9606  -8.6512  -8.0320
    -7.9383  -7.6299  -7.2679  -6.2660  -6.1417  -5.8439  -5.6034  -5.0702
    -4.9887  -4.6747  -4.3511  -3.6578  -3.5484  -3.1087  -3.0202  -2.6764
    -2.3765  -2.3404  -2.3122  -1.9168  -1.7545  -1.7494  -1.5151  -1.2973
    -1.1690  -1.0186  -0.9165  -0.5209  -0.4938  -0.1698   0.1359   0.3125
     0.5687   0.6962   1.2581   1.3765   5.8279   6.2897   8.0119   8.1661
     8.2753   8.6010   8.6631   8.8241   8.8507   8.9892

          k = 0.2000-0.4000 0.0000 ( 42184 PWs)   bands (ev):

   -16.9152 -16.2560 -14.4248 -14.2427 -13.9282 -13.6062 -11.9999 -11.5085
   -11.1975 -10.8289 -10.7726 -10.3684  -8.5270  -8.5124  -8.4284  -7.8957
    -7.6940  -7.5084  -7.1176  -6.1606  -5.7654  -5.4034  -5.3973  -4.9006
    -4.6894  -4.3912  -4.2027  -3.9993  -3.9268  -3.2475  -3.0967  -2.9794
    -2.7147  -2.6499  -2.4568  -1.9180  -1.8653  -1.7423  -1.5887  -1.2858
    -1.2733  -1.1146  -0.9440  -0.8882  -0.8436  -0.7979  -0.5076  -0.0069
     0.9110   1.0053   1.0358   1.3647   6.4766   6.8585   7.5251   7.7610
     8.0010   8.1799   8.3113   8.8468   8.9462   9.2064

          k = 0.4000-0.4000 0.0000 ( 42264 PWs)   bands (ev):

   -16.3711 -15.7152 -15.4732 -14.8235 -13.9069 -13.4145 -13.0646 -12.5794
   -10.7255 -10.3640 -10.0401  -9.7559  -8.7791  -8.3339  -8.1360  -7.5483
    -6.7370  -6.5049  -6.2556  -5.7764  -5.6853  -5.3752  -5.3317  -5.0307
    -4.8288  -4.8165  -4.4014  -4.1619  -3.9758  -3.9358  -3.5219  -3.2645
    -2.9315  -2.7819  -2.6941  -2.5053  -2.1854  -2.0287  -1.5028  -1.4776
    -1.2710  -1.2053  -1.0198  -0.8343  -0.6952  -0.5492  -0.1614  -0.0375
    -0.0373   0.1332   0.5987   0.9324   6.8943   7.3343   7.4183   7.6564
     7.7832   8.0739   8.1562   8.2395   8.4913   8.7550

          k =-0.2000 0.0000 0.0000 ( 42263 PWs)   bands (ev):

   -17.5534 -15.8633 -14.8656 -13.3061 -12.9959 -12.7876 -12.6856 -11.6746
   -11.3428 -10.6819 -10.4829 -10.1588  -9.3304  -9.1245  -8.9517  -8.5477
    -7.6979  -7.5233  -6.9725  -6.8272  -6.7226  -5.3920  -5.3721  -5.3030
    -5.2136  -5.0476  -4.1662  -3.7772  -3.7024  -3.3276  -2.7171  -2.4895
    -2.4194  -2.2487  -2.0991  -1.7290  -1.7169  -1.6301  -1.6100  -1.5745
    -1.2004  -0.8075  -0.5189  -0.1626  -0.0615   0.0142   0.2254   0.5637
     0.8004   0.8268   0.8584   1.5111   5.5960   6.0837   7.8464   8.0355
     8.1113   8.1396   8.3527   8.7722   9.1487   9.2369

          k =-0.4000 0.0000 0.0000 ( 42168 PWs)   bands (ev):

   -17.0063 -16.1034 -15.3286 -14.4526 -12.4911 -12.2834 -12.1679 -11.6671
   -11.4816 -11.3169 -11.1886 -10.3923  -9.6092  -8.8637  -8.1246  -7.8468
    -7.2731  -6.9375  -6.7118  -6.4319  -5.6130  -5.6090  -5.5676  -5.1927
    -4.6483  -4.5484  -4.4166  -3.9441  -3.8604  -3.7778  -3.3148  -2.7285
    -2.5554  -2.4788  -1.8174  -1.7681  -1.5753  -1.5493  -1.5428  -1.4957
    -1.3396  -1.2256  -1.2072  -0.8658  -0.4572  -0.4270  -0.3854   0.1023
     0.1805   0.7484   0.9527   0.9890   6.1080   6.5205   6.9890   7.1676
     8.4180   8.6589   9.1316   9.1997   9.2079   9.3860

          k =-0.4000 0.2000 0.0000 ( 42184 PWs)   bands (ev):

   -16.8424 -15.9407 -15.3427 -14.4622 -13.5638 -12.7179 -12.6822 -11.8623
   -11.0698 -10.8937 -10.3136 -10.0816  -9.5044  -8.8796  -7.7732  -7.6693
    -7.2574  -6.9333  -6.6487  -6.1155  -5.8183  -5.7235  -5.4230  -5.0508
    -4.7987  -4.6420  -4.2345  -4.0174  -3.6923  -3.6215  -2.9899  -2.9725
    -2.7571  -2.6902  -2.5266  -2.1501  -1.7665  -1.6873  -1.5797  -1.3194
    -1.2735  -1.1936  -0.7840  -0.7792  -0.7308  -0.4749  -0.3592  -0.3079
    -0.0668   0.6171   0.6803   1.0604   6.3127   6.7427   7.1430   7.3851
     8.3416   8.7486   8.8413   8.8998   8.9124   9.2231

     the Fermi energy is     3.2857 ev

!    total energy              =    -451.79614548 Ry
     estimated scf accuracy    <          1.1E-09 Ry
     smearing contrib. (-TS)   =       0.00000000 Ry
     internal energy E=F+TS    =    -451.79614548 Ry

     The total energy is F=E-TS. E is the sum of the following terms:
     one-electron contribution =   -2320.03371751 Ry
     hartree contribution      =    1200.83679089 Ry
     xc contribution           =    -117.68342508 Ry
     ewald contribution        =     933.00259135 Ry
     one-center paw contrib.   =    -147.91838513 Ry

     convergence has been achieved in  14 iterations

     negative rho (up, down):  1.813E-07 0.000E+00

     Forces acting on atoms (cartesian axes, Ry/au):

     atom    1 type  1   force =     0.00000000    0.00010047    0.00003657
     atom    2 type  1   force =     0.00000001    0.00003595   -0.00006033
     atom    3 type  1   force =     0.00000001   -0.00000000    0.00005098
     atom    4 type  1   force =     0.00000000   -0.00000000    0.00002832
     atom    5 type  1   force =     0.00000000   -0.00003592    0.00006016
     atom    6 type  1   force =     0.00000002   -0.00010032   -0.00003691
     atom    7 type  1   force =     0.00000000   -0.00010047    0.00003657
     atom    8 type  1   force =     0.00000001   -0.00003595   -0.00006033
     atom    9 type  1   force =     0.00000001    0.00000000   -0.00002860
     atom   10 type  1   force =     0.00000000    0.00000000   -0.00005034
     atom   11 type  1   force =     0.00000000    0.00003592    0.00006016
     atom   12 type  1   force =     0.00000002    0.00010032   -0.00003691
     atom   13 type  2   force =     0.00000000    0.00004454   -0.00006131
     atom   14 type  2   force =     0.00000000   -0.00004454   -0.00006131
     atom   15 type  2   force =    -0.00000000   -0.00004464    0.00006164
     atom   16 type  2   force =    -0.00000000    0.00004464    0.00006164
     atom   17 type  1   force =     0.00000000    0.00010052    0.00003661
     atom   18 type  1   force =    -0.00000001    0.00003595   -0.00006033
     atom   19 type  1   force =    -0.00000001    0.00000000    0.00005098
     atom   20 type  1   force =     0.00000000   -0.00000000    0.00002833
     atom   21 type  1   force =     0.00000000   -0.00003590    0.00006014
     atom   22 type  1   force =    -0.00000002   -0.00010032   -0.00003691
     atom   23 type  1   force =     0.00000000   -0.00010052    0.00003661
     atom   24 type  1   force =    -0.00000001   -0.00003595   -0.00006033
     atom   25 type  1   force =    -0.00000001    0.00000000   -0.00002860
     atom   26 type  1   force =     0.00000000    0.00000000   -0.00005036
     atom   27 type  1   force =     0.00000000    0.00003590    0.00006014
     atom   28 type  1   force =    -0.00000002    0.00010032   -0.00003691
     atom   29 type  2   force =     0.00000000    0.00004456   -0.00006134
     atom   30 type  2   force =     0.00000000   -0.00004456   -0.00006134
     atom   31 type  2   force =     0.00000000   -0.00004464    0.00006164
     atom   32 type  2   force =     0.00000000    0.00004464    0.00006164

     Total force =     0.000436     Total SCF correction =     0.000081
     SCF correction compared to forces is large: reduce conv_thr to get better values


     Computing stress (Cartesian axis) and pressure


     negative rho (up, down):  1.813E-07 0.000E+00
          total   stress  (Ry/bohr**3)                   (kbar)     P=      -13.53
   0.00005621   0.00000000   0.00000000            8.27        0.00        0.00
   0.00000000  -0.00033032   0.00000000            0.00      -48.59        0.00
   0.00000000   0.00000000  -0.00000189            0.00        0.00       -0.28


     Writing all to output data dir /tmp/qe/slab.save/ :
     XML data file, charge density, pseudopotentials, collected wavefunctions

     init_run     :      2.89s CPU      3.22s WALL (       1 calls)
     electrons    :     69.78s CPU     71.75s WALL (       1 calls)
     forces       :      1.21s CPU      1.27s WALL (       1 calls)
     stress       :     16.46s CPU     16.67s WALL (       1 calls)

     Called by init_run:
     wfcinit      :      2.20s CPU      2.37s WALL (       1 calls)
     potinit      :      0.28s CPU      0.31s WALL (       1 calls)
     hinit0       :      0.08s CPU      0.16s WALL (       1 calls)

     Called by electrons:
     c_bands      :     54.37s CPU     55.40s WALL (      14 calls)
     sum_band     :     10.10s CPU     10.50s WALL (      14 calls)
     v_of_rho     :      2.00s CPU      2.20s WALL (      15 calls)
     newd         :      1.38s CPU      1.70s WALL (      15 calls)
     PAW_pot      :      1.86s CPU      1.88s WALL (      15 calls)
     mix_rho      :      0.25s CPU      0.26s WALL (      14 calls)

     Called by c_bands:
     init_us_2    :      1.55s CPU      1.57s WALL (     279 calls)
     cegterg      :     51.99s CPU     52.97s WALL (     126 calls)

     Called by *egterg:
     cdiaghg      :      2.14s CPU      2.26s WALL (     696 calls)
     h_psi        :     38.25s CPU     38.85s WALL (     705 calls)
     s_psi        :      3.65s CPU      3.68s WALL (     705 calls)
     g_psi        :      0.25s CPU      0.25s WALL (     570 calls)

     Called by h_psi:
     h_psi:calbec :      3.35s CPU      3.37s WALL (     705 calls)
     vloc_psi     :     30.94s CPU     31.26s WALL (     705 calls)
     add_vuspsi   :      3.69s CPU      3.71s WALL (     705 calls)

     General routines
     calbec       :      4.76s CPU      4.79s WALL (     876 calls)
     fft          :      1.06s CPU      1.24s WALL (     218 calls)
     ffts         :      0.04s CPU      0.05s WALL (      29 calls)
     fftw         :     25.68s CPU     25.93s WALL (   52050 calls)
     interpolate  :      0.09s CPU      0.10s WALL (      15 calls)

     Parallel routines

     PWSCF        :   1m30.58s CPU   1m33.47s WALL


   This run was terminated on:  12:32:30   1Aug2026            

=------------------------------------------------------------------------------=
   JOB DONE.
=------------------------------------------------------------------------------=
Note: The following floating-point exceptions are signalling: IEEE_UNDERFLOW_FLAG IEEE_DENORMAL
Note: The following floating-point exceptions are signalling: IEEE_UNDERFLOW_FLAG IEEE_DENORMAL
Note: The following floating-point exceptions are signalling: IEEE_UNDERFLOW_FLAG IEEE_DENORMAL
Note: The following floating-point exceptions are signalling: IEEE_UNDERFLOW_FLAG IEEE_DENORMAL
Note: The following floating-point exceptions are signalling: IEEE_UNDERFLOW_FLAG IEEE_DENORMAL
Note: The following floating-point exceptions are signalling: IEEE_UNDERFLOW_FLAG IEEE_DENORMAL
Note: The following floating-point exceptions are signalling: IEEE_UNDERFLOW_FLAG IEEE_DENORMAL
Note: The following floating-point exceptions are signalling: IEEE_UNDERFLOW_FLAG IEEE_DENORMAL
