
     Program PWSCF v.7.3.1 starts on  1Aug2026 at 11:41:16 

     This program is part of the open-source Quantum ESPRESSO suite
     for quantum simulation of materials; please cite
         "P. Giannozzi et al., J. Phys.:Condens. Matter 21 395502 (2009);
         "P. Giannozzi et al., J. Phys.:Condens. Matter 29 465901 (2017);
         "P. Giannozzi et al., J. Chem. Phys. 152 154105 (2020);
          URL http://www.quantum-espresso.org", 
     in publications or presentations arising from this work. More details at
     http://www.quantum-espresso.org/quote

     Parallel version (MPI), running on     4 processors

     MPI processes distributed on     1 nodes
     180379 MiB available memory on the printing compute node when the environment starts

     Reading input from pw.in

     Current dimensions of program PWSCF are:
     Max number of different atomic species (ntypx) = 10
     Max number of k-points (npk) =  40000
     Max angular momentum in pseudopotentials (lmaxx) =  4
     file C.pbe-n-kjpaw_psl.1.0.0.UPF: wavefunction(s)  2S 2P renormalized
     Message from routine setup:
     using ibrav=0 with symmetry is DISCOURAGED, use correct ibrav instead

     R & G space division:  proc/nbgrp/npool/nimage =       4
     Subspace diagonalization in iterative solution of the eigenvalue problem:
     a serial algorithm will be used


     Parallelization info
     --------------------
     sticks:   dense  smooth     PW     G-vecs:    dense   smooth      PW
     Min         217     109     34                30871    10942    1833
     Max         218     111     36                30886    10955    1836
     Sum         871     439    139               123505    43787    7337

     Using Slab Decomposition



     bravais-lattice index     =            0
     lattice parameter (alat)  =       4.7752  a.u.
     unit-cell volume          =     553.1394 (a.u.)^3
     number of atoms/cell      =            8
     number of atomic types    =            2
     number of electrons       =        26.00
     number of Kohn-Sham states=           17
     kinetic-energy cutoff     =      70.0000  Ry
     charge density cutoff     =     560.0000  Ry
     scf convergence threshold =      1.0E-08
     mixing beta               =       0.3000
     number of iterations used =            8  plain     mixing
     Exchange-correlation= PBE
                           (   1   4   3   4   0   0   0)

     celldm(1)=   4.775235  celldm(2)=   0.000000  celldm(3)=   0.000000
     celldm(4)=   0.000000  celldm(5)=   0.000000  celldm(6)=   0.000000

     crystal axes: (cart. coord. in units of alat)
               a(1) = (   1.000000   0.000000   0.000000 )  
               a(2) = (   0.500000   0.866025   0.000000 )  
               a(3) = (   0.000000   0.000000   5.865696 )  

     reciprocal axes: (cart. coord. in units 2 pi/alat)
               b(1) = (  1.000000 -0.577350  0.000000 )  
               b(2) = (  0.000000  1.154701  0.000000 )  
               b(3) = (  0.000000  0.000000  0.170483 )  


     PseudoPot. # 1 for C  read from file:
     ./C.pbe-n-kjpaw_psl.1.0.0.UPF
     MD5 check sum: 5d2aebdfa2cae82b50a7e79e9516da0f
     Pseudo is Projector augmented-wave + core cor, Zval =  4.0
     Generated using "atomic" code by A. Dal Corso  v.5.1
     Shape of augmentation charge: PSQ
     Using radial grid of 1073 points,  4 beta functions with: 
                l(1) =   0
                l(2) =   0
                l(3) =   1
                l(4) =   1
     Q(r) pseudized with 0 coefficients 


     PseudoPot. # 2 for H  read from file:
     ./H_ONCV_PBE-1.0.oncvpsp.upf
     MD5 check sum: 1790becc920ee074925cf490c71280fe
     Pseudo is Norm-conserving, Zval =  1.0
     Generated using ONCVPSP code by D. R. Hamann
     Using radial grid of 1166 points,  2 beta functions with: 
                l(1) =   0
                l(2) =   0

     atomic species   valence    mass     pseudopotential
     C                 4.00    12.01100     C ( 1.00)
     H                 1.00     1.00800     H ( 1.00)

     12 Sym. Ops., with inversion, found ( 6 have fractional translation)



   Cartesian axes

     site n.     atom                  positions (alat units)
         1        C      tau(   1) = (   0.5000000   0.2886751   3.8425963  )
         2        C      tau(   2) = (   1.0000000   0.5773503   3.6495395  )
         3        C      tau(   3) = (   1.0000000   0.5773503   3.0344995  )
         4        C      tau(   4) = (  -0.0000000   0.0000000   2.8311966  )
         5        C      tau(   5) = (   0.0000000   0.0000000   2.2161565  )
         6        C      tau(   6) = (   0.5000000   0.2886751   2.0230997  )
         7        H      tau(   7) = (   0.5000000   0.2886751   4.2814431  )
         8        H      tau(   8) = (   0.5000000   0.2886751   1.5842529  )

     number of k points=    12  Marzari-Vanderbilt smearing, width (Ry)=  0.0100
                       cart. coord. in units 2pi/alat
        k(    1) = (   0.0000000   0.0000000   0.0000000), wk =   0.0246914
        k(    2) = (   0.0000000   0.1283001   0.0000000), wk =   0.1481481
        k(    3) = (   0.0000000   0.2566001   0.0000000), wk =   0.1481481
        k(    4) = (   0.0000000   0.3849002   0.0000000), wk =   0.1481481
        k(    5) = (   0.0000000   0.5132002   0.0000000), wk =   0.1481481
        k(    6) = (   0.1111111   0.1924501   0.0000000), wk =   0.1481481
        k(    7) = (   0.1111111   0.3207501   0.0000000), wk =   0.2962963
        k(    8) = (   0.1111111   0.4490502   0.0000000), wk =   0.2962963
        k(    9) = (   0.1111111  -0.5773503   0.0000000), wk =   0.1481481
        k(   10) = (   0.2222222   0.3849002   0.0000000), wk =   0.1481481
        k(   11) = (   0.2222222  -0.6415003   0.0000000), wk =   0.2962963
        k(   12) = (   0.3333333  -0.5773503   0.0000000), wk =   0.0493827

     Dense  grid:   123505 G-vectors     FFT dimensions: (  36,  36, 216)

     Smooth grid:    43787 G-vectors     FFT dimensions: (  27,  27, 150)

     Estimated max dynamical RAM per process >      53.26 MB

     Estimated total dynamical RAM >     213.06 MB

     Check: negative core charge=   -0.000002

     Initial potential from superposition of free atoms

     starting charge      25.9997, renormalised to      26.0000

     negative rho (up, down):  2.303E-08 0.000E+00
     Starting wfcs are   26 randomized atomic wfcs
     Checking if some PAW data can be deallocated... 

     total cpu time spent up to now is       28.3 secs

     Self-consistent Calculation

     iteration #  1     ecut=    70.00 Ry     beta= 0.30
     Davidson diagonalization with overlap
     ethr =  1.00E-02,  avg # of iterations =  2.8

     negative rho (up, down):  9.528E-08 0.000E+00

     total cpu time spent up to now is       73.0 secs

     total energy              =    -113.01731221 Ry
     estimated scf accuracy    <       0.60682118 Ry

     iteration #  2     ecut=    70.00 Ry     beta= 0.30
     Davidson diagonalization with overlap
     ethr =  2.33E-03,  avg # of iterations =  3.2

     negative rho (up, down):  1.681E-07 0.000E+00

     total cpu time spent up to now is       96.4 secs

     total energy              =    -112.97859855 Ry
     estimated scf accuracy    <       0.18487744 Ry

     iteration #  3     ecut=    70.00 Ry     beta= 0.30
     Davidson diagonalization with overlap
     ethr =  7.11E-04,  avg # of iterations =  4.8

     negative rho (up, down):  5.618E-08 0.000E+00

     total cpu time spent up to now is      129.7 secs

     total energy              =    -112.98459399 Ry
     estimated scf accuracy    <       0.02653200 Ry

     iteration #  4     ecut=    70.00 Ry     beta= 0.30
     Davidson diagonalization with overlap
     ethr =  1.02E-04,  avg # of iterations =  4.4

     negative rho (up, down):  1.383E-08 0.000E+00

     total cpu time spent up to now is      175.6 secs

     total energy              =    -112.98563172 Ry
     estimated scf accuracy    <       0.00318136 Ry

     iteration #  5     ecut=    70.00 Ry     beta= 0.30
     Davidson diagonalization with overlap
     ethr =  1.22E-05,  avg # of iterations =  5.5

     total cpu time spent up to now is      232.2 secs

     total energy              =    -112.98605527 Ry
     estimated scf accuracy    <       0.00022976 Ry

     iteration #  6     ecut=    70.00 Ry     beta= 0.30
     Davidson diagonalization with overlap
     ethr =  8.84E-07,  avg # of iterations =  3.4

     total cpu time spent up to now is      279.0 secs

     total energy              =    -112.98608574 Ry
     estimated scf accuracy    <       0.00007201 Ry

     iteration #  7     ecut=    70.00 Ry     beta= 0.30
     Davidson diagonalization with overlap
     ethr =  2.77E-07,  avg # of iterations =  2.3

     total cpu time spent up to now is      330.7 secs

     total energy              =    -112.98609979 Ry
     estimated scf accuracy    <       0.00002248 Ry

     iteration #  8     ecut=    70.00 Ry     beta= 0.30
     Davidson diagonalization with overlap
     ethr =  8.65E-08,  avg # of iterations =  1.8

     total cpu time spent up to now is      361.8 secs

     total energy              =    -112.98610181 Ry
     estimated scf accuracy    <       0.00000240 Ry

     iteration #  9     ecut=    70.00 Ry     beta= 0.30
     Davidson diagonalization with overlap
     ethr =  9.24E-09,  avg # of iterations =  2.5

     total cpu time spent up to now is      412.8 secs

     total energy              =    -112.98610216 Ry
     estimated scf accuracy    <       0.00000039 Ry

     iteration # 10     ecut=    70.00 Ry     beta= 0.30
     Davidson diagonalization with overlap
     ethr =  1.48E-09,  avg # of iterations =  2.2

     total cpu time spent up to now is      454.8 secs

     total energy              =    -112.98610222 Ry
     estimated scf accuracy    <       0.00000003 Ry

     iteration # 11     ecut=    70.00 Ry     beta= 0.30
     Davidson diagonalization with overlap
     ethr =  1.10E-10,  avg # of iterations =  3.1

     total cpu time spent up to now is      493.9 secs

     total energy              =    -112.98610223 Ry
     estimated scf accuracy    <       0.00000003 Ry

     iteration # 12     ecut=    70.00 Ry     beta= 0.30
     Davidson diagonalization with overlap
     ethr =  1.04E-10,  avg # of iterations =  2.0

     total cpu time spent up to now is      532.7 secs

     End of self-consistent calculation

          k = 0.0000 0.0000 0.0000 (  5463 PWs)   bands (ev):

   -16.9010 -15.4130 -13.1817  -8.3582  -5.2790  -1.3851   1.5191   1.5191
     2.1011   2.3766   2.3766   3.4620   3.4620   6.3887   6.6322   9.1927
    10.3599

          k = 0.0000 0.1283 0.0000 (  5491 PWs)   bands (ev):

   -16.6003 -15.1185 -12.8998  -8.0884  -5.0529  -1.2613   0.1108   0.8975
     1.0282   1.8493   1.9921   2.3210   3.0217   6.6416   6.9601   9.1960
    10.4070

          k = 0.0000 0.2566 0.0000 (  5493 PWs)   bands (ev):

   -15.7046 -14.2425 -12.0637  -7.3376  -4.4686  -2.8591  -1.7459  -0.9222
    -0.3219  -0.2726   0.7711   1.7869   2.0456   7.4053   7.8455   9.3290
    10.2719

          k = 0.0000 0.3849 0.0000 (  5473 PWs)   bands (ev):

   -14.2387 -12.8188 -10.7252  -6.8333  -5.7726  -4.5152  -3.8748  -2.6487
    -1.2663  -0.8484  -0.1821   1.0902   1.1413   8.5242   8.9109   9.6249
    10.4370

          k = 0.0000 0.5132 0.0000 (  5485 PWs)   bands (ev):

   -12.3029 -11.0856  -9.6926  -8.2223  -8.0219  -6.1792  -3.8787  -2.5972
    -1.8076  -1.4401  -0.7083   0.5561   0.6339   8.9331   9.6568  10.3032
    10.8035

          k = 0.1111 0.1925 0.0000 (  5503 PWs)   bands (ev):

   -16.0020 -14.5331 -12.3405  -7.5741  -4.6384  -1.6636  -1.0676  -0.9763
    -0.0622   0.2264   1.3318   1.3483   2.3146   7.1864   7.5716   9.6317
    10.4940

          k = 0.1111 0.3208 0.0000 (  5483 PWs)   bands (ev):

   -14.8200 -13.3807 -11.2462  -6.7559  -4.4953  -3.9456  -3.0907  -2.3385
    -1.2154  -0.7943  -0.5577   0.4067   1.6950   8.2981   8.6038  10.1872
    10.9429

          k = 0.1111 0.4491 0.0000 (  5461 PWs)   bands (ev):

   -13.1018 -11.7356  -9.7711  -7.6248  -6.7182  -4.9230  -4.3382  -2.6636
    -2.4461  -1.6690  -0.9773  -0.1590   0.8282   9.3401   9.9447  10.6980
    11.4617

          k = 0.1111-0.5774 0.0000 (  5454 PWs)   bands (ev):

   -11.3246 -10.7886  -9.5698  -8.6363  -7.5066  -6.9495  -3.3415  -3.0462
    -2.6110  -1.6827  -1.6251  -0.2013   0.3307   9.6308  10.5065  11.3688
    11.6401

          k = 0.2222 0.3849 0.0000 (  5450 PWs)   bands (ev):

   -13.3792 -11.9895  -9.9502  -6.8205  -5.6172  -4.8444  -3.9821  -3.4209
    -2.7430  -1.9238  -1.7010  -0.6496   0.9187   9.5283   9.8203  11.1743
    11.7580

          k = 0.2222-0.6415 0.0000 (  5450 PWs)   bands (ev):

   -11.4955 -10.3249  -8.9521  -7.9886  -7.4282  -6.1483  -4.4608  -4.0863
    -3.0414  -2.6467  -1.7422  -0.9222  -0.0646  10.1618  10.8185  12.0189
    12.1503

          k = 0.3333-0.5774 0.0000 (  5406 PWs)   bands (ev):

    -9.8893  -9.8893  -8.7800  -8.4761  -7.0508  -7.0508  -4.9312  -4.6332
    -4.6332  -1.8908  -1.3107  -1.3107  -1.0022  10.7657  10.7657  11.4177
    13.1179

     the Fermi energy is     4.2472 ev

!    total energy              =    -112.98610223 Ry
     estimated scf accuracy    <          4.8E-09 Ry
     smearing contrib. (-TS)   =       0.00000000 Ry
     internal energy E=F+TS    =    -112.98610223 Ry

     The total energy is F=E-TS. E is the sum of the following terms:
     one-electron contribution =    -588.52332189 Ry
     hartree contribution      =     305.25353608 Ry
     xc contribution           =     -29.50883460 Ry
     ewald contribution        =     236.77085212 Ry
     one-center paw contrib.   =     -36.97833393 Ry

     convergence has been achieved in  12 iterations

     Forces acting on atoms (cartesian axes, Ry/au):

     atom    1 type  1   force =     0.00000000    0.00000000   -0.00003433
     atom    2 type  1   force =     0.00000000    0.00000000   -0.00000380
     atom    3 type  1   force =     0.00000000    0.00000000   -0.00002573
     atom    4 type  1   force =    -0.00000000    0.00000000    0.00002573
     atom    5 type  1   force =     0.00000000   -0.00000000    0.00000380
     atom    6 type  1   force =     0.00000000    0.00000000    0.00003433
     atom    7 type  2   force =     0.00000000    0.00000000    0.00004396
     atom    8 type  2   force =     0.00000000    0.00000000   -0.00004396

     Total force =     0.000087     Total SCF correction =     0.000128
     SCF correction compared to forces is large: reduce conv_thr to get better values


     Computing stress (Cartesian axis) and pressure

          total   stress  (Ry/bohr**3)                   (kbar)     P=        2.61
   0.00003124  -0.00000000   0.00000000            4.60       -0.00        0.00
  -0.00000000   0.00003124  -0.00000000           -0.00        4.60       -0.00
   0.00000000  -0.00000000  -0.00000930            0.00       -0.00       -1.37


     Writing all to output data dir ./tmp/slab.save/ :
     XML data file, charge density, pseudopotentials, collected wavefunctions

     init_run     :      4.58s CPU     18.56s WALL (       1 calls)
     electrons    :    125.71s CPU    505.35s WALL (       1 calls)
     forces       :      1.33s CPU      5.30s WALL (       1 calls)
     stress       :      1.20s CPU      4.84s WALL (       1 calls)

     Called by init_run:
     wfcinit      :      3.89s CPU     15.75s WALL (       1 calls)
     potinit      :      0.40s CPU      1.62s WALL (       1 calls)
     hinit0       :      0.21s CPU      0.86s WALL (       1 calls)

     Called by electrons:
     c_bands      :    102.63s CPU    412.46s WALL (      12 calls)
     sum_band     :     15.65s CPU     62.91s WALL (      12 calls)
     v_of_rho     :      2.01s CPU      8.18s WALL (      13 calls)
     newd         :      0.47s CPU      1.90s WALL (      13 calls)
     PAW_pot      :      1.52s CPU      6.09s WALL (      13 calls)
     mix_rho      :      2.51s CPU     10.10s WALL (      12 calls)

     Called by c_bands:
     init_us_2    :      0.15s CPU      0.20s WALL (     324 calls)
     cegterg      :     99.97s CPU    400.92s WALL (     144 calls)

     Called by *egterg:
     cdiaghg      :      2.38s CPU     10.27s WALL (     601 calls)
     h_psi        :     81.15s CPU    325.30s WALL (     613 calls)
     s_psi        :      0.11s CPU      0.20s WALL (     613 calls)
     g_psi        :      0.02s CPU      0.06s WALL (     457 calls)

     Called by h_psi:
     h_psi:calbec :      8.81s CPU     35.49s WALL (     613 calls)
     vloc_psi     :     72.14s CPU    289.54s WALL (     613 calls)
     add_vuspsi   :      0.19s CPU      0.22s WALL (     613 calls)

     General routines
     calbec       :     12.27s CPU     49.66s WALL (     817 calls)
     fft          :      1.26s CPU      5.51s WALL (     192 calls)
     ffts         :      0.19s CPU      0.78s WALL (      25 calls)
     fftw         :     83.52s CPU    338.02s WALL (   15688 calls)
     interpolate  :      0.22s CPU      0.90s WALL (      13 calls)

     Parallel routines

     PWSCF        :   2m25.03s CPU   9m41.55s WALL


   This run was terminated on:  11:50:58   1Aug2026            

=------------------------------------------------------------------------------=
   JOB DONE.
=------------------------------------------------------------------------------=
Note: The following floating-point exceptions are signalling: IEEE_UNDERFLOW_FLAG IEEE_DENORMAL
Note: The following floating-point exceptions are signalling: IEEE_UNDERFLOW_FLAG IEEE_DENORMAL
Note: The following floating-point exceptions are signalling: IEEE_UNDERFLOW_FLAG IEEE_DENORMAL
Note: The following floating-point exceptions are signalling: IEEE_UNDERFLOW_FLAG IEEE_DENORMAL
