
     Program PWSCF v.7.5 starts on 23Jun2026 at 12:19:50 

     This program is part of the open-source Quantum ESPRESSO suite
     for quantum simulation of materials; please cite
         "P. Giannozzi et al., J. Phys.:Condens. Matter 21 395502 (2009);
         "P. Giannozzi et al., J. Phys.:Condens. Matter 29 465901 (2017);
         "P. Giannozzi et al., J. Chem. Phys. 152 154105 (2020);
          URL http://www.quantum-espresso.org", 
     in publications or presentations arising from this work. More details at
     http://www.quantum-espresso.org/quote

     Serial version
     0 MiB available memory on the printing compute node when the environment starts

     Waiting for input...
     Reading input from standard input

     Current dimensions of program PWSCF are:
     Max number of different atomic species (ntypx) = 10
     Max number of k-points (npk) =  40000
     Max angular momentum in pseudopotentials (lmaxx) =  4
     file C.pbe-n-kjpaw_psl.1.0.0.UPF: wavefunction(s)  2S 2P renormalized
     Message from routine volume:
     axis vectors are left-handed
     Message from routine setup:
     using ibrav=0 with symmetry is DISCOURAGED, use correct ibrav instead


     G-vector sticks info
     --------------------
     sticks:   dense  smooth     PW     G-vecs:    dense   smooth      PW
     Sum        2227    1115    319               463505   163983   25273

     Using Slab Decomposition



     bravais-lattice index     =            0
     lattice parameter (alat)  =       4.6797  a.u.
     unit-cell volume          =    1695.4660 (a.u.)^3
     number of atoms/cell      =           14
     number of atomic types    =            2
     number of electrons       =        50.00
     number of Kohn-Sham states=           30
     kinetic-energy cutoff     =      80.0000  Ry
     charge density cutoff     =     640.0000  Ry
     scf convergence threshold =      1.0E-08
     mixing beta               =       0.3000
     number of iterations used =            8  plain     mixing
     Exchange-correlation= PBE
                           (   1   4   3   4   0   0   0)

     celldm(1)=   4.679731  celldm(2)=   0.000000  celldm(3)=   0.000000
     celldm(4)=   0.000000  celldm(5)=   0.000000  celldm(6)=   0.000000

     crystal axes: (cart. coord. in units of alat)
               a(1) = (   1.000000   0.000000   0.000000 )  
               a(2) = (   0.000000  -2.000000   0.000000 )  
               a(3) = (   0.000000   0.000000   8.271733 )  

     reciprocal axes: (cart. coord. in units 2 pi/alat)
               b(1) = (  1.000000 -0.000000 -0.000000 )  
               b(2) = ( -0.000000 -0.500000 -0.000000 )  
               b(3) = ( -0.000000 -0.000000  0.120894 )  


     PseudoPot. # 1 for C  read from file:
     ./C.pbe-n-kjpaw_psl.1.0.0.UPF
     MD5 check sum: 5d2aebdfa2cae82b50a7e79e9516da0f
     Pseudo is Projector augmented-wave + core cor, Zval =  4.0
     Generated using "atomic" code by A. Dal Corso  v.5.1
     Shape of augmentation charge: PSQ
     Using radial grid of 1073 points,  4 beta functions with: 
                l(1) =   0
                l(2) =   0
                l(3) =   1
                l(4) =   1
     Q(r) pseudized with 0 coefficients 


     PseudoPot. # 2 for H  read from file:
     ./H_ONCV_PBE-1.0.oncvpsp.upf
     MD5 check sum: 1790becc920ee074925cf490c71280fe
     Pseudo is Norm-conserving, Zval =  1.0
     Generated using ONCVPSP code by D. R. Hamann
     Using radial grid of 1166 points,  2 beta functions with: 
                l(1) =   0
                l(2) =   0

     atomic species   valence    mass     pseudopotential
     C                 4.00    12.01100     C ( 1.00)
     H                 1.00     1.00800     H ( 1.00)

      4 Sym. Ops. (no inversion) found



   Cartesian axes

     site n.     atom                  positions (alat units)
         1        C      tau(   1) = (   0.0000000  -0.3212366   4.8046506  )
         2        C      tau(   2) = (   0.5000000  -0.4642664   4.4772126  )
         3        C      tau(   3) = (   0.5000000   0.0000000   4.0746671  )
         4        C      tau(   4) = (   0.0000000   0.0000000   3.7322758  )
         5        C      tau(   5) = (   0.0000000  -0.5000000   3.3893503  )
         6        C      tau(   6) = (   0.5000000  -0.5000000   3.0285815  )
         7        C      tau(   7) = (   0.0000000  -1.6787634   4.8046506  )
         8        C      tau(   8) = (   0.5000000  -1.5357336   4.4772126  )
         9        C      tau(   9) = (   0.5000000  -1.0000000   4.1491969  )
        10        C      tau(  10) = (   0.0000000  -1.0000000   3.7753672  )
        11        C      tau(  11) = (   0.0000000  -1.5000000   3.3893503  )
        12        C      tau(  12) = (   0.5000000  -1.5000000   3.0285815  )
        13        H      tau(  13) = (   0.0000000  -0.4902796   5.2136395  )
        14        H      tau(  14) = (   0.0000000  -1.5097204   5.2136395  )

     number of k points=    15  Marzari-Vanderbilt smearing, width (Ry)=  0.0100
                       cart. coord. in units 2pi/alat
        k(    1) = (   0.0000000  -0.0000000   0.0000000), wk =   0.0444444
        k(    2) = (   0.0000000  -0.1000000   0.0000000), wk =   0.0888889
        k(    3) = (   0.0000000  -0.2000000   0.0000000), wk =   0.0888889
        k(    4) = (   0.1111111  -0.0000000   0.0000000), wk =   0.0888889
        k(    5) = (   0.1111111  -0.1000000   0.0000000), wk =   0.1777778
        k(    6) = (   0.1111111  -0.2000000   0.0000000), wk =   0.1777778
        k(    7) = (   0.2222222  -0.0000000   0.0000000), wk =   0.0888889
        k(    8) = (   0.2222222  -0.1000000   0.0000000), wk =   0.1777778
        k(    9) = (   0.2222222  -0.2000000   0.0000000), wk =   0.1777778
        k(   10) = (   0.3333333  -0.0000000   0.0000000), wk =   0.0888889
        k(   11) = (   0.3333333  -0.1000000   0.0000000), wk =   0.1777778
        k(   12) = (   0.3333333  -0.2000000   0.0000000), wk =   0.1777778
        k(   13) = (   0.4444444  -0.0000000   0.0000000), wk =   0.0888889
        k(   14) = (   0.4444444  -0.1000000   0.0000000), wk =   0.1777778
        k(   15) = (   0.4444444  -0.2000000   0.0000000), wk =   0.1777778

     Dense  grid:   463505 G-vectors     FFT dimensions: (  40,  75, 320)

     Smooth grid:   163983 G-vectors     FFT dimensions: (  27,  54, 225)

     Estimated max dynamical RAM per process >    1001.11 MB

     Initial potential from superposition of free atoms

     starting charge      49.9995, renormalised to      50.0000

     negative rho (up, down):  7.140E-05 0.000E+00
     Starting wfcs are   50 randomized atomic wfcs

     total cpu time spent up to now is        6.6 secs

     Self-consistent Calculation

     iteration #  1     ecut=    80.00 Ry     beta= 0.30
     Davidson diagonalization with overlap
     ethr =  1.00E-02,  avg # of iterations =  2.7

     negative rho (up, down):  6.870E-05 0.000E+00

     total cpu time spent up to now is       19.1 secs

     WARNING: integrated charge=    50.00021600, expected=    50.00000000

     total energy              =    -223.07517927 Ry
     estimated scf accuracy    <       0.99324913 Ry

     iteration #  2     ecut=    80.00 Ry     beta= 0.30
     Davidson diagonalization with overlap
     ethr =  1.99E-03,  avg # of iterations =  3.9

     negative rho (up, down):  7.376E-05 0.000E+00

     total cpu time spent up to now is       29.4 secs

     WARNING: integrated charge=    50.00012083, expected=    50.00000000

     total energy              =    -223.02576891 Ry
     estimated scf accuracy    <       0.31270364 Ry

     iteration #  3     ecut=    80.00 Ry     beta= 0.30
     Davidson diagonalization with overlap
     ethr =  6.25E-04,  avg # of iterations =  5.5

     negative rho (up, down):  8.322E-05 0.000E+00

     total cpu time spent up to now is       40.5 secs

     WARNING: integrated charge=    50.00005458, expected=    50.00000000

     total energy              =    -223.02705616 Ry
     estimated scf accuracy    <       0.07012277 Ry

     iteration #  4     ecut=    80.00 Ry     beta= 0.30
     Davidson diagonalization with overlap
     ethr =  1.40E-04,  avg # of iterations =  4.8

     negative rho (up, down):  8.693E-05 0.000E+00

     total cpu time spent up to now is       52.4 secs

     WARNING: integrated charge=    50.00002316, expected=    50.00000000

     total energy              =    -223.03202130 Ry
     estimated scf accuracy    <       0.00987503 Ry

     iteration #  5     ecut=    80.00 Ry     beta= 0.30
     Davidson diagonalization with overlap
     ethr =  1.98E-05,  avg # of iterations =  5.0

     negative rho (up, down):  8.891E-05 0.000E+00

     total cpu time spent up to now is       67.0 secs

     WARNING: integrated charge=    50.00000791, expected=    50.00000000

     total energy              =    -223.03317071 Ry
     estimated scf accuracy    <       0.00122699 Ry

     iteration #  6     ecut=    80.00 Ry     beta= 0.30
     Davidson diagonalization with overlap
     ethr =  2.45E-06,  avg # of iterations =  7.1

     negative rho (up, down):  8.684E-05 0.000E+00

     total cpu time spent up to now is       82.6 secs

     WARNING: integrated charge=    50.00000526, expected=    50.00000000

     total energy              =    -223.03331548 Ry
     estimated scf accuracy    <       0.00020011 Ry

     iteration #  7     ecut=    80.00 Ry     beta= 0.30
     Davidson diagonalization with overlap
     ethr =  4.00E-07,  avg # of iterations =  2.2

     negative rho (up, down):  8.726E-05 0.000E+00

     total cpu time spent up to now is       95.1 secs

     total energy              =    -223.03334686 Ry
     estimated scf accuracy    <       0.00004620 Ry

     iteration #  8     ecut=    80.00 Ry     beta= 0.30
     Davidson diagonalization with overlap
     ethr =  9.24E-08,  avg # of iterations =  2.4

     negative rho (up, down):  8.644E-05 0.000E+00

     total cpu time spent up to now is      109.8 secs

     total energy              =    -223.03335081 Ry
     estimated scf accuracy    <       0.00000872 Ry

     iteration #  9     ecut=    80.00 Ry     beta= 0.30
     Davidson diagonalization with overlap
     ethr =  1.74E-08,  avg # of iterations =  2.4

     negative rho (up, down):  8.615E-05 0.000E+00

     total cpu time spent up to now is      123.2 secs

     total energy              =    -223.03335238 Ry
     estimated scf accuracy    <       0.00000096 Ry

     iteration # 10     ecut=    80.00 Ry     beta= 0.30
     Davidson diagonalization with overlap
     ethr =  1.93E-09,  avg # of iterations =  4.0

     negative rho (up, down):  8.592E-05 0.000E+00

     total cpu time spent up to now is      137.4 secs

     total energy              =    -223.03335260 Ry
     estimated scf accuracy    <       0.00000053 Ry

     iteration # 11     ecut=    80.00 Ry     beta= 0.30
     Davidson diagonalization with overlap
     ethr =  1.05E-09,  avg # of iterations =  2.5

     negative rho (up, down):  8.585E-05 0.000E+00

     total cpu time spent up to now is      148.7 secs

     total energy              =    -223.03335269 Ry
     estimated scf accuracy    <       0.00000006 Ry

     iteration # 12     ecut=    80.00 Ry     beta= 0.30
     Davidson diagonalization with overlap
     ethr =  1.16E-10,  avg # of iterations =  3.7

     negative rho (up, down):  8.580E-05 0.000E+00

     total cpu time spent up to now is      162.9 secs

     total energy              =    -223.03335269 Ry
     estimated scf accuracy    <       0.00000003 Ry

     iteration # 13     ecut=    80.00 Ry     beta= 0.30
     Davidson diagonalization with overlap
     ethr =  6.81E-11,  avg # of iterations =  2.1

     negative rho (up, down):  8.576E-05 0.000E+00

     total cpu time spent up to now is      174.6 secs

     End of self-consistent calculation

          k = 0.0000-0.0000 0.0000 ( 20517 PWs)   bands (ev):

   -21.3314 -19.0660 -16.7169 -16.3345 -15.4385 -15.1538 -12.1559 -11.4501
   -11.0167  -8.1874  -7.9192  -7.2530  -5.8278  -5.4051  -4.2111  -3.9833
    -3.8052  -3.2339  -2.8647  -2.4766  -2.2076  -2.0836  -1.2368  -0.8704
    -0.4254   0.0837   2.7949   3.5270   4.7242   4.9662

          k = 0.0000-0.1000 0.0000 ( 20493 PWs)   bands (ev):

   -21.1742 -18.9914 -17.9676 -15.9663 -15.0996 -14.8971 -11.6616 -11.3061
   -10.9794  -8.2474  -7.6665  -7.2952  -6.0968  -5.7099  -4.4299  -4.0746
    -3.7520  -3.4960  -3.4003  -2.7160  -2.2333  -1.7779  -1.1627  -0.9672
    -0.5958   0.4245   3.0124   3.1402   4.9630   5.5352

          k = 0.0000-0.2000 0.0000 ( 20578 PWs)   bands (ev):

   -20.7915 -19.3028 -18.4499 -16.7110 -14.8334 -14.0528 -11.4207 -10.5130
   -10.1850  -8.9521  -7.9836  -7.1020  -6.6847  -5.4432  -5.2736  -4.3276
    -4.0966  -3.5428  -3.3300  -3.1115  -2.4824  -1.4573  -1.0308  -0.9971
    -0.8911   1.2009   2.2381   3.6481   4.6184   5.3372

          k = 0.1111-0.0000 0.0000 ( 20543 PWs)   bands (ev):

   -21.0968 -18.8381 -16.4984 -16.1114 -15.2240 -14.9465 -11.9561 -11.3366
   -10.8249  -8.0405  -7.8394  -7.4349  -6.8267  -5.2496  -5.0831  -4.2212
    -4.0436  -3.7212  -3.3375  -3.1632  -3.0479  -2.3870  -2.2063  -0.9900
    -0.4440   0.1284   3.0126   3.6538   5.1025   5.4999

          k = 0.1111-0.1000 0.0000 ( 20501 PWs)   bands (ev):

   -20.9399 -18.7633 -17.7428 -15.7529 -14.8865 -14.6857 -11.5040 -11.1270
   -10.8139  -8.1608  -7.5914  -7.3560  -6.7358  -5.9669  -5.0142  -4.6438
    -4.2148  -4.0890  -3.3305  -3.2327  -2.8800  -2.7031  -2.0325  -1.0188
    -0.5671   0.4509   3.2223   3.2373   5.3149   5.8010

          k = 0.1111-0.2000 0.0000 ( 20520 PWs)   bands (ev):

   -20.5581 -19.0721 -18.2252 -16.4943 -14.6255 -13.8434 -11.2800 -10.3244
   -10.0548  -8.7755  -7.8383  -7.2528  -6.5859  -6.4075  -5.3881  -5.1638
    -4.7808  -4.2935  -3.6617  -3.1646  -2.9095  -2.3872  -2.0329  -0.9875
    -0.8024   1.2257   2.2765   3.8533   4.7998   5.4670

          k = 0.2222-0.0000 0.0000 ( 20519 PWs)   bands (ev):

   -20.3965 -18.1616 -15.8481 -15.4470 -14.5979 -14.3298 -11.4280 -11.3655
   -10.2862  -9.1067  -8.2551  -7.8146  -7.5065  -6.1024  -6.0869  -5.2481
    -5.0857  -5.0413  -4.7928  -4.0084  -3.9834  -3.0484  -2.2154  -1.3238
    -0.8603   0.0526   3.5805   3.9587   5.9282   6.0137

          k = 0.2222-0.1000 0.0000 ( 20495 PWs)   bands (ev):

   -20.2407 -18.0855 -17.0739 -15.1234 -14.2627 -14.0555 -11.3649 -10.7058
   -10.3666  -8.9785  -8.3491  -7.9165  -7.1947  -6.3950  -6.1351  -5.5564
    -5.4891  -4.8518  -4.6540  -4.2593  -3.9607  -3.2229  -2.6466  -1.2470
    -0.8278   0.3190   3.3399   3.8220   5.9674   6.1125

          k = 0.2222-0.2000 0.0000 ( 20481 PWs)   bands (ev):

   -19.8617 -18.3846 -17.5584 -15.8551 -14.0229 -13.2183 -11.1540 -10.0305
    -9.7509  -8.7632  -8.4093  -7.7827  -7.4991  -7.0892  -6.4188  -5.9912
    -5.8046  -5.0723  -4.5107  -4.2314  -4.0696  -3.2471  -3.0325  -1.1036
    -0.8997   1.0683   2.1758   4.3745   5.1030   5.5750

          k = 0.3333-0.0000 0.0000 ( 20427 PWs)   bands (ev):

   -19.2446 -17.0775 -14.7966 -14.3603 -13.8431 -13.3281 -12.7397 -10.9801
   -10.6114  -9.6934  -9.0664  -8.7982  -8.0741  -7.5719  -7.1269  -6.8786
    -6.0100  -5.6532  -4.9551  -4.5608  -4.0278  -3.7495  -2.1412  -1.6004
    -1.2561  -0.1483   4.2489   4.4881   6.1805   6.8003

          k = 0.3333-0.1000 0.0000 ( 20464 PWs)   bands (ev):

   -19.0906 -16.9950 -15.9864 -14.1726 -13.5146 -13.0223 -12.5725 -10.8945
   -10.4090  -9.7132  -9.1012  -8.7855  -8.0027  -7.5134  -7.3061  -6.1900
    -6.1231  -5.5518  -5.2104  -4.7190  -4.2939  -3.8502  -2.8811  -1.4859
    -1.2143   0.0759   3.5604   4.6784   5.7682   6.5407

          k = 0.3333-0.2000 0.0000 ( 20421 PWs)   bands (ev):

   -18.7158 -17.2592 -16.4878 -14.8635 -13.3895 -12.2327 -12.1878 -11.1979
   -10.3165  -9.3251  -8.8257  -8.3985  -7.8103  -7.2227  -7.1061  -7.0157
    -6.1675  -5.6024  -5.3426  -4.8662  -4.6133  -4.0216  -3.6363  -1.3220
    -1.2197   0.8435   2.1504   4.8806   5.3040   5.9705

          k = 0.4444-0.0000 0.0000 ( 20482 PWs)   bands (ev):

   -17.6881 -16.1501 -14.9927 -13.3251 -13.0373 -12.9132 -12.1208 -11.9405
   -11.4665 -10.7935 -10.0370  -9.9049  -8.2294  -7.9197  -7.4135  -7.0952
    -6.4026  -5.7916  -5.4384  -5.2771  -4.5012  -3.0139  -2.3938  -1.7701
    -1.4753  -0.3314   4.4044   5.6084   6.0779   6.6614

          k = 0.4444-0.1000 0.0000 ( 20495 PWs)   bands (ev):

   -17.5363 -16.0065 -14.9884 -14.4528 -13.2902 -12.8734 -11.7855 -11.5799
   -11.4689 -10.5161  -9.8988  -9.6848  -8.2122  -7.7961  -7.6611  -6.4439
    -6.3213  -5.7781  -5.4560  -5.0835  -4.6217  -3.7317  -3.1900  -1.6306
    -1.4712  -0.1184   3.7062   5.5048   6.0526   6.4658

          k = 0.4444-0.2000 0.0000 ( 20417 PWs)   bands (ev):

   -17.1659 -15.7928 -15.5055 -14.6311 -14.2554 -12.6152 -12.2726 -11.2396
   -11.1257 -10.6178  -9.4757  -8.9398  -7.9956  -7.3963  -7.0684  -6.4373
    -5.9480  -5.6998  -5.4267  -5.1744  -4.9167  -4.8702  -4.4549  -1.5204
    -1.4602   0.7577   2.2093   5.1622   6.0495   6.6939

     the Fermi energy is    -0.3811 ev

!    total energy              =    -223.03335270 Ry
     estimated scf accuracy    <          2.1E-09 Ry
     smearing contrib. (-TS)   =       0.00019134 Ry
     internal energy E=F+TS    =    -223.03354404 Ry

     The total energy is F=E-TS. E is the sum of the following terms:
     one-electron contribution =   -2366.03472734 Ry
     hartree contribution      =    1197.19844515 Ry
     xc contribution           =     -57.09741810 Ry
     ewald contribution        =    1076.88541503 Ry
     one-center paw contrib.   =     -73.98525877 Ry

     convergence has been achieved in  13 iterations

     negative rho (up, down):  8.576E-05 0.000E+00

     Forces acting on atoms (cartesian axes, Ry/au):

     atom    1 type  1   force =    -0.00000000   -0.01040349    0.00581849
     atom    2 type  1   force =     0.00000000   -0.01396447   -0.00076690
     atom    3 type  1   force =     0.00000000   -0.00000000    0.00240008
     atom    4 type  1   force =     0.00000000   -0.00000000    0.00518422
     atom    5 type  1   force =     0.00000000   -0.03360753   -0.09413626
     atom    6 type  1   force =     0.00000000   -0.00993395    0.08261898
     atom    7 type  1   force =     0.00000000    0.01040349    0.00581849
     atom    8 type  1   force =     0.00000000    0.01396447   -0.00076690
     atom    9 type  1   force =     0.00000000   -0.00000000    0.00026598
     atom   10 type  1   force =     0.00000000    0.00000000   -0.00011156
     atom   11 type  1   force =     0.00000000    0.03360753   -0.09413626
     atom   12 type  1   force =     0.00000000    0.00993395    0.08261898
     atom   13 type  2   force =     0.00000000   -0.00488536    0.00259633
     atom   14 type  2   force =     0.00000000    0.00488536    0.00259633

     Total force =     0.027736     Total SCF correction =     0.000057


     Computing stress (Cartesian axis) and pressure


     negative rho (up, down):  8.576E-05 0.000E+00
          total   stress  (Ry/bohr**3)                   (kbar)     P=        6.67
   0.00040787   0.00000000   0.00000000           60.00        0.00        0.00
   0.00000000  -0.00018012   0.00000000            0.00      -26.50        0.00
   0.00000000   0.00000000  -0.00009164            0.00        0.00      -13.48


     Writing all to output data dir ./tmp/slab.save/ :
     XML data file, charge density, pseudopotentials, collected wavefunctions

     init_run     :      6.17s CPU      6.59s WALL (       1 calls)
     electrons    :    150.96s CPU    167.94s WALL (       1 calls)
     forces       :      1.78s CPU      2.08s WALL (       1 calls)
     stress       :      5.57s CPU      6.63s WALL (       1 calls)

     Called by init_run:
     wfcinit      :      4.93s CPU      5.22s WALL (       1 calls)
     potinit      :      0.61s CPU      0.68s WALL (       1 calls)
     hinit0       :      0.28s CPU      0.29s WALL (       1 calls)

     Called by electrons:
     c_bands      :    121.44s CPU    135.31s WALL (      13 calls)
     sum_band     :     19.89s CPU     21.70s WALL (      13 calls)
     v_of_rho     :      3.55s CPU      3.86s WALL (      14 calls)
     newd         :      2.18s CPU      2.74s WALL (      14 calls)
     PAW_pot      :      3.79s CPU      4.20s WALL (      14 calls)
     mix_rho      :      0.50s CPU      0.59s WALL (      13 calls)

     Called by c_bands:
     init_us_2    :      1.98s CPU      2.24s WALL (     435 calls)
     cegterg      :    117.59s CPU    131.26s WALL (     195 calls)

     Called by *egterg:
     cdiaghg      :      0.93s CPU      1.05s WALL (     919 calls)
     h_psi        :     91.79s CPU     98.29s WALL (     934 calls)
     s_psi        :      8.02s CPU      9.65s WALL (     934 calls)
     g_psi        :      0.43s CPU      0.43s WALL (     724 calls)

     Called by h_psi:
     h_psi:calbec :      7.49s CPU      9.50s WALL (     934 calls)
     vloc_psi     :     74.91s CPU     77.05s WALL (     934 calls)
                                        0.00s GPU  (     934 calls)
     add_vuspsi   :      9.06s CPU     11.19s WALL (     934 calls)

     General routines
     calbec       :     12.76s CPU     16.16s WALL (    1384 calls)
     fft          :      2.59s CPU      2.64s WALL (     205 calls)
     ffts         :      0.11s CPU      0.11s WALL (      27 calls)
     fftw         :     79.57s CPU     81.31s WALL (   38164 calls)
     interpolate  :      0.26s CPU      0.30s WALL (      14 calls)


     PWSCF        :   2m44.58s CPU   3m 3.41s WALL


   This run was terminated on:  12:22:54  23Jun2026            

=------------------------------------------------------------------------------=
   JOB DONE.
=------------------------------------------------------------------------------=
Note: The following floating-point exceptions are signalling: IEEE_INVALID_FLAG IEEE_DIVIDE_BY_ZERO IEEE_OVERFLOW_FLAG IEEE_UNDERFLOW_FLAG
