
     Program PWSCF v.7.5 starts on  7Jul2026 at 14: 6:36 

     This program is part of the open-source Quantum ESPRESSO suite
     for quantum simulation of materials; please cite
         "P. Giannozzi et al., J. Phys.:Condens. Matter 21 395502 (2009);
         "P. Giannozzi et al., J. Phys.:Condens. Matter 29 465901 (2017);
         "P. Giannozzi et al., J. Chem. Phys. 152 154105 (2020);
          URL http://www.quantum-espresso.org", 
     in publications or presentations arising from this work. More details at
     http://www.quantum-espresso.org/quote

     Serial version
     0 MiB available memory on the printing compute node when the environment starts

     Waiting for input...
     Reading input from standard input

     Current dimensions of program PWSCF are:
     Max number of different atomic species (ntypx) = 10
     Max number of k-points (npk) =  40000
     Max angular momentum in pseudopotentials (lmaxx) =  4
     file C.pbe-n-kjpaw_psl.1.0.0.UPF: wavefunction(s)  2S 2P renormalized
     Message from routine volume:
     axis vectors are left-handed
     Found identity + (  0.5000  0.0000  0.0000) symmetry
     This is a supercell, fractional translations are disabled
     Message from routine setup:
     using ibrav=0 with symmetry is DISCOURAGED, use correct ibrav instead


     G-vector sticks info
     --------------------
     sticks:   dense  smooth     PW     G-vecs:    dense   smooth      PW
     Sum        3447    1729    481               439265   155427   22407

     Using Slab Decomposition



     bravais-lattice index     =            0
     lattice parameter (alat)  =       9.4550  a.u.
     unit-cell volume          =    2474.5178 (a.u.)^3
     number of atoms/cell      =           32
     number of atomic types    =            2
     number of electrons       =       104.00
     number of Kohn-Sham states=           62
     kinetic-energy cutoff     =      60.0000  Ry
     charge density cutoff     =     480.0000  Ry
     scf convergence threshold =      1.0E-08
     mixing beta               =       0.3000
     number of iterations used =            8  plain     mixing
     Exchange-correlation= PBE
                           (   1   4   3   4   0   0   0)

     celldm(1)=   9.454966  celldm(2)=   0.000000  celldm(3)=   0.000000
     celldm(4)=   0.000000  celldm(5)=   0.000000  celldm(6)=   0.000000

     crystal axes: (cart. coord. in units of alat)
               a(1) = (   1.000000   0.000000   0.000000 )  
               a(2) = (   0.000000  -1.010101   0.000000 )  
               a(3) = (   0.000000   0.000000   2.898317 )  

     reciprocal axes: (cart. coord. in units 2 pi/alat)
               b(1) = (  1.000000 -0.000000 -0.000000 )  
               b(2) = ( -0.000000 -0.990000 -0.000000 )  
               b(3) = ( -0.000000 -0.000000  0.345028 )  


     PseudoPot. # 1 for C  read from file:
     ./C.pbe-n-kjpaw_psl.1.0.0.UPF
     MD5 check sum: 5d2aebdfa2cae82b50a7e79e9516da0f
     Pseudo is Projector augmented-wave + core cor, Zval =  4.0
     Generated using "atomic" code by A. Dal Corso  v.5.1
     Shape of augmentation charge: PSQ
     Using radial grid of 1073 points,  4 beta functions with: 
                l(1) =   0
                l(2) =   0
                l(3) =   1
                l(4) =   1
     Q(r) pseudized with 0 coefficients 


     PseudoPot. # 2 for H  read from file:
     ./H_ONCV_PBE-1.0.oncvpsp.upf
     MD5 check sum: 1790becc920ee074925cf490c71280fe
     Pseudo is Norm-conserving, Zval =  1.0
     Generated using ONCVPSP code by D. R. Hamann
     Using radial grid of 1166 points,  2 beta functions with: 
                l(1) =   0
                l(2) =   0

     atomic species   valence    mass     pseudopotential
     C                 4.00    12.01100     C ( 1.00)
     H                 1.00     1.00800     H ( 1.00)

      4 Sym. Ops. (no inversion) found



   Cartesian axes

     site n.     atom                  positions (alat units)
         1        C      tau(   1) = (   0.0000000  -0.1598068   1.8780618  )
         2        C      tau(   2) = (   0.2500000  -0.2322372   1.7170637  )
         3        C      tau(   3) = (   0.2500000   0.0000000   1.5087501  )
         4        C      tau(   4) = (   0.0000000   0.0000000   1.3311414  )
         5        C      tau(   5) = (   0.0000000  -0.2728133   1.1812529  )
         6        C      tau(   6) = (   0.2500000  -0.3452437   1.0202548  )
         7        C      tau(   7) = (   0.0000000  -0.8502942   1.8780618  )
         8        C      tau(   8) = (   0.2500000  -0.7778638   1.7170637  )
         9        C      tau(   9) = (   0.2500000  -0.5050505   1.5671752  )
        10        C      tau(  10) = (   0.0000000  -0.5050505   1.3895665  )
        11        C      tau(  11) = (   0.0000000  -0.7372877   1.1812529  )
        12        C      tau(  12) = (   0.2500000  -0.6648573   1.0202548  )
        13        H      tau(  13) = (   0.0000000  -0.2473819   2.0798024  )
        14        H      tau(  14) = (   0.0000000  -0.7627191   2.0798024  )
        15        H      tau(  15) = (   0.2500000  -0.2576686   0.8185142  )
        16        H      tau(  16) = (   0.2500000  -0.7524324   0.8185142  )
        17        C      tau(  17) = (   0.5000000  -0.1598068   1.8780618  )
        18        C      tau(  18) = (   0.7500000  -0.2322372   1.7170637  )
        19        C      tau(  19) = (   0.7500000   0.0000000   1.5087501  )
        20        C      tau(  20) = (   0.5000000   0.0000000   1.3311414  )
        21        C      tau(  21) = (   0.5000000  -0.2728133   1.1812529  )
        22        C      tau(  22) = (   0.7500000  -0.3452437   1.0202548  )
        23        C      tau(  23) = (   0.5000000  -0.8502942   1.8780618  )
        24        C      tau(  24) = (   0.7500000  -0.7778638   1.7170637  )
        25        C      tau(  25) = (   0.7500000  -0.5050505   1.5671752  )
        26        C      tau(  26) = (   0.5000000  -0.5050505   1.3895665  )
        27        C      tau(  27) = (   0.5000000  -0.7372877   1.1812529  )
        28        C      tau(  28) = (   0.7500000  -0.6648573   1.0202548  )
        29        H      tau(  29) = (   0.5000000  -0.2473819   2.0798024  )
        30        H      tau(  30) = (   0.5000000  -0.7627191   2.0798024  )
        31        H      tau(  31) = (   0.7500000  -0.2576686   0.8185142  )
        32        H      tau(  32) = (   0.7500000  -0.7524324   0.8185142  )

     number of k points=     9  Marzari-Vanderbilt smearing, width (Ry)=  0.0100
                       cart. coord. in units 2pi/alat
        k(    1) = (   0.0000000  -0.0000000   0.0000000), wk =   0.0800000
        k(    2) = (   0.0000000  -0.1980000   0.0000000), wk =   0.1600000
        k(    3) = (   0.0000000  -0.3960000   0.0000000), wk =   0.1600000
        k(    4) = (   0.2000000  -0.0000000   0.0000000), wk =   0.1600000
        k(    5) = (   0.2000000  -0.1980000   0.0000000), wk =   0.3200000
        k(    6) = (   0.2000000  -0.3960000   0.0000000), wk =   0.3200000
        k(    7) = (   0.4000000  -0.0000000   0.0000000), wk =   0.1600000
        k(    8) = (   0.4000000  -0.1980000   0.0000000), wk =   0.3200000
        k(    9) = (   0.4000000  -0.3960000   0.0000000), wk =   0.3200000

     Dense  grid:   439265 G-vectors     FFT dimensions: (  72,  72, 192)

     Smooth grid:   155427 G-vectors     FFT dimensions: (  48,  48, 135)

     Estimated max dynamical RAM per process >       1.24 GB

     Check: negative core charge=   -0.000002

     Initial potential from superposition of free atoms

     starting charge     103.9989, renormalised to     104.0000

     negative rho (up, down):  4.454E-06 0.000E+00
     Starting wfcs are  104 randomized atomic wfcs

     total cpu time spent up to now is        4.7 secs

     Self-consistent Calculation

     iteration #  1     ecut=    60.00 Ry     beta= 0.30
     Davidson diagonalization with overlap
     ethr =  1.00E-02,  avg # of iterations =  3.0

     negative rho (up, down):  1.378E-05 0.000E+00

     total cpu time spent up to now is       14.8 secs

     total energy              =    -451.89803998 Ry
     estimated scf accuracy    <       2.51725355 Ry

     iteration #  2     ecut=    60.00 Ry     beta= 0.30
     Davidson diagonalization with overlap
     ethr =  2.42E-03,  avg # of iterations =  4.0

     negative rho (up, down):  4.500E-05 0.000E+00

     total cpu time spent up to now is       23.3 secs

     total energy              =    -451.74624650 Ry
     estimated scf accuracy    <       0.73024189 Ry

     iteration #  3     ecut=    60.00 Ry     beta= 0.30
     Davidson diagonalization with overlap
     ethr =  7.02E-04,  avg # of iterations =  7.6

     negative rho (up, down):  6.478E-05 0.000E+00

     total cpu time spent up to now is       34.5 secs

     total energy              =    -451.77009441 Ry
     estimated scf accuracy    <       0.11041634 Ry

     iteration #  4     ecut=    60.00 Ry     beta= 0.30
     Davidson diagonalization with overlap
     ethr =  1.06E-04,  avg # of iterations =  4.1

     negative rho (up, down):  8.202E-05 0.000E+00

     total cpu time spent up to now is       43.4 secs

     total energy              =    -451.77883341 Ry
     estimated scf accuracy    <       0.01045381 Ry

     iteration #  5     ecut=    60.00 Ry     beta= 0.30
     Davidson diagonalization with overlap
     ethr =  1.01E-05,  avg # of iterations =  8.3

     negative rho (up, down):  6.836E-05 0.000E+00

     total cpu time spent up to now is       56.1 secs

     total energy              =    -451.78047956 Ry
     estimated scf accuracy    <       0.00246332 Ry

     iteration #  6     ecut=    60.00 Ry     beta= 0.30
     Davidson diagonalization with overlap
     ethr =  2.37E-06,  avg # of iterations =  6.8

     negative rho (up, down):  6.930E-05 0.000E+00

     total cpu time spent up to now is       67.2 secs

     total energy              =    -451.78088828 Ry
     estimated scf accuracy    <       0.00030587 Ry

     iteration #  7     ecut=    60.00 Ry     beta= 0.30
     Davidson diagonalization with overlap
     ethr =  2.94E-07,  avg # of iterations =  2.6

     negative rho (up, down):  6.841E-05 0.000E+00

     total cpu time spent up to now is       75.7 secs

     total energy              =    -451.78092972 Ry
     estimated scf accuracy    <       0.00003153 Ry

     iteration #  8     ecut=    60.00 Ry     beta= 0.30
     Davidson diagonalization with overlap
     ethr =  3.03E-08,  avg # of iterations =  3.2

     negative rho (up, down):  6.790E-05 0.000E+00

     total cpu time spent up to now is       84.6 secs

     total energy              =    -451.78093212 Ry
     estimated scf accuracy    <       0.00001848 Ry

     iteration #  9     ecut=    60.00 Ry     beta= 0.30
     Davidson diagonalization with overlap
     ethr =  1.78E-08,  avg # of iterations =  2.0

     negative rho (up, down):  6.787E-05 0.000E+00

     total cpu time spent up to now is       93.0 secs

     total energy              =    -451.78093636 Ry
     estimated scf accuracy    <       0.00000154 Ry

     iteration # 10     ecut=    60.00 Ry     beta= 0.30
     Davidson diagonalization with overlap
     ethr =  1.48E-09,  avg # of iterations =  3.8

     negative rho (up, down):  6.788E-05 0.000E+00

     total cpu time spent up to now is      102.8 secs

     total energy              =    -451.78093628 Ry
     estimated scf accuracy    <       0.00000118 Ry

     iteration # 11     ecut=    60.00 Ry     beta= 0.30
     Davidson diagonalization with overlap
     ethr =  1.14E-09,  avg # of iterations =  2.8

     negative rho (up, down):  6.803E-05 0.000E+00

     total cpu time spent up to now is      111.6 secs

     total energy              =    -451.78093659 Ry
     estimated scf accuracy    <       0.00000004 Ry

     iteration # 12     ecut=    60.00 Ry     beta= 0.30
     Davidson diagonalization with overlap
     ethr =  4.20E-11,  avg # of iterations =  3.7

     negative rho (up, down):  6.817E-05 0.000E+00

     total cpu time spent up to now is      120.9 secs

     total energy              =    -451.78093659 Ry
     estimated scf accuracy    <       0.00000002 Ry

     iteration # 13     ecut=    60.00 Ry     beta= 0.30
     Davidson diagonalization with overlap
     ethr =  1.86E-11,  avg # of iterations =  4.7

     negative rho (up, down):  6.828E-05 0.000E+00

     total cpu time spent up to now is      132.0 secs

     total energy              =    -451.78093659 Ry
     estimated scf accuracy    <       0.00000004 Ry

     iteration # 14     ecut=    60.00 Ry     beta= 0.30
     Davidson diagonalization with overlap
     ethr =  1.86E-11,  avg # of iterations =  2.9

     negative rho (up, down):  6.859E-05 0.000E+00

     total cpu time spent up to now is      140.6 secs

     End of self-consistent calculation

          k = 0.0000-0.0000 0.0000 ( 19443 PWs)   bands (ev):

   -17.7857 -16.0936 -13.3286 -13.3286 -13.2206 -13.0078 -12.9086 -11.8954
   -11.5197 -11.5197  -9.2508  -9.2508  -9.0166  -8.7799  -8.7799  -8.7099
    -8.1506  -8.1506  -7.8685  -7.7540  -7.7540  -5.4314  -5.3478  -5.2109
    -4.7725  -4.7725  -3.8944  -3.8944  -3.4732  -3.4732  -2.5091  -2.2362
    -2.1639  -2.1639  -2.0880  -2.0880  -1.8541  -1.7799  -1.6416  -1.1738
    -1.1738  -1.0338   0.3678   0.4794   0.4794   0.5067   0.5906   0.8458
     1.0060   1.1321   1.4883   1.7102   5.4923   5.9644   7.5777   7.8600
     7.9160   8.5773   8.6508   9.0978   9.0978   9.2755

          k = 0.0000-0.1980 0.0000 ( 19453 PWs)   bands (ev):

   -17.6210 -16.1106 -14.3038 -13.4111 -13.1723 -13.1723 -11.7686 -11.6160
   -11.5383 -11.5383 -10.2627 -10.2627  -9.1200  -8.5636  -8.5636  -8.1849
    -7.7832  -7.6005  -7.6005  -7.4438  -7.4438  -5.9187  -5.0432  -4.8769
    -4.8769  -4.8020  -3.8005  -3.8005  -3.2708  -3.2708  -3.2294  -2.3710
    -2.2749  -2.2749  -1.9294  -1.8536  -1.8374  -1.8374  -1.2787  -1.1930
    -1.1930  -1.0554  -0.3282  -0.2292  -0.2292  -0.0754   0.4385   0.7412
     1.3017   1.3641   1.4581   1.7632   5.7262   6.1631   7.8762   8.3462
     8.3815   8.5486   8.7273   9.0030   9.0031   9.0163

          k = 0.0000-0.3960 0.0000 ( 19406 PWs)   bands (ev):

   -17.1476 -16.4889 -14.6456 -14.1497 -12.7415 -12.7415 -11.9225 -11.9225
   -11.4089 -11.0451 -10.7594 -10.7594  -9.0112  -9.0112  -8.6138  -7.7912
    -7.2730  -7.1234  -7.1234  -6.7993  -6.7993  -6.3275  -5.0008  -4.5552
    -4.5552  -4.4829  -3.9879  -3.6414  -3.6414  -3.1973  -3.1973  -3.1406
    -1.9979  -1.9979  -1.9772  -1.8868  -1.8868  -1.6894  -1.4207  -1.4196
    -1.4196  -1.2325  -1.2325  -1.0842  -0.4506  -0.1747   0.1435   0.2138
     0.9187   1.3243   1.8726   1.9610   6.3743   6.7218   7.4228   7.6432
     8.3563   8.6986   8.6986   8.8449   9.0054   9.0251

          k = 0.2000-0.0000 0.0000 ( 19435 PWs)   bands (ev):

   -17.5987 -15.9103 -14.8505 -13.2833 -13.0475 -12.8333 -12.7313 -11.7289
   -11.2668 -10.6221 -10.4755 -10.1462  -9.3244  -9.1130  -8.9192  -8.5498
    -7.7131  -7.4515  -6.8971  -6.7820  -6.6531  -5.3917  -5.3737  -5.2652
    -5.2114  -5.0700  -4.1875  -3.7516  -3.5603  -3.3079  -2.7212  -2.3610
    -2.3401  -2.1972  -2.1129  -1.7334  -1.6820  -1.5944  -1.5806  -1.4945
    -1.1738  -0.8119  -0.4054  -0.1049   0.0475   0.1215   0.3480   0.6318
     0.8831   0.8999   0.9083   1.5446   5.6661   6.1531   7.8905   8.1372
     8.2195   8.2583   8.4721   8.7358   9.3506   9.4420

          k = 0.2000-0.1980 0.0000 ( 19412 PWs)   bands (ev):

   -17.4343 -15.9269 -14.6900 -14.1259 -13.2741 -13.2362 -11.6394 -11.6011
   -11.4465 -11.0031 -10.8386  -9.8892  -9.0081  -8.9645  -8.6668  -8.0361
    -7.8903  -7.6354  -7.2146  -6.2063  -6.0626  -5.8313  -5.6016  -5.0539
    -4.9724  -4.6860  -4.3477  -3.6417  -3.4111  -3.1113  -3.0127  -2.6739
    -2.2961  -2.2495  -2.2399  -1.9079  -1.7513  -1.7020  -1.4611  -1.2907
    -1.0752  -0.9274  -0.9219  -0.4616  -0.4055  -0.0829   0.2213   0.3728
     0.6809   0.8102   1.2820   1.4561   5.8989   6.3559   8.0659   8.2619
     8.3792   8.6775   8.6836   8.9186   8.9400   9.1654

          k = 0.2000-0.3960 0.0000 ( 19427 PWs)   bands (ev):

   -16.9616 -16.3039 -14.4675 -14.2291 -13.9730 -13.5938 -11.9677 -11.4808
   -11.2432 -10.8818 -10.6927 -10.2793  -8.5236  -8.4994  -8.4246  -7.8818
    -7.6847  -7.4893  -7.1213  -6.1762  -5.7186  -5.3741  -5.3579  -4.8919
    -4.6622  -4.3872  -4.1822  -3.9657  -3.9178  -3.1796  -3.0653  -2.9045
    -2.6685  -2.5085  -2.4287  -1.8669  -1.8642  -1.7066  -1.5911  -1.2221
    -1.1416  -1.1094  -0.9127  -0.8001  -0.7626  -0.7409  -0.4486   0.0460
     0.9664   1.1039   1.1366   1.4559   6.5467   6.9175   7.5925   7.8179
     8.0809   8.2599   8.3814   8.9138   9.0521   9.2655

          k = 0.4000-0.0000 0.0000 ( 19390 PWs)   bands (ev):

   -17.0399 -16.1171 -15.3635 -14.4664 -12.5315 -12.3158 -12.2024 -11.6873
   -11.4878 -11.3323 -11.2322 -10.4171  -9.4867  -8.7856  -8.1054  -7.7727
    -7.2708  -6.8757  -6.6738  -6.4219  -5.5477  -5.4974  -5.4919  -5.1220
    -4.6038  -4.5655  -4.3707  -3.8845  -3.8475  -3.7770  -3.2866  -2.7341
    -2.4646  -2.3930  -1.8064  -1.7262  -1.5236  -1.5208  -1.5197  -1.4167
    -1.2911  -1.1894  -1.1573  -0.8083  -0.4222  -0.3764  -0.3655   0.1678
     0.2265   0.7909   1.0083   1.0616   6.1887   6.5964   7.0836   7.2564
     8.4734   8.7394   9.1906   9.1922   9.2778   9.4961

          k = 0.4000-0.1980 0.0000 ( 19417 PWs)   bands (ev):

   -16.8762 -15.9547 -15.3787 -14.4776 -13.5959 -12.7291 -12.7162 -11.8732
   -11.1053 -10.9406 -10.3216 -10.1095  -9.3838  -8.8100  -7.6965  -7.6481
    -7.2431  -6.9010  -6.5828  -6.0963  -5.7643  -5.6498  -5.3484  -4.9808
    -4.7497  -4.6038  -4.2377  -3.9543  -3.6533  -3.6128  -2.9770  -2.9323
    -2.7459  -2.6047  -2.4955  -2.1348  -1.7313  -1.6642  -1.5433  -1.2399
    -1.2005  -1.1412  -0.7597  -0.7394  -0.7006  -0.4180  -0.2930  -0.2794
    -0.0023   0.6962   0.7118   1.1352   6.3947   6.8169   7.2357   7.4731
     8.4038   8.8486   8.9140   8.9622   9.0021   9.2684

          k = 0.4000-0.3960 0.0000 ( 19422 PWs)   bands (ev):

   -16.4057 -15.7515 -15.4881 -14.8401 -13.9373 -13.4469 -13.0729 -12.5899
   -10.7565 -10.4023 -10.0311  -9.7327  -8.7167  -8.2825  -8.0590  -7.5007
    -6.7202  -6.4675  -6.1731  -5.7688  -5.6599  -5.3705  -5.2869  -4.9572
    -4.8079  -4.7646  -4.3279  -4.1223  -3.9269  -3.8981  -3.4709  -3.2161
    -2.9106  -2.7612  -2.6493  -2.4852  -2.1533  -2.0164  -1.4843  -1.4730
    -1.1891  -1.1498  -0.9395  -0.7994  -0.6448  -0.5049  -0.1143   0.0105
     0.0171   0.2092   0.6468   1.0153   6.9798   7.4052   7.5042   7.7427
     7.8754   8.1493   8.2493   8.3064   8.5668   8.8329

     the Fermi energy is     3.3559 ev

!    total energy              =    -451.78093660 Ry
     estimated scf accuracy    <          1.9E-09 Ry
     smearing contrib. (-TS)   =       0.00000000 Ry
     internal energy E=F+TS    =    -451.78093660 Ry

     The total energy is F=E-TS. E is the sum of the following terms:
     one-electron contribution =   -2343.12160241 Ry
     hartree contribution      =    1212.63508632 Ry
     xc contribution           =    -117.88829478 Ry
     ewald contribution        =     944.51601408 Ry
     one-center paw contrib.   =    -147.92213980 Ry

     convergence has been achieved in  14 iterations

     negative rho (up, down):  6.859E-05 0.000E+00

     Forces acting on atoms (cartesian axes, Ry/au):

     atom    1 type  1   force =     0.00000000   -0.00004040    0.00265733
     atom    2 type  1   force =    -0.00000000   -0.00006017   -0.00119219
     atom    3 type  1   force =     0.00000001   -0.00000000    0.00014739
     atom    4 type  1   force =     0.00000000    0.00000000   -0.00216301
     atom    5 type  1   force =     0.00000000    0.00006022    0.00119235
     atom    6 type  1   force =     0.00000001    0.00004052   -0.00265763
     atom    7 type  1   force =     0.00000000    0.00004040    0.00265733
     atom    8 type  1   force =    -0.00000000    0.00006017   -0.00119219
     atom    9 type  1   force =    -0.00000002    0.00000000    0.00216285
     atom   10 type  1   force =     0.00000000    0.00000000   -0.00014740
     atom   11 type  1   force =     0.00000000   -0.00006022    0.00119235
     atom   12 type  1   force =     0.00000001   -0.00004052   -0.00265763
     atom   13 type  2   force =     0.00000000   -0.00018644    0.00018934
     atom   14 type  2   force =     0.00000000    0.00018644    0.00018934
     atom   15 type  2   force =    -0.00000000    0.00018635   -0.00018913
     atom   16 type  2   force =    -0.00000000   -0.00018635   -0.00018913
     atom   17 type  1   force =     0.00000000   -0.00004039    0.00265735
     atom   18 type  1   force =     0.00000000   -0.00006017   -0.00119219
     atom   19 type  1   force =    -0.00000001    0.00000000    0.00014739
     atom   20 type  1   force =     0.00000000    0.00000000   -0.00216302
     atom   21 type  1   force =     0.00000000    0.00006025    0.00119236
     atom   22 type  1   force =    -0.00000001    0.00004052   -0.00265763
     atom   23 type  1   force =     0.00000000    0.00004039    0.00265735
     atom   24 type  1   force =     0.00000000    0.00006017   -0.00119219
     atom   25 type  1   force =     0.00000002   -0.00000000    0.00216285
     atom   26 type  1   force =     0.00000000    0.00000000   -0.00014739
     atom   27 type  1   force =     0.00000000   -0.00006025    0.00119236
     atom   28 type  1   force =    -0.00000001   -0.00004052   -0.00265763
     atom   29 type  2   force =     0.00000000   -0.00018644    0.00018934
     atom   30 type  2   force =     0.00000000    0.00018644    0.00018934
     atom   31 type  2   force =     0.00000000    0.00018635   -0.00018913
     atom   32 type  2   force =     0.00000000   -0.00018635   -0.00018913

     Total force =     0.009342     Total SCF correction =     0.000125


     Computing stress (Cartesian axis) and pressure


     negative rho (up, down):  6.859E-05 0.000E+00
          total   stress  (Ry/bohr**3)                   (kbar)     P=        1.17
   0.00034633   0.00000000   0.00000000           50.95        0.00        0.00
   0.00000000  -0.00034030   0.00000000            0.00      -50.06        0.00
   0.00000000   0.00000000   0.00001793            0.00        0.00        2.64


     Writing all to output data dir ./tmp/slab.save/ :
     XML data file, charge density, pseudopotentials, collected wavefunctions

     init_run     :      4.44s CPU      4.72s WALL (       1 calls)
     electrons    :    123.09s CPU    135.91s WALL (       1 calls)
     forces       :      1.45s CPU      1.64s WALL (       1 calls)
     stress       :      3.60s CPU      4.22s WALL (       1 calls)

     Called by init_run:
     wfcinit      :      3.68s CPU      3.90s WALL (       1 calls)
     potinit      :      0.46s CPU      0.48s WALL (       1 calls)
     hinit0       :      0.15s CPU      0.15s WALL (       1 calls)

     Called by electrons:
     c_bands      :    101.60s CPU    112.45s WALL (      14 calls)
     sum_band     :     13.90s CPU     14.85s WALL (      14 calls)
     v_of_rho     :      2.17s CPU      2.32s WALL (      15 calls)
     newd         :      1.29s CPU      1.73s WALL (      15 calls)
     PAW_pot      :      4.17s CPU      4.57s WALL (      15 calls)
     mix_rho      :      0.28s CPU      0.33s WALL (      14 calls)

     Called by c_bands:
     init_us_2    :      1.10s CPU      1.24s WALL (     279 calls)
     cegterg      :     99.11s CPU    109.89s WALL (     126 calls)

     Called by *egterg:
     cdiaghg      :      1.73s CPU      1.76s WALL (     660 calls)
     h_psi        :     71.22s CPU     75.69s WALL (     669 calls)
     s_psi        :      8.38s CPU     10.06s WALL (     669 calls)
     g_psi        :      0.30s CPU      0.30s WALL (     534 calls)

     Called by h_psi:
     h_psi:calbec :      7.45s CPU      9.39s WALL (     669 calls)
     vloc_psi     :     54.65s CPU     55.12s WALL (     669 calls)
                                        0.00s GPU  (     669 calls)
     add_vuspsi   :      8.88s CPU     10.74s WALL (     669 calls)

     General routines
     calbec       :     11.56s CPU     14.46s WALL (     948 calls)
     fft          :      1.38s CPU      1.39s WALL (     218 calls)
     ffts         :      0.07s CPU      0.07s WALL (      29 calls)
     fftw         :     58.37s CPU     58.53s WALL (   52006 calls)
     interpolate  :      0.15s CPU      0.16s WALL (      15 calls)


     PWSCF        :   2m12.63s CPU   2m26.60s WALL


   This run was terminated on:  14: 9: 3   7Jul2026            

=------------------------------------------------------------------------------=
   JOB DONE.
=------------------------------------------------------------------------------=
Note: The following floating-point exceptions are signalling: IEEE_INVALID_FLAG IEEE_DIVIDE_BY_ZERO IEEE_OVERFLOW_FLAG IEEE_UNDERFLOW_FLAG
