
     Program PWSCF v.7.3.1 starts on  1Aug2026 at 13: 7:11 

     This program is part of the open-source Quantum ESPRESSO suite
     for quantum simulation of materials; please cite
         "P. Giannozzi et al., J. Phys.:Condens. Matter 21 395502 (2009);
         "P. Giannozzi et al., J. Phys.:Condens. Matter 29 465901 (2017);
         "P. Giannozzi et al., J. Chem. Phys. 152 154105 (2020);
          URL http://www.quantum-espresso.org", 
     in publications or presentations arising from this work. More details at
     http://www.quantum-espresso.org/quote

     Parallel version (MPI), running on     8 processors

     MPI processes distributed on     1 nodes
     187000 MiB available memory on the printing compute node when the environment starts

     Reading input from pw.in

     Current dimensions of program PWSCF are:
     Max number of different atomic species (ntypx) = 10
     Max number of k-points (npk) =  40000
     Max angular momentum in pseudopotentials (lmaxx) =  4
     file C.pbe-n-kjpaw_psl.1.0.0.UPF: wavefunction(s)  2S 2P renormalized
     Message from routine volume:
     axis vectors are left-handed
     Message from routine setup:
     using ibrav=0 with symmetry is DISCOURAGED, use correct ibrav instead

     R & G space division:  proc/nbgrp/npool/nimage =       8
     Subspace diagonalization in iterative solution of the eigenvalue problem:
     a serial algorithm will be used


     Parallelization info
     --------------------
     sticks:   dense  smooth     PW     G-vecs:    dense   smooth      PW
     Min         230     115     32                58836    20797    3204
     Max         231     116     33                58867    20826    3231
     Sum        1845     921    263               470831   166459   25763

     Using Slab Decomposition



     bravais-lattice index     =            0
     lattice parameter (alat)  =       4.7752  a.u.
     unit-cell volume          =    1442.9506 (a.u.)^3
     number of atoms/cell      =           28
     number of atomic types    =            2
     number of electrons       =       100.00
     number of Kohn-Sham states=           60
     kinetic-energy cutoff     =      90.0000  Ry
     charge density cutoff     =     720.0000  Ry
     scf convergence threshold =      1.0E-08
     mixing beta               =       0.3000
     number of iterations used =            8  plain     mixing
     energy convergence thresh.=      1.0E-05
     force convergence thresh. =      1.0E-04
     Exchange-correlation= PBE
                           (   1   4   3   4   0   0   0)
     nstep                     =           50


     celldm(1)=   4.775235  celldm(2)=   0.000000  celldm(3)=   0.000000
     celldm(4)=   0.000000  celldm(5)=   0.000000  celldm(6)=   0.000000

     crystal axes: (cart. coord. in units of alat)
               a(1) = (   1.000000   0.000000   0.000000 )  
               a(2) = (   0.000000  -1.414214   0.000000 )  
               a(3) = (   0.000000   0.000000   9.370270 )  

     reciprocal axes: (cart. coord. in units 2 pi/alat)
               b(1) = (  1.000000 -0.000000 -0.000000 )  
               b(2) = ( -0.000000 -0.707107 -0.000000 )  
               b(3) = ( -0.000000 -0.000000  0.106721 )  


     PseudoPot. # 1 for C  read from file:
     ./C.pbe-n-kjpaw_psl.1.0.0.UPF
     MD5 check sum: 5d2aebdfa2cae82b50a7e79e9516da0f
     Pseudo is Projector augmented-wave + core cor, Zval =  4.0
     Generated using "atomic" code by A. Dal Corso  v.5.1
     Shape of augmentation charge: PSQ
     Using radial grid of 1073 points,  4 beta functions with: 
                l(1) =   0
                l(2) =   0
                l(3) =   1
                l(4) =   1
     Q(r) pseudized with 0 coefficients 


     PseudoPot. # 2 for H  read from file:
     ./H_ONCV_PBE-1.0.oncvpsp.upf
     MD5 check sum: 1790becc920ee074925cf490c71280fe
     Pseudo is Norm-conserving, Zval =  1.0
     Generated using ONCVPSP code by D. R. Hamann
     Using radial grid of 1166 points,  2 beta functions with: 
                l(1) =   0
                l(2) =   0

     atomic species   valence    mass     pseudopotential
     C                 4.00    12.01100     C ( 1.00)
     H                 1.00     1.00800     H ( 1.00)

      8 Sym. Ops., with inversion, found ( 6 have fractional translation)



   Cartesian axes

     site n.     atom                  positions (alat units)
         1        C      tau(   1) = (   0.0000000  -0.3535534   7.4351350  )
         2        C      tau(   2) = (   0.5000000  -0.7071068   7.4351350  )
         3        C      tau(   3) = (   0.5000000  -1.0606602   6.9351350  )
         4        C      tau(   4) = (   0.0000000   0.0000000   6.9351350  )
         5        C      tau(   5) = (   0.0000000  -0.3535534   6.4351350  )
         6        C      tau(   6) = (   0.5000000  -0.7071068   6.4351350  )
         7        C      tau(   7) = (   0.5000000  -1.0606602   5.9351350  )
         8        C      tau(   8) = (   0.0000000   0.0000000   5.9351350  )
         9        C      tau(   9) = (   0.5000000  -0.7071068   5.4351350  )
        10        C      tau(  10) = (   0.0000000  -0.3535534   5.4351350  )
        11        C      tau(  11) = (   0.0000000   0.0000000   4.9351350  )
        12        C      tau(  12) = (   0.5000000  -1.0606602   4.9351350  )
        13        C      tau(  13) = (   0.5000000  -0.7071068   4.4351350  )
        14        C      tau(  14) = (   0.0000000  -0.3535534   4.4351350  )
        15        C      tau(  15) = (   0.5000000  -1.0606602   3.9351350  )
        16        C      tau(  16) = (   0.0000000   0.0000000   3.9351350  )
        17        C      tau(  17) = (   0.0000000  -0.3535534   3.4351350  )
        18        C      tau(  18) = (   0.5000000  -0.7071068   3.4351350  )
        19        C      tau(  19) = (   0.5000000  -1.0606602   2.9351350  )
        20        C      tau(  20) = (   0.0000000   0.0000000   2.9351350  )
        21        C      tau(  21) = (   0.0000000  -0.3535534   2.4351350  )
        22        C      tau(  22) = (   0.5000000  -0.7071068   2.4351350  )
        23        C      tau(  23) = (   0.5000000  -1.0606602   1.9351350  )
        24        C      tau(  24) = (   0.0000000   0.0000000   1.9351350  )
        25        H      tau(  25) = (   0.0000000  -0.1045129   7.7873315  )
        26        H      tau(  26) = (   0.5000000  -0.9561473   7.7873315  )
        27        H      tau(  27) = (   0.5000000  -0.8116197   1.5829386  )
        28        H      tau(  28) = (   0.0000000  -0.2490405   1.5829386  )

     number of k points=    20  Marzari-Vanderbilt smearing, width (Ry)=  0.0100
                       cart. coord. in units 2pi/alat
        k(    1) = (   0.0000000  -0.0000000   0.0000000), wk =   0.0317460
        k(    2) = (   0.0000000  -0.1010153   0.0000000), wk =   0.0634921
        k(    3) = (   0.0000000  -0.2020305   0.0000000), wk =   0.0634921
        k(    4) = (   0.0000000  -0.3030458   0.0000000), wk =   0.0634921
        k(    5) = (   0.1111111  -0.0000000   0.0000000), wk =   0.0634921
        k(    6) = (   0.1111111  -0.1010153   0.0000000), wk =   0.1269841
        k(    7) = (   0.1111111  -0.2020305   0.0000000), wk =   0.1269841
        k(    8) = (   0.1111111  -0.3030458   0.0000000), wk =   0.1269841
        k(    9) = (   0.2222222  -0.0000000   0.0000000), wk =   0.0634921
        k(   10) = (   0.2222222  -0.1010153   0.0000000), wk =   0.1269841
        k(   11) = (   0.2222222  -0.2020305   0.0000000), wk =   0.1269841
        k(   12) = (   0.2222222  -0.3030458   0.0000000), wk =   0.1269841
        k(   13) = (   0.3333333  -0.0000000   0.0000000), wk =   0.0634921
        k(   14) = (   0.3333333  -0.1010153   0.0000000), wk =   0.1269841
        k(   15) = (   0.3333333  -0.2020305   0.0000000), wk =   0.1269841
        k(   16) = (   0.3333333  -0.3030458   0.0000000), wk =   0.1269841
        k(   17) = (   0.4444444  -0.0000000   0.0000000), wk =   0.0634921
        k(   18) = (   0.4444444  -0.1010153   0.0000000), wk =   0.1269841
        k(   19) = (   0.4444444  -0.2020305   0.0000000), wk =   0.1269841
        k(   20) = (   0.4444444  -0.3030458   0.0000000), wk =   0.1269841

     Dense  grid:   470831 G-vectors     FFT dimensions: (  48,  60, 384)

     Smooth grid:   166459 G-vectors     FFT dimensions: (  30,  48, 288)

     Estimated max dynamical RAM per process >     196.60 MB

     Estimated total dynamical RAM >       1.54 GB

     Check: negative core charge=   -0.000001

     Initial potential from superposition of free atoms

     starting charge      99.9990, renormalised to     100.0000
     Starting wfcs are  100 randomized atomic wfcs
     Checking if some PAW data can be deallocated... 

     total cpu time spent up to now is        3.1 secs

     Self-consistent Calculation

     iteration #  1     ecut=    90.00 Ry     beta= 0.30
     Davidson diagonalization with overlap
     ethr =  1.00E-02,  avg # of iterations =  2.8

     total cpu time spent up to now is        8.6 secs

     total energy              =    -447.31062527 Ry
     estimated scf accuracy    <       1.81439132 Ry

     iteration #  2     ecut=    90.00 Ry     beta= 0.30
     Davidson diagonalization with overlap
     ethr =  1.81E-03,  avg # of iterations =  4.8

     negative rho (up, down):  6.358E-07 0.000E+00

     total cpu time spent up to now is       13.4 secs

     total energy              =    -447.10456131 Ry
     estimated scf accuracy    <       0.65459708 Ry

     iteration #  3     ecut=    90.00 Ry     beta= 0.30
     Davidson diagonalization with overlap
     ethr =  6.55E-04,  avg # of iterations =  5.9

     negative rho (up, down):  1.917E-06 0.000E+00

     total cpu time spent up to now is       18.4 secs

     total energy              =    -447.13933819 Ry
     estimated scf accuracy    <       0.05723209 Ry

     iteration #  4     ecut=    90.00 Ry     beta= 0.30
     Davidson diagonalization with overlap
     c_bands:  2 eigenvalues not converged
     ethr =  5.72E-05,  avg # of iterations =  9.9

     negative rho (up, down):  2.887E-06 0.000E+00

     total cpu time spent up to now is       24.9 secs

     total energy              =    -447.14485577 Ry
     estimated scf accuracy    <       0.00692123 Ry

     iteration #  5     ecut=    90.00 Ry     beta= 0.30
     Davidson diagonalization with overlap
     ethr =  6.92E-06,  avg # of iterations =  7.3

     negative rho (up, down):  3.716E-06 0.000E+00

     total cpu time spent up to now is       30.9 secs

     total energy              =    -447.14568038 Ry
     estimated scf accuracy    <       0.00123976 Ry

     iteration #  6     ecut=    90.00 Ry     beta= 0.30
     Davidson diagonalization with overlap
     c_bands:  1 eigenvalues not converged
     c_bands:  1 eigenvalues not converged
     ethr =  1.24E-06,  avg # of iterations =  7.6

     negative rho (up, down):  4.266E-06 0.000E+00

     total cpu time spent up to now is       36.3 secs

     total energy              =    -447.14574820 Ry
     estimated scf accuracy    <       0.00030421 Ry

     iteration #  7     ecut=    90.00 Ry     beta= 0.30
     Davidson diagonalization with overlap
     ethr =  3.04E-07,  avg # of iterations =  2.8

     negative rho (up, down):  4.613E-06 0.000E+00

     total cpu time spent up to now is       40.8 secs

     total energy              =    -447.14578590 Ry
     estimated scf accuracy    <       0.00003768 Ry

     iteration #  8     ecut=    90.00 Ry     beta= 0.30
     Davidson diagonalization with overlap
     ethr =  3.77E-08,  avg # of iterations =  2.4

     negative rho (up, down):  4.600E-06 0.000E+00

     total cpu time spent up to now is       45.6 secs

     total energy              =    -447.14579159 Ry
     estimated scf accuracy    <       0.00000915 Ry

     iteration #  9     ecut=    90.00 Ry     beta= 0.30
     Davidson diagonalization with overlap
     ethr =  9.15E-09,  avg # of iterations =  2.1

     negative rho (up, down):  4.655E-06 0.000E+00

     total cpu time spent up to now is       50.7 secs

     total energy              =    -447.14579377 Ry
     estimated scf accuracy    <       0.00000215 Ry

     iteration # 10     ecut=    90.00 Ry     beta= 0.30
     Davidson diagonalization with overlap
     ethr =  2.15E-09,  avg # of iterations =  2.0

     negative rho (up, down):  4.678E-06 0.000E+00

     total cpu time spent up to now is       55.3 secs

     total energy              =    -447.14579425 Ry
     estimated scf accuracy    <       0.00000018 Ry

     iteration # 11     ecut=    90.00 Ry     beta= 0.30
     Davidson diagonalization with overlap
     ethr =  1.85E-10,  avg # of iterations =  3.5

     negative rho (up, down):  4.705E-06 0.000E+00

     total cpu time spent up to now is       60.7 secs

     total energy              =    -447.14579427 Ry
     estimated scf accuracy    <       0.00000012 Ry

     iteration # 12     ecut=    90.00 Ry     beta= 0.30
     Davidson diagonalization with overlap
     ethr =  1.25E-10,  avg # of iterations =  2.1

     negative rho (up, down):  4.780E-06 0.000E+00

     total cpu time spent up to now is       65.2 secs

     End of self-consistent calculation

          k = 0.0000-0.0000 0.0000 ( 20853 PWs)   bands (ev):

   -13.5761 -13.2347 -12.6838 -11.9361 -11.0070  -9.9180  -8.7000  -7.4088
    -6.1694  -5.2686  -4.9799  -4.9598  -4.9159  -4.6166  -4.1330  -3.4736
    -2.6478  -1.7643  -1.7266  -1.6654  -1.0842  -1.0082  -0.5366  -0.1470
     0.0989   0.7263   0.9965   1.0552   1.5392   1.8256   2.1034   2.2774
     2.2812   2.8713   3.5591   3.5762   3.6484   4.3521   5.0249   5.0259
     5.1489   5.9085   6.3060   6.3670   6.5721   7.0934   7.3020   7.3485
     7.4507   7.6479   9.5306   9.9976  12.2423  12.5709  12.8553  13.0485
    13.3028  13.3856  13.4147  13.6442

          k = 0.0000-0.1010 0.0000 ( 20851 PWs)   bands (ev):

   -13.3888 -13.0483 -12.4992 -11.7546 -10.8313  -9.7541  -8.5657  -7.3743
    -7.0957  -6.8468  -6.5100  -6.5065  -4.1869  -3.8918  -3.5500  -3.0223
    -2.8415  -2.6654  -1.9090  -0.8600  -0.7760  -0.4143  -0.1618   0.2597
     0.4952   0.9557   1.2336   1.3521   1.7201   2.0005   2.3981   2.4188
     2.4409   3.0160   3.5682   3.6910   3.9021   4.4205   4.7943   5.1469
     5.2732   5.8045   5.9870   6.3323   6.3879   6.6963   6.9033   6.9193
     6.9921   7.1917   9.7511  10.2098  12.3325  12.3880  12.9857  13.3908
    13.4702  13.7628  13.9974  14.1368

          k = 0.0000-0.2020 0.0000 ( 20798 PWs)   bands (ev):

   -12.8290 -12.4915 -11.9484 -11.2147 -10.3131  -9.2882  -9.0070  -8.7140
    -8.2460  -8.2348  -7.6939  -7.5214  -4.9612  -4.6140  -4.1655  -3.5739
    -2.8371  -2.2635  -1.4638  -0.8144  -0.4824   0.5685   0.8764   1.0800
     1.5458   1.8123   1.9945   2.2569   2.3122   2.5178   2.6739   2.9219
     3.2446   3.4367   3.9313   4.0167   4.0764   4.6013   4.9057   5.0822
     5.1176   5.4960   5.6428   5.6586   5.6906   5.7378   5.7641   6.0331
     6.3156   6.3890  10.3985  10.7926  12.2935  12.6845  13.0392  13.5318
    13.6720  13.7260  14.4282  14.5609

          k = 0.0000-0.3030 0.0000 ( 20770 PWs)   bands (ev):

   -11.9030 -11.5720 -11.0426 -10.6244 -10.3363 -10.3034  -9.7892  -9.4999
    -9.1056  -8.6425  -8.3353  -8.0373  -5.4113  -4.9963  -4.6315  -3.8087
    -3.3066  -2.3631  -1.7820  -0.7946  -0.2213   0.7863   1.2277   2.2356
     2.6419   2.6446   3.1293   3.2526   3.3534   3.5276   3.6885   3.7357
     3.9102   4.0899   4.2941   4.3070   4.4558   4.4949   4.5679   4.6748
     4.6919   4.8261   4.8885   4.9891   5.0235   5.0345   5.0535   5.1950
     5.2659   5.2984  11.4080  11.6184  12.4845  12.5457  12.8332  13.1567
    13.4385  13.8728  14.2002  14.4757

          k = 0.1111-0.0000 0.0000 ( 20803 PWs)   bands (ev):

   -13.3494 -13.0087 -12.4589 -11.7126 -10.7856  -9.6991  -8.4844  -7.1974
    -5.9636  -5.0682  -4.8480  -4.7773  -4.7598  -4.5519  -4.0734  -3.4208
    -2.6035  -1.6312  -1.5615  -1.5355  -0.9120  -0.8039  -0.5144  -0.0007
     0.2986   0.5088   0.7338   0.8056   1.1051   1.2480   1.2739   1.8887
     2.0925   2.3320   2.6167   3.4112   3.5251   3.6075   4.2204   4.8370
     4.9499   4.9748   5.6145   5.8871   6.0457   6.2626   6.3758   6.5594
     6.5958   7.2304   9.7726  10.2164  12.4113  12.9863  13.1435  13.2590
    13.4543  13.6118  13.8505  14.0984

          k = 0.1111-0.1010 0.0000 ( 20797 PWs)   bands (ev):

   -13.1626 -12.8228 -12.2748 -11.5318 -10.6107  -9.5363  -8.3516  -7.1663
    -6.9126  -6.6641  -6.3229  -6.3149  -4.0344  -3.7483  -3.4107  -2.8896
    -2.7716  -2.6437  -1.7912  -0.7587  -0.7279  -0.3192  -0.1536   0.3155
     0.5334   0.8251   1.0167   1.0708   1.2958   1.4657   1.5529   2.1322
     2.3496   2.4480   2.8113   3.4721   3.5413   3.8663   4.2368   4.5919
     4.8499   5.0023   5.3380   5.3466   5.4287   5.5847   6.1280   6.4233
     6.9137   7.1534  10.0049  10.4447  12.6681  13.1219  13.6856  13.7458
    13.8375  14.1390  14.2753  14.3111

          k = 0.1111-0.2020 0.0000 ( 20800 PWs)   bands (ev):

   -12.6044 -12.2677 -11.7259 -10.9942 -10.0952  -9.0740  -8.8023  -8.5108
    -8.0456  -8.0263  -7.4965  -7.3214  -4.7691  -4.4302  -3.9768  -3.4027
    -2.6677  -2.1077  -1.3733  -0.7358  -0.6280   0.3998   0.6652   0.9490
     1.0693   1.4153   1.7954   1.8311   2.0441   2.2722   2.4905   2.5944
     2.8709   3.0070   3.4809   3.7162   3.7867   3.9247   4.1647   4.1684
     4.2513   4.3208   4.4161   4.4630   4.7779   5.1685   5.6337   6.2258
     6.6657   6.6766  10.6644  11.0613  13.1242  13.2046  13.8021  14.2029
    14.3166  14.8961  14.9057  15.0092

          k = 0.1111-0.3030 0.0000 ( 20773 PWs)   bands (ev):

   -11.6816 -11.3516 -10.8238 -10.4087 -10.1200 -10.0891  -9.5773  -9.2871
    -8.8972  -8.4346  -8.1316  -7.8351  -5.2084  -4.7956  -4.4375  -3.6179
    -3.1248  -2.1856  -1.6211  -0.6399  -0.1184   0.7855   1.0263   1.6141
     1.7615   2.0641   2.2286   2.4976   2.6927   2.8437   2.9636   3.1047
     3.1791   3.4453   3.5202   3.7124   3.8585   3.8852   3.9147   4.0590
     4.1952   4.3940   4.4957   4.5423   4.6714   5.0413   5.2693   5.4227
     5.5902   5.6368  11.6908  11.9598  13.1067  13.1159  13.4213  13.8623
    14.0162  14.5685  15.0368  15.2195

          k = 0.2222-0.0000 0.0000 ( 20844 PWs)   bands (ev):

   -12.6727 -12.3339 -11.7874 -11.0458 -10.1250  -9.0464  -7.8415  -6.5669
    -5.3489  -4.9576  -4.6655  -4.4689  -4.1932  -4.1714  -4.1613  -3.5487
    -2.7412  -1.7806  -1.1933  -0.9828  -0.9716  -0.8875  -0.6784  -0.4218
    -0.4059  -0.2080   0.2204   0.4013   0.5540   0.8819   0.9562   1.3751
     1.7451   1.8107   1.8901   2.3996   2.5180   3.1954   3.2922   3.3651
     3.7173   4.0566   4.1501   4.2316   4.3052   4.6670   4.6856   4.9207
     5.9227   6.8012  10.5121  10.8791  12.3892  12.4719  12.9560  12.9698
    13.2278  13.7867  13.9708  13.9997

          k = 0.2222-0.1010 0.0000 ( 20776 PWs)   bands (ev):

   -12.4876 -12.1498 -11.6053 -10.8673  -9.9529  -8.8871  -7.7137  -6.5498
    -6.4328  -6.1832  -5.8261  -5.7507  -3.7356  -3.4614  -3.2468  -3.1249
    -3.0284  -2.6211  -1.5711  -1.1258  -0.9414  -0.6863  -0.4691  -0.2938
    -0.1797   0.4601   0.5610   0.7368   1.0359   1.2000   1.2093   1.7128
     1.8527   1.9918   2.2737   2.3824   2.8052   2.8940   3.0214   3.0306
     3.2022   3.2976   3.3928   3.7760   4.2951   4.7649   5.4086   5.5324
     5.9947   6.4258  10.7528  11.1237  13.0710  13.1239  13.2514  13.5233
    13.6157  13.8135  14.0482  14.2646

          k = 0.2222-0.2020 0.0000 ( 20759 PWs)   bands (ev):

   -11.9347 -11.6005 -11.0629 -10.3372  -9.4463  -8.4364  -8.2110  -7.9239
    -7.4663  -7.4065  -6.9219  -6.7302  -4.2462  -3.9313  -3.4785  -2.9448
    -2.3795  -2.2202  -2.0582  -1.7051  -0.8880  -0.4498  -0.2971  -0.2048
     0.3226   0.9020   0.9672   1.2538   1.4363   1.5388   1.9304   1.9622
     2.0487   2.2522   2.3887   2.5186   2.6290   2.6320   2.8808   2.9337
     3.0885   3.2275   3.3699   3.6457   4.3101   4.5559   5.3229   5.4669
     6.0929   6.2355  11.4157  11.7596  13.9228  14.1893  14.2789  14.3074
    14.5720  14.7163  14.8170  14.8771

          k = 0.2222-0.3030 0.0000 ( 20801 PWs)   bands (ev):

   -11.0231 -10.6963 -10.1738  -9.7720  -9.4777  -9.4566  -8.9519  -8.6553
    -8.2821  -7.8175  -7.5285  -7.2339  -4.6310  -4.2223  -3.8916  -3.0798
    -2.6353  -1.7122  -1.3407  -1.2366  -1.0537  -0.3136  -0.1018  -0.0163
     0.1531   0.3308   0.5836   0.9605   1.0250   1.2827   1.6268   1.6602
     1.7737   1.9401   2.1701   2.9329   3.2252   3.5240   3.6113   3.7711
     3.9799   4.0595   4.1572   4.1981   4.2471   4.2923   4.7955   5.2315
     5.4819   5.5490  12.3998  12.6306  13.8999  13.9333  14.7088  14.9698
    15.1288  15.1748  15.2368  15.4971

          k = 0.3333-0.0000 0.0000 ( 20766 PWs)   bands (ev):

   -11.5576 -11.2223 -10.6817  -9.9484  -9.0384  -7.9733  -6.7847  -6.2025
    -5.8961  -5.5297  -5.4017  -4.7298  -4.3350  -3.8924  -3.4763  -3.1698
    -3.1685  -2.9046  -1.7858  -1.5200  -1.2387  -0.7988  -0.5684  -0.2316
    -0.1396  -0.0577   0.2973   0.4016   0.6798   0.7215   0.9360   1.0622
     1.6286   1.6392   1.6614   1.7969   1.9811   2.0271   2.1484   2.2499
     2.4963   2.6880   2.6929   2.8995   2.9701   2.9821   3.0161   4.0597
     5.1957   6.0324  11.6288  11.7746  12.1156  12.2470  12.7770  12.8080
    13.5844  13.7996  14.4037  14.6490

          k = 0.3333-0.1010 0.0000 ( 20794 PWs)   bands (ev):

   -11.3761 -11.0421 -10.5039  -9.7748  -8.8720  -7.8209  -6.6670  -6.4109
    -6.1179  -5.6784  -5.5137  -5.1537  -4.0976  -4.0472  -3.9056  -3.8803
    -3.7387  -3.0224  -1.9515  -1.3635  -1.0743  -0.9049  -0.7845  -0.3681
    -0.1160  -0.1085   0.3003   0.6442   0.7623   0.7819   0.8025   1.1007
     1.1155   1.5054   1.6568   1.7351   1.9544   2.0102   2.0681   2.1984
     2.3026   2.6774   2.8558   2.8682   3.5051   3.8204   3.9627   4.1529
     5.0061   5.8412  11.9097  12.1318  12.7585  12.7594  13.1231  13.1245
    13.4632  13.8059  14.1404  14.4918

          k = 0.3333-0.2020 0.0000 ( 20813 PWs)   bands (ev):

   -10.8359 -10.5062  -9.9761  -9.2611  -8.3844  -7.4280  -7.3770  -7.1276
    -6.6728  -6.4029  -6.0980  -5.8061  -4.3162  -4.0340  -3.8262  -3.6245
    -3.4943  -3.4550  -2.5735  -1.7003  -1.4286  -1.3884  -1.0245  -0.8235
    -0.8143  -0.5936  -0.5695  -0.5212   0.2986   0.4324   0.8028   0.9213
     1.6197   1.8115   2.1039   2.2572   2.4756   2.5117   2.5953   2.7261
     2.9007   2.9487   3.0438   3.3506   3.4009   3.9793   4.4888   4.7593
     5.2206   5.3601  12.5354  12.7425  13.7814  13.7935  14.1801  14.2358
    14.4734  14.6409  14.7011  14.8446

          k = 0.3333-0.3030 0.0000 ( 20863 PWs)   bands (ev):

    -9.9530  -9.6320  -9.1192  -8.7693  -8.4616  -8.4369  -7.9691  -7.6326
    -7.3135  -6.8195  -6.5661  -6.2579  -3.8718  -3.6312  -3.4554  -3.3447
    -3.2674  -2.9191  -2.6576  -2.4911  -2.4274  -2.2251  -1.8468  -1.6686
    -1.1764  -1.0285  -0.3732  -0.3699  -0.2027  -0.1051   0.1952   0.7869
     1.3800   1.9351   2.1940   2.2116   2.5982   2.6068   2.9484   3.4349
     3.5148   3.5261   3.8003   3.9979   4.2374   4.3286   4.4408   4.4907
     5.0611   5.2314  13.3077  13.4081  14.7118  14.7351  14.8824  14.9884
    15.2368  15.5148  15.6008  15.7251

          k = 0.4444-0.0000 0.0000 ( 20772 PWs)   bands (ev):

   -10.0320  -9.7023  -9.1709  -8.4505  -8.1679  -7.8469  -7.5568  -7.3298
    -6.6285  -6.5111  -5.7581  -5.3446  -4.7381  -4.1132  -3.5966  -2.9421
    -2.3840  -2.1029  -1.7966  -1.7812  -1.2179  -0.5263  -0.3767  -0.2894
    -0.0653  -0.0328   0.0666   0.4981   0.8486   0.9411   1.0175   1.0508
     1.1010   1.2088   1.3179   1.3486   1.4295   1.5468   1.5710   1.6869
     1.7375   1.7632   1.7739   1.8829   2.1656   2.9401   3.0727   3.7988
     4.1451   4.9764  12.1813  12.1967  12.6979  12.7266  13.0520  13.0738
    13.4014  13.5728  13.5788  13.6933

          k = 0.4444-0.1010 0.0000 ( 20816 PWs)   bands (ev):

    -9.8600  -9.5321  -9.0039  -8.2886  -8.0352  -7.7175  -7.4034  -7.2058
    -6.5131  -6.3730  -5.6571  -5.2472  -4.6323  -4.0678  -3.5361  -3.2162
    -3.1557  -3.0125  -2.8632  -2.4025  -1.4906  -1.4889  -1.3179  -1.1948
    -0.4362  -0.1930   0.0465   0.4152   0.7619   0.9022   0.9821   1.0013
     1.1016   1.3701   1.4890   1.6724   1.7831   1.8746   1.9170   1.9476
     2.1890   2.2499   2.4028   2.4755   2.6527   3.0787   3.1498   3.8921
     4.1340   4.9574  12.7665  12.8167  12.8310  12.9189  12.9946  13.3134
    13.5271  13.8092  14.0702  14.1608

          k = 0.4444-0.2020 0.0000 ( 20837 PWs)   bands (ev):

    -9.3565  -9.0343  -8.5167  -7.8189  -7.7340  -7.4276  -6.9621  -6.9347
    -6.2715  -5.9878  -5.4684  -5.0436  -4.7676  -4.4918  -4.3416  -4.1272
    -3.9451  -3.7633  -3.4412  -3.1977  -2.9443  -2.6516  -2.5230  -2.3172
    -1.0852  -0.7789  -0.5374   0.1035   0.1230   0.3774   0.5128   0.7502
     1.2500   1.4161   1.5645   1.6750   2.0124   2.3647   2.6489   2.6627
     2.8231   3.0557   3.1457   3.2616   3.5442   3.7673   3.9512   4.1144
     4.1623   4.8749  13.4668  13.5414  13.7929  13.8733  14.0487  14.1119
    14.3624  14.3721  14.6417  14.8513

          k = 0.4444-0.3030 0.0000 ( 20868 PWs)   bands (ev):

    -8.5818  -8.2711  -7.8085  -7.7746  -7.5099  -7.1207  -7.0219  -6.4246
    -6.2811  -5.6785  -5.4261  -5.3486  -5.0577  -5.0207  -4.5959  -4.5769
    -4.3062  -4.0854  -3.9013  -3.8216  -3.7274  -3.5376  -3.3165  -3.0934
    -1.2060  -1.0469  -0.6907  -0.6466  -0.3295   0.1181   0.3957   0.6769
     0.8612   1.2550   1.3811   1.6476   2.1665   2.3849   2.6713   2.6894
     3.3011   3.4349   3.6744   3.8553   4.0709   4.2707   4.4743   4.4784
     4.7025   4.7958  14.0435  14.0564  14.6191  14.6315  15.2449  15.3440
    15.7466  15.8216  15.8648  15.8980

     the Fermi energy is     8.7067 ev

!    total energy              =    -447.14579429 Ry
     estimated scf accuracy    <          5.4E-09 Ry
     smearing contrib. (-TS)   =      -0.00000000 Ry
     internal energy E=F+TS    =    -447.14579429 Ry

     The total energy is F=E-TS. E is the sum of the following terms:
     one-electron contribution =   -3107.22003916 Ry
     hartree contribution      =    1609.84117734 Ry
     xc contribution           =    -115.27829869 Ry
     ewald contribution        =    1313.42033116 Ry
     one-center paw contrib.   =    -147.90896494 Ry

     convergence has been achieved in  12 iterations

     negative rho (up, down):  4.780E-06 0.000E+00

     Forces acting on atoms (cartesian axes, Ry/au):

     atom    1 type  1   force =     0.00000000   -0.04624812   -0.02089203
     atom    2 type  1   force =    -0.00000000    0.04624812   -0.02089203
     atom    3 type  1   force =    -0.00000000   -0.00256956    0.00950852
     atom    4 type  1   force =    -0.00000000    0.00256956    0.00950852
     atom    5 type  1   force =     0.00000000   -0.00066138    0.00094997
     atom    6 type  1   force =     0.00000000    0.00066138    0.00094997
     atom    7 type  1   force =     0.00000000   -0.00018045    0.00029112
     atom    8 type  1   force =     0.00000000    0.00018045    0.00029112
     atom    9 type  1   force =     0.00000000    0.00007819    0.00009273
     atom   10 type  1   force =     0.00000000   -0.00007819    0.00009273
     atom   11 type  1   force =     0.00000000    0.00002562    0.00000185
     atom   12 type  1   force =     0.00000000   -0.00002562    0.00000185
     atom   13 type  1   force =     0.00000000    0.00002562   -0.00000185
     atom   14 type  1   force =     0.00000000   -0.00002562   -0.00000185
     atom   15 type  1   force =     0.00000000   -0.00007819   -0.00009273
     atom   16 type  1   force =     0.00000000    0.00007819   -0.00009273
     atom   17 type  1   force =     0.00000000   -0.00018045   -0.00029112
     atom   18 type  1   force =     0.00000000    0.00018045   -0.00029112
     atom   19 type  1   force =     0.00000000   -0.00066138   -0.00094997
     atom   20 type  1   force =     0.00000000    0.00066138   -0.00094997
     atom   21 type  1   force =     0.00000000   -0.00256956   -0.00950852
     atom   22 type  1   force =     0.00000000    0.00256956   -0.00950852
     atom   23 type  1   force =    -0.00000000   -0.04624812    0.02089203
     atom   24 type  1   force =    -0.00000000    0.04624812    0.02089203
     atom   25 type  2   force =     0.00000000   -0.00339796    0.00976034
     atom   26 type  2   force =     0.00000000    0.00339796    0.00976034
     atom   27 type  2   force =     0.00000000   -0.00339796   -0.00976034
     atom   28 type  2   force =     0.00000000    0.00339796   -0.00976034

     Total force =     0.105464     Total SCF correction =     0.000120

     BFGS Geometry Optimization
     Energy error            =      0.0E+00 Ry
     Gradient error          =      4.6E-02 Ry/Bohr

     number of scf cycles    =   1
     number of bfgs steps    =   0

     energy             new  =    -447.1457942901 Ry

     new trust radius        =       0.0507480565 bohr
     new conv_thr            =       0.0000000100 Ry


ATOMIC_POSITIONS (angstrom)
C                0.0000000000       -0.9178836993       18.7771275032
C                1.2634728900       -1.7623470507       18.7771275032
C                1.2634728900       -2.6815905000       17.5297418903
C               -0.0000000000        0.0013597500       17.5297418903
C                0.0000000000       -0.8937602360       16.2617400016
C                1.2634728900       -1.7864705140       16.2617400016
C                1.2634728900       -2.6803262384       14.9979184651
C                0.0000000000        0.0000954884       14.9979184651
C                1.2634728900       -1.7867791234       13.7343405921
C                0.0000000000       -0.8934516266       13.7343405921
C                0.0000000000        0.0000135582       12.4708196064
C                1.2634728900       -2.6802443082       12.4708196064
C                1.2634728900       -1.7868069418       11.2073447536
C                0.0000000000       -0.8934238082       11.2073447536
C                1.2634728900       -2.6802721266        9.9438237679
C                0.0000000000        0.0000413766        9.9438237679
C                0.0000000000       -0.8935057384        8.6802458949
C                1.2634728900       -1.7867250116        8.6802458949
C                1.2634728900       -2.6805807360        7.4164243584
C                0.0000000000        0.0003499860        7.4164243584
C                0.0000000000       -0.8947700000        6.1484224797
C                1.2634728900       -1.7854607500        6.1484224797
C                1.2634728900       -2.7047041993        4.9010368568
C               -0.0000000000        0.0244734493        4.9010368568
H                0.0000000000       -0.2658965846       19.6833293086
H                1.2634728900       -2.4143341654       19.6833293086
H                1.2634728900       -2.0527170846        3.9948350514
H                0.0000000000       -0.6275136654        3.9948350514



     Writing config-only to output data dir /tmp/qe/slab.save/ :
     XML data file
     NEW-OLD atomic charge density approx. for the potential

     Check: negative core charge=   -0.000001

     negative rho (up, down):  4.449E-06 0.000E+00

     total cpu time spent up to now is       66.6 secs

     Self-consistent Calculation

     iteration #  1     ecut=    90.00 Ry     beta= 0.30
     Davidson diagonalization with overlap
     c_bands:  1 eigenvalues not converged
     ethr =  1.00E-06,  avg # of iterations = 12.7

     negative rho (up, down):  3.975E-06 0.000E+00

     total cpu time spent up to now is       76.6 secs

     total energy              =    -447.14874602 Ry
     estimated scf accuracy    <       0.00143069 Ry

     iteration #  2     ecut=    90.00 Ry     beta= 0.30
     Davidson diagonalization with overlap
     ethr =  1.43E-06,  avg # of iterations =  1.6

     negative rho (up, down):  3.557E-06 0.000E+00

     total cpu time spent up to now is       80.5 secs

     total energy              =    -447.14862392 Ry
     estimated scf accuracy    <       0.00051746 Ry

     iteration #  3     ecut=    90.00 Ry     beta= 0.30
     Davidson diagonalization with overlap
     ethr =  5.17E-07,  avg # of iterations =  3.0

     negative rho (up, down):  3.541E-06 0.000E+00

     total cpu time spent up to now is       85.2 secs

     total energy              =    -447.14868161 Ry
     estimated scf accuracy    <       0.00003839 Ry

     iteration #  4     ecut=    90.00 Ry     beta= 0.30
     Davidson diagonalization with overlap
     ethr =  3.84E-08,  avg # of iterations =  2.0

     negative rho (up, down):  3.651E-06 0.000E+00

     total cpu time spent up to now is       89.4 secs

     total energy              =    -447.14868511 Ry
     estimated scf accuracy    <       0.00001049 Ry

     iteration #  5     ecut=    90.00 Ry     beta= 0.30
     Davidson diagonalization with overlap
     ethr =  1.05E-08,  avg # of iterations =  2.1

     negative rho (up, down):  3.645E-06 0.000E+00

     total cpu time spent up to now is       94.0 secs

     total energy              =    -447.14868677 Ry
     estimated scf accuracy    <       0.00000161 Ry

     iteration #  6     ecut=    90.00 Ry     beta= 0.30
     Davidson diagonalization with overlap
     ethr =  1.61E-09,  avg # of iterations =  1.9

     negative rho (up, down):  3.696E-06 0.000E+00

     total cpu time spent up to now is       98.0 secs

     total energy              =    -447.14868693 Ry
     estimated scf accuracy    <       0.00000048 Ry

     iteration #  7     ecut=    90.00 Ry     beta= 0.30
     Davidson diagonalization with overlap
     ethr =  4.78E-10,  avg # of iterations =  2.3

     negative rho (up, down):  3.695E-06 0.000E+00

     total cpu time spent up to now is      102.8 secs

     total energy              =    -447.14868698 Ry
     estimated scf accuracy    <       0.00000011 Ry

     iteration #  8     ecut=    90.00 Ry     beta= 0.30
     Davidson diagonalization with overlap
     ethr =  1.14E-10,  avg # of iterations =  2.1

     negative rho (up, down):  3.711E-06 0.000E+00

     total cpu time spent up to now is      107.3 secs

     End of self-consistent calculation

          k = 0.0000-0.0000 0.0000 ( 20853 PWs)   bands (ev):

   -13.6003 -13.2705 -12.7375 -12.0043 -11.0774  -9.9786  -8.7490  -7.4520
    -6.2106  -5.3069  -5.0031  -4.9907  -4.9336  -4.6328  -4.1548  -3.4988
    -2.6608  -1.7904  -1.7679  -1.6497  -1.1154  -1.0049  -0.4902  -0.1614
     0.1091   0.7928   0.9980   1.0479   1.5085   1.7668   2.1779   2.1839
     2.2867   2.7301   3.4046   3.6418   3.6591   4.1674   4.9673   4.9976
     5.1445   5.7408   6.2624   6.4255   6.4733   6.9767   7.2659   7.3727
     7.3821   7.6087   9.5570   9.9962  12.1922  12.5398  12.7964  13.0396
    13.2092  13.3030  13.4046  13.5905

          k = 0.0000-0.1010 0.0000 ( 20851 PWs)   bands (ev):

   -13.4130 -13.0843 -12.5532 -11.8235 -10.9030  -9.8173  -8.6199  -7.4294
    -7.1160  -6.8800  -6.5520  -6.5405  -4.2005  -3.9020  -3.5628  -3.0139
    -2.8567  -2.6851  -1.8834  -0.8849  -0.8086  -0.3723  -0.1787   0.2393
     0.5051   1.0125   1.2186   1.3588   1.6892   1.9409   2.3401   2.4112
     2.4928   2.8728   3.5170   3.5788   3.9975   4.2332   4.7861   4.9632
     5.3699   5.6368   5.9625   6.1900   6.4434   6.5880   6.8334   6.8912
     6.9561   7.1900   9.7768  10.2119  12.3087  12.3538  12.9267  13.3064
    13.4382  13.7438  13.8833  14.0438

          k = 0.0000-0.2020 0.0000 ( 20798 PWs)   bands (ev):

   -12.8533 -12.5280 -12.0038 -11.2867 -10.3909  -9.3665  -9.0274  -8.7525
    -8.3028  -8.2888  -7.7296  -7.5745  -4.9580  -4.6121  -4.1621  -3.5519
    -2.8392  -2.2357  -1.4600  -0.7973  -0.4827   0.5441   0.8712   1.1410
     1.5285   1.7983   1.9775   2.2253   2.3591   2.4556   2.6932   2.8159
     3.2548   3.2860   3.8332   4.0012   4.0958   4.4039   4.9235   4.9263
     5.1240   5.3283   5.5693   5.6276   5.6445   5.6768   5.6782   6.0352
     6.3039   6.3763  10.4170  10.7855  12.2754  12.6409  13.0133  13.4996
    13.5459  13.7035  14.3055  14.4831

          k = 0.0000-0.3030 0.0000 ( 20770 PWs)   bands (ev):

   -11.9278 -11.6108 -11.1051 -10.6536 -10.4193 -10.3402  -9.8315  -9.6012
    -9.1410  -8.7435  -8.3560  -8.0960  -5.3880  -5.0167  -4.5745  -3.8284
    -3.2574  -2.3863  -1.7326  -0.8159  -0.1589   0.7731   1.2936   2.2259
     2.6442   2.7180   3.0954   3.2342   3.2825   3.5101   3.5636   3.7652
     3.8912   3.9048   4.2406   4.2631   4.2966   4.4318   4.5115   4.5745
     4.6903   4.6955   4.7461   4.9109   4.9231   5.0032   5.0409   5.1887
     5.2900   5.3161  11.3984  11.5784  12.4491  12.5287  12.8108  13.1312
    13.4118  13.8791  14.1492  14.4447

          k = 0.1111-0.0000 0.0000 ( 20803 PWs)   bands (ev):

   -13.3736 -13.0445 -12.5126 -11.7810 -10.8563  -9.7602  -8.5340  -7.2411
    -6.0053  -5.1071  -4.8656  -4.8006  -4.7910  -4.5674  -4.0938  -3.4441
    -2.6141  -1.6130  -1.5857  -1.5753  -0.9430  -0.7993  -0.4661  -0.0158
     0.3098   0.4781   0.7469   0.8017   1.1044   1.1759   1.2411   1.7509
     2.1729   2.3340   2.4504   3.2348   3.5972   3.6224   4.0472   4.8078
     4.8161   5.0644   5.4768   5.8491   5.9656   6.2999   6.3136   6.5645
     6.5663   7.2591   9.7847  10.1964  12.3297  12.9651  13.1210  13.2528
    13.4939  13.5275  13.8363  14.0669

          k = 0.1111-0.1010 0.0000 ( 20797 PWs)   bands (ev):

   -13.1869 -12.8588 -12.3289 -11.6009 -10.6827  -9.6000  -8.4064  -7.2221
    -6.9326  -6.6966  -6.3576  -6.3565  -4.0466  -3.7566  -3.4236  -2.8794
    -2.7878  -2.6637  -1.7634  -0.7820  -0.7587  -0.2777  -0.1689   0.2904
     0.5376   0.7948   1.0136   1.0777   1.2831   1.4582   1.4613   1.9974
     2.3539   2.5229   2.6500   3.3511   3.4910   3.9546   4.0657   4.5720
     4.7000   5.0145   5.2759   5.2962   5.3449   5.6217   6.0587   6.4627
     6.8741   7.1450  10.0213  10.4332  12.6155  13.1108  13.6515  13.7187
    13.8367  14.1299  14.1886  14.2627

          k = 0.1111-0.2020 0.0000 ( 20800 PWs)   bands (ev):

   -12.6287 -12.3042 -11.7814 -11.0663 -10.1734  -9.1529  -8.8225  -8.5489
    -8.0953  -8.0881  -7.5319  -7.3748  -4.7650  -4.4268  -3.9727  -3.3791
    -2.6693  -2.0784  -1.3717  -0.7477  -0.6068   0.3614   0.6470   0.9949
     1.0540   1.3787   1.7636   1.8067   1.9845   2.2375   2.4602   2.6189
     2.7704   2.9523   3.3270   3.7286   3.7770   3.7792   4.0722   4.1642
     4.1783   4.3011   4.3403   4.3440   4.7743   5.1834   5.6121   6.1900
     6.6390   6.6647  10.6787  11.0492  13.1107  13.1633  13.7857  14.1299
    14.2791  14.8433  14.8584  14.9805

          k = 0.1111-0.3030 0.0000 ( 20773 PWs)   bands (ev):

   -11.7064 -11.3904 -10.8865 -10.4379 -10.2033 -10.1258  -9.6195  -9.3889
    -8.9324  -8.5364  -8.1521  -7.8941  -5.1843  -4.8153  -4.3794  -3.6361
    -3.0751  -2.2067  -1.5723  -0.6591  -0.0628   0.7656   1.0389   1.5813
     1.7983   2.0033   2.2180   2.4304   2.6284   2.8031   2.9563   3.0157
     3.1110   3.3720   3.4822   3.5062   3.7990   3.8583   3.8889   3.9383
     4.1607   4.3508   4.4379   4.4937   4.7001   5.0438   5.2572   5.3948
     5.5694   5.6076  11.6844  11.9235  13.0648  13.1034  13.4070  13.8399
    14.0127  14.5683  15.0108  15.1771

          k = 0.2222-0.0000 0.0000 ( 20844 PWs)   bands (ev):

   -12.6969 -12.3698 -11.8413 -11.1148 -10.1966  -9.1087  -7.8925  -6.6121
    -5.3924  -4.9754  -4.6817  -4.5095  -4.2147  -4.1950  -4.1936  -3.5735
    -2.7543  -1.7666  -1.2233  -1.0176  -0.9897  -0.9434  -0.6358  -0.4987
    -0.4519  -0.1992   0.0935   0.3839   0.6125   0.8053   0.8965   1.3680
     1.5874   1.8052   1.9603   2.3681   2.3907   3.0610   3.3432   3.3792
     3.6029   3.9694   4.1167   4.1695   4.2713   4.6344   4.7953   4.8960
     6.0158   6.8266  10.4924  10.8177  12.3615  12.4537  12.9316  12.9692
    13.1563  13.7899  13.9785  14.0676

          k = 0.2222-0.1010 0.0000 ( 20776 PWs)   bands (ev):

   -12.5118 -12.1858 -11.6596 -10.9370 -10.0258  -8.9520  -7.7701  -6.6083
    -6.4517  -6.2121  -5.8572  -5.7955  -3.7483  -3.4662  -3.2716  -3.1465
    -3.0562  -2.6075  -1.5511  -1.1581  -1.0190  -0.6987  -0.4933  -0.2539
    -0.2516   0.4141   0.4916   0.6606   1.0686   1.1356   1.2302   1.5667
     1.8402   1.9816   2.2014   2.3729   2.7152   2.8322   2.9928   2.9995
     3.1354   3.2015   3.3648   3.8113   4.3033   4.7722   5.4101   5.5322
     6.0132   6.4358  10.7428  11.0771  13.0167  13.1070  13.2312  13.4944
    13.5855  13.8345  14.0657  14.2661

          k = 0.2222-0.2020 0.0000 ( 20759 PWs)   bands (ev):

   -11.9591 -11.6370 -11.1186 -10.4098  -9.5254  -8.5171  -8.2307  -7.9603
    -7.5073  -7.4789  -6.9555  -6.7846  -4.2394  -3.9227  -3.4756  -2.9171
    -2.3952  -2.2428  -2.0918  -1.6749  -0.9507  -0.5394  -0.2619  -0.2042
     0.2190   0.9041   0.9183   1.1938   1.4130   1.4970   1.8011   1.8899
     1.9941   2.2580   2.3137   2.3895   2.5951   2.6141   2.8357   2.9743
     3.0657   3.1723   3.3557   3.6686   4.3768   4.5322   5.3550   5.4213
     6.0567   6.2243  11.4112  11.7247  13.8665  14.1870  14.2644  14.2847
    14.5629  14.6780  14.7730  14.8637

          k = 0.2222-0.3030 0.0000 ( 20801 PWs)   bands (ev):

   -11.0479 -10.7349 -10.2364  -9.8007  -9.5617  -9.4928  -8.9936  -8.7586
    -8.3165  -7.9213  -7.5483  -7.2937  -4.6043  -4.2397  -3.8311  -3.0938
    -2.5882  -1.7299  -1.3294  -1.2555  -1.0936  -0.3488  -0.1568  -0.0420
     0.1224   0.2614   0.5760   0.8279   1.0200   1.1898   1.4502   1.6302
     1.7143   1.8544   2.1859   2.9376   3.2930   3.5198   3.5867   3.7407
     3.9649   4.0008   4.1781   4.1816   4.2455   4.2462   4.7766   5.1941
     5.4673   5.5195  12.3710  12.5708  13.8846  13.8878  14.7063  14.9630
    15.1171  15.1603  15.2288  15.5535

          k = 0.3333-0.0000 0.0000 ( 20766 PWs)   bands (ev):

   -11.5818 -11.2581 -10.7358 -10.0180  -9.1112  -8.0371  -6.8374  -6.2239
    -5.9233  -5.5768  -5.4418  -4.7808  -4.3808  -3.9410  -3.5197  -3.2039
    -3.1927  -2.9369  -1.8001  -1.5460  -1.2808  -0.8670  -0.5742  -0.3256
    -0.1657  -0.0644   0.2692   0.3026   0.6613   0.7377   0.9163   0.9645
     1.5739   1.5990   1.6108   1.8182   1.9360   2.0025   2.0658   2.2255
     2.4654   2.6538   2.6893   2.8694   2.9331   2.9438   3.0644   4.1460
     5.2698   6.0498  11.5757  11.6971  12.0909  12.2347  12.7643  12.8211
    13.6299  13.8273  14.2919  14.6678

          k = 0.3333-0.1010 0.0000 ( 20794 PWs)   bands (ev):

   -11.4003 -11.0780 -10.5583  -9.8449  -8.9460  -7.8874  -6.7258  -6.4317
    -6.1416  -5.7274  -5.5527  -5.1983  -4.1288  -4.1173  -3.9521  -3.9069
    -3.7825  -3.0431  -1.9628  -1.4156  -1.0934  -0.9703  -0.7911  -0.3802
    -0.1868  -0.1372   0.2670   0.6167   0.6661   0.7386   0.7570   1.0481
     1.0951   1.4693   1.5951   1.6864   1.9447   1.9704   2.0792   2.1597
     2.2900   2.7259   2.8317   2.8582   3.4537   3.8464   3.9763   4.1237
     5.0781   5.8575  11.8624  12.0548  12.7381  12.7384  13.0944  13.1153
    13.5253  13.7672  14.2323  14.3860

          k = 0.3333-0.2020 0.0000 ( 20813 PWs)   bands (ev):

   -10.8602 -10.5425 -10.0317  -9.3340  -8.4643  -7.4930  -7.4136  -7.1574
    -6.7070  -6.4862  -6.1225  -5.8615  -4.3452  -4.0849  -3.8608  -3.6680
    -3.5177  -3.4811  -2.5674  -1.7604  -1.4759  -1.4098  -1.0503  -0.8725
    -0.8219  -0.7112  -0.5929  -0.5498   0.1960   0.4235   0.7189   0.9001
     1.6247   1.8669   2.0897   2.1928   2.4669   2.4670   2.5957   2.7041
     2.8696   2.9414   3.0654   3.3351   3.4038   3.9754   4.5054   4.7395
     5.2065   5.3626  12.4890  12.6682  13.7659  13.7659  14.1598  14.2112
    14.4203  14.6068  14.6943  14.8761

          k = 0.3333-0.3030 0.0000 ( 20863 PWs)   bands (ev):

    -9.9776  -9.6700  -9.1810  -8.7964  -8.5218  -8.4958  -8.0081  -7.7382
    -7.3441  -6.9261  -6.5831  -6.3186  -3.8491  -3.6605  -3.4691  -3.3930
    -3.2548  -2.9721  -2.7280  -2.5224  -2.4353  -2.2699  -1.9011  -1.7435
    -1.1763  -1.0898  -0.4935  -0.4010  -0.2918  -0.1438   0.1377   0.7954
     1.4430   1.9430   2.1596   2.2345   2.5857   2.6487   2.9339   3.4092
     3.4809   3.5457   3.8275   3.9578   4.2243   4.2841   4.4039   4.5157
     5.0232   5.2148  13.1979  13.2752  14.6876  14.7364  14.8595  14.9662
    15.2178  15.5204  15.5734  15.7186

          k = 0.4444-0.0000 0.0000 ( 20772 PWs)   bands (ev):

   -10.0560  -9.7376  -9.2245  -8.5198  -8.1912  -7.8804  -7.6297  -7.3806
    -6.6944  -6.5753  -5.8266  -5.3976  -4.7967  -4.1609  -3.6432  -2.9897
    -2.4255  -2.1495  -1.8332  -1.8061  -1.2621  -0.5494  -0.4244  -0.3228
    -0.1042  -0.0588   0.0151   0.4305   0.8329   0.8702   1.0071   1.0295
     1.0939   1.1843   1.2568   1.3276   1.3923   1.5199   1.5248   1.6505
     1.6607   1.6929   1.7689   1.9184   2.1993   2.9737   3.1307   3.8005
     4.1965   4.9849  12.1767  12.1789  12.6891  12.7153  13.0470  13.0522
    13.3057  13.5811  13.5900  13.6699

          k = 0.4444-0.1010 0.0000 ( 20816 PWs)   bands (ev):

    -9.8839  -9.5673  -9.0575  -8.3583  -8.0583  -7.7504  -7.4769  -7.2555
    -6.5775  -6.4390  -5.7238  -5.3043  -4.6908  -4.1265  -3.5850  -3.2422
    -3.2296  -3.0361  -2.9137  -2.4535  -1.5594  -1.5149  -1.3441  -1.2454
    -0.4551  -0.2322   0.0451   0.3697   0.7525   0.9098   0.9578   0.9808
     1.0442   1.3373   1.5132   1.6196   1.7183   1.8157   1.9014   1.9196
     2.1913   2.2611   2.3345   2.4578   2.6284   3.1037   3.2034   3.8931
     4.1856   4.9657  12.7394  12.7972  12.8242  12.9189  12.9612  13.2468
    13.4709  13.7935  14.0086  14.1470

          k = 0.4444-0.2020 0.0000 ( 20837 PWs)   bands (ev):

    -9.3803  -9.0694  -8.5705  -7.8900  -7.7559  -7.4583  -7.0384  -6.9802
    -6.3296  -6.0620  -5.5264  -5.1140  -4.7960  -4.5482  -4.3913  -4.2345
    -3.9759  -3.8315  -3.5020  -3.2248  -2.9785  -2.7519  -2.5400  -2.3820
    -1.0992  -0.7876  -0.5589   0.0869   0.1088   0.3722   0.5568   0.7342
     1.2083   1.3859   1.5884   1.7165   1.9639   2.3087   2.5906   2.6741
     2.8659   3.0266   3.0897   3.2612   3.5476   3.7391   3.9562   4.1142
     4.1811   4.8839  13.3877  13.4563  13.7284  13.7736  14.0342  14.0478
    14.3125  14.3489  14.6180  14.8053

          k = 0.4444-0.3030 0.0000 ( 20868 PWs)   bands (ev):

    -8.6053  -8.3060  -7.8317  -7.8307  -7.5363  -7.2090  -7.0474  -6.5161
    -6.3213  -5.7640  -5.4776  -5.3712  -5.1265  -5.0696  -4.6622  -4.6248
    -4.3525  -4.2314  -3.9406  -3.8391  -3.8276  -3.6005  -3.3466  -3.1609
    -1.1977  -1.0865  -0.6968  -0.6820  -0.2952   0.1570   0.3747   0.6447
     0.9067   1.2417   1.4018   1.6011   2.2192   2.3401   2.6376   2.7220
     3.3198   3.3828   3.6534   3.9012   4.0562   4.2254   4.4575   4.4728
     4.7102   4.7670  13.8597  13.8694  14.4908  14.5016  15.2108  15.3218
    15.6908  15.7866  15.8587  15.8754

     the Fermi energy is     8.2194 ev

!    total energy              =    -447.14868700 Ry
     estimated scf accuracy    <          7.6E-09 Ry
     smearing contrib. (-TS)   =       0.00000000 Ry
     internal energy E=F+TS    =    -447.14868700 Ry

     The total energy is F=E-TS. E is the sum of the following terms:
     one-electron contribution =   -3110.67587665 Ry
     hartree contribution      =    1611.44758334 Ry
     xc contribution           =    -115.27056615 Ry
     ewald contribution        =    1315.25934471 Ry
     one-center paw contrib.   =    -147.90917225 Ry

     convergence has been achieved in   8 iterations

     negative rho (up, down):  3.711E-06 0.000E+00

     Forces acting on atoms (cartesian axes, Ry/au):

     atom    1 type  1   force =     0.00000000    0.02518220    0.00650500
     atom    2 type  1   force =     0.00000000   -0.02518220    0.00650500
     atom    3 type  1   force =     0.00000000    0.00095990    0.00297308
     atom    4 type  1   force =     0.00000000   -0.00095990    0.00297308
     atom    5 type  1   force =     0.00000000    0.00252372    0.00093714
     atom    6 type  1   force =     0.00000000   -0.00252372    0.00093714
     atom    7 type  1   force =     0.00000000    0.00027846    0.00053768
     atom    8 type  1   force =     0.00000000   -0.00027846    0.00053768
     atom    9 type  1   force =     0.00000000   -0.00006493    0.00008653
     atom   10 type  1   force =     0.00000000    0.00006493    0.00008653
     atom   11 type  1   force =     0.00000000   -0.00002428    0.00002851
     atom   12 type  1   force =     0.00000000    0.00002428    0.00002851
     atom   13 type  1   force =     0.00000000   -0.00002428   -0.00002851
     atom   14 type  1   force =     0.00000000    0.00002428   -0.00002851
     atom   15 type  1   force =     0.00000000    0.00006493   -0.00008653
     atom   16 type  1   force =     0.00000000   -0.00006493   -0.00008653
     atom   17 type  1   force =     0.00000000    0.00027846   -0.00053768
     atom   18 type  1   force =     0.00000000   -0.00027846   -0.00053768
     atom   19 type  1   force =     0.00000000    0.00252372   -0.00093714
     atom   20 type  1   force =     0.00000000   -0.00252372   -0.00093714
     atom   21 type  1   force =     0.00000000    0.00095990   -0.00297308
     atom   22 type  1   force =     0.00000000   -0.00095990   -0.00297308
     atom   23 type  1   force =     0.00000000    0.02518220   -0.00650500
     atom   24 type  1   force =     0.00000000   -0.02518220   -0.00650500
     atom   25 type  2   force =     0.00000000   -0.01924981   -0.01136984
     atom   26 type  2   force =     0.00000000    0.01924981   -0.01136984
     atom   27 type  2   force =     0.00000000   -0.01924981    0.01136984
     atom   28 type  2   force =     0.00000000    0.01924981    0.01136984

     Total force =     0.069099     Total SCF correction =     0.000092
     Energy error            =      2.9E-03 Ry
     Gradient error          =      2.5E-02 Ry/Bohr

     number of scf cycles    =   2
     number of bfgs steps    =   1

     energy             old  =    -447.1457942901 Ry
     energy             new  =    -447.1486869962 Ry

     CASE: energy            _new < energy            _old

     new trust radius        =       0.0149959280 bohr
     new conv_thr            =       0.0000000100 Ry


ATOMIC_POSITIONS (angstrom)
C                0.0000000000       -0.9111396863       18.7784266390
C                1.2634728900       -1.7690910637       18.7784266390
C                1.2634728900       -2.6813733745       17.5312793348
C               -0.0000000000        0.0011426245       17.5312793348
C                0.0000000000       -0.8928875985       16.2621232443
C                1.2634728900       -1.7873431515       16.2621232443
C                1.2634728900       -2.6802352744       14.9981257751
C                0.0000000000        0.0000045244       14.9981257751
C                1.2634728900       -1.7867985469       13.7343762274
C                0.0000000000       -0.8934322031       13.7343762274
C                0.0000000000        0.0000061174       12.4708299270
C                1.2634728900       -2.6802368674       12.4708299270
C                1.2634728900       -1.7868143826       11.2073344330
C                0.0000000000       -0.8934163674       11.2073344330
C                1.2634728900       -2.6802527031        9.9437881326
C                0.0000000000        0.0000219531        9.9437881326
C                0.0000000000       -0.8934147744        8.6800385849
C                1.2634728900       -1.7868159756        8.6800385849
C                1.2634728900       -2.6797080985        7.4160411157
C                0.0000000000       -0.0005226515        7.4160411157
C                0.0000000000       -0.8945528745        6.1468850352
C                1.2634728900       -1.7856778755        6.1468850352
C                1.2634728900       -2.6979601863        4.8997377210
C               -0.0000000000        0.0177294363        4.8997377210
H                0.0000000000       -0.2729707395       19.6797336799
H                1.2634728900       -2.4072600105       19.6797336799
H                1.2634728900       -2.0597912395        3.9984306801
H                0.0000000000       -0.6204395105        3.9984306801



     Writing config-only to output data dir /tmp/qe/slab.save/ :
     XML data file
     NEW-OLD atomic charge density approx. for the potential

     Check: negative core charge=   -0.000001

     negative rho (up, down):  3.936E-06 0.000E+00

     total cpu time spent up to now is      108.7 secs

     Self-consistent Calculation

     iteration #  1     ecut=    90.00 Ry     beta= 0.30
     Davidson diagonalization with overlap
     ethr =  1.00E-06,  avg # of iterations =  7.5

     negative rho (up, down):  4.014E-06 0.000E+00

     total cpu time spent up to now is      115.9 secs

     total energy              =    -447.15044696 Ry
     estimated scf accuracy    <       0.00023114 Ry

     iteration #  2     ecut=    90.00 Ry     beta= 0.30
     Davidson diagonalization with overlap
     ethr =  2.31E-07,  avg # of iterations =  1.4

     negative rho (up, down):  4.003E-06 0.000E+00

     total cpu time spent up to now is      119.8 secs

     total energy              =    -447.15042810 Ry
     estimated scf accuracy    <       0.00007701 Ry

     iteration #  3     ecut=    90.00 Ry     beta= 0.30
     Davidson diagonalization with overlap
     ethr =  7.70E-08,  avg # of iterations =  2.0

     negative rho (up, down):  3.932E-06 0.000E+00

     total cpu time spent up to now is      124.2 secs

     total energy              =    -447.15043581 Ry
     estimated scf accuracy    <       0.00000556 Ry

     iteration #  4     ecut=    90.00 Ry     beta= 0.30
     Davidson diagonalization with overlap
     ethr =  5.56E-09,  avg # of iterations =  2.2

     negative rho (up, down):  3.897E-06 0.000E+00

     total cpu time spent up to now is      128.6 secs

     total energy              =    -447.15043647 Ry
     estimated scf accuracy    <       0.00000088 Ry

     iteration #  5     ecut=    90.00 Ry     beta= 0.30
     Davidson diagonalization with overlap
     ethr =  8.83E-10,  avg # of iterations =  2.2

     negative rho (up, down):  3.878E-06 0.000E+00

     total cpu time spent up to now is      133.0 secs

     total energy              =    -447.15043657 Ry
     estimated scf accuracy    <       0.00000020 Ry

     iteration #  6     ecut=    90.00 Ry     beta= 0.30
     Davidson diagonalization with overlap
     ethr =  2.00E-10,  avg # of iterations =  1.6

     negative rho (up, down):  3.865E-06 0.000E+00

     total cpu time spent up to now is      136.9 secs

     total energy              =    -447.15043658 Ry
     estimated scf accuracy    <       0.00000005 Ry

     iteration #  7     ecut=    90.00 Ry     beta= 0.30
     Davidson diagonalization with overlap
     ethr =  5.10E-11,  avg # of iterations =  2.1

     negative rho (up, down):  3.859E-06 0.000E+00

     total cpu time spent up to now is      141.4 secs

     End of self-consistent calculation

          k = 0.0000-0.0000 0.0000 ( 20853 PWs)   bands (ev):

   -13.5856 -13.2525 -12.7201 -11.9886 -11.0623  -9.9615  -8.7305  -7.4364
    -6.1990  -5.2932  -4.9893  -4.9742  -4.9213  -4.6225  -4.1508  -3.5021
    -2.6696  -1.7859  -1.7575  -1.6604  -1.1037  -1.0064  -0.5032  -0.1527
     0.1055   0.7712   1.0063   1.0520   1.5261   1.7945   2.1505   2.2123
     2.2980   2.7706   3.4540   3.6169   3.6579   4.2266   5.0185   5.0298
     5.0975   5.7970   6.2862   6.4316   6.4723   7.0166   7.2848   7.3695
     7.4043   7.6276   9.5427   9.9931  12.2075  12.5572  12.8235  13.0549
    13.2418  13.3417  13.4127  13.6136

          k = 0.0000-0.1010 0.0000 ( 20851 PWs)   bands (ev):

   -13.3984 -13.0663 -12.5358 -11.8077 -10.8875  -9.7995  -8.6003  -7.4125
    -7.1023  -6.8643  -6.5402  -6.5274  -4.2007  -3.9063  -3.5603  -3.0210
    -2.8472  -2.6724  -1.8923  -0.8912  -0.8003  -0.3752  -0.1698   0.2432
     0.5023   0.9973   1.2266   1.3563   1.7070   1.9689   2.3751   2.4131
     2.4647   2.9143   3.5677   3.5857   3.9604   4.2936   4.7992   5.0260
     5.3325   5.6917   5.9783   6.2342   6.4227   6.6245   6.8620   6.9059
     6.9739   7.1938   9.7626  10.2076  12.3217  12.3644  12.9539  13.3372
    13.4534  13.7559  13.9204  14.0977

          k = 0.0000-0.2020 0.0000 ( 20798 PWs)   bands (ev):

   -12.8386 -12.5099 -11.9860 -11.2701 -10.3738  -9.3451  -9.0137  -8.7354
    -8.2805  -8.2756  -7.7202  -7.5588  -4.9590  -4.6113  -4.1673  -3.5560
    -2.8432  -2.2432  -1.4605  -0.8074  -0.4763   0.5419   0.8756   1.1332
     1.5371   1.8071   1.9821   2.2433   2.3441   2.4849   2.6851   2.8535
     3.2511   3.3316   3.8893   3.9766   4.0943   4.4691   4.9244   4.9903
     5.1082   5.3800   5.6090   5.6463   5.6484   5.6958   5.7023   6.0340
     6.3129   6.3840  10.4061  10.7862  12.2845  12.6588  13.0292  13.5120
    13.5898  13.7192  14.3446  14.5075

          k = 0.0000-0.3030 0.0000 ( 20770 PWs)   bands (ev):

   -11.9130 -11.5921 -11.0854 -10.6376 -10.4000 -10.3228  -9.8184  -9.5777
    -9.1348  -8.7162  -8.3512  -8.0758  -5.3925  -5.0059  -4.5896  -3.8236
    -3.2702  -2.3886  -1.7436  -0.8217  -0.1690   0.7697   1.2841   2.2303
     2.6492   2.6992   3.1146   3.2448   3.3164   3.5184   3.6115   3.7546
     3.8964   3.9687   4.2801   4.2994   4.3209   4.4513   4.5714   4.5731
     4.6944   4.7310   4.7860   4.9360   4.9447   5.0052   5.0467   5.1994
     5.2737   5.3064  11.4032  11.5984  12.4646  12.5402  12.8118  13.1430
    13.4214  13.8728  14.1671  14.4531

          k = 0.1111-0.0000 0.0000 ( 20803 PWs)   bands (ev):

   -13.3590 -13.0265 -12.4952 -11.7653 -10.8411  -9.7430  -8.5152  -7.2254
    -5.9936  -5.0932  -4.8533  -4.7867  -4.7744  -4.5574  -4.0902  -3.4479
    -2.6236  -1.6246  -1.5820  -1.5654  -0.9314  -0.8015  -0.4799  -0.0069
     0.3059   0.4957   0.7735   0.7803   1.1131   1.2096   1.2450   1.7903
     2.1393   2.3454   2.4982   3.2914   3.5808   3.6128   4.1069   4.8272
     4.8693   5.0195   5.5209   5.8700   5.9962   6.2850   6.3396   6.5625
     6.5828   7.2484   9.7751  10.1996  12.3581  12.9872  13.1339  13.2613
    13.5054  13.5664  13.8488  14.0845

          k = 0.1111-0.1010 0.0000 ( 20797 PWs)   bands (ev):

   -13.1722 -12.8408 -12.3114 -11.5851 -10.6672  -9.5821  -8.3866  -7.2051
    -6.9189  -6.6810  -6.3457  -6.3436  -4.0474  -3.7619  -3.4208  -2.8874
    -2.7774  -2.6509  -1.7732  -0.7889  -0.7508  -0.2814  -0.1604   0.2953
     0.5380   0.8099   1.0400   1.0613   1.2890   1.4643   1.4910   2.0365
     2.3591   2.4939   2.6966   3.4067   3.5003   3.9202   4.1241   4.5859
     4.7513   5.0078   5.3149   5.3167   5.3582   5.6076   6.0864   6.4484
     6.8925   7.1515  10.0102  10.4335  12.6325  13.1188  13.6746  13.7349
    13.8577  14.1373  14.2387  14.2811

          k = 0.1111-0.2020 0.0000 ( 20800 PWs)   bands (ev):

   -12.6140 -12.2861 -11.7636 -11.0498 -10.1562  -9.1313  -8.8089  -8.5319
    -8.0750  -8.0728  -7.5226  -7.3590  -4.7663  -4.4266  -3.9783  -3.3837
    -2.6735  -2.0866  -1.3709  -0.7432  -0.6131   0.3684   0.6565   0.9853
     1.0618   1.3910   1.7803   1.8198   2.0017   2.2547   2.4784   2.6051
     2.8091   2.9626   3.3765   3.7308   3.7888   3.8251   4.1082   4.1652
     4.2010   4.3121   4.3603   4.3683   4.7808   5.1757   5.6231   6.2024
     6.6519   6.6736  10.6693  11.0516  13.1174  13.1805  13.7987  14.1670
    14.2946  14.8649  14.8774  14.9953

          k = 0.1111-0.3030 0.0000 ( 20773 PWs)   bands (ev):

   -11.6916 -11.3716 -10.8667 -10.4219 -10.1840 -10.1085  -9.6065  -9.3653
    -8.9263  -8.5089  -8.1474  -7.8738  -5.1891  -4.8048  -4.3951  -3.6317
    -3.0886  -2.2095  -1.5838  -0.6653  -0.0714   0.7701   1.0393   1.5985
     1.7945   2.0261   2.2266   2.4550   2.6516   2.8285   3.0013   3.0022
     3.1346   3.3961   3.4935   3.5732   3.8097   3.8783   3.9028   3.9619
     4.1741   4.3651   4.4563   4.5085   4.6920   5.0391   5.2684   5.3988
     5.5832   5.6176  11.6875  11.9419  13.0832  13.1063  13.4094  13.8534
    14.0081  14.5668  15.0146  15.1942

          k = 0.2222-0.0000 0.0000 ( 20844 PWs)   bands (ev):

   -12.6823 -12.3518 -11.8239 -11.0990 -10.1812  -9.0912  -7.8733  -6.5959
    -5.3800  -4.9631  -4.6713  -4.4949  -4.2103  -4.1810  -4.1766  -3.5761
    -2.7624  -1.7766  -1.2061  -1.0097  -0.9887  -0.9172  -0.6478  -0.4673
    -0.4405  -0.2033   0.1292   0.3934   0.5930   0.8479   0.8912   1.3776
     1.6376   1.8086   1.9302   2.4025   2.4197   3.1073   3.3404   3.3573
     3.6399   3.9998   4.1326   4.1958   4.2884   4.6514   4.7517   4.9105
     5.9793   6.8174  10.4948  10.8366  12.3808  12.4623  12.9430  12.9880
    13.1778  13.7895  13.9832  14.0750

          k = 0.2222-0.1010 0.0000 ( 20776 PWs)   bands (ev):

   -12.4971 -12.1678 -11.6421 -10.9210 -10.0101  -8.9338  -7.7498  -6.5908
    -6.4382  -6.1973  -5.8452  -5.7837  -3.7502  -3.4755  -3.2618  -3.1331
    -3.0408  -2.6163  -1.5587  -1.1475  -1.0013  -0.6896  -0.4790  -0.2638
    -0.2319   0.4308   0.5087   0.6869   1.0568   1.1543   1.2268   1.6134
     1.8487   1.9870   2.2375   2.3622   2.7480   2.8593   3.0120   3.0145
     3.1503   3.2266   3.3757   3.7967   4.3044   4.7687   5.4129   5.5338
     6.0078   6.4333  10.7418  11.0909  13.0442  13.1166  13.2420  13.5209
    13.5940  13.8270  14.0687  14.2921

          k = 0.2222-0.2020 0.0000 ( 20759 PWs)   bands (ev):

   -11.9444 -11.6189 -11.1007 -10.3931  -9.5080  -8.4950  -8.2172  -7.9438
    -7.4946  -7.4557  -6.9467  -6.7687  -4.2423  -3.9247  -3.4815  -2.9234
    -2.3931  -2.2288  -2.0742  -1.6850  -0.9354  -0.5146  -0.2728  -0.2047
     0.2494   0.9061   0.9375   1.2101   1.4276   1.5178   1.8474   1.9148
     2.0164   2.2580   2.3317   2.4285   2.6091   2.6248   2.8495   2.9625
     3.0689   3.1909   3.3598   3.6601   4.3547   4.5410   5.3453   5.4388
     6.0732   6.2323  11.4099  11.7367  13.8931  14.1906  14.2755  14.2982
    14.5735  14.6971  14.8025  14.8711

          k = 0.2222-0.3030 0.0000 ( 20801 PWs)   bands (ev):

   -11.0331 -10.7162 -10.2167  -9.7849  -9.5422  -9.4756  -8.9808  -8.7346
    -8.3107  -7.8932  -7.5437  -7.2731  -4.6104  -4.2298  -3.8490  -3.0903
    -2.6031  -1.7330  -1.3301  -1.2434  -1.0738  -0.3445  -0.1369  -0.0267
     0.1383   0.2827   0.5764   0.8710   1.0279   1.2108   1.5185   1.6255
     1.7249   1.8875   2.1808   2.9382   3.2696   3.5249   3.6000   3.7520
     3.9751   4.0235   4.1724   4.1890   4.2445   4.2614   4.7831   5.2070
     5.4769   5.5338  12.3841  12.5988  13.8866  13.9024  14.7067  14.9672
    15.1272  15.1699  15.2278  15.5469

          k = 0.3333-0.0000 0.0000 ( 20766 PWs)   bands (ev):

   -11.5671 -11.2401 -10.7183 -10.0022  -9.0956  -8.0192  -6.8176  -6.2102
    -5.9086  -5.5599  -5.4300  -4.7728  -4.3676  -3.9352  -3.5039  -3.1861
    -3.1785  -2.9301  -1.7920  -1.5306  -1.2602  -0.8454  -0.5683  -0.3051
    -0.1609  -0.0685   0.2804   0.3288   0.6628   0.7298   0.9269   0.9941
     1.6036   1.6151   1.6224   1.8096   1.9576   2.0179   2.0883   2.2375
     2.4703   2.6663   2.6913   2.8822   2.9484   2.9593   3.0418   4.1112
     5.2407   6.0439  11.5974  11.7322  12.1005  12.2440  12.7666  12.8281
    13.6228  13.8367  14.3338  14.6650

          k = 0.3333-0.1010 0.0000 ( 20794 PWs)   bands (ev):

   -11.3856 -11.0600 -10.5408  -9.8290  -8.9301  -7.8687  -6.7049  -6.4184
    -6.1279  -5.7154  -5.5367  -5.1901  -4.1117  -4.0988  -3.9466  -3.8905
    -3.7657  -3.0400  -1.9563  -1.4023  -1.0910  -0.9515  -0.7876  -0.3720
    -0.1631  -0.1238   0.2767   0.6330   0.6979   0.7556   0.7744   1.0553
     1.1026   1.4831   1.6198   1.7010   1.9432   1.9860   2.0786   2.1701
     2.2889   2.7047   2.8443   2.8581   3.4731   3.8459   3.9637   4.1395
     5.0500   5.8522  11.8807  12.0875  12.7491  12.7514  13.1142  13.1195
    13.5136  13.7942  14.2149  14.4309

          k = 0.3333-0.2020 0.0000 ( 20813 PWs)   bands (ev):

   -10.8455 -10.5245 -10.0140  -9.3174  -8.4468  -7.4715  -7.3993  -7.1425
    -6.6963  -6.4620  -6.1153  -5.8466  -4.3288  -4.0620  -3.8555  -3.6499
    -3.5113  -3.4778  -2.5679  -1.7452  -1.4500  -1.4143  -1.0347  -0.8551
    -0.8213  -0.6744  -0.5866  -0.5370   0.2336   0.4218   0.7458   0.9005
     1.6263   1.8426   2.0959   2.2148   2.4729   2.4776   2.5978   2.7187
     2.8817   2.9438   3.0542   3.3420   3.4056   3.9767   4.5009   4.7493
     5.2152   5.3632  12.5085  12.7009  13.7765  13.7818  14.1769  14.2289
    14.4541  14.6275  14.7086  14.8721

          k = 0.3333-0.3030 0.0000 ( 20863 PWs)   bands (ev):

    -9.9628  -9.6515  -9.1616  -8.7810  -8.5022  -8.4793  -7.9963  -7.7138
    -7.3397  -6.8977  -6.5792  -6.2978  -3.8564  -3.6443  -3.4600  -3.3698
    -3.2637  -2.9514  -2.7093  -2.5081  -2.4320  -2.2485  -1.8810  -1.7238
    -1.1789  -1.0725  -0.4469  -0.4014  -0.2739  -0.1224   0.1503   0.7824
     1.4255   1.9412   2.1760   2.2250   2.5912   2.6331   2.9442   3.4208
     3.4976   3.5305   3.8201   3.9728   4.2336   4.3045   4.4192   4.5080
     5.0408   5.2250  13.2456  13.3325  14.7006  14.7434  14.8744  14.9796
    15.2333  15.5286  15.5982  15.7216

          k = 0.4444-0.0000 0.0000 ( 20772 PWs)   bands (ev):

   -10.0414  -9.7198  -9.2073  -8.5044  -8.1768  -7.8633  -7.6144  -7.3645
    -6.6805  -6.5574  -5.8132  -5.3777  -4.7808  -4.1437  -3.6252  -2.9758
    -2.4100  -2.1324  -1.8143  -1.7916  -1.2488  -0.5351  -0.4054  -0.3063
    -0.0838  -0.0438   0.0310   0.4450   0.8341   0.8856   1.0023   1.0434
     1.0997   1.1999   1.2747   1.3415   1.4045   1.5378   1.5390   1.6591
     1.6708   1.7047   1.7642   1.9043   2.1824   2.9610   3.1069   3.8012
     4.1764   4.9827  12.1845  12.1949  12.7202  12.7209  13.0563  13.0672
    13.3456  13.5903  13.6000  13.6891

          k = 0.4444-0.1010 0.0000 ( 20816 PWs)   bands (ev):

    -9.8694  -9.5496  -9.0404  -8.3428  -8.0441  -7.7335  -7.4614  -7.2400
    -6.5642  -6.4205  -5.7110  -5.2836  -4.6748  -4.1071  -3.5666  -3.2266
    -3.2087  -3.0204  -2.8951  -2.4364  -1.5397  -1.4993  -1.3276  -1.2263
    -0.4532  -0.2244   0.0435   0.3831   0.7605   0.9033   0.9618   0.9941
     1.0637   1.3474   1.5042   1.6347   1.7335   1.8230   1.9121   1.9265
     2.1929   2.2579   2.3560   2.4694   2.6357   3.0929   3.1849   3.8943
     4.1656   4.9636  12.7565  12.8167  12.8318  12.9319  12.9856  13.2798
    13.5021  13.8079  14.0313  14.1572

          k = 0.4444-0.2020 0.0000 ( 20837 PWs)   bands (ev):

    -9.3658  -9.0518  -8.5535  -7.8743  -7.7421  -7.4425  -7.0222  -6.9664
    -6.3187  -6.0412  -5.5162  -5.0910  -4.7797  -4.5229  -4.3771  -4.2042
    -3.9609  -3.8127  -3.4822  -3.2091  -2.9593  -2.7265  -2.5266  -2.3639
    -1.0959  -0.7835  -0.5566   0.1010   0.1052   0.3681   0.5390   0.7380
     1.2252   1.3965   1.5734   1.7005   1.9810   2.3267   2.6088   2.6745
     2.8449   3.0401   3.1069   3.2694   3.5461   3.7566   3.9594   4.1124
     4.1780   4.8818  13.4303  13.5036  13.7574  13.8218  14.0482  14.0852
    14.3351  14.3602  14.6354  14.8344

          k = 0.4444-0.3030 0.0000 ( 20868 PWs)   bands (ev):

    -8.5909  -8.2886  -7.8169  -7.8139  -7.5222  -7.1886  -7.0399  -6.4962
    -6.3151  -5.7446  -5.4634  -5.3565  -5.1025  -5.0488  -4.6335  -4.6085
    -4.3317  -4.1956  -3.9272  -3.8277  -3.8004  -3.5824  -3.3351  -3.1413
    -1.1992  -1.0715  -0.6865  -0.6783  -0.3094   0.1382   0.3841   0.6592
     0.8843   1.2492   1.3864   1.6206   2.1964   2.3573   2.6584   2.7003
     3.3136   3.4035   3.6633   3.8840   4.0671   4.2463   4.4693   4.4776
     4.7095   4.7830  13.9420  13.9530  14.5638  14.5755  15.2270  15.3359
    15.7151  15.8032  15.8658  15.8878

     the Fermi energy is     8.2423 ev

!    total energy              =    -447.15043659 Ry
     estimated scf accuracy    <          7.2E-09 Ry
     smearing contrib. (-TS)   =       0.00000000 Ry
     internal energy E=F+TS    =    -447.15043659 Ry

     The total energy is F=E-TS. E is the sum of the following terms:
     one-electron contribution =   -3109.45443362 Ry
     hartree contribution      =    1610.88819142 Ry
     xc contribution           =    -115.28826899 Ry
     ewald contribution        =    1314.61343952 Ry
     one-center paw contrib.   =    -147.90936491 Ry

     convergence has been achieved in   7 iterations

     negative rho (up, down):  3.859E-06 0.000E+00

     Forces acting on atoms (cartesian axes, Ry/au):

     atom    1 type  1   force =     0.00000000    0.00207439   -0.00233442
     atom    2 type  1   force =     0.00000000   -0.00207439   -0.00233442
     atom    3 type  1   force =     0.00000000   -0.00031135    0.00115867
     atom    4 type  1   force =     0.00000000    0.00031135    0.00115867
     atom    5 type  1   force =     0.00000000    0.00018918    0.00175225
     atom    6 type  1   force =     0.00000000   -0.00018918    0.00175225
     atom    7 type  1   force =     0.00000000   -0.00009712    0.00060852
     atom    8 type  1   force =     0.00000000    0.00009712    0.00060852
     atom    9 type  1   force =     0.00000000    0.00005005    0.00024006
     atom   10 type  1   force =     0.00000000   -0.00005005    0.00024006
     atom   11 type  1   force =    -0.00000000    0.00002894    0.00006652
     atom   12 type  1   force =     0.00000000   -0.00002894    0.00006652
     atom   13 type  1   force =     0.00000000    0.00002894   -0.00006652
     atom   14 type  1   force =     0.00000000   -0.00002894   -0.00006652
     atom   15 type  1   force =     0.00000000   -0.00005005   -0.00024006
     atom   16 type  1   force =     0.00000000    0.00005005   -0.00024006
     atom   17 type  1   force =     0.00000000   -0.00009712   -0.00060852
     atom   18 type  1   force =     0.00000000    0.00009712   -0.00060852
     atom   19 type  1   force =     0.00000000    0.00018918   -0.00175225
     atom   20 type  1   force =     0.00000000   -0.00018918   -0.00175225
     atom   21 type  1   force =     0.00000000   -0.00031135   -0.00115867
     atom   22 type  1   force =     0.00000000    0.00031135   -0.00115867
     atom   23 type  1   force =     0.00000000    0.00207439    0.00233442
     atom   24 type  1   force =     0.00000000   -0.00207439    0.00233442
     atom   25 type  2   force =     0.00000000   -0.01107542   -0.00181568
     atom   26 type  2   force =     0.00000000    0.01107542   -0.00181568
     atom   27 type  2   force =     0.00000000   -0.01107542    0.00181568
     atom   28 type  2   force =     0.00000000    0.01107542    0.00181568

     Total force =     0.023724     Total SCF correction =     0.000167
     Energy error            =      1.7E-03 Ry
     Gradient error          =      1.1E-02 Ry/Bohr

     number of scf cycles    =   3
     number of bfgs steps    =   2

     energy             old  =    -447.1486869962 Ry
     energy             new  =    -447.1504365872 Ry

     CASE: energy            _new < energy            _old

     new trust radius        =       0.0189406579 bohr
     new conv_thr            =       0.0000000100 Ry


ATOMIC_POSITIONS (angstrom)
C                0.0000000000       -0.9102522600       18.7760386134
C                1.2634728900       -1.7699784900       18.7760386134
C                1.2634728900       -2.6816711526       17.5329385576
C               -0.0000000000        0.0014404026       17.5329385576
C                0.0000000000       -0.8925758141       16.2635319732
C                1.2634728900       -1.7876549359       16.2635319732
C                1.2634728900       -2.6802929808       14.9986306628
C                0.0000000000        0.0000622308       14.9986306628
C                1.2634728900       -1.7867630372       13.7345634517
C                0.0000000000       -0.8934677128       13.7345634517
C               -0.0000000000        0.0000266060       12.4708807745
C                1.2634728900       -2.6802573560       12.4708807745
C                1.2634728900       -1.7867938940       11.2072835855
C                0.0000000000       -0.8934368560       11.2072835855
C                1.2634728900       -2.6802882128        9.9436009083
C                0.0000000000        0.0000574628        9.9436009083
C                0.0000000000       -0.8934724808        8.6795336972
C                1.2634728900       -1.7867582692        8.6795336972
C                1.2634728900       -2.6793963141        7.4146323868
C                0.0000000000       -0.0008344359        7.4146323868
C                0.0000000000       -0.8948506526        6.1452258124
C                1.2634728900       -1.7853800974        6.1452258124
C                1.2634728900       -2.6970727600        4.9021257466
C               -0.0000000000        0.0168420100        4.9021257466
H                0.0000000000       -0.2828483149       19.6780327028
H                1.2634728900       -2.3973824351       19.6780327028
H                1.2634728900       -2.0696688149        4.0001316572
H                0.0000000000       -0.6105619351        4.0001316572



     Writing config-only to output data dir /tmp/qe/slab.save/ :
     XML data file
     NEW-OLD atomic charge density approx. for the potential

     Check: negative core charge=   -0.000001

     negative rho (up, down):  4.057E-06 0.000E+00

     total cpu time spent up to now is      142.8 secs

     Self-consistent Calculation

     iteration #  1     ecut=    90.00 Ry     beta= 0.30
     Davidson diagonalization with overlap
     ethr =  1.00E-06,  avg # of iterations =  3.0

     negative rho (up, down):  4.011E-06 0.000E+00

     total cpu time spent up to now is      148.6 secs

     total energy              =    -447.15114085 Ry
     estimated scf accuracy    <       0.00012358 Ry

     iteration #  2     ecut=    90.00 Ry     beta= 0.30
     Davidson diagonalization with overlap
     ethr =  1.24E-07,  avg # of iterations =  1.7

     negative rho (up, down):  3.872E-06 0.000E+00

     total cpu time spent up to now is      152.6 secs

     total energy              =    -447.15113864 Ry
     estimated scf accuracy    <       0.00003592 Ry

     iteration #  3     ecut=    90.00 Ry     beta= 0.30
     Davidson diagonalization with overlap
     ethr =  3.59E-08,  avg # of iterations =  2.0

     negative rho (up, down):  3.819E-06 0.000E+00

     total cpu time spent up to now is      157.1 secs

     total energy              =    -447.15114313 Ry
     estimated scf accuracy    <       0.00000585 Ry

     iteration #  4     ecut=    90.00 Ry     beta= 0.30
     Davidson diagonalization with overlap
     ethr =  5.85E-09,  avg # of iterations =  2.0

     negative rho (up, down):  3.744E-06 0.000E+00

     total cpu time spent up to now is      161.4 secs

     total energy              =    -447.15114351 Ry
     estimated scf accuracy    <       0.00000196 Ry

     iteration #  5     ecut=    90.00 Ry     beta= 0.30
     Davidson diagonalization with overlap
     ethr =  1.96E-09,  avg # of iterations =  2.0

     negative rho (up, down):  3.741E-06 0.000E+00

     total cpu time spent up to now is      166.0 secs

     total energy              =    -447.15114366 Ry
     estimated scf accuracy    <       0.00000045 Ry

     iteration #  6     ecut=    90.00 Ry     beta= 0.30
     Davidson diagonalization with overlap
     ethr =  4.51E-10,  avg # of iterations =  2.0

     negative rho (up, down):  3.737E-06 0.000E+00

     total cpu time spent up to now is      170.7 secs

     total energy              =    -447.15114374 Ry
     estimated scf accuracy    <       0.00000004 Ry

     iteration #  7     ecut=    90.00 Ry     beta= 0.30
     Davidson diagonalization with overlap
     ethr =  4.07E-11,  avg # of iterations =  2.6

     negative rho (up, down):  3.738E-06 0.000E+00

     total cpu time spent up to now is      175.4 secs

     End of self-consistent calculation

          k = 0.0000-0.0000 0.0000 ( 20853 PWs)   bands (ev):

   -13.5772 -13.2469 -12.7202 -11.9904 -11.0616  -9.9581  -8.7261  -7.4334
    -6.1979  -5.2911  -4.9818  -4.9685  -4.9127  -4.6191  -4.1568  -3.5113
    -2.6761  -1.7907  -1.7592  -1.6641  -1.0973  -1.0078  -0.5069  -0.1442
     0.1045   0.7641   1.0178   1.0548   1.5343   1.8010   2.1376   2.2146
     2.3136   2.7726   3.4606   3.5986   3.6759   4.2389   5.0359   5.0446
     5.0778   5.8107   6.3013   6.4176   6.4842   7.0271   7.2956   7.3680
     7.4125   7.6340   9.5320   9.9864  12.2071  12.5654  12.8306  13.0626
    13.2456  13.3656  13.4215  13.6161

          k = 0.0000-0.1010 0.0000 ( 20851 PWs)   bands (ev):

   -13.3900 -13.0606 -12.5359 -11.8095 -10.8869  -9.7961  -8.5962  -7.4109
    -7.0937  -6.8605  -6.5380  -6.5259  -4.2053  -3.9098  -3.5630  -3.0224
    -2.8436  -2.6645  -1.8956  -0.9067  -0.8030  -0.3684  -0.1644   0.2441
     0.5024   0.9977   1.2325   1.3574   1.7151   1.9755   2.3776   2.4210
     2.4551   2.9166   3.5747   3.5984   3.9445   4.3061   4.8145   5.0406
     5.3172   5.7046   5.9924   6.2447   6.4160   6.6336   6.8698   6.9161
     6.9807   7.1979   9.7517  10.2007  12.3273  12.3634  12.9613  13.3412
    13.4585  13.7609  13.9277  14.1216

          k = 0.0000-0.2020 0.0000 ( 20798 PWs)   bands (ev):

   -12.8302 -12.5043 -11.9863 -11.2721 -10.3733  -9.3423  -9.0052  -8.7311
    -8.2767  -8.2764  -7.7198  -7.5558  -4.9577  -4.6079  -4.1713  -3.5556
    -2.8478  -2.2453  -1.4602  -0.8128  -0.4687   0.5324   0.8762   1.1393
     1.5407   1.8143   1.9823   2.2515   2.3393   2.4916   2.6857   2.8566
     3.2541   3.3349   3.8975   3.9685   4.1009   4.4825   4.9335   5.0043
     5.1019   5.3902   5.6159   5.6539   5.6574   5.7035   5.7089   6.0332
     6.3210   6.3886  10.3965  10.7819  12.2881  12.6624  13.0380  13.5129
    13.5958  13.7294  14.3446  14.5162

          k = 0.0000-0.3030 0.0000 ( 20770 PWs)   bands (ev):

   -11.9047 -11.5867 -11.0861 -10.6298 -10.4018 -10.3178  -9.8189  -9.5768
    -9.1369  -8.7132  -8.3494  -8.0713  -5.3891  -5.0021  -4.5889  -3.8278
    -3.2672  -2.3999  -1.7377  -0.8336  -0.1624   0.7627   1.2893   2.2293
     2.6537   2.6997   3.1226   3.2503   3.3235   3.5208   3.6162   3.7533
     3.8980   3.9754   4.2873   4.3024   4.3328   4.4574   4.5750   4.5787
     4.6987   4.7425   4.7916   4.9459   4.9511   5.0109   5.0492   5.2083
     5.2701   5.3075  11.4016  11.6051  12.4698  12.5462  12.8035  13.1458
    13.4226  13.8650  14.1693  14.4502

          k = 0.1111-0.0000 0.0000 ( 20803 PWs)   bands (ev):

   -13.3505 -13.0208 -12.4953 -11.7672 -10.8404  -9.7395  -8.5108  -7.2224
    -5.9924  -5.0911  -4.8447  -4.7793  -4.7687  -4.5539  -4.0962  -3.4571
    -2.6303  -1.6286  -1.5872  -1.5673  -0.9250  -0.8031  -0.4839   0.0015
     0.3047   0.5039   0.7714   0.7816   1.1244   1.2121   1.2478   1.7924
     2.1261   2.3604   2.5049   3.3031   3.5628   3.6293   4.1211   4.8421
     4.8824   5.0007   5.5323   5.8827   6.0031   6.2800   6.3463   6.5633
     6.5925   7.2478   9.7651  10.1941  12.3641  13.0046  13.1389  13.2651
    13.5301  13.5891  13.8599  14.0926

          k = 0.1111-0.1010 0.0000 ( 20797 PWs)   bands (ev):

   -13.1638 -12.8351 -12.3116 -11.5870 -10.6666  -9.5787  -8.3826  -7.2035
    -6.9104  -6.6771  -6.3437  -6.3422  -4.0523  -3.7659  -3.4232  -2.8895
    -2.7729  -2.6428  -1.7769  -0.8049  -0.7535  -0.2755  -0.1549   0.2964
     0.5394   0.8156   1.0461   1.0608   1.2947   1.4664   1.4938   2.0391
     2.3675   2.4833   2.7036   3.4192   3.5127   3.9049   4.1381   4.5983
     4.7631   5.0033   5.3224   5.3272   5.3633   5.6040   6.0997   6.4436
     6.9022   7.1554   9.9999  10.4275  12.6334  13.1231  13.6908  13.7416
    13.8812  14.1392  14.2726  14.2842

          k = 0.1111-0.2020 0.0000 ( 20800 PWs)   bands (ev):

   -12.6056 -12.2805 -11.7640 -11.0518 -10.1557  -9.1285  -8.8003  -8.5277
    -8.0758  -8.0690  -7.5222  -7.3561  -4.7653  -4.4234  -3.9825  -3.3835
    -2.6782  -2.0889  -1.3701  -0.7432  -0.6112   0.3627   0.6571   0.9863
     1.0660   1.3936   1.7864   1.8240   2.0035   2.2608   2.4800   2.6017
     2.8168   2.9647   3.3857   3.7333   3.7968   3.8363   4.1121   4.1584
     4.2110   4.3182   4.3652   4.3753   4.7915   5.1722   5.6336   6.2068
     6.6569   6.6794  10.6601  11.0473  13.1203  13.1842  13.8076  14.1845
    14.3001  14.8688  14.8796  15.0032

          k = 0.1111-0.3030 0.0000 ( 20773 PWs)   bands (ev):

   -11.6832 -11.3663 -10.8674 -10.4141 -10.1858 -10.1035  -9.6070  -9.3644
    -8.9285  -8.5058  -8.1455  -7.8692  -5.1859  -4.8009  -4.3947  -3.6359
    -3.0861  -2.2207  -1.5788  -0.6772  -0.0655   0.7699   1.0398   1.6023
     1.7970   2.0296   2.2307   2.4584   2.6556   2.8337   3.0004   3.0089
     3.1386   3.4016   3.4956   3.5878   3.8131   3.8798   3.9073   3.9727
     4.1770   4.3689   4.4642   4.5157   4.6946   5.0405   5.2747   5.3997
     5.5907   5.6219  11.6852  11.9479  13.0890  13.1031  13.4068  13.8595
    14.0013  14.5634  15.0066  15.1969

          k = 0.2222-0.0000 0.0000 ( 20844 PWs)   bands (ev):

   -12.6738 -12.3461 -11.8241 -11.1009 -10.1806  -9.0877  -7.8689  -6.5928
    -5.3787  -4.9544  -4.6675  -4.4926  -4.2156  -4.1736  -4.1708  -3.5847
    -2.7687  -1.7805  -1.1978  -1.0121  -0.9950  -0.9107  -0.6519  -0.4649
    -0.4342  -0.2059   0.1310   0.4016   0.5855   0.8541   0.8895   1.3882
     1.6489   1.8111   1.9170   2.4155   2.4330   3.1194   3.3224   3.3693
     3.6498   4.0081   4.1415   4.2034   4.2953   4.6598   4.7332   4.9191
     5.9673   6.8173  10.4882  10.8360  12.3923  12.4668  12.9483  13.0089
    13.1847  13.7887  13.9884  14.1020

          k = 0.2222-0.1010 0.0000 ( 20776 PWs)   bands (ev):

   -12.4887 -12.1622 -11.6424 -10.9230 -10.0095  -8.9304  -7.7457  -6.5894
    -6.4294  -6.1931  -5.8441  -5.7823  -3.7563  -3.4831  -3.2606  -3.1246
    -3.0350  -2.6182  -1.5641  -1.1476  -1.0074  -0.6850  -0.4714  -0.2668
    -0.2268   0.4297   0.5039   0.6966   1.0513   1.1582   1.2284   1.6251
     1.8566   1.9904   2.2465   2.3548   2.7582   2.8717   3.0182   3.0227
     3.1545   3.2319   3.3802   3.7890   4.3105   4.7656   5.4178   5.5335
     6.0080   6.4361  10.7344  11.0890  13.0568  13.1221  13.2481  13.5422
    13.5953  13.8267  14.0733  14.3208

          k = 0.2222-0.2020 0.0000 ( 20759 PWs)   bands (ev):

   -11.9360 -11.6134 -11.1011 -10.3952  -9.5076  -8.4922  -8.2086  -7.9395
    -7.4956  -7.4521  -6.9463  -6.7658  -4.2422  -3.9223  -3.4866  -2.9237
    -2.3970  -2.2202  -2.0685  -1.6887  -0.9407  -0.5148  -0.2743  -0.2062
     0.2555   0.9082   0.9364   1.2162   1.4357   1.5234   1.8524   1.9173
     2.0266   2.2578   2.3348   2.4386   2.6133   2.6317   2.8521   2.9576
     3.0711   3.1989   3.3649   3.6601   4.3497   4.5469   5.3450   5.4468
     6.0798   6.2369  11.4035  11.7361  13.9037  14.1933  14.2824  14.3052
    14.5809  14.7056  14.8247  14.8819

          k = 0.2222-0.3030 0.0000 ( 20801 PWs)   bands (ev):

   -11.0247 -10.7109 -10.2174  -9.7771  -9.5441  -9.4707  -8.9815  -8.7337
    -8.3130  -7.8901  -7.5419  -7.2685  -4.6078  -4.2258  -3.8501  -3.0943
    -2.6030  -1.7439  -1.3282  -1.2349  -1.0681  -0.3530  -0.1359  -0.0184
     0.1436   0.2854   0.5715   0.8780   1.0328   1.2111   1.5329   1.6204
     1.7281   1.8937   2.1871   2.9379   3.2642   3.5305   3.6079   3.7542
     3.9829   4.0294   4.1697   4.1953   4.2480   4.2657   4.7899   5.2101
     5.4837   5.5393  12.3864  12.6092  13.8784  13.9060  14.7057  14.9698
    15.1345  15.1735  15.2258  15.5477

          k = 0.3333-0.0000 0.0000 ( 20766 PWs)   bands (ev):

   -11.5587 -11.2345 -10.7187 -10.0042  -9.0951  -8.0158  -6.8132  -6.2017
    -5.9038  -5.5568  -5.4327  -4.7780  -4.3662  -3.9381  -3.5014  -3.1803
    -3.1712  -2.9302  -1.7916  -1.5222  -1.2546  -0.8454  -0.5701  -0.3060
    -0.1642  -0.0773   0.2870   0.3319   0.6593   0.7252   0.9347   1.0018
     1.6130   1.6167   1.6323   1.8065   1.9640   2.0249   2.0951   2.2471
     2.4700   2.6734   2.6934   2.8880   2.9540   2.9639   3.0304   4.0959
     5.2311   6.0445  11.6019  11.7445  12.1053  12.2490  12.7679  12.8376
    13.6259  13.8573  14.3501  14.6631

          k = 0.3333-0.1010 0.0000 ( 20794 PWs)   bands (ev):

   -11.3772 -11.0544 -10.5412  -9.8311  -8.9296  -7.8654  -6.7009  -6.4099
    -6.1231  -5.7195  -5.5321  -5.1931  -4.1044  -4.1004  -3.9504  -3.8830
    -3.7615  -3.0405  -1.9564  -1.4039  -1.0973  -0.9456  -0.7897  -0.3696
    -0.1556  -0.1162   0.2742   0.6407   0.7048   0.7612   0.7772   1.0458
     1.1025   1.4900   1.6303   1.7066   1.9394   1.9939   2.0816   2.1747
     2.2887   2.6951   2.8510   2.8603   3.4802   3.8425   3.9607   4.1474
     5.0410   5.8530  11.8829  12.0968  12.7557  12.7589  13.1232  13.1254
    13.5174  13.8119  14.2222  14.4519

          k = 0.3333-0.2020 0.0000 ( 20813 PWs)   bands (ev):

   -10.8371 -10.5190 -10.0145  -9.3196  -8.4465  -7.4682  -7.3914  -7.1380
    -6.6978  -6.4600  -6.1149  -5.8444  -4.3210  -4.0568  -3.8601  -3.6444
    -3.5162  -3.4734  -2.5689  -1.7488  -1.4449  -1.4152  -1.0264  -0.8588
    -0.8213  -0.6656  -0.5855  -0.5338   0.2452   0.4140   0.7562   0.8991
     1.6290   1.8316   2.1015   2.2203   2.4736   2.4783   2.5988   2.7275
     2.8888   2.9390   3.0532   3.3462   3.4129   3.9756   4.5035   4.7522
     5.2198   5.3667  12.5126  12.7118  13.7829  13.7898  14.1873  14.2381
    14.4740  14.6397  14.7226  14.8778

          k = 0.3333-0.3030 0.0000 ( 20863 PWs)   bands (ev):

    -9.9545  -9.6463  -9.1625  -8.7731  -8.5044  -8.4744  -7.9974  -7.7131
    -7.3423  -6.8948  -6.5775  -6.2932  -3.8567  -3.6366  -3.4563  -3.3635
    -3.2703  -2.9468  -2.7097  -2.5041  -2.4317  -2.2429  -1.8778  -1.7243
    -1.1818  -1.0688  -0.4362  -0.4125  -0.2684  -0.1175   0.1606   0.7709
     1.4234   1.9429   2.1846   2.2201   2.5958   2.6254   2.9532   3.4238
     3.5051   3.5229   3.8227   3.9774   4.2401   4.3112   4.4290   4.5075
     5.0486   5.2303  13.2643  13.3563  14.7068  14.7492  14.8821  14.9881
    15.2387  15.5354  15.6185  15.7245

          k = 0.4444-0.0000 0.0000 ( 20772 PWs)   bands (ev):

   -10.0329  -9.7143  -9.2079  -8.5068  -8.1684  -7.8580  -7.6142  -7.3657
    -6.6837  -6.5542  -5.8138  -5.3735  -4.7784  -4.1409  -3.6218  -2.9744
    -2.4081  -2.1295  -1.8084  -1.7844  -1.2482  -0.5266  -0.4024  -0.3010
    -0.0777  -0.0368   0.0302   0.4433   0.8296   0.8878   0.9907   1.0522
     1.1050   1.2073   1.2810   1.3468   1.4079   1.5451   1.5453   1.6613
     1.6714   1.7064   1.7594   1.8985   2.1729   2.9571   3.0960   3.8034
     4.1699   4.9843  12.1911  12.2060  12.7289  12.7400  13.0644  13.0751
    13.3597  13.5985  13.6140  13.6991

          k = 0.4444-0.1010 0.0000 ( 20816 PWs)   bands (ev):

    -9.8609  -9.5441  -9.0410  -8.3452  -8.0356  -7.7283  -7.4613  -7.2413
    -6.5675  -6.4174  -5.7118  -5.2796  -4.6725  -4.1047  -3.5635  -3.2187
    -3.2082  -3.0128  -2.8917  -2.4349  -1.5397  -1.4913  -1.3200  -1.2228
    -0.4568  -0.2237   0.0390   0.3886   0.7625   0.8972   0.9623   1.0018
     1.0711   1.3526   1.4970   1.6387   1.7342   1.8172   1.9183   1.9295
     2.1944   2.2580   2.3613   2.4763   2.6363   3.0895   3.1779   3.8969
     4.1593   4.9653  12.7665  12.8254  12.8411  12.9437  13.0024  13.2950
    13.5190  13.8168  14.0398  14.1615

          k = 0.4444-0.2020 0.0000 ( 20837 PWs)   bands (ev):

    -9.3573  -9.0465  -8.5543  -7.8769  -7.7337  -7.4376  -7.0222  -6.9684
    -6.3227  -6.0384  -5.5174  -5.0878  -4.7717  -4.5167  -4.3748  -4.2038
    -3.9553  -3.8104  -3.4806  -3.2011  -2.9525  -2.7280  -2.5204  -2.3620
    -1.0942  -0.7840  -0.5552   0.1035   0.1050   0.3629   0.5329   0.7419
     1.2302   1.3986   1.5651   1.6956   1.9874   2.3328   2.6147   2.6774
     2.8318   3.0459   3.1108   3.2762   3.5474   3.7651   3.9610   4.1133
     4.1805   4.8835  13.4518  13.5280  13.7716  13.8454  14.0582  14.1071
    14.3484  14.3672  14.6438  14.8530

          k = 0.4444-0.3030 0.0000 ( 20868 PWs)   bands (ev):

    -8.5825  -8.2835  -7.8153  -7.8085  -7.5175  -7.1918  -7.0419  -6.4987
    -6.3169  -5.7449  -5.4613  -5.3483  -5.0980  -5.0434  -4.6314  -4.6006
    -4.3263  -4.1962  -3.9262  -3.8231  -3.7980  -3.5810  -3.3313  -3.1380
    -1.1991  -1.0645  -0.6901  -0.6699  -0.3133   0.1278   0.3907   0.6665
     0.8726   1.2500   1.3799   1.6298   2.1848   2.3644   2.6694   2.6913
     3.3106   3.4125   3.6709   3.8797   4.0720   4.2548   4.4758   4.4825
     4.7121   4.7904  13.9811  13.9929  14.6080  14.6204  15.2359  15.3434
    15.7281  15.8068  15.8667  15.8946

     the Fermi energy is     8.2495 ev

!    total energy              =    -447.15114374 Ry
     estimated scf accuracy    <          7.8E-09 Ry
     smearing contrib. (-TS)   =       0.00000000 Ry
     internal energy E=F+TS    =    -447.15114374 Ry

     The total energy is F=E-TS. E is the sum of the following terms:
     one-electron contribution =   -3109.77736400 Ry
     hartree contribution      =    1611.06998041 Ry
     xc contribution           =    -115.30665706 Ry
     ewald contribution        =    1314.77265287 Ry
     one-center paw contrib.   =    -147.90975596 Ry

     convergence has been achieved in   7 iterations

     negative rho (up, down):  3.738E-06 0.000E+00

     Forces acting on atoms (cartesian axes, Ry/au):

     atom    1 type  1   force =     0.00000000   -0.00390552   -0.00493270
     atom    2 type  1   force =     0.00000000    0.00390552   -0.00493270
     atom    3 type  1   force =     0.00000000   -0.00066807   -0.00095631
     atom    4 type  1   force =     0.00000000    0.00066807   -0.00095631
     atom    5 type  1   force =     0.00000000   -0.00033285    0.00106575
     atom    6 type  1   force =     0.00000000    0.00033285    0.00106575
     atom    7 type  1   force =     0.00000000    0.00019799    0.00089258
     atom    8 type  1   force =     0.00000000   -0.00019799    0.00089258
     atom    9 type  1   force =     0.00000000   -0.00003526    0.00043915
     atom   10 type  1   force =     0.00000000    0.00003526    0.00043915
     atom   11 type  1   force =     0.00000000   -0.00001403    0.00011197
     atom   12 type  1   force =     0.00000000    0.00001403    0.00011197
     atom   13 type  1   force =     0.00000000   -0.00001403   -0.00011197
     atom   14 type  1   force =     0.00000000    0.00001403   -0.00011197
     atom   15 type  1   force =     0.00000000    0.00003526   -0.00043915
     atom   16 type  1   force =     0.00000000   -0.00003526   -0.00043915
     atom   17 type  1   force =     0.00000000    0.00019799   -0.00089258
     atom   18 type  1   force =     0.00000000   -0.00019799   -0.00089258
     atom   19 type  1   force =     0.00000000   -0.00033285   -0.00106575
     atom   20 type  1   force =     0.00000000    0.00033285   -0.00106575
     atom   21 type  1   force =     0.00000000   -0.00066807    0.00095631
     atom   22 type  1   force =     0.00000000    0.00066807    0.00095631
     atom   23 type  1   force =     0.00000000   -0.00390552    0.00493270
     atom   24 type  1   force =     0.00000000    0.00390552    0.00493270
     atom   25 type  2   force =     0.00000000   -0.00589974    0.00292697
     atom   26 type  2   force =     0.00000000    0.00589974    0.00292697
     atom   27 type  2   force =     0.00000000   -0.00589974   -0.00292697
     atom   28 type  2   force =     0.00000000    0.00589974   -0.00292697

     Total force =     0.018613     Total SCF correction =     0.000114
     Energy error            =      7.1E-04 Ry
     Gradient error          =      5.9E-03 Ry/Bohr

     number of scf cycles    =   4
     number of bfgs steps    =   3

     energy             old  =    -447.1504365872 Ry
     energy             new  =    -447.1511437436 Ry

     CASE: energy            _new < energy            _old

     new trust radius        =       0.0300596041 bohr
     new conv_thr            =       0.0000000059 Ry


ATOMIC_POSITIONS (angstrom)
C                0.0000000000       -0.9111504832       18.7697299016
C                1.2634728900       -1.7690802668       18.7697299016
C                1.2634728900       -2.6824805155       17.5339963394
C               -0.0000000000        0.0022497655       17.5339963394
C                0.0000000000       -0.8922615637       16.2656831733
C                1.2634728900       -1.7879691863       16.2656831733
C                1.2634728900       -2.6800677866       14.9999794235
C                0.0000000000       -0.0001629634       14.9999794235
C                1.2634728900       -1.7867898682       13.7351531035
C                0.0000000000       -0.8934408818       13.7351531035
C               -0.0000000000        0.0000194727       12.4710329905
C                1.2634728900       -2.6802502227       12.4710329905
C                1.2634728900       -1.7868010273       11.2071313695
C                0.0000000000       -0.8934297227       11.2071313695
C                1.2634728900       -2.6802613818        9.9430112565
C                0.0000000000        0.0000306318        9.9430112565
C                0.0000000000       -0.8932472866        8.6781849365
C                1.2634728900       -1.7869834634        8.6781849365
C                1.2634728900       -2.6790820637        7.4124811867
C                0.0000000000       -0.0011486863        7.4124811867
C                0.0000000000       -0.8956600155        6.1441680306
C                1.2634728900       -1.7845707345        6.1441680306
C                1.2634728900       -2.6979709832        4.9084344584
C               -0.0000000000        0.0177402332        4.9084344584
H                0.0000000000       -0.2987523596       19.6783318275
H                1.2634728900       -2.3814783904       19.6783318275
H                1.2634728900       -2.0855728596        3.9998325325
H                0.0000000000       -0.5946578904        3.9998325325



     Writing config-only to output data dir /tmp/qe/slab.save/ :
     XML data file
     NEW-OLD atomic charge density approx. for the potential

     Check: negative core charge=   -0.000001

     negative rho (up, down):  3.869E-06 0.000E+00

     total cpu time spent up to now is      176.8 secs

     Self-consistent Calculation

     iteration #  1     ecut=    90.00 Ry     beta= 0.30
     Davidson diagonalization with overlap
     ethr =  1.00E-06,  avg # of iterations =  6.5

     negative rho (up, down):  3.779E-06 0.000E+00

     total cpu time spent up to now is      183.8 secs

     total energy              =    -447.15178918 Ry
     estimated scf accuracy    <       0.00025196 Ry

     iteration #  2     ecut=    90.00 Ry     beta= 0.30
     Davidson diagonalization with overlap
     ethr =  2.52E-07,  avg # of iterations =  2.0

     negative rho (up, down):  3.574E-06 0.000E+00

     total cpu time spent up to now is      187.9 secs

     total energy              =    -447.15179796 Ry
     estimated scf accuracy    <       0.00006734 Ry

     iteration #  3     ecut=    90.00 Ry     beta= 0.30
     Davidson diagonalization with overlap
     ethr =  6.73E-08,  avg # of iterations =  2.0

     negative rho (up, down):  3.475E-06 0.000E+00

     total cpu time spent up to now is      192.4 secs

     total energy              =    -447.15180518 Ry
     estimated scf accuracy    <       0.00001387 Ry

     iteration #  4     ecut=    90.00 Ry     beta= 0.30
     Davidson diagonalization with overlap
     ethr =  1.39E-08,  avg # of iterations =  2.0

     negative rho (up, down):  3.404E-06 0.000E+00

     total cpu time spent up to now is      196.5 secs

     total energy              =    -447.15180640 Ry
     estimated scf accuracy    <       0.00000357 Ry

     iteration #  5     ecut=    90.00 Ry     beta= 0.30
     Davidson diagonalization with overlap
     ethr =  3.57E-09,  avg # of iterations =  2.0

     negative rho (up, down):  3.399E-06 0.000E+00

     total cpu time spent up to now is      200.7 secs

     total energy              =    -447.15180673 Ry
     estimated scf accuracy    <       0.00000035 Ry

     iteration #  6     ecut=    90.00 Ry     beta= 0.30
     Davidson diagonalization with overlap
     ethr =  3.48E-10,  avg # of iterations =  2.4

     negative rho (up, down):  3.402E-06 0.000E+00

     total cpu time spent up to now is      205.3 secs

     total energy              =    -447.15180679 Ry
     estimated scf accuracy    <       0.00000007 Ry

     iteration #  7     ecut=    90.00 Ry     beta= 0.30
     Davidson diagonalization with overlap
     ethr =  7.40E-11,  avg # of iterations =  2.1

     negative rho (up, down):  3.405E-06 0.000E+00

     total cpu time spent up to now is      209.5 secs

     total energy              =    -447.15180680 Ry
     estimated scf accuracy    <       0.00000001 Ry

     iteration #  8     ecut=    90.00 Ry     beta= 0.30
     Davidson diagonalization with overlap
     ethr =  1.36E-11,  avg # of iterations =  2.0

     negative rho (up, down):  3.412E-06 0.000E+00

     total cpu time spent up to now is      214.2 secs

     End of self-consistent calculation

          k = 0.0000-0.0000 0.0000 ( 20853 PWs)   bands (ev):

   -13.5710 -13.2502 -12.7317 -12.0002 -11.0662  -9.9583  -8.7246  -7.4332
    -6.2008  -5.2939  -4.9752  -4.9662  -4.9065  -4.6258  -4.1737  -3.5254
    -2.6830  -1.8038  -1.7675  -1.6647  -1.0916  -1.0125  -0.5050  -0.1335
     0.1023   0.7631   1.0353   1.0555   1.5403   1.7971   2.1290   2.2014
     2.3373   2.7607   3.4550   3.5830   3.7028   4.2387   5.0477   5.0596
     5.0606   5.8146   6.3175   6.4050   6.4866   7.0296   7.3054   7.3651
     7.4175   7.6396   9.5162   9.9707  12.1939  12.5714  12.8285  13.0700
    13.2363  13.3945  13.4276  13.6108

          k = 0.0000-0.1010 0.0000 ( 20851 PWs)   bands (ev):

   -13.3837 -13.0640 -12.5475 -11.8194 -10.8916  -9.7968  -8.5957  -7.4144
    -7.0865  -6.8659  -6.5388  -6.5317  -4.2138  -3.9140  -3.5710  -3.0208
    -2.8443  -2.6575  -1.8950  -0.9309  -0.8142  -0.3547  -0.1604   0.2450
     0.5015   1.0056   1.2373   1.3600   1.7211   1.9717   2.3646   2.4344
     2.4502   2.9050   3.5694   3.6186   3.9315   4.3060   4.8365   5.0433
     5.3042   5.7073   6.0085   6.2453   6.4090   6.6342   6.8739   6.9244
     6.9866   7.2010   9.7354  10.1849  12.3311  12.3516  12.9598  13.3337
    13.4593  13.7629  13.9253  14.1234

          k = 0.0000-0.2020 0.0000 ( 20798 PWs)   bands (ev):

   -12.8241 -12.5079 -11.9982 -11.2824 -10.3789  -9.3457  -8.9982  -8.7367
    -8.2870  -8.2773  -7.7238  -7.5565  -4.9556  -4.6033  -4.1756  -3.5531
    -2.8527  -2.2435  -1.4587  -0.8148  -0.4589   0.5171   0.8732   1.1518
     1.5408   1.8211   1.9781   2.2573   2.3381   2.4879   2.6875   2.8441
     3.2597   3.3241   3.8929   3.9629   4.1129   4.4823   4.9489   5.0049
     5.0953   5.3877   5.6098   5.6604   5.6700   5.7088   5.7102   6.0287
     6.3296   6.3890  10.3807  10.7681  12.2899  12.6583  13.0451  13.5048
    13.5851  13.7392  14.3278  14.5190

          k = 0.0000-0.3030 0.0000 ( 20770 PWs)   bands (ev):

   -11.8987 -11.5909 -11.0990 -10.6253 -10.4125 -10.3221  -9.8294  -9.5841
    -9.1434  -8.7176  -8.3487  -8.0712  -5.3814  -5.0021  -4.5780  -3.8407
    -3.2503  -2.4197  -1.7175  -0.8509  -0.1440   0.7525   1.3033   2.2257
     2.6569   2.7071   3.1282   3.2494   3.3198   3.5188   3.6043   3.7523
     3.8963   3.9658   4.2920   4.3035   4.3262   4.4565   4.5669   4.5776
     4.7003   4.7463   4.7860   4.9519   4.9541   5.0194   5.0446   5.2145
     5.2722   5.3134  11.3925  11.6028  12.4692  12.5509  12.7834  13.1450
    13.4170  13.8540  14.1648  14.4382

          k = 0.1111-0.0000 0.0000 ( 20803 PWs)   bands (ev):

   -13.3443 -13.0242 -12.5068 -11.7770 -10.8451  -9.7398  -8.5093  -7.2222
    -5.9953  -5.0938  -4.8385  -4.7727  -4.7664  -4.5606  -4.1131  -3.4712
    -2.6372  -1.6293  -1.6006  -1.5757  -0.9193  -0.8080  -0.4822   0.0120
     0.3023   0.5099   0.7701   0.7779   1.1415   1.1995   1.2485   1.7811
     2.1169   2.3831   2.4997   3.3027   3.5474   3.6538   4.1242   4.8617
     4.8863   4.9841   5.5346   5.8949   6.0029   6.2747   6.3499   6.5645
     6.6011   7.2458   9.7480  10.1772  12.3564  13.0210  13.1433  13.2680
    13.5667  13.6165  13.8758  14.0986

          k = 0.1111-0.1010 0.0000 ( 20797 PWs)   bands (ev):

   -13.1576 -12.8386 -12.3232 -11.5969 -10.6714  -9.5794  -8.3821  -7.2071
    -6.9030  -6.6825  -6.3480  -6.3447  -4.0611  -3.7707  -3.4309  -2.8883
    -2.7732  -2.6357  -1.7768  -0.8295  -0.7644  -0.2632  -0.1506   0.2976
     0.5395   0.8179   1.0422   1.0680   1.3020   1.4665   1.4823   2.0288
     2.3806   2.4768   2.6994   3.4205   3.5315   3.8919   4.1413   4.6147
     4.7652   4.9977   5.3265   5.3313   5.3635   5.6012   6.1114   6.4386
     6.9098   7.1585   9.9829  10.4108  12.6217  13.1265  13.7055  13.7471
    13.9131  14.1406  14.2788  14.3151

          k = 0.1111-0.2020 0.0000 ( 20800 PWs)   bands (ev):

   -12.5995 -12.2842 -11.7758 -11.0621 -10.1613  -9.1320  -8.7934  -8.5332
    -8.0865  -8.0697  -7.5262  -7.3567  -4.7634  -4.4187  -3.9872  -3.3808
    -2.6836  -2.0872  -1.3687  -0.7443  -0.6044   0.3472   0.6516   0.9936
     1.0687   1.3922   1.7893   1.8240   1.9994   2.2606   2.4758   2.5983
     2.8162   2.9637   3.3841   3.7365   3.8085   3.8380   4.1029   4.1454
     4.2163   4.3207   4.3675   4.3769   4.8071   5.1671   5.6462   6.2081
     6.6586   6.6847  10.6440  11.0328  13.1218  13.1785  13.8156  14.1968
    14.3027  14.8659  14.8737  15.0095

          k = 0.1111-0.3030 0.0000 ( 20773 PWs)   bands (ev):

   -11.6772 -11.3704 -10.8804 -10.4096 -10.1966 -10.1078  -9.6176  -9.3717
    -8.9350  -8.5103  -8.1449  -7.8692  -5.1783  -4.8008  -4.3842  -3.6485
    -3.0701  -2.2402  -1.5600  -0.6944  -0.0497   0.7666   1.0411   1.5983
     1.8017   2.0245   2.2345   2.4544   2.6521   2.8308   3.0007   3.0051
     3.1335   3.4031   3.4920   3.5877   3.8155   3.8765   3.9048   3.9781
     4.1726   4.3681   4.4683   4.5207   4.7027   5.0460   5.2787   5.3988
     5.5957   5.6239  11.6754  11.9444  13.0867  13.0912  13.3999  13.8628
    13.9887  14.5580  14.9883  15.1939

          k = 0.2222-0.0000 0.0000 ( 20844 PWs)   bands (ev):

   -12.6676 -12.3496 -11.8357 -11.1109 -10.1854  -9.0881  -7.8674  -6.5927
    -5.3816  -4.9482  -4.6738  -4.4952  -4.2319  -4.1684  -4.1671  -3.5984
    -2.7757  -1.7818  -1.1918  -1.0207  -1.0093  -0.9141  -0.6512  -0.4771
    -0.4286  -0.2116   0.1206   0.4116   0.5828   0.8499   0.8866   1.4040
     1.6502   1.8116   1.9065   2.4348   2.4376   3.1240   3.3059   3.3865
     3.6523   4.0098   4.1504   4.2074   4.3012   4.6641   4.7165   4.9259
     5.9568   6.8157  10.4711  10.8203  12.4034  12.4702  12.9502  13.0371
    13.1852  13.7875  13.9957  14.1518

          k = 0.2222-0.1010 0.0000 ( 20776 PWs)   bands (ev):

   -12.4825 -12.1657 -11.6541 -10.9330 -10.0144  -8.9311  -7.7453  -6.5939
    -6.4215  -6.1980  -5.8505  -5.7846  -3.7670  -3.4924  -3.2656  -3.1164
    -3.0343  -2.6173  -1.5694  -1.1530  -1.0259  -0.6821  -0.4648  -0.2642
    -0.2265   0.4170   0.4859   0.7046   1.0474   1.1569   1.2313   1.6275
     1.8678   1.9913   2.2501   2.3447   2.7642   2.8838   3.0196   3.0308
     3.1567   3.2306   3.3818   3.7822   4.3202   4.7612   5.4233   5.5311
     6.0082   6.4375  10.7174  11.0732  13.0649  13.1272  13.2510  13.5657
    13.5937  13.8298  14.0802  14.3616

          k = 0.2222-0.2020 0.0000 ( 20759 PWs)   bands (ev):

   -11.9298 -11.6170 -11.1131 -10.4057  -9.5133  -8.4958  -8.2016  -7.9449
    -7.5064  -7.4533  -6.9502  -6.7666  -4.2411  -3.9176  -3.4929  -2.9209
    -2.4052  -2.2122  -2.0699  -1.6882  -0.9587  -0.5247  -0.2694  -0.2089
     0.2549   0.9107   0.9293   1.2193   1.4426   1.5211   1.8442   1.9120
     2.0358   2.2549   2.3317   2.4416   2.6123   2.6360   2.8489   2.9572
     3.0705   3.2042   3.3710   3.6658   4.3476   4.5550   5.3451   5.4533
     6.0838   6.2407  11.3886  11.7234  13.9064  14.1963  14.2880  14.3104
    14.5884  14.7109  14.8512  14.8973

          k = 0.2222-0.3030 0.0000 ( 20801 PWs)   bands (ev):

   -11.0187 -10.7151 -10.2305  -9.7724  -9.5551  -9.4751  -8.9922  -8.7411
    -8.3197  -7.8946  -7.5412  -7.2683  -4.6007  -4.2254  -3.8412  -3.1061
    -2.5907  -1.7631  -1.3225  -1.2257  -1.0703  -0.3691  -0.1430  -0.0111
     0.1421   0.2814   0.5622   0.8747   1.0378   1.2032   1.5327   1.6139
     1.7298   1.8922   2.2005   2.9369   3.2623   3.5363   3.6148   3.7532
     3.9904   4.0247   4.1658   4.2017   4.2573   4.2657   4.8001   5.2092
     5.4906   5.5414  12.3803  12.6096  13.8589  13.8996  14.7024  14.9691
    15.1412  15.1701  15.2239  15.5524

          k = 0.3333-0.0000 0.0000 ( 20766 PWs)   bands (ev):

   -11.5524 -11.2381 -10.7305 -10.0144  -9.1001  -8.0164  -6.8120  -6.1955
    -5.9087  -5.5569  -5.4469  -4.7903  -4.3692  -3.9446  -3.5039  -3.1777
    -3.1647  -2.9319  -1.7916  -1.5161  -1.2587  -0.8583  -0.5724  -0.3162
    -0.1730  -0.0934   0.2929   0.3289   0.6526   0.7185   0.9429   1.0049
     1.6133   1.6193   1.6453   1.8023   1.9675   2.0312   2.0993   2.2602
     2.4676   2.6821   2.6934   2.8918   2.9552   2.9616   3.0182   4.0811
     5.2222   6.0436  11.5960  11.7468  12.1071  12.2523  12.7667  12.8544
    13.6344  13.8920  14.3567  14.6612

          k = 0.3333-0.1010 0.0000 ( 20794 PWs)   bands (ev):

   -11.3710 -11.0580 -10.5531  -9.8414  -8.9348  -7.8663  -6.7009  -6.4038
    -6.1273  -5.7344  -5.5309  -5.2017  -4.1115  -4.1000  -3.9580  -3.8782
    -3.7630  -3.0415  -1.9571  -1.4130  -1.1106  -0.9429  -0.7922  -0.3704
    -0.1517  -0.1094   0.2664   0.6462   0.7024   0.7625   0.7731   1.0258
     1.0992   1.4951   1.6400   1.7119   1.9319   1.9996   2.0856   2.1785
     2.2925   2.6852   2.8601   2.8614   3.4847   3.8373   3.9564   4.1537
     5.0331   5.8525  11.8740  12.0931  12.7604  12.7658  13.1264  13.1370
    13.5310  13.8315  14.2432  14.4674

          k = 0.3333-0.2020 0.0000 ( 20813 PWs)   bands (ev):

   -10.8310 -10.5228 -10.0267  -9.3303  -8.4524  -7.4718  -7.3846  -7.1429
    -6.7089  -6.4641  -6.1180  -5.8460  -4.3156  -4.0613  -3.8696  -3.6451
    -3.5228  -3.4706  -2.5689  -1.7630  -1.4460  -1.4112  -1.0196  -0.8746
    -0.8249  -0.6659  -0.5841  -0.5347   0.2521   0.4010   0.7657   0.8990
     1.6328   1.8248   2.1084   2.2175   2.4609   2.4834   2.6013   2.7334
     2.8961   2.9294   3.0573   3.3474   3.4256   3.9735   4.5080   4.7532
     5.2235   5.3690  12.5067  12.7111  13.7887  13.7954  14.1977  14.2469
    14.4934  14.6508  14.7414  14.8851

          k = 0.3333-0.3030 0.0000 ( 20863 PWs)   bands (ev):

    -9.9485  -9.6506  -9.1758  -8.7680  -8.5159  -8.4788  -8.0084  -7.7209
    -7.3493  -6.8997  -6.5768  -6.2930  -3.8531  -3.6316  -3.4555  -3.3667
    -3.2738  -2.9505  -2.7174  -2.5068  -2.4298  -2.2468  -1.8840  -1.7330
    -1.1845  -1.0680  -0.4339  -0.4319  -0.2662  -0.1163   0.1770   0.7574
     1.4284   1.9477   2.1919   2.2139   2.6022   2.6177   2.9642   3.4245
     3.5124   3.5147   3.8285   3.9793   4.2469   4.3129   4.4398   4.5074
     5.0541   5.2348  13.2731  13.3696  14.7062  14.7505  14.8908  14.9952
    15.2421  15.5424  15.6432  15.7255

          k = 0.4444-0.0000 0.0000 ( 20772 PWs)   bands (ev):

   -10.0267  -9.7181  -9.2202  -8.5174  -8.1622  -7.8621  -7.6195  -7.3786
    -6.6949  -6.5550  -5.8196  -5.3725  -4.7797  -4.1412  -3.6213  -2.9777
    -2.4091  -2.1320  -1.8056  -1.7780  -1.2522  -0.5203  -0.4048  -0.3051
    -0.0748  -0.0305   0.0179   0.4342   0.8191   0.8862   0.9706   1.0593
     1.1089   1.2083   1.2855   1.3453   1.4100   1.5475   1.5527   1.6646
     1.6763   1.7088   1.7543   1.8921   2.1609   2.9528   3.0838   3.8038
     4.1633   4.9841  12.1985  12.2170  12.7405  12.7610  13.0736  13.0821
    13.3640  13.6081  13.6331  13.7093

          k = 0.4444-0.1010 0.0000 ( 20816 PWs)   bands (ev):

    -9.8547  -9.5479  -9.0534  -8.3559  -8.0294  -7.7325  -7.4667  -7.2543
    -6.5788  -6.4186  -5.7176  -5.2794  -4.6740  -4.1069  -3.5637  -3.2172
    -3.2124  -3.0074  -2.8952  -2.4378  -1.5486  -1.4851  -1.3152  -1.2264
    -0.4647  -0.2258   0.0297   0.3936   0.7606   0.8890   0.9620   1.0088
     1.0777   1.3572   1.4854   1.6412   1.7275   1.8072   1.9218   1.9378
     2.1974   2.2562   2.3615   2.4833   2.6329   3.0848   3.1715   3.8977
     4.1532   4.9652  12.7751  12.8326  12.8532  12.9576  13.0202  13.3060
    13.5368  13.8263  14.0396  14.1632

          k = 0.4444-0.2020 0.0000 ( 20837 PWs)   bands (ev):

    -9.3512  -9.0505  -8.5669  -7.8880  -7.7275  -7.4422  -7.0280  -6.9817
    -6.3341  -6.0407  -5.5229  -5.0904  -4.7659  -4.5202  -4.3746  -4.2171
    -3.9512  -3.8144  -3.4845  -3.1956  -2.9525  -2.7418  -2.5159  -2.3664
    -1.0925  -0.7885  -0.5515   0.1003   0.1072   0.3557   0.5318   0.7478
     1.2320   1.3956   1.5590   1.6956   1.9932   2.3374   2.6190   2.6826
     2.8162   3.0498   3.1099   3.2843   3.5480   3.7729   3.9617   4.1127
     4.1836   4.8838  13.4713  13.5505  13.7824  13.8650  14.0687  14.1301
    14.3606  14.3722  14.6484  14.8727

          k = 0.4444-0.3030 0.0000 ( 20868 PWs)   bands (ev):

    -8.5765  -8.2881  -7.8290  -7.8026  -7.5219  -7.2055  -7.0529  -6.5104
    -6.3226  -5.7516  -5.4636  -5.3412  -5.1025  -5.0435  -4.6422  -4.5949
    -4.3300  -4.2091  -3.9321  -3.8219  -3.8021  -3.5853  -3.3307  -3.1396
    -1.1984  -1.0589  -0.6953  -0.6622  -0.3116   0.1183   0.3973   0.6729
     0.8628   1.2498   1.3750   1.6391   2.1746   2.3719   2.6815   2.6839
     3.3083   3.4211   3.6791   3.8768   4.0767   4.2620   4.4822   4.4862
     4.7138   4.7971  14.0131  14.0256  14.6562  14.6694  15.2441  15.3494
    15.7405  15.8099  15.8597  15.8981

     the Fermi energy is     8.2539 ev

!    total energy              =    -447.15180680 Ry
     estimated scf accuracy    <          1.2E-09 Ry
     smearing contrib. (-TS)   =       0.00000000 Ry
     internal energy E=F+TS    =    -447.15180680 Ry

     The total energy is F=E-TS. E is the sum of the following terms:
     one-electron contribution =   -3112.13018101 Ry
     hartree contribution      =    1612.25860967 Ry
     xc contribution           =    -115.32994082 Ry
     ewald contribution        =    1315.96007302 Ry
     one-center paw contrib.   =    -147.91036765 Ry

     convergence has been achieved in   8 iterations

     negative rho (up, down):  3.412E-06 0.000E+00

     Forces acting on atoms (cartesian axes, Ry/au):

     atom    1 type  1   force =     0.00000000   -0.00474846   -0.00353676
     atom    2 type  1   force =     0.00000000    0.00474846   -0.00353676
     atom    3 type  1   force =     0.00000000   -0.00069933   -0.00315610
     atom    4 type  1   force =     0.00000000    0.00069933   -0.00315610
     atom    5 type  1   force =     0.00000000   -0.00089465   -0.00061903
     atom    6 type  1   force =     0.00000000    0.00089465   -0.00061903
     atom    7 type  1   force =     0.00000000   -0.00009520    0.00064773
     atom    8 type  1   force =     0.00000000    0.00009520    0.00064773
     atom    9 type  1   force =     0.00000000   -0.00003136    0.00061749
     atom   10 type  1   force =     0.00000000    0.00003136    0.00061749
     atom   11 type  1   force =     0.00000000    0.00001633    0.00022155
     atom   12 type  1   force =     0.00000000   -0.00001633    0.00022155
     atom   13 type  1   force =     0.00000000    0.00001633   -0.00022155
     atom   14 type  1   force =     0.00000000   -0.00001633   -0.00022155
     atom   15 type  1   force =     0.00000000    0.00003136   -0.00061749
     atom   16 type  1   force =     0.00000000   -0.00003136   -0.00061749
     atom   17 type  1   force =     0.00000000   -0.00009520   -0.00064773
     atom   18 type  1   force =     0.00000000    0.00009520   -0.00064773
     atom   19 type  1   force =     0.00000000   -0.00089465    0.00061903
     atom   20 type  1   force =     0.00000000    0.00089465    0.00061903
     atom   21 type  1   force =     0.00000000   -0.00069933    0.00315610
     atom   22 type  1   force =     0.00000000    0.00069933    0.00315610
     atom   23 type  1   force =     0.00000000   -0.00474846    0.00353676
     atom   24 type  1   force =     0.00000000    0.00474846    0.00353676
     atom   25 type  2   force =     0.00000000   -0.00113374    0.00501371
     atom   26 type  2   force =    -0.00000000    0.00113374    0.00501371
     atom   27 type  2   force =     0.00000000   -0.00113374   -0.00501371
     atom   28 type  2   force =    -0.00000000    0.00113374   -0.00501371

     Total force =     0.017202     Total SCF correction =     0.000070
     Energy error            =      6.6E-04 Ry
     Gradient error          =      5.0E-03 Ry/Bohr

     number of scf cycles    =   5
     number of bfgs steps    =   4

     energy             old  =    -447.1511437436 Ry
     energy             new  =    -447.1518067983 Ry

     CASE: energy            _new < energy            _old

     new trust radius        =       0.0184336109 bohr
     new conv_thr            =       0.0000000050 Ry


ATOMIC_POSITIONS (angstrom)
C                0.0000000000       -0.9124284777       18.7653784703
C                1.2634728900       -1.7678022723       18.7653784703
C                1.2634728900       -2.6832141035       17.5326270976
C               -0.0000000000        0.0029833535       17.5326270976
C                0.0000000000       -0.8925309989       16.2661994302
C                1.2634728900       -1.7876997511       16.2661994302
C                1.2634728900       -2.6800760191       15.0010028438
C                0.0000000000       -0.0001547309       15.0010028438
C                1.2634728900       -1.7868175401       13.7358365504
C                0.0000000000       -0.8934132099       13.7358365504
C               -0.0000000000        0.0000337220       12.4712592725
C                1.2634728900       -2.6802644720       12.4712592725
C                1.2634728900       -1.7867867780       11.2069050875
C                0.0000000000       -0.8934439720       11.2069050875
C                1.2634728900       -2.6802337099        9.9423278096
C                0.0000000000        0.0000029599        9.9423278096
C                0.0000000000       -0.8932555191        8.6771615162
C                1.2634728900       -1.7869752309        8.6771615162
C                1.2634728900       -2.6793514989        7.4119649298
C                0.0000000000       -0.0008792511        7.4119649298
C                0.0000000000       -0.8963936035        6.1455372724
C                1.2634728900       -1.7838371465        6.1455372724
C                1.2634728900       -2.6992489777        4.9127858897
C               -0.0000000000        0.0190182277        4.9127858897
H                0.0000000000       -0.3082177877       19.6806895392
H                1.2634728900       -2.3720129623       19.6806895392
H                1.2634728900       -2.0950382877        3.9974748208
H               -0.0000000000       -0.5851924623        3.9974748208



     Writing config-only to output data dir /tmp/qe/slab.save/ :
     XML data file
     NEW-OLD atomic charge density approx. for the potential

     Check: negative core charge=   -0.000001

     negative rho (up, down):  3.351E-06 0.000E+00

     total cpu time spent up to now is      215.7 secs

     Self-consistent Calculation

     iteration #  1     ecut=    90.00 Ry     beta= 0.30
     Davidson diagonalization with overlap
     ethr =  1.00E-06,  avg # of iterations =  3.0

     Threshold (ethr) on eigenvalues was too large:
     Diagonalizing with lowered threshold

     Davidson diagonalization with overlap
     ethr =  6.86E-08,  avg # of iterations =  2.5

     negative rho (up, down):  3.299E-06 0.000E+00

     total cpu time spent up to now is      225.6 secs

     total energy              =    -447.15205009 Ry
     estimated scf accuracy    <       0.00007633 Ry

     iteration #  2     ecut=    90.00 Ry     beta= 0.30
     Davidson diagonalization with overlap
     ethr =  7.63E-08,  avg # of iterations =  1.6

     negative rho (up, down):  3.200E-06 0.000E+00

     total cpu time spent up to now is      229.6 secs

     total energy              =    -447.15205213 Ry
     estimated scf accuracy    <       0.00002468 Ry

     iteration #  3     ecut=    90.00 Ry     beta= 0.30
     Davidson diagonalization with overlap
     ethr =  2.47E-08,  avg # of iterations =  2.0

     negative rho (up, down):  3.158E-06 0.000E+00

     total cpu time spent up to now is      233.9 secs

     total energy              =    -447.15205449 Ry
     estimated scf accuracy    <       0.00000429 Ry

     iteration #  4     ecut=    90.00 Ry     beta= 0.30
     Davidson diagonalization with overlap
     ethr =  4.29E-09,  avg # of iterations =  2.0

     negative rho (up, down):  3.156E-06 0.000E+00

     total cpu time spent up to now is      238.0 secs

     total energy              =    -447.15205487 Ry
     estimated scf accuracy    <       0.00000050 Ry

     iteration #  5     ecut=    90.00 Ry     beta= 0.30
     Davidson diagonalization with overlap
     ethr =  5.00E-10,  avg # of iterations =  2.1

     negative rho (up, down):  3.164E-06 0.000E+00

     total cpu time spent up to now is      242.3 secs

     total energy              =    -447.15205492 Ry
     estimated scf accuracy    <       0.00000011 Ry

     iteration #  6     ecut=    90.00 Ry     beta= 0.30
     Davidson diagonalization with overlap
     ethr =  1.07E-10,  avg # of iterations =  2.4

     negative rho (up, down):  3.168E-06 0.000E+00

     total cpu time spent up to now is      246.7 secs

     total energy              =    -447.15205493 Ry
     estimated scf accuracy    <       0.00000001 Ry

     iteration #  7     ecut=    90.00 Ry     beta= 0.30
     Davidson diagonalization with overlap
     ethr =  1.44E-11,  avg # of iterations =  2.8

     negative rho (up, down):  3.175E-06 0.000E+00

     total cpu time spent up to now is      251.7 secs

     End of self-consistent calculation

          k = 0.0000-0.0000 0.0000 ( 20853 PWs)   bands (ev):

   -13.5720 -13.2599 -12.7408 -12.0054 -11.0691  -9.9602  -8.7264  -7.4361
    -6.2051  -5.2995  -4.9752  -4.9710  -4.9071  -4.6360  -4.1819  -3.5274
    -2.6811  -1.8121  -1.7722  -1.6603  -1.0889  -1.0168  -0.4994  -0.1276
     0.1013   0.7678   1.0454   1.0555   1.5379   1.7847   2.1310   2.1878
     2.3505   2.7500   3.4455   3.5819   3.7174   4.2295   5.0389   5.0581
     5.0722   5.8060   6.3237   6.4043   6.4783   7.0213   7.3073   7.3659
     7.4108   7.6369   9.5069   9.9587  12.1813  12.5694  12.8178  13.0731
    13.2248  13.4050  13.4296  13.6033

          k = 0.0000-0.1010 0.0000 ( 20851 PWs)   bands (ev):

   -13.3848 -13.0737 -12.5567 -11.8247 -10.8947  -9.7990  -8.5983  -7.4194
    -7.0868  -6.8759  -6.5412  -6.5377  -4.2156  -3.9111  -3.5769  -3.0153
    -2.8498  -2.6570  -1.8902  -0.9418  -0.8218  -0.3470  -0.1583   0.2467
     0.5016   1.0141   1.2381   1.3639   1.7187   1.9593   2.3510   2.4433
     2.4533   2.8943   3.5598   3.6312   3.9301   4.2967   4.8500   5.0342
     5.3022   5.6984   6.0177   6.2365   6.4071   6.6254   6.8669   6.9274
     6.9844   7.2010   9.7258  10.1729  12.3299  12.3403  12.9498  13.3233
    13.4560  13.7619  13.9186  14.1172

          k = 0.0000-0.2020 0.0000 ( 20798 PWs)   bands (ev):

   -12.8252 -12.5177 -12.0075 -11.2880 -10.3827  -9.3502  -8.9987  -8.7468
    -8.2951  -8.2815  -7.7264  -7.5600  -4.9521  -4.6001  -4.1747  -3.5504
    -2.8520  -2.2389  -1.4575  -0.8118  -0.4553   0.5087   0.8689   1.1588
     1.5407   1.8235   1.9767   2.2548   2.3401   2.4756   2.6917   2.8306
     3.2649   3.3133   3.8830   3.9635   4.1224   4.4724   4.9607   4.9947
     5.0938   5.3767   5.5972   5.6568   5.6797   5.7032   5.7067   6.0259
     6.3336   6.3860  10.3706  10.7564  12.2886  12.6507  13.0448  13.4943
    13.5701  13.7390  14.3111  14.5138

          k = 0.0000-0.3030 0.0000 ( 20770 PWs)   bands (ev):

   -11.8999 -11.6009 -11.1091 -10.6275 -10.4185 -10.3320  -9.8377  -9.5899
    -9.1462  -8.7241  -8.3486  -8.0751  -5.3744  -5.0052  -4.5652  -3.8509
    -3.2329  -2.4294  -1.7009  -0.8582  -0.1314   0.7470   1.3127   2.2214
     2.6561   2.7148   3.1254   3.2445   3.3073   3.5173   3.5905   3.7536
     3.8964   3.9541   4.2888   4.3049   4.3122   4.4472   4.5527   4.5789
     4.7008   4.7379   4.7758   4.9485   4.9503   5.0210   5.0440   5.2142
     5.2835   5.3223  11.3834  11.5949  12.4637  12.5505  12.7673  13.1407
    13.4094  13.8474  14.1573  14.4261

          k = 0.1111-0.0000 0.0000 ( 20803 PWs)   bands (ev):

   -13.3454 -13.0339 -12.5160 -11.7822 -10.8480  -9.7417  -8.5112  -7.2251
    -5.9996  -5.0994  -4.8390  -4.7728  -4.7711  -4.5706  -4.1211  -3.4731
    -2.6352  -1.6249  -1.6088  -1.5804  -0.9167  -0.8123  -0.4766   0.0177
     0.3013   0.5076   0.7653   0.7752   1.1513   1.1862   1.2485   1.7708
     2.1186   2.3958   2.4907   3.2938   3.5463   3.6673   4.1158   4.8722
     4.8783   4.9816   5.5270   5.8983   5.9954   6.2734   6.3435   6.5628
     6.6024   7.2470   9.7371  10.1635  12.3458  13.0249  13.1451  13.2696
    13.5835  13.6268  13.8867  14.0966

          k = 0.1111-0.1010 0.0000 ( 20797 PWs)   bands (ev):

   -13.1587 -12.8483 -12.3324 -11.6022 -10.6745  -9.5816  -8.3847  -7.2122
    -6.9033  -6.6924  -6.3540  -6.3472  -4.0629  -3.7677  -3.4368  -2.8825
    -2.7790  -2.6352  -1.7722  -0.8404  -0.7717  -0.2563  -0.1482   0.2995
     0.5390   0.8141   1.0305   1.0760   1.3060   1.4665   1.4700   2.0191
     2.3889   2.4790   2.6912   3.4125   3.5435   3.8898   4.1333   4.6247
     4.7566   4.9960   5.3230   5.3254   5.3578   5.6006   6.1137   6.4366
     6.9110   7.1575   9.9722  10.3975  12.6100  13.1276  13.7090  13.7486
    13.9262  14.1426  14.2705  14.3324

          k = 0.1111-0.2020 0.0000 ( 20800 PWs)   bands (ev):

   -12.6006 -12.2940 -11.7852 -11.0677 -10.1652  -9.1365  -8.7938  -8.5433
    -8.0946  -8.0740  -7.5287  -7.3602  -4.7599  -4.4153  -3.9865  -3.3778
    -2.6834  -2.0826  -1.3683  -0.7445  -0.5995   0.3355   0.6456   0.9989
     1.0696   1.3914   1.7851   1.8203   1.9959   2.2549   2.4714   2.5984
     2.8114   2.9635   3.3769   3.7371   3.8153   3.8326   4.0929   4.1367
     4.2103   4.3184   4.3665   4.3716   4.8173   5.1645   5.6539   6.2065
     6.6552   6.6853  10.6334  11.0202  13.1218  13.1702  13.8160  14.1952
    14.3007  14.8593  14.8640  15.0103

          k = 0.1111-0.3030 0.0000 ( 20773 PWs)   bands (ev):

   -11.6785 -11.3805 -10.8904 -10.4118 -10.2025 -10.1177  -9.6258  -9.3776
    -8.9378  -8.5167  -8.1447  -7.8730  -5.1713  -4.8037  -4.3715  -3.6585
    -3.0529  -2.2497  -1.5441  -0.7016  -0.0392   0.7635   1.0404   1.5893
     1.8031   2.0188   2.2341   2.4499   2.6458   2.8219   2.9976   3.0022
     3.1272   3.4002   3.4869   3.5780   3.8143   3.8727   3.8977   3.9756
     4.1668   4.3657   4.4668   4.5214   4.7119   5.0542   5.2751   5.4006
     5.5931   5.6249  11.6661  11.9357  13.0788  13.0795  13.3952  13.8611
    13.9803  14.5543  14.9747  15.1875

          k = 0.2222-0.0000 0.0000 ( 20844 PWs)   bands (ev):

   -12.6687 -12.3593 -11.8450 -11.1161 -10.1884  -9.0901  -7.8694  -6.5958
    -5.3861  -4.9486  -4.6837  -4.5009  -4.2399  -4.1732  -4.1672  -3.6006
    -2.7742  -1.7781  -1.1939  -1.0252  -1.0174  -0.9259  -0.6465  -0.4897
    -0.4262  -0.2159   0.1114   0.4167   0.5859   0.8423   0.8856   1.4129
     1.6435   1.8116   1.9068   2.4317   2.4458   3.1179   3.3036   3.3968
     3.6464   4.0032   4.1553   4.2013   4.2993   4.6620   4.7138   4.9260
     5.9568   6.8170  10.4585  10.8053  12.4072  12.4711  12.9506  13.0504
    13.1819  13.7895  13.9995  14.1779

          k = 0.2222-0.1010 0.0000 ( 20776 PWs)   bands (ev):

   -12.4836 -12.1754 -11.6634 -10.9384 -10.0176  -8.9335  -7.7481  -6.5995
    -6.4214  -6.2076  -5.8565  -5.7876  -3.7695  -3.4907  -3.2724  -3.1149
    -3.0403  -2.6128  -1.5697  -1.1567  -1.0373  -0.6846  -0.4650  -0.2589
    -0.2286   0.4041   0.4724   0.7064   1.0479   1.1544   1.2336   1.6224
     1.8743   1.9908   2.2477   2.3402   2.7632   2.8856   3.0131   3.0304
     3.1597   3.2261   3.3795   3.7810   4.3269   4.7590   5.4262   5.5269
     6.0079   6.4394  10.7050  11.0585  13.0655  13.1286  13.2503  13.5735
    13.5922  13.8356  14.0854  14.3784

          k = 0.2222-0.2020 0.0000 ( 20759 PWs)   bands (ev):

   -11.9309 -11.6269 -11.1225 -10.4113  -9.5172  -8.5005  -8.2020  -7.9549
    -7.5145  -7.4579  -6.9526  -6.7701  -4.2377  -3.9134  -3.4933  -2.9172
    -2.4093  -2.2113  -2.0782  -1.6836  -0.9708  -0.5313  -0.2634  -0.2116
     0.2518   0.9111   0.9226   1.2191   1.4419   1.5121   1.8329   1.9044
     2.0343   2.2525   2.3277   2.4363   2.6096   2.6354   2.8454   2.9607
     3.0683   3.2040   3.3758   3.6735   4.3503   4.5599   5.3469   5.4548
     6.0819   6.2401  11.3771  11.7102  13.9022  14.1995  14.2883  14.3107
    14.5912  14.7101  14.8626  14.9023

          k = 0.2222-0.3030 0.0000 ( 20801 PWs)   bands (ev):

   -11.0200 -10.7253 -10.2406  -9.7746  -9.5611  -9.4850  -9.0005  -8.7470
    -8.3225  -7.9011  -7.5411  -7.2722  -4.5936  -4.2279  -3.8290  -3.1154
    -2.5756  -1.7726  -1.3186  -1.2230  -1.0794  -0.3777  -0.1496  -0.0112
     0.1339   0.2777   0.5558   0.8679   1.0397   1.1971   1.5231   1.6099
     1.7286   1.8851   2.2096   2.9352   3.2657   3.5387   3.6168   3.7510
     3.9914   4.0158   4.1648   4.2030   4.2642   4.2670   4.8080   5.2053
     5.4928   5.5376  12.3718  12.6020  13.8429  13.8890  14.7018  14.9655
    15.1431  15.1644  15.2240  15.5585

          k = 0.3333-0.0000 0.0000 ( 20766 PWs)   bands (ev):

   -11.5535 -11.2479 -10.7399 -10.0198  -9.1032  -8.0185  -6.8141  -6.1963
    -5.9187  -5.5602  -5.4559  -4.7945  -4.3739  -3.9460  -3.5098  -3.1827
    -3.1650  -2.9319  -1.7915  -1.5177  -1.2697  -0.8689  -0.5742  -0.3222
    -0.1772  -0.1013   0.2949   0.3254   0.6483   0.7149   0.9462   1.0032
     1.6069   1.6188   1.6520   1.8015   1.9622   2.0301   2.0990   2.2679
     2.4664   2.6882   2.6934   2.8938   2.9523   2.9556   3.0150   4.0775
     5.2219   6.0446  11.5874  11.7414  12.1062  12.2511  12.7658  12.8637
    13.6411  13.9117  14.3534  14.6623

          k = 0.3333-0.1010 0.0000 ( 20794 PWs)   bands (ev):

   -11.3721 -11.0679 -10.5625  -9.8469  -8.9381  -7.8688  -6.7040  -6.4047
    -6.1367  -5.7432  -5.5341  -5.2053  -4.1207  -4.1030  -3.9594  -3.8820
    -3.7679  -3.0404  -1.9573  -1.4186  -1.1172  -0.9437  -0.7932  -0.3753
    -0.1520  -0.1094   0.2604   0.6433   0.6966   0.7563   0.7674   1.0142
     1.0963   1.4954   1.6411   1.7139   1.9284   1.9993   2.0884   2.1808
     2.3008   2.6835   2.8623   2.8662   3.4847   3.8359   3.9515   4.1530
     5.0332   5.8536  11.8636  12.0834  12.7606  12.7668  13.1275  13.1402
    13.5429  13.8383  14.2597  14.4694

          k = 0.3333-0.2020 0.0000 ( 20813 PWs)   bands (ev):

   -10.8321 -10.5327 -10.0362  -9.3360  -8.4563  -7.4770  -7.3845  -7.1526
    -6.7166  -6.4697  -6.1196  -5.8494  -4.3178  -4.0723  -3.8728  -3.6498
    -3.5236  -3.4699  -2.5671  -1.7731  -1.4490  -1.4058  -1.0209  -0.8858
    -0.8319  -0.6714  -0.5841  -0.5380   0.2505   0.3935   0.7679   0.9023
     1.6339   1.8268   2.1122   2.2118   2.4520   2.4840   2.6042   2.7308
     2.8987   2.9251   3.0634   3.3476   3.4344   3.9719   4.5119   4.7499
     5.2226   5.3707  12.4976  12.7025  13.7897  13.7958  14.2007  14.2497
    14.4987  14.6519  14.7515  14.8927

          k = 0.3333-0.3030 0.0000 ( 20863 PWs)   bands (ev):

    -9.9497  -9.6608  -9.1858  -8.7699  -8.5221  -8.4887  -8.0165  -7.7268
    -7.3519  -6.9062  -6.5765  -6.2968  -3.8471  -3.6338  -3.4572  -3.3775
    -3.2693  -2.9573  -2.7234  -2.5120  -2.4292  -2.2578  -1.8919  -1.7397
    -1.1838  -1.0691  -0.4415  -0.4389  -0.2673  -0.1207   0.1885   0.7536
     1.4347   1.9521   2.1935   2.2111   2.6063   2.6159   2.9697   3.4236
     3.5131   3.5152   3.8326   3.9774   4.2490   4.3092   4.4437   4.5081
     5.0530   5.2341  13.2697  13.3674  14.6985  14.7437  14.8945  14.9963
    15.2450  15.5453  15.6546  15.7260

          k = 0.4444-0.0000 0.0000 ( 20772 PWs)   bands (ev):

   -10.0278  -9.7280  -9.2297  -8.5228  -8.1632  -7.8722  -7.6227  -7.3881
    -6.7001  -6.5572  -5.8225  -5.3748  -4.7815  -4.1447  -3.6232  -2.9827
    -2.4125  -2.1381  -1.8108  -1.7785  -1.2574  -0.5215  -0.4113  -0.3152
    -0.0801  -0.0313   0.0088   0.4300   0.8136   0.8849   0.9614   1.0588
     1.1081   1.2015   1.2862   1.3380   1.4142   1.5457   1.5556   1.6688
     1.6871   1.7146   1.7552   1.8894   2.1567   2.9522   3.0795   3.8042
     4.1628   4.9848  12.2007  12.2204  12.7456  12.7681  13.0766  13.0829
    13.3589  13.6104  13.6422  13.7117

          k = 0.4444-0.1010 0.0000 ( 20816 PWs)   bands (ev):

    -9.8558  -9.5579  -9.0628  -8.3614  -8.0304  -7.7425  -7.4700  -7.2637
    -6.5840  -6.4210  -5.7204  -5.2822  -4.6759  -4.1118  -3.5661  -3.2269
    -3.2141  -3.0108  -2.9015  -2.4424  -1.5578  -1.4869  -1.3192  -1.2327
    -0.4674  -0.2253   0.0236   0.3962   0.7549   0.8874   0.9638   1.0089
     1.0806   1.3590   1.4785   1.6443   1.7217   1.8058   1.9200   1.9464
     2.1979   2.2533   2.3595   2.4846   2.6289   3.0835   3.1695   3.8983
     4.1529   4.9659  12.7771  12.8330  12.8582  12.9630  13.0272  13.3070
    13.5424  13.8290  14.0342  14.1609

          k = 0.4444-0.2020 0.0000 ( 20837 PWs)   bands (ev):

    -9.3523  -9.0604  -8.5764  -7.8935  -7.7284  -7.4521  -7.0316  -6.9907
    -6.3387  -6.0443  -5.5252  -5.0952  -4.7679  -4.5307  -4.3761  -4.2293
    -3.9532  -3.8194  -3.4889  -3.1975  -2.9611  -2.7528  -2.5179  -2.3712
    -1.0901  -0.7923  -0.5466   0.0951   0.1119   0.3537   0.5377   0.7524
     1.2301   1.3925   1.5606   1.6990   1.9957   2.3392   2.6209   2.6850
     2.8108   3.0478   3.1062   3.2851   3.5486   3.7720   3.9611   4.1121
     4.1851   4.8847  13.4774  13.5581  13.7843  13.8695  14.0710  14.1388
    14.3623  14.3725  14.6450  14.8800

          k = 0.4444-0.3030 0.0000 ( 20868 PWs)   bands (ev):

    -8.5776  -8.2982  -7.8387  -7.8035  -7.5314  -7.2128  -7.0598  -6.5164
    -6.3247  -5.7565  -5.4664  -5.3420  -5.1115  -5.0494  -4.6536  -4.5969
    -4.3403  -4.2191  -3.9381  -3.8243  -3.8080  -3.5906  -3.3323  -3.1440
    -1.1970  -1.0580  -0.6971  -0.6597  -0.3043   0.1182   0.3999   0.6744
     0.8633   1.2513   1.3754   1.6428   2.1727   2.3751   2.6833   2.6868
     3.3078   3.4230   3.6822   3.8779   4.0754   4.2609   4.4821   4.4875
     4.7151   4.7965  14.0197  14.0326  14.6737  14.6875  15.2451  15.3493
    15.7429  15.8099  15.8504  15.8950

     the Fermi energy is     8.2513 ev

!    total energy              =    -447.15205493 Ry
     estimated scf accuracy    <          2.6E-09 Ry
     smearing contrib. (-TS)   =       0.00000000 Ry
     internal energy E=F+TS    =    -447.15205493 Ry

     The total energy is F=E-TS. E is the sum of the following terms:
     one-electron contribution =   -3114.84718779 Ry
     hartree contribution      =    1613.61388158 Ry
     xc contribution           =    -115.33875127 Ry
     ewald contribution        =    1317.33066541 Ry
     one-center paw contrib.   =    -147.91066287 Ry

     convergence has been achieved in   7 iterations

     negative rho (up, down):  3.175E-06 0.000E+00

     Forces acting on atoms (cartesian axes, Ry/au):

     atom    1 type  1   force =     0.00000000   -0.00165196   -0.00092893
     atom    2 type  1   force =     0.00000000    0.00165196   -0.00092893
     atom    3 type  1   force =     0.00000000    0.00007760   -0.00251239
     atom    4 type  1   force =    -0.00000000   -0.00007760   -0.00251239
     atom    5 type  1   force =     0.00000000   -0.00036671   -0.00160111
     atom    6 type  1   force =     0.00000000    0.00036671   -0.00160111
     atom    7 type  1   force =    -0.00000000    0.00004924   -0.00008696
     atom    8 type  1   force =     0.00000000   -0.00004924   -0.00008696
     atom    9 type  1   force =    -0.00000000   -0.00009754    0.00039633
     atom   10 type  1   force =     0.00000000    0.00009754    0.00039633
     atom   11 type  1   force =     0.00000000   -0.00009633    0.00018648
     atom   12 type  1   force =     0.00000000    0.00009633    0.00018648
     atom   13 type  1   force =     0.00000000   -0.00009633   -0.00018648
     atom   14 type  1   force =     0.00000000    0.00009633   -0.00018648
     atom   15 type  1   force =     0.00000000    0.00009754   -0.00039633
     atom   16 type  1   force =    -0.00000000   -0.00009754   -0.00039633
     atom   17 type  1   force =     0.00000000    0.00004924    0.00008696
     atom   18 type  1   force =    -0.00000000   -0.00004924    0.00008696
     atom   19 type  1   force =     0.00000000   -0.00036671    0.00160111
     atom   20 type  1   force =     0.00000000    0.00036671    0.00160111
     atom   21 type  1   force =    -0.00000000    0.00007760    0.00251239
     atom   22 type  1   force =     0.00000000   -0.00007760    0.00251239
     atom   23 type  1   force =     0.00000000   -0.00165196    0.00092893
     atom   24 type  1   force =     0.00000000    0.00165196    0.00092893
     atom   25 type  2   force =     0.00000000    0.00012186    0.00329024
     atom   26 type  2   force =     0.00000000   -0.00012186    0.00329024
     atom   27 type  2   force =    -0.00000000    0.00012186   -0.00329024
     atom   28 type  2   force =     0.00000000   -0.00012186   -0.00329024

     Total force =     0.009730     Total SCF correction =     0.000132
     Energy error            =      2.5E-04 Ry
     Gradient error          =      3.3E-03 Ry/Bohr

     number of scf cycles    =   6
     number of bfgs steps    =   5

     energy             old  =    -447.1518067983 Ry
     energy             new  =    -447.1520549279 Ry

     CASE: energy            _new < energy            _old

     new trust radius        =       0.0084136253 bohr
     new conv_thr            =       0.0000000025 Ry


ATOMIC_POSITIONS (angstrom)
C                0.0000000000       -0.9129293775       18.7636988159
C                1.2634728900       -1.7673013725       18.7636988159
C                1.2634728900       -2.6833080148       17.5306678993
C               -0.0000000000        0.0030772648       17.5306678993
C                0.0000000000       -0.8927504799       16.2652937512
C                1.2634728900       -1.7874802701       16.2652937512
C                1.2634728900       -2.6800323618       15.0012346179
C                0.0000000000       -0.0001983882       15.0012346179
C                1.2634728900       -1.7868968846       13.7363105777
C                0.0000000000       -0.8933338654       13.7363105777
C               -0.0000000000       -0.0000364289       12.4714567129
C                1.2634728900       -2.6801943211       12.4714567129
C                1.2634728900       -1.7868569289       11.2067076471
C                0.0000000000       -0.8933738211       11.2067076471
C                1.2634728900       -2.6801543654        9.9418537823
C               -0.0000000000       -0.0000763846        9.9418537823
C                0.0000000000       -0.8932118618        8.6769297421
C                1.2634728900       -1.7870188882        8.6769297421
C                1.2634728900       -2.6795709799        7.4128706088
C                0.0000000000       -0.0006597701        7.4128706088
C               -0.0000000000       -0.8964875148        6.1474964707
C                1.2634728900       -1.7837432352        6.1474964707
C                1.2634728900       -2.6997498775        4.9144655441
C               -0.0000000000        0.0195191275        4.9144655441
H                0.0000000000       -0.3119405508       19.6831316694
H                1.2634728900       -2.3682901992       19.6831316694
H                1.2634728900       -2.0987610508        3.9950326906
H               -0.0000000000       -0.5814696992        3.9950326906



     Writing config-only to output data dir /tmp/qe/slab.save/ :
     XML data file
     NEW-OLD atomic charge density approx. for the potential

     Check: negative core charge=   -0.000001

     negative rho (up, down):  3.058E-06 0.000E+00

     total cpu time spent up to now is      253.1 secs

     Self-consistent Calculation

     iteration #  1     ecut=    90.00 Ry     beta= 0.30
     Davidson diagonalization with overlap
     ethr =  1.00E-06,  avg # of iterations =  2.2

     Threshold (ethr) on eigenvalues was too large:
     Diagonalizing with lowered threshold

     Davidson diagonalization with overlap
     ethr =  1.73E-08,  avg # of iterations =  4.0

     negative rho (up, down):  3.048E-06 0.000E+00

     total cpu time spent up to now is      263.5 secs

     total energy              =    -447.15213566 Ry
     estimated scf accuracy    <       0.00002103 Ry

     iteration #  2     ecut=    90.00 Ry     beta= 0.30
     Davidson diagonalization with overlap
     ethr =  2.10E-08,  avg # of iterations =  1.2

     negative rho (up, down):  3.034E-06 0.000E+00

     total cpu time spent up to now is      267.3 secs

     total energy              =    -447.15213555 Ry
     estimated scf accuracy    <       0.00000731 Ry

     iteration #  3     ecut=    90.00 Ry     beta= 0.30
     Davidson diagonalization with overlap
     ethr =  7.31E-09,  avg # of iterations =  1.6

     negative rho (up, down):  3.040E-06 0.000E+00

     total cpu time spent up to now is      271.3 secs

     total energy              =    -447.15213607 Ry
     estimated scf accuracy    <       0.00000118 Ry

     iteration #  4     ecut=    90.00 Ry     beta= 0.30
     Davidson diagonalization with overlap
     ethr =  1.18E-09,  avg # of iterations =  2.0

     negative rho (up, down):  3.048E-06 0.000E+00

     total cpu time spent up to now is      275.6 secs

     total energy              =    -447.15213620 Ry
     estimated scf accuracy    <       0.00000017 Ry

     iteration #  5     ecut=    90.00 Ry     beta= 0.30
     Davidson diagonalization with overlap
     ethr =  1.74E-10,  avg # of iterations =  1.9

     negative rho (up, down):  3.055E-06 0.000E+00

     total cpu time spent up to now is      279.7 secs

     total energy              =    -447.15213621 Ry
     estimated scf accuracy    <       0.00000004 Ry

     iteration #  6     ecut=    90.00 Ry     beta= 0.30
     Davidson diagonalization with overlap
     ethr =  3.75E-11,  avg # of iterations =  2.0

     negative rho (up, down):  3.056E-06 0.000E+00

     total cpu time spent up to now is      284.3 secs

     total energy              =    -447.15213622 Ry
     estimated scf accuracy    <          3.0E-09 Ry

     iteration #  7     ecut=    90.00 Ry     beta= 0.30
     Davidson diagonalization with overlap
     ethr =  2.97E-12,  avg # of iterations =  3.0

     negative rho (up, down):  3.059E-06 0.000E+00

     total cpu time spent up to now is      289.5 secs

     End of self-consistent calculation

          k = 0.0000-0.0000 0.0000 ( 20853 PWs)   bands (ev):

   -13.5756 -13.2669 -12.7427 -12.0053 -11.0694  -9.9610  -8.7276  -7.4376
    -6.2069  -5.3016  -4.9770  -4.9743  -4.9113  -4.6436  -4.1820  -3.5246
    -2.6784  -1.8147  -1.7724  -1.6575  -1.0880  -1.0212  -0.4962  -0.1249
     0.0997   0.7707   1.0499   1.0544   1.5346   1.7775   2.1328   2.1846
     2.3558   2.7481   3.4422   3.5825   3.7229   4.2249   5.0341   5.0575
     5.0770   5.8022   6.3250   6.4026   6.4750   7.0181   7.3062   7.3637
     7.4087   7.6362   9.5022   9.9517  12.1737  12.5663  12.8112  13.0743
    13.2214  13.4095  13.4257  13.5992

          k = 0.0000-0.1010 0.0000 ( 20851 PWs)   bands (ev):

   -13.3884 -13.0808 -12.5586 -11.8246 -10.8952  -9.8000  -8.5998  -7.4213
    -7.0901  -6.8818  -6.5428  -6.5392  -4.2142  -3.9072  -3.5795  -3.0113
    -2.8545  -2.6596  -1.8859  -0.9430  -0.8243  -0.3462  -0.1581   0.2469
     0.5009   1.0179   1.2361   1.3669   1.7153   1.9521   2.3478   2.4472
     2.4556   2.8924   3.5564   3.6360   3.9305   4.2919   4.8549   5.0294
     5.3018   5.6947   6.0202   6.2334   6.4050   6.6222   6.8640   6.9263
     6.9833   7.1989   9.7209  10.1659  12.3283  12.3334  12.9435  13.3199
    13.4532  13.7607  13.9163  14.1137

          k = 0.0000-0.2020 0.0000 ( 20798 PWs)   bands (ev):

   -12.8288 -12.5247 -12.0095 -11.2881 -10.3835  -9.3520  -9.0020  -8.7532
    -8.2964  -8.2841  -7.7262  -7.5620  -4.9502  -4.5996  -4.1722  -3.5489
    -2.8495  -2.2347  -1.4578  -0.8091  -0.4559   0.5055   0.8653   1.1598
     1.5406   1.8221   1.9769   2.2515   2.3410   2.4686   2.6938   2.8273
     3.2670   3.3111   3.8793   3.9637   4.1263   4.4673   4.9657   4.9899
     5.0931   5.3732   5.5934   5.6534   5.6832   5.7018   5.7035   6.0250
     6.3328   6.3822  10.3652  10.7491  12.2875  12.6456  13.0429  13.4879
    13.5625  13.7371  14.3045  14.5087

          k = 0.0000-0.3030 0.0000 ( 20770 PWs)   bands (ev):

   -11.9036 -11.6080 -11.1112 -10.6312 -10.4190 -10.3388  -9.8391  -9.5923
    -9.1448  -8.7274  -8.3480  -8.0777  -5.3712  -5.0090  -4.5566  -3.8562
    -3.2220  -2.4312  -1.6936  -0.8600  -0.1270   0.7438   1.3160   2.2177
     2.6533   2.7178   3.1222   3.2396   3.3006   3.5171   3.5870   3.7533
     3.8962   3.9509   4.2861   4.3043   4.3068   4.4423   4.5496   4.5783
     4.6995   4.7323   4.7729   4.9456   4.9487   5.0153   5.0472   5.2107
     5.2935   5.3279  11.3771  11.5879  12.4591  12.5491  12.7583  13.1378
    13.4043  13.8456  14.1541  14.4188

          k = 0.1111-0.0000 0.0000 ( 20803 PWs)   bands (ev):

   -13.3490 -13.0410 -12.5179 -11.7821 -10.8484  -9.7426  -8.5124  -7.2267
    -6.0014  -5.1015  -4.8433  -4.7745  -4.7745  -4.5783  -4.1212  -3.4703
    -2.6325  -1.6219  -1.6114  -1.5805  -0.9159  -0.8167  -0.4734   0.0204
     0.2998   0.5043   0.7582   0.7780   1.1557   1.1831   1.2474   1.7690
     2.1203   2.4009   2.4876   3.2893   3.5469   3.6727   4.1113   4.8747
     4.8766   4.9809   5.5240   5.8984   5.9924   6.2718   6.3411   6.5620
     6.6007   7.2449   9.7315  10.1556  12.3389  13.0225  13.1469  13.2704
    13.5847  13.6315  13.8909  14.0934

          k = 0.1111-0.1010 0.0000 ( 20797 PWs)   bands (ev):

   -13.1623 -12.8553 -12.3343 -11.6021 -10.6749  -9.5826  -8.3862  -7.2141
    -6.9066  -6.6984  -6.3556  -6.3487  -4.0615  -3.7637  -3.4395  -2.8781
    -2.7843  -2.6378  -1.7680  -0.8413  -0.7739  -0.2560  -0.1478   0.3002
     0.5376   0.8106   1.0237   1.0796   1.3070   1.4660   1.4671   2.0173
     2.3923   2.4811   2.6884   3.4081   3.5484   3.8899   4.1291   4.6292
     4.7531   4.9963   5.3203   5.3228   5.3542   5.5996   6.1139   6.4348
     6.9098   7.1560   9.9667  10.3898  12.6028  13.1280  13.7068  13.7496
    13.9273  14.1451  14.2654  14.3371

          k = 0.1111-0.2020 0.0000 ( 20800 PWs)   bands (ev):

   -12.6042 -12.3010 -11.7871 -11.0678 -10.1660  -9.1383  -8.7972  -8.5498
    -8.0959  -8.0766  -7.5285  -7.3623  -4.7580  -4.4146  -3.9841  -3.3760
    -2.6810  -2.0784  -1.3692  -0.7450  -0.5980   0.3301   0.6428   0.9999
     1.0692   1.3922   1.7813   1.8174   1.9946   2.2504   2.4709   2.5991
     2.8087   2.9652   3.3733   3.7357   3.8181   3.8297   4.0914   4.1355
     4.2046   4.3170   4.3662   4.3686   4.8214   5.1630   5.6564   6.2061
     6.6524   6.6839  10.6275  11.0124  13.1217  13.1640  13.8139  14.1904
    14.2991  14.8563  14.8577  15.0093

          k = 0.1111-0.3030 0.0000 ( 20773 PWs)   bands (ev):

   -11.6821 -11.3876 -10.8925 -10.4155 -10.2031 -10.1245  -9.6273  -9.3800
    -8.9365  -8.5201  -8.1442  -7.8756  -5.1680  -4.8075  -4.3629  -3.6637
    -3.0421  -2.2514  -1.5370  -0.7034  -0.0357   0.7604   1.0390   1.5836
     1.8030   2.0174   2.2322   2.4490   2.6415   2.8168   2.9942   3.0033
     3.1255   3.3990   3.4852   3.5726   3.8145   3.8706   3.8933   3.9734
     4.1645   4.3643   4.4635   4.5200   4.7173   5.0613   5.2705   5.4047
     5.5885   5.6259  11.6598  11.9281  13.0717  13.0718  13.3932  13.8588
    13.9763  14.5530  14.9686  15.1842

          k = 0.2222-0.0000 0.0000 ( 20844 PWs)   bands (ev):

   -12.6723 -12.3664 -11.8469 -11.1161 -10.1888  -9.0910  -7.8707  -6.5973
    -5.3879  -4.9529  -4.6913  -4.5031  -4.2402  -4.1766  -4.1689  -3.5981
    -2.7718  -1.7755  -1.1972  -1.0253  -1.0197  -0.9329  -0.6437  -0.4927
    -0.4255  -0.2201   0.1100   0.4190   0.5882   0.8398   0.8840   1.4169
     1.6400   1.8105   1.9078   2.4283   2.4504   3.1151   3.3039   3.4016
     3.6443   4.0008   4.1586   4.1985   4.2981   4.6595   4.7130   4.9234
     5.9554   6.8151  10.4515  10.7964  12.4080  12.4702  12.9500  13.0540
    13.1795  13.7914  14.0011  14.1837

          k = 0.2222-0.1010 0.0000 ( 20776 PWs)   bands (ev):

   -12.4872 -12.1825 -11.6653 -10.9383 -10.0181  -8.9346  -7.7496  -6.6015
    -6.4247  -6.2139  -5.8581  -5.7888  -3.7679  -3.4858  -3.2769  -3.1167
    -3.0455  -2.6098  -1.5683  -1.1567  -1.0386  -0.6882  -0.4669  -0.2555
    -0.2293   0.3976   0.4685   0.7068   1.0486   1.1539   1.2336   1.6185
     1.8779   1.9891   2.2461   2.3389   2.7624   2.8862   3.0085   3.0279
     3.1648   3.2253   3.3775   3.7822   4.3291   4.7588   5.4262   5.5245
     6.0062   6.4380  10.6982  11.0496  13.0645  13.1278  13.2485  13.5738
    13.5916  13.8391  14.0885  14.3802

          k = 0.2222-0.2020 0.0000 ( 20759 PWs)   bands (ev):

   -11.9346 -11.6339 -11.1245 -10.4114  -9.5180  -8.5024  -8.2053  -7.9614
    -7.5157  -7.4605  -6.9524  -6.7720  -4.2356  -3.9120  -3.4914  -2.9151
    -2.4091  -2.2134  -2.0845  -1.6793  -0.9735  -0.5312  -0.2603  -0.2142
     0.2512   0.9098   0.9199   1.2191   1.4393   1.5063   1.8279   1.9011
     2.0313   2.2526   2.3276   2.4339   2.6089   2.6325   2.8443   2.9633
     3.0663   3.2023   3.3782   3.6790   4.3508   4.5628   5.3460   5.4557
     6.0800   6.2387  11.3703  11.7016  13.8978  14.2012  14.2872  14.3094
    14.5918  14.7075  14.8648  14.9008

          k = 0.2222-0.3030 0.0000 ( 20801 PWs)   bands (ev):

   -11.0236 -10.7323 -10.2427  -9.7783  -9.5616  -9.4917  -9.0019  -8.7494
    -8.3212  -7.9045  -7.5405  -7.2748  -4.5902  -4.2315  -3.8202  -3.1203
    -2.5654  -1.7744  -1.3169  -1.2236  -1.0859  -0.3798  -0.1511  -0.0137
     0.1284   0.2780   0.5536   0.8649   1.0408   1.1972   1.5180   1.6069
     1.7288   1.8813   2.2131   2.9325   3.2678   3.5380   3.6157   3.7510
     3.9896   4.0106   4.1638   4.2009   4.2641   4.2749   4.8127   5.2042
     5.4924   5.5344  12.3654  12.5948  13.8333  13.8810  14.7022  14.9614
    15.1420  15.1599  15.2239  15.5626

          k = 0.3333-0.0000 0.0000 ( 20766 PWs)   bands (ev):

   -11.5572 -11.2550 -10.7418 -10.0197  -9.1036  -8.0194  -6.8154  -6.2002
    -5.9262  -5.5617  -5.4572  -4.7935  -4.3757  -3.9453  -3.5120  -3.1860
    -3.1666  -2.9315  -1.7914  -1.5212  -1.2768  -0.8706  -0.5748  -0.3217
    -0.1772  -0.1029   0.2949   0.3248   0.6471   0.7114   0.9473   1.0023
     1.6047   1.6183   1.6550   1.7998   1.9593   2.0287   2.0997   2.2713
     2.4674   2.6917   2.6921   2.8967   2.9491   2.9521   3.0145   4.0756
     5.2205   6.0429  11.5816  11.7364  12.1044  12.2487  12.7652  12.8674
    13.6443  13.9185  14.3496  14.6642

          k = 0.3333-0.1010 0.0000 ( 20794 PWs)   bands (ev):

   -11.3757 -11.0750 -10.5644  -9.8468  -8.9385  -7.8699  -6.7055  -6.4085
    -6.1439  -5.7439  -5.5364  -5.2049  -4.1228  -4.1061  -3.9581  -3.8861
    -3.7699  -3.0395  -1.9573  -1.4189  -1.1173  -0.9444  -0.7930  -0.3795
    -0.1514  -0.1116   0.2587   0.6398   0.6949   0.7519   0.7659   1.0118
     1.0959   1.4931   1.6413   1.7143   1.9282   1.9972   2.0876   2.1827
     2.3085   2.6829   2.8614   2.8707   3.4859   3.8351   3.9484   4.1510
     5.0320   5.8520  11.8567  12.0760  12.7590  12.7658  13.1271  13.1405
    13.5496  13.8388  14.2675  14.4678

          k = 0.3333-0.2020 0.0000 ( 20813 PWs)   bands (ev):

   -10.8357 -10.5398 -10.0381  -9.3360  -8.4571  -7.4796  -7.3873  -7.1593
    -6.7177  -6.4720  -6.1193  -5.8511  -4.3209  -4.0785  -3.8713  -3.6524
    -3.5216  -3.4705  -2.5657  -1.7768  -1.4494  -1.4016  -1.0241  -0.8897
    -0.8357  -0.6737  -0.5841  -0.5381   0.2497   0.3913   0.7684   0.9056
     1.6329   1.8293   2.1130   2.2086   2.4503   2.4833   2.6066   2.7260
     2.8987   2.9239   3.0675   3.3466   3.4382   3.9717   4.5125   4.7479
     5.2211   5.3695  12.4908  12.6951  13.7891  13.7944  14.2011  14.2497
    14.4985  14.6492  14.7555  14.8964

          k = 0.3333-0.3030 0.0000 ( 20863 PWs)   bands (ev):

    -9.9534  -9.6679  -9.1878  -8.7736  -8.5225  -8.4955  -8.0178  -7.7291
    -7.3504  -6.9095  -6.5760  -6.2994  -3.8433  -3.6370  -3.4603  -3.3846
    -3.2625  -2.9601  -2.7253  -2.5145  -2.4298  -2.2645  -1.8943  -1.7421
    -1.1815  -1.0681  -0.4431  -0.4413  -0.2670  -0.1240   0.1945   0.7531
     1.4375   1.9539   2.1925   2.2088   2.6089   2.6161   2.9711   3.4242
     3.5122   3.5172   3.8327   3.9771   4.2484   4.3061   4.4453   4.5068
     5.0515   5.2327  13.2645  13.3623  14.6918  14.7363  14.8951  14.9953
    15.2471  15.5451  15.6568  15.7244

          k = 0.4444-0.0000 0.0000 ( 20772 PWs)   bands (ev):

   -10.0315  -9.7352  -9.2315  -8.5226  -8.1670  -7.8794  -7.6230  -7.3898
    -6.6998  -6.5582  -5.8227  -5.3761  -4.7822  -4.1463  -3.6243  -2.9846
    -2.4140  -2.1404  -1.8140  -1.7801  -1.2594  -0.5252  -0.4137  -0.3222
    -0.0832  -0.0328   0.0076   0.4308   0.8131   0.8851   0.9617   1.0550
     1.1046   1.1946   1.2860   1.3335   1.4176   1.5434   1.5567   1.6732
     1.6985   1.7218   1.7586   1.8862   2.1553   2.9505   3.0765   3.8028
     4.1612   4.9832  12.2008  12.2201  12.7470  12.7689  13.0771  13.0818
    13.3539  13.6086  13.6456  13.7111

          k = 0.4444-0.1010 0.0000 ( 20816 PWs)   bands (ev):

    -9.8595  -9.5650  -9.0647  -8.3612  -8.0342  -7.7498  -7.4704  -7.2653
    -6.5835  -6.4221  -5.7205  -5.2837  -4.6766  -4.1137  -3.5673  -3.2298
    -3.2171  -3.0151  -2.9034  -2.4441  -1.5604  -1.4900  -1.3237  -1.2346
    -0.4667  -0.2228   0.0208   0.3980   0.7507   0.8885   0.9657   1.0065
     1.0829   1.3596   1.4752   1.6490   1.7193   1.8111   1.9169   1.9538
     2.1967   2.2488   2.3610   2.4835   2.6282   3.0811   3.1673   3.8968
     4.1513   4.9643  12.7765  12.8317  12.8595  12.9636  13.0288  13.3050
    13.5428  13.8296  14.0292  14.1581

          k = 0.4444-0.2020 0.0000 ( 20837 PWs)   bands (ev):

    -9.3560  -9.0676  -8.5782  -7.8935  -7.7322  -7.4593  -7.0323  -6.9921
    -6.3380  -6.0459  -5.5252  -5.0974  -4.7711  -4.5369  -4.3768  -4.2320
    -3.9552  -3.8206  -3.4905  -3.2007  -2.9672  -2.7548  -2.5202  -2.3724
    -1.0883  -0.7951  -0.5420   0.0924   0.1151   0.3534   0.5427   0.7552
     1.2289   1.3919   1.5633   1.7007   1.9978   2.3415   2.6235   2.6848
     2.8087   3.0466   3.1044   3.2839   3.5471   3.7705   3.9595   4.1101
     4.1841   4.8831  13.4781  13.5591  13.7835  13.8692  14.0703  14.1410
    14.3598  14.3711  14.6409  14.8808

          k = 0.4444-0.3030 0.0000 ( 20868 PWs)   bands (ev):

    -8.5814  -8.3053  -7.8406  -7.8073  -7.5383  -7.2133  -7.0604  -6.5173
    -6.3240  -5.7580  -5.4674  -5.3448  -5.1165  -5.0533  -4.6565  -4.6001
    -4.3464  -4.2211  -3.9387  -3.8258  -3.8102  -3.5926  -3.3328  -3.1463
    -1.1962  -1.0582  -0.6975  -0.6585  -0.2987   0.1202   0.4005   0.6743
     0.8657   1.2541   1.3766   1.6449   2.1725   2.3776   2.6825   2.6891
     3.3073   3.4239   3.6825   3.8768   4.0738   4.2600   4.4809   4.4862
     4.7137   4.7954  14.0183  14.0313  14.6772  14.6912  15.2431  15.3483
    15.7410  15.8129  15.8438  15.8914

     the Fermi energy is     8.2480 ev

!    total energy              =    -447.15213622 Ry
     estimated scf accuracy    <          6.2E-10 Ry
     smearing contrib. (-TS)   =       0.00000000 Ry
     internal energy E=F+TS    =    -447.15213622 Ry

     The total energy is F=E-TS. E is the sum of the following terms:
     one-electron contribution =   -3116.90838227 Ry
     hartree contribution      =    1614.64013977 Ry
     xc contribution           =    -115.33873383 Ry
     ewald contribution        =    1318.36555838 Ry
     one-center paw contrib.   =    -147.91071827 Ry

     convergence has been achieved in   7 iterations

     negative rho (up, down):  3.059E-06 0.000E+00

     Forces acting on atoms (cartesian axes, Ry/au):

     atom    1 type  1   force =     0.00000000    0.00037175    0.00047836
     atom    2 type  1   force =     0.00000000   -0.00037175    0.00047836
     atom    3 type  1   force =    -0.00000000    0.00008530   -0.00101772
     atom    4 type  1   force =     0.00000000   -0.00008530   -0.00101772
     atom    5 type  1   force =     0.00000000   -0.00012618   -0.00143095
     atom    6 type  1   force =     0.00000000    0.00012618   -0.00143095
     atom    7 type  1   force =     0.00000000   -0.00019185   -0.00069718
     atom    8 type  1   force =     0.00000000    0.00019185   -0.00069718
     atom    9 type  1   force =     0.00000000    0.00005646   -0.00008565
     atom   10 type  1   force =     0.00000000   -0.00005646   -0.00008565
     atom   11 type  1   force =     0.00000000   -0.00000256    0.00004950
     atom   12 type  1   force =     0.00000000    0.00000256    0.00004950
     atom   13 type  1   force =     0.00000000   -0.00000256   -0.00004950
     atom   14 type  1   force =     0.00000000    0.00000256   -0.00004950
     atom   15 type  1   force =     0.00000000   -0.00005646    0.00008565
     atom   16 type  1   force =     0.00000000    0.00005646    0.00008565
     atom   17 type  1   force =    -0.00000000   -0.00019185    0.00069718
     atom   18 type  1   force =     0.00000000    0.00019185    0.00069718
     atom   19 type  1   force =     0.00000000   -0.00012618    0.00143095
     atom   20 type  1   force =     0.00000000    0.00012618    0.00143095
     atom   21 type  1   force =     0.00000000    0.00008530    0.00101772
     atom   22 type  1   force =    -0.00000000   -0.00008530    0.00101772
     atom   23 type  1   force =     0.00000000    0.00037175   -0.00047836
     atom   24 type  1   force =     0.00000000   -0.00037175   -0.00047836
     atom   25 type  2   force =     0.00000000    0.00001117    0.00113208
     atom   26 type  2   force =     0.00000000   -0.00001117    0.00113208
     atom   27 type  2   force =    -0.00000000    0.00001117   -0.00113208
     atom   28 type  2   force =     0.00000000   -0.00001117   -0.00113208

     Total force =     0.004601     Total SCF correction =     0.000077
     Energy error            =      8.1E-05 Ry
     Gradient error          =      1.4E-03 Ry/Bohr

     number of scf cycles    =   7
     number of bfgs steps    =   6

     energy             old  =    -447.1520549279 Ry
     energy             new  =    -447.1521362202 Ry

     CASE: energy            _new < energy            _old

     new trust radius        =       0.0031090502 bohr
     new conv_thr            =       0.0000000008 Ry


ATOMIC_POSITIONS (angstrom)
C                0.0000000000       -0.9128427176       18.7636391785
C                1.2634728900       -1.7673880324       18.7636391785
C                1.2634728900       -2.6832861344       17.5294066637
C               -0.0000000000        0.0030553844       17.5294066637
C                0.0000000000       -0.8929252647       16.2640534424
C                1.2634728900       -1.7873054853       16.2640534424
C                1.2634728900       -2.6801749443       15.0007829775
C                0.0000000000       -0.0000558057       15.0007829775
C                1.2634728900       -1.7868692460       13.7363575587
C                0.0000000000       -0.8933615040       13.7363575587
C                0.0000000000       -0.0000498657       12.4715384613
C                1.2634728900       -2.6801808843       12.4715384613
C                1.2634728900       -1.7868703657       11.2066258987
C                0.0000000000       -0.8933603843       11.2066258987
C                1.2634728900       -2.6801820040        9.9418068013
C                0.0000000000       -0.0000487460        9.9418068013
C               -0.0000000000       -0.8933544443        8.6773813825
C                1.2634728900       -1.7868763057        8.6773813825
C                1.2634728900       -2.6797457647        7.4141109176
C                0.0000000000       -0.0004849853        7.4141109176
C                0.0000000000       -0.8964656344        6.1487577063
C                1.2634728900       -1.7837651156        6.1487577063
C                1.2634728900       -2.6996632176        4.9145251815
C               -0.0000000000        0.0194324676        4.9145251815
H                0.0000000000       -0.3126961654       19.6845931263
H                1.2634728900       -2.3675345846       19.6845931263
H                1.2634728900       -2.0995166654        3.9935712337
H               -0.0000000000       -0.5807140846        3.9935712337



     Writing config-only to output data dir /tmp/qe/slab.save/ :
     XML data file
     NEW-OLD atomic charge density approx. for the potential

     Check: negative core charge=   -0.000001

     negative rho (up, down):  2.973E-06 0.000E+00

     total cpu time spent up to now is      290.9 secs

     Self-consistent Calculation

     iteration #  1     ecut=    90.00 Ry     beta= 0.30
     Davidson diagonalization with overlap
     ethr =  1.00E-06,  avg # of iterations =  2.0

     Threshold (ethr) on eigenvalues was too large:
     Diagonalizing with lowered threshold

     Davidson diagonalization with overlap
     ethr =  6.35E-09,  avg # of iterations =  4.0

     negative rho (up, down):  2.982E-06 0.000E+00

     total cpu time spent up to now is      301.3 secs

     total energy              =    -447.15216134 Ry
     estimated scf accuracy    <       0.00000816 Ry

     iteration #  2     ecut=    90.00 Ry     beta= 0.30
     Davidson diagonalization with overlap
     ethr =  8.16E-09,  avg # of iterations =  2.0

     negative rho (up, down):  2.998E-06 0.000E+00

     total cpu time spent up to now is      305.4 secs

     total energy              =    -447.15216152 Ry
     estimated scf accuracy    <       0.00000215 Ry

     iteration #  3     ecut=    90.00 Ry     beta= 0.30
     Davidson diagonalization with overlap
     ethr =  2.15E-09,  avg # of iterations =  1.8

     negative rho (up, down):  3.016E-06 0.000E+00

     total cpu time spent up to now is      309.4 secs

     total energy              =    -447.15216158 Ry
     estimated scf accuracy    <       0.00000056 Ry

     iteration #  4     ecut=    90.00 Ry     beta= 0.30
     Davidson diagonalization with overlap
     ethr =  5.57E-10,  avg # of iterations =  2.0

     negative rho (up, down):  3.026E-06 0.000E+00

     total cpu time spent up to now is      313.5 secs

     total energy              =    -447.15216163 Ry
     estimated scf accuracy    <       0.00000009 Ry

     iteration #  5     ecut=    90.00 Ry     beta= 0.30
     Davidson diagonalization with overlap
     ethr =  9.18E-11,  avg # of iterations =  2.0

     negative rho (up, down):  3.029E-06 0.000E+00

     total cpu time spent up to now is      317.9 secs

     total energy              =    -447.15216164 Ry
     estimated scf accuracy    <       0.00000001 Ry

     iteration #  6     ecut=    90.00 Ry     beta= 0.30
     Davidson diagonalization with overlap
     ethr =  1.12E-11,  avg # of iterations =  2.3

     negative rho (up, down):  3.029E-06 0.000E+00

     total cpu time spent up to now is      322.6 secs

     total energy              =    -447.15216164 Ry
     estimated scf accuracy    <          1.9E-09 Ry

     iteration #  7     ecut=    90.00 Ry     beta= 0.30
     Davidson diagonalization with overlap
     ethr =  1.94E-12,  avg # of iterations =  2.5

     negative rho (up, down):  3.030E-06 0.000E+00

     total cpu time spent up to now is      327.1 secs

     End of self-consistent calculation

          k = 0.0000-0.0000 0.0000 ( 20853 PWs)   bands (ev):

   -13.5787 -13.2693 -12.7406 -12.0035 -11.0687  -9.9608  -8.7276  -7.4381
    -6.2075  -5.3023  -4.9794  -4.9767  -4.9145  -4.6455  -4.1780  -3.5212
    -2.6760  -1.8134  -1.7702  -1.6555  -1.0876  -1.0236  -0.4943  -0.1240
     0.0987   0.7723   1.0510   1.0545   1.5313   1.7748   2.1339   2.1863
     2.3568   2.7491   3.4418   3.5833   3.7238   4.2238   5.0328   5.0577
     5.0780   5.8007   6.3251   6.4025   6.4735   7.0163   7.3048   7.3638
     7.4059   7.6339   9.5004   9.9490  12.1709  12.5633  12.8086  13.0761
    13.2223  13.4093  13.4236  13.5980

          k = 0.0000-0.1010 0.0000 ( 20851 PWs)   bands (ev):

   -13.3915 -13.0831 -12.5564 -11.8229 -10.8944  -9.7998  -8.5999  -7.4214
    -7.0933  -6.8833  -6.5439  -6.5384  -4.2117  -3.9041  -3.5793  -3.0090
    -2.8567  -2.6624  -1.8831  -0.9403  -0.8226  -0.3472  -0.1579   0.2464
     0.5009   1.0190   1.2351   1.3689   1.7121   1.9495   2.3495   2.4485
     2.4564   2.8933   3.5560   3.6375   3.9307   4.2909   4.8566   5.0282
     5.3015   5.6933   6.0216   6.2322   6.4043   6.6207   6.8610   6.9264
     6.9808   7.1971   9.7191  10.1633  12.3271  12.3308  12.9409  13.3204
    13.4521  13.7608  13.9160  14.1114

          k = 0.0000-0.2020 0.0000 ( 20798 PWs)   bands (ev):

   -12.8319 -12.5271 -12.0073 -11.2863 -10.3828  -9.3518  -9.0051  -8.7550
    -8.2944  -8.2850  -7.7256  -7.5630  -4.9489  -4.5998  -4.1694  -3.5475
    -2.8475  -2.2321  -1.4587  -0.8080  -0.4577   0.5054   0.8646   1.1589
     1.5413   1.8209   1.9788   2.2484   2.3410   2.4661   2.6949   2.8289
     3.2680   3.3119   3.8787   3.9633   4.1280   4.4663   4.9679   4.9890
     5.0933   5.3729   5.5933   5.6498   5.6851   5.6994   5.7008   6.0263
     6.3313   6.3811  10.3631  10.7463  12.2869  12.6435  13.0415  13.4854
    13.5611  13.7348  14.3042  14.5051

          k = 0.0000-0.3030 0.0000 ( 20770 PWs)   bands (ev):

   -11.9066 -11.6102 -11.1089 -10.6340 -10.4175 -10.3409  -9.8372  -9.5922
    -9.1434  -8.7279  -8.3480  -8.0786  -5.3700  -5.0107  -4.5521  -3.8567
    -3.2178  -2.4296  -1.6926  -0.8600  -0.1270   0.7425   1.3157   2.2164
     2.6516   2.7178   3.1192   3.2384   3.2984   3.5185   3.5886   3.7532
     3.8970   3.9516   4.2836   4.3046   4.3068   4.4400   4.5515   4.5773
     4.6997   4.7296   4.7720   4.9432   4.9466   5.0136   5.0490   5.2089
     5.3000   5.3313  11.3743  11.5847  12.4571  12.5479  12.7553  13.1362
    13.4021  13.8450  14.1532  14.4155

          k = 0.1111-0.0000 0.0000 ( 20803 PWs)   bands (ev):

   -13.3521 -13.0433 -12.5158 -11.7803 -10.8476  -9.7423  -8.5125  -7.2271
    -6.0020  -5.1022  -4.8465  -4.7769  -4.7768  -4.5801  -4.1172  -3.4668
    -2.6301  -1.6199  -1.6100  -1.5783  -0.9155  -0.8190  -0.4714   0.0212
     0.2988   0.5010   0.7556   0.7796   1.1568   1.1847   1.2474   1.7700
     2.1215   2.4020   2.4872   3.2882   3.5477   3.6737   4.1100   4.8733
     4.8780   4.9810   5.5228   5.8983   5.9908   6.2711   6.3384   6.5602
     6.5990   7.2451   9.7295  10.1528  12.3367  13.0212  13.1474  13.2721
    13.5829  13.6311  13.8930  14.0903

          k = 0.1111-0.1010 0.0000 ( 20797 PWs)   bands (ev):

   -13.1654 -12.8577 -12.3322 -11.6004 -10.6742  -9.5824  -8.3863  -7.2141
    -6.9099  -6.6999  -6.3547  -6.3498  -4.0589  -3.7604  -3.4394  -2.8756
    -2.7868  -2.6406  -1.7653  -0.8383  -0.7722  -0.2573  -0.1474   0.3002
     0.5367   0.8080   1.0212   1.0806   1.3071   1.4666   1.4686   2.0183
     2.3935   2.4818   2.6881   3.4070   3.5502   3.8897   4.1280   4.6314
     4.7519   4.9966   5.3185   5.3218   5.3516   5.5984   6.1139   6.4339
     6.9095   7.1542   9.9647  10.3870  12.6004  13.1289  13.7053  13.7497
    13.9258  14.1463  14.2640  14.3367

          k = 0.1111-0.2020 0.0000 ( 20800 PWs)   bands (ev):

   -12.6073 -12.3033 -11.7849 -11.0660 -10.1653  -9.1381  -8.8003  -8.5515
    -8.0939  -8.0774  -7.5279  -7.3633  -4.7566  -4.4146  -3.9814  -3.3746
    -2.6791  -2.0758  -1.3703  -0.7460  -0.5980   0.3297   0.6435   0.9989
     1.0686   1.3935   1.7787   1.8165   1.9950   2.2491   2.4721   2.5995
     2.8085   2.9667   3.3726   3.7336   3.8191   3.8293   4.0935   4.1371
     4.2015   4.3159   4.3652   4.3665   4.8230   5.1626   5.6577   6.2067
     6.6509   6.6820  10.6254  11.0094  13.1223  13.1615  13.8124  14.1875
    14.2982  14.8550  14.8553  15.0085

          k = 0.1111-0.3030 0.0000 ( 20773 PWs)   bands (ev):

   -11.6852 -11.3898 -10.8902 -10.4183 -10.2016 -10.1266  -9.6253  -9.3798
    -8.9350  -8.5206  -8.1442  -7.8766  -5.1668  -4.8092  -4.3583  -3.6642
    -3.0379  -2.2498  -1.5361  -0.7034  -0.0358   0.7584   1.0380   1.5819
     1.8027   2.0182   2.2300   2.4495   2.6409   2.8153   2.9941   3.0035
     3.1259   3.3979   3.4846   3.5719   3.8137   3.8703   3.8921   3.9725
     4.1649   4.3638   4.4614   4.5198   4.7205   5.0654   5.2673   5.4085
     5.5850   5.6270  11.6571  11.9247  13.0684  13.0686  13.3932  13.8577
    13.9749  14.5525  14.9668  15.1829

          k = 0.2222-0.0000 0.0000 ( 20844 PWs)   bands (ev):

   -12.6754 -12.3687 -11.8447 -11.1143 -10.1880  -9.0908  -7.8708  -6.5978
    -5.3885  -4.9561  -4.6932  -4.5038  -4.2365  -4.1789  -4.1713  -3.5948
    -2.7695  -1.7736  -1.2004  -1.0231  -1.0182  -0.9355  -0.6419  -0.4910
    -0.4253  -0.2222   0.1111   0.4198   0.5896   0.8397   0.8832   1.4179
     1.6393   1.8106   1.9088   2.4275   2.4515   3.1140   3.3046   3.4031
     3.6434   3.9997   4.1609   4.1958   4.2956   4.6590   4.7131   4.9211
     5.9553   6.8152  10.4493  10.7936  12.4084  12.4690  12.9502  13.0548
    13.1776  13.7934  14.0013  14.1816

          k = 0.2222-0.1010 0.0000 ( 20776 PWs)   bands (ev):

   -12.4903 -12.1848 -11.6631 -10.9366 -10.0173  -8.9344  -7.7497  -6.6014
    -6.4281  -6.2156  -5.8570  -5.7896  -3.7650  -3.4814  -3.2781  -3.1194
    -3.0484  -2.6078  -1.5662  -1.1549  -1.0356  -0.6914  -0.4696  -0.2538
    -0.2292   0.3969   0.4699   0.7067   1.0490   1.1540   1.2332   1.6173
     1.8793   1.9887   2.2459   2.3388   2.7625   2.8857   3.0060   3.0245
     3.1691   3.2252   3.3765   3.7829   4.3300   4.7588   5.4262   5.5231
     6.0047   6.4382  10.6960  11.0466  13.0645  13.1266  13.2478  13.5733
    13.5904  13.8406  14.0906  14.3779

          k = 0.2222-0.2020 0.0000 ( 20759 PWs)   bands (ev):

   -11.9377 -11.6362 -11.1223 -10.4096  -9.5173  -8.5021  -8.2084  -7.9631
    -7.5136  -7.4612  -6.9518  -6.7730  -4.2341  -3.9116  -3.4888  -2.9134
    -2.4075  -2.2163  -2.0872  -1.6766  -0.9714  -0.5288  -0.2598  -0.2161
     0.2518   0.9082   0.9196   1.2196   1.4363   1.5040   1.8274   1.9010
     2.0290   2.2531   2.3282   2.4331   2.6095   2.6311   2.8446   2.9638
     3.0652   3.2016   3.3802   3.6817   4.3507   4.5642   5.3457   5.4564
     6.0791   6.2368  11.3678  11.6983  13.8962  14.2028  14.2864  14.3085
    14.5915  14.7063  14.8643  14.8984

          k = 0.2222-0.3030 0.0000 ( 20801 PWs)   bands (ev):

   -11.0267 -10.7345 -10.2403  -9.7811  -9.5601  -9.4938  -8.9999  -8.7492
    -8.3197  -7.9049  -7.5405  -7.2757  -4.5889  -4.2331  -3.8156  -3.1206
    -2.5612  -1.7728  -1.3163  -1.2261  -1.0885  -0.3789  -0.1499  -0.0167
     0.1261   0.2791   0.5536   0.8648   1.0413   1.1987   1.5176   1.6052
     1.7281   1.8800   2.2133   2.9313   3.2683   3.5376   3.6150   3.7514
     3.9887   4.0108   4.1636   4.1985   4.2648   4.2789   4.8150   5.2043
     5.4910   5.5326  12.3625  12.5914  13.8298  13.8777  14.7038  14.9594
    15.1410  15.1590  15.2232  15.5645

          k = 0.3333-0.0000 0.0000 ( 20766 PWs)   bands (ev):

   -11.5603 -11.2574 -10.7396 -10.0179  -9.1028  -8.0192  -6.8155  -6.2034
    -5.9283  -5.5622  -5.4542  -4.7909  -4.3764  -3.9438  -3.5128  -3.1884
    -3.1691  -2.9305  -1.7907  -1.5244  -1.2791  -0.8682  -0.5746  -0.3198
    -0.1752  -0.1010   0.2947   0.3255   0.6468   0.7098   0.9477   1.0026
     1.6035   1.6185   1.6560   1.7990   1.9567   2.0263   2.1006   2.2722
     2.4687   2.6922   2.6929   2.8991   2.9477   2.9524   3.0152   4.0753
     5.2202   6.0430  11.5797  11.7349  12.1032  12.2469  12.7645  12.8678
    13.6448  13.9190  14.3476  14.6667

          k = 0.3333-0.1010 0.0000 ( 20794 PWs)   bands (ev):

   -11.3788 -11.0773 -10.5622  -9.8450  -8.9378  -7.8697  -6.7056  -6.4116
    -6.1461  -5.7410  -5.5373  -5.2035  -4.1217  -4.1086  -3.9562  -3.8895
    -3.7705  -3.0384  -1.9565  -1.4169  -1.1149  -0.9446  -0.7924  -0.3820
    -0.1504  -0.1144   0.2588   0.6369   0.6959   0.7492   0.7658   1.0140
     1.0969   1.4910   1.6413   1.7140   1.9293   1.9956   2.0861   2.1848
     2.3132   2.6834   2.8616   2.8728   3.4872   3.8350   3.9469   4.1487
     5.0318   5.8520  11.8544  12.0735  12.7578  12.7646  13.1261  13.1402
    13.5512  13.8381  14.2695  14.4665

          k = 0.3333-0.2020 0.0000 ( 20813 PWs)   bands (ev):

   -10.8388 -10.5421 -10.0358  -9.3342  -8.4564  -7.4798  -7.3899  -7.1611
    -6.7154  -6.4722  -6.1186  -5.8518  -4.3238  -4.0805  -3.8685  -3.6529
    -3.5196  -3.4708  -2.5643  -1.7760  -1.4486  -1.3999  -1.0273  -0.8894
    -0.8370  -0.6733  -0.5851  -0.5376   0.2495   0.3912   0.7679   0.9076
     1.6312   1.8307   2.1129   2.2081   2.4521   2.4836   2.6078   2.7234
     2.8979   2.9241   3.0691   3.3472   3.4395   3.9715   4.5128   4.7464
     5.2192   5.3696  12.4881  12.6920  13.7882  13.7936  14.2008  14.2498
    14.4975  14.6467  14.7569  14.8980

          k = 0.3333-0.3030 0.0000 ( 20863 PWs)   bands (ev):

    -9.9564  -9.6700  -9.1854  -8.7765  -8.5208  -8.4975  -8.0157  -7.7287
    -7.3489  -6.9098  -6.5760  -6.3003  -3.8412  -3.6397  -3.4616  -3.3871
    -3.2574  -2.9599  -2.7253  -2.5150  -2.4307  -2.2667  -1.8937  -1.7423
    -1.1799  -1.0675  -0.4414  -0.4414  -0.2667  -0.1260   0.1967   0.7536
     1.4379   1.9544   2.1917   2.2078   2.6108   2.6165   2.9716   3.4253
     3.5121   3.5187   3.8317   3.9774   4.2468   4.3050   4.4458   4.5060
     5.0507   5.2308  13.2623  13.3600  14.6889  14.7322  14.8946  14.9943
    15.2490  15.5445  15.6566  15.7243

          k = 0.4444-0.0000 0.0000 ( 20772 PWs)   bands (ev):

   -10.0346  -9.7375  -9.2292  -8.5208  -8.1701  -7.8817  -7.6222  -7.3873
    -6.6977  -6.5579  -5.8217  -5.3761  -4.7817  -4.1467  -3.6241  -2.9853
    -2.4143  -2.1413  -1.8165  -1.7825  -1.2600  -0.5283  -0.4147  -0.3243
    -0.0857  -0.0352   0.0102   0.4328   0.8150   0.8858   0.9658   1.0518
     1.1020   1.1914   1.2861   1.3325   1.4191   1.5415   1.5572   1.6762
     1.7062   1.7275   1.7618   1.8844   2.1558   2.9497   3.0755   3.8027
     4.1606   4.9832  12.2000  12.2193  12.7467  12.7684  13.0762  13.0808
    13.3520  13.6068  13.6458  13.7105

          k = 0.4444-0.1010 0.0000 ( 20816 PWs)   bands (ev):

    -9.8626  -9.5673  -9.0624  -8.3593  -8.0373  -7.7520  -7.4696  -7.2628
    -6.5815  -6.4218  -5.7195  -5.2838  -4.6761  -4.1141  -3.5671  -3.2296
    -3.2201  -3.0186  -2.9034  -2.4443  -1.5601  -1.4930  -1.3273  -1.2346
    -0.4647  -0.2206   0.0207   0.3992   0.7485   0.8905   0.9672   1.0037
     1.0845   1.3600   1.4751   1.6524   1.7193   1.8168   1.9150   1.9581
     2.1944   2.2459   2.3639   2.4811   2.6294   3.0799   3.1663   3.8968
     4.1508   4.9643  12.7756  12.8305  12.8591  12.9631  13.0288  13.3038
    13.5423  13.8292  14.0268  14.1565

          k = 0.4444-0.2020 0.0000 ( 20837 PWs)   bands (ev):

    -9.3591  -9.0698  -8.5759  -7.8916  -7.7353  -7.4614  -7.0315  -6.9895
    -6.3358  -6.0457  -5.5242  -5.0975  -4.7740  -4.5390  -4.3769  -4.2307
    -3.9567  -3.8209  -3.4900  -3.2036  -2.9700  -2.7533  -2.5218  -2.3727
    -1.0870  -0.7962  -0.5388   0.0921   0.1172   0.3541   0.5455   0.7568
     1.2289   1.3930   1.5651   1.7005   1.9993   2.3428   2.6256   2.6833
     2.8083   3.0467   3.1034   3.2825   3.5458   3.7692   3.9583   4.1091
     4.1836   4.8830  13.4780  13.5591  13.7829  13.8691  14.0691  14.1413
    14.3574  14.3701  14.6390  14.8799

          k = 0.4444-0.3030 0.0000 ( 20868 PWs)   bands (ev):

    -8.5844  -8.3074  -7.8380  -7.8104  -7.5404  -7.2110  -7.0581  -6.5157
    -6.3228  -5.7574  -5.4673  -5.3479  -5.1178  -5.0548  -4.6552  -4.6031
    -4.3485  -4.2199  -3.9376  -3.8261  -3.8106  -3.5930  -3.3331  -3.1474
    -1.1957  -1.0586  -0.6966  -0.6577  -0.2953   0.1225   0.4009   0.6743
     0.8674   1.2562   1.3777   1.6462   2.1724   2.3784   2.6821   2.6898
     3.3066   3.4237   3.6826   3.8763   4.0723   4.2587   4.4789   4.4861
     4.7137   4.7936  14.0175  14.0305  14.6769  14.6909  15.2408  15.3474
    15.7381  15.8138  15.8418  15.8893

     the Fermi energy is     8.2457 ev

!    total energy              =    -447.15216164 Ry
     estimated scf accuracy    <          3.6E-10 Ry
     smearing contrib. (-TS)   =       0.00000000 Ry
     internal energy E=F+TS    =    -447.15216164 Ry

     The total energy is F=E-TS. E is the sum of the following terms:
     one-electron contribution =   -3118.07013620 Ry
     hartree contribution      =    1615.21946353 Ry
     xc contribution           =    -115.33648199 Ry
     ewald contribution        =    1318.94567662 Ry
     one-center paw contrib.   =    -147.91068359 Ry

     convergence has been achieved in   7 iterations

     negative rho (up, down):  3.030E-06 0.000E+00

     Forces acting on atoms (cartesian axes, Ry/au):

     atom    1 type  1   force =     0.00000000    0.00067457    0.00053303
     atom    2 type  1   force =     0.00000000   -0.00067457    0.00053303
     atom    3 type  1   force =     0.00000000    0.00019718   -0.00007596
     atom    4 type  1   force =     0.00000000   -0.00019718   -0.00007596
     atom    5 type  1   force =     0.00000000    0.00016770   -0.00079294
     atom    6 type  1   force =     0.00000000   -0.00016770   -0.00079294
     atom    7 type  1   force =     0.00000000    0.00001746   -0.00082414
     atom    8 type  1   force =     0.00000000   -0.00001746   -0.00082414
     atom    9 type  1   force =     0.00000000   -0.00000395   -0.00043206
     atom   10 type  1   force =     0.00000000    0.00000395   -0.00043206
     atom   11 type  1   force =     0.00000000   -0.00004379   -0.00011289
     atom   12 type  1   force =     0.00000000    0.00004379   -0.00011289
     atom   13 type  1   force =     0.00000000   -0.00004379    0.00011289
     atom   14 type  1   force =    -0.00000000    0.00004379    0.00011289
     atom   15 type  1   force =     0.00000000    0.00000395    0.00043206
     atom   16 type  1   force =     0.00000000   -0.00000395    0.00043206
     atom   17 type  1   force =     0.00000000    0.00001746    0.00082414
     atom   18 type  1   force =     0.00000000   -0.00001746    0.00082414
     atom   19 type  1   force =     0.00000000    0.00016770    0.00079294
     atom   20 type  1   force =     0.00000000   -0.00016770    0.00079294
     atom   21 type  1   force =     0.00000000    0.00019718    0.00007596
     atom   22 type  1   force =     0.00000000   -0.00019718    0.00007596
     atom   23 type  1   force =     0.00000000    0.00067457   -0.00053303
     atom   24 type  1   force =     0.00000000   -0.00067457   -0.00053303
     atom   25 type  2   force =     0.00000000   -0.00018772    0.00005716
     atom   26 type  2   force =     0.00000000    0.00018772    0.00005716
     atom   27 type  2   force =     0.00000000   -0.00018772   -0.00005716
     atom   28 type  2   force =     0.00000000    0.00018772   -0.00005716

     Total force =     0.003072     Total SCF correction =     0.000053
     Energy error            =      2.5E-05 Ry
     Gradient error          =      8.2E-04 Ry/Bohr

     number of scf cycles    =   8
     number of bfgs steps    =   7

     energy             old  =    -447.1521362202 Ry
     energy             new  =    -447.1521616361 Ry

     CASE: energy            _new < energy            _old

     new trust radius        =       0.0019206468 bohr
     new conv_thr            =       0.0000000003 Ry


ATOMIC_POSITIONS (angstrom)
C                0.0000000000       -0.9126325657       18.7639228162
C                1.2634728900       -1.7675981843       18.7639228162
C                1.2634728900       -2.6831383132       17.5288287053
C               -0.0000000000        0.0029075632       17.5288287053
C                0.0000000000       -0.8928933947       16.2630375797
C                1.2634728900       -1.7873373553       16.2630375797
C                1.2634728900       -2.6801973287       15.0000276192
C                0.0000000000       -0.0000334213       15.0000276192
C                1.2634728900       -1.7868702004       13.7360561957
C                0.0000000000       -0.8933605496       13.7360561957
C                0.0000000000       -0.0000913221       12.4714809824
C                1.2634728900       -2.6801394279       12.4714809824
C                1.2634728900       -1.7869118221       11.2066833776
C               -0.0000000000       -0.8933189279       11.2066833776
C                1.2634728900       -2.6801810496        9.9421081643
C                0.0000000000       -0.0000497004        9.9421081643
C               -0.0000000000       -0.8933768287        8.6781367408
C                1.2634728900       -1.7868539213        8.6781367408
C                1.2634728900       -2.6797138947        7.4151267803
C                0.0000000000       -0.0005168553        7.4151267803
C                0.0000000000       -0.8963178132        6.1493356647
C                1.2634728900       -1.7839129368        6.1493356647
C                1.2634728900       -2.6994530657        4.9142415438
C               -0.0000000000        0.0192223157        4.9142415438
H                0.0000000000       -0.3127877268       19.6853230007
H                1.2634728900       -2.3674430232       19.6853230007
H                1.2634728900       -2.0996082268        3.9928413593
H               -0.0000000000       -0.5806225232        3.9928413593



     Writing config-only to output data dir /tmp/qe/slab.save/ :
     XML data file
     NEW-OLD atomic charge density approx. for the potential

     Check: negative core charge=   -0.000001

     negative rho (up, down):  2.984E-06 0.000E+00

     total cpu time spent up to now is      328.5 secs

     Self-consistent Calculation

     iteration #  1     ecut=    90.00 Ry     beta= 0.30
     Davidson diagonalization with overlap
     ethr =  1.00E-06,  avg # of iterations =  2.0

     Threshold (ethr) on eigenvalues was too large:
     Diagonalizing with lowered threshold

     Davidson diagonalization with overlap
     ethr =  3.01E-09,  avg # of iterations =  4.3

     negative rho (up, down):  2.993E-06 0.000E+00

     total cpu time spent up to now is      339.1 secs

     total energy              =    -447.15217170 Ry
     estimated scf accuracy    <       0.00000383 Ry

     iteration #  2     ecut=    90.00 Ry     beta= 0.30
     Davidson diagonalization with overlap
     ethr =  3.83E-09,  avg # of iterations =  2.0

     negative rho (up, down):  3.008E-06 0.000E+00

     total cpu time spent up to now is      343.2 secs

     total energy              =    -447.15217178 Ry
     estimated scf accuracy    <       0.00000103 Ry

     iteration #  3     ecut=    90.00 Ry     beta= 0.30
     Davidson diagonalization with overlap
     ethr =  1.03E-09,  avg # of iterations =  1.4

     negative rho (up, down):  3.022E-06 0.000E+00

     total cpu time spent up to now is      347.1 secs

     total energy              =    -447.15217179 Ry
     estimated scf accuracy    <       0.00000029 Ry

     iteration #  4     ecut=    90.00 Ry     beta= 0.30
     Davidson diagonalization with overlap
     ethr =  2.92E-10,  avg # of iterations =  2.0

     negative rho (up, down):  3.027E-06 0.000E+00

     total cpu time spent up to now is      351.2 secs

     total energy              =    -447.15217181 Ry
     estimated scf accuracy    <       0.00000003 Ry

     iteration #  5     ecut=    90.00 Ry     beta= 0.30
     Davidson diagonalization with overlap
     ethr =  3.12E-11,  avg # of iterations =  2.0

     negative rho (up, down):  3.027E-06 0.000E+00

     total cpu time spent up to now is      355.8 secs

     total energy              =    -447.15217182 Ry
     estimated scf accuracy    <          5.3E-09 Ry

     iteration #  6     ecut=    90.00 Ry     beta= 0.30
     Davidson diagonalization with overlap
     ethr =  5.32E-12,  avg # of iterations =  2.5

     negative rho (up, down):  3.027E-06 0.000E+00

     total cpu time spent up to now is      360.2 secs

     total energy              =    -447.15217182 Ry
     estimated scf accuracy    <          9.1E-10 Ry

     iteration #  7     ecut=    90.00 Ry     beta= 0.30
     Davidson diagonalization with overlap
     ethr =  9.10E-13,  avg # of iterations =  2.4

     negative rho (up, down):  3.027E-06 0.000E+00

     total cpu time spent up to now is      364.7 secs

     End of self-consistent calculation

          k = 0.0000-0.0000 0.0000 ( 20853 PWs)   bands (ev):

   -13.5809 -13.2687 -12.7381 -12.0023 -11.0680  -9.9603  -8.7272  -7.4378
    -6.2072  -5.3015  -4.9807  -4.9765  -4.9174  -4.6449  -4.1751  -3.5199
    -2.6755  -1.8120  -1.7683  -1.6551  -1.0875  -1.0253  -0.4941  -0.1235
     0.0973   0.7722   1.0515   1.0543   1.5299   1.7761   2.1333   2.1895
     2.3572   2.7511   3.4433   3.5822   3.7241   4.2252   5.0343   5.0563
     5.0785   5.8023   6.3255   6.4005   6.4751   7.0179   7.3040   7.3622
     7.4070   7.6345   9.4993   9.9477  12.1698  12.5619  12.8096  13.0776
    13.2248  13.4106  13.4204  13.5981

          k = 0.0000-0.1010 0.0000 ( 20851 PWs)   bands (ev):

   -13.3936 -13.0825 -12.5540 -11.8216 -10.8937  -9.7993  -8.5994  -7.4207
    -7.0956  -6.8821  -6.5443  -6.5369  -4.2105  -3.9029  -3.5788  -3.0082
    -2.8571  -2.6646  -1.8822  -0.9381  -0.8208  -0.3484  -0.1584   0.2448
     0.5008   1.0188   1.2344   1.3697   1.7107   1.9508   2.3527   2.4488
     2.4558   2.8953   3.5575   3.6376   3.9298   4.2924   4.8569   5.0297
     5.3004   5.6949   6.0218   6.2339   6.4032   6.6224   6.8619   6.9260
     6.9808   7.1956   9.7180  10.1620  12.3269  12.3297  12.9415  13.3224
    13.4521  13.7615  13.9170  14.1117

          k = 0.0000-0.2020 0.0000 ( 20798 PWs)   bands (ev):

   -12.8340 -12.5264 -12.0048 -11.2850 -10.3821  -9.3511  -9.0073  -8.7541
    -8.2921  -8.2848  -7.7250  -7.5630  -4.9487  -4.6005  -4.1677  -3.5466
    -2.8470  -2.2311  -1.4595  -0.8082  -0.4592   0.5059   0.8649   1.1581
     1.5410   1.8196   1.9798   2.2471   2.3405   2.4674   2.6947   2.8321
     3.2680   3.3139   3.8803   3.9621   4.1281   4.4679   4.9681   4.9908
     5.0928   5.3751   5.5962   5.6496   5.6850   5.6987   5.7015   6.0279
     6.3289   6.3808  10.3620  10.7450  12.2871  12.6429  13.0412  13.4851
    13.5619  13.7342  14.3059  14.5037

          k = 0.0000-0.3030 0.0000 ( 20770 PWs)   bands (ev):

   -11.9087 -11.6095 -11.1063 -10.6357 -10.4165 -10.3402  -9.8349  -9.5916
    -9.1423  -8.7274  -8.3478  -8.0785  -5.3700  -5.0120  -4.5498  -3.8560
    -3.2170  -2.4285  -1.6935  -0.8604  -0.1276   0.7416   1.3148   2.2158
     2.6506   2.7166   3.1182   3.2386   3.2999   3.5190   3.5918   3.7524
     3.8968   3.9537   4.2829   4.3042   4.3093   4.4412   4.5549   4.5764
     4.6995   4.7306   4.7737   4.9432   4.9467   5.0135   5.0489   5.2071
     5.3028   5.3323  11.3730  11.5834  12.4565  12.5477  12.7542  13.1359
    13.4015  13.8450  14.1540  14.4145

          k = 0.1111-0.0000 0.0000 ( 20803 PWs)   bands (ev):

   -13.3542 -13.0427 -12.5133 -11.7791 -10.8469  -9.7418  -8.5121  -7.2268
    -6.0017  -5.1015  -4.8493  -4.7781  -4.7767  -4.5796  -4.1143  -3.4656
    -2.6296  -1.6196  -1.6086  -1.5765  -0.9154  -0.8208  -0.4712   0.0218
     0.2974   0.4996   0.7568   0.7795   1.1573   1.1878   1.2472   1.7719
     2.1209   2.4024   2.4887   3.2896   3.5466   3.6741   4.1114   4.8748
     4.8787   4.9796   5.5243   5.8988   5.9919   6.2701   6.3392   6.5600
     6.5978   7.2436   9.7285  10.1517  12.3361  13.0210  13.1471  13.2736
    13.5809  13.6314  13.8938  14.0890

          k = 0.1111-0.1010 0.0000 ( 20797 PWs)   bands (ev):

   -13.1675 -12.8571 -12.3297 -11.5991 -10.6734  -9.5819  -8.3858  -7.2134
    -6.9121  -6.6988  -6.3532  -6.3502  -4.0577  -3.7592  -3.4389  -2.8748
    -2.7872  -2.6429  -1.7643  -0.8360  -0.7704  -0.2587  -0.1477   0.2991
     0.5360   0.8071   1.0224   1.0803   1.3070   1.4668   1.4715   2.0201
     2.3937   2.4813   2.6895   3.4082   3.5506   3.8888   4.1295   4.6322
     4.7534   4.9967   5.3188   5.3233   5.3517   5.5973   6.1145   6.4330
     6.9094   7.1535   9.9637  10.3858  12.5995  13.1300  13.7050  13.7494
    13.9247  14.1467  14.2645  14.3371

          k = 0.1111-0.2020 0.0000 ( 20800 PWs)   bands (ev):

   -12.6094 -12.3027 -11.7824 -11.0647 -10.1645  -9.1374  -8.8025  -8.5506
    -8.0916  -8.0773  -7.5273  -7.3632  -4.7564  -4.4153  -3.9798  -3.3737
    -2.6785  -2.0748  -1.3710  -0.7474  -0.5984   0.3306   0.6452   0.9978
     1.0673   1.3943   1.7779   1.8168   1.9957   2.2496   2.4733   2.5996
     2.8089   2.9680   3.3734   3.7321   3.8195   3.8303   4.0965   4.1396
     4.2017   4.3152   4.3651   4.3669   4.8235   5.1621   5.6578   6.2078
     6.6510   6.6808  10.6243  11.0081  13.1231  13.1603  13.8117  14.1862
    14.2983  14.8545  14.8558  15.0084

          k = 0.1111-0.3030 0.0000 ( 20773 PWs)   bands (ev):

   -11.6872 -11.3891 -10.8876 -10.4200 -10.2005 -10.1259  -9.6230  -9.3792
    -8.9340  -8.5200  -8.1440  -7.8764  -5.1668  -4.8105  -4.3561  -3.6634
    -3.0371  -2.2487  -1.5370  -0.7038  -0.0363   0.7569   1.0375   1.5827
     1.8029   2.0192   2.2285   2.4502   2.6413   2.8165   2.9952   3.0035
     3.1269   3.3979   3.4851   3.5732   3.8141   3.8704   3.8930   3.9729
     4.1660   4.3637   4.4600   4.5197   4.7217   5.0672   5.2665   5.4111
     5.5836   5.6272  11.6557  11.9232  13.0669  13.0673  13.3938  13.8574
    13.9743  14.5522  14.9667  15.1831

          k = 0.2222-0.0000 0.0000 ( 20844 PWs)   bands (ev):

   -12.6775 -12.3682 -11.8422 -11.1130 -10.1873  -9.0902  -7.8703  -6.5975
    -5.3882  -4.9589  -4.6927  -4.5030  -4.2337  -4.1787  -4.1725  -3.5936
    -2.7690  -1.7733  -1.2020  -1.0214  -1.0167  -0.9344  -0.6417  -0.4879
    -0.4253  -0.2239   0.1130   0.4204   0.5896   0.8410   0.8817   1.4185
     1.6405   1.8103   1.9083   2.4287   2.4520   3.1152   3.3037   3.4037
     3.6448   4.0012   4.1624   4.1966   4.2955   4.6598   4.7118   4.9195
     5.9535   6.8139  10.4485  10.7928  12.4088  12.4680  12.9502  13.0555
    13.1764  13.7944  14.0017  14.1786

          k = 0.2222-0.1010 0.0000 ( 20776 PWs)   bands (ev):

   -12.4924 -12.1842 -11.6606 -10.9353 -10.0166  -8.9338  -7.7492  -6.6005
    -6.4305  -6.2147  -5.8554  -5.7897  -3.7636  -3.4794  -3.2777  -3.1218
    -3.0487  -2.6072  -1.5651  -1.1533  -1.0325  -0.6929  -0.4713  -0.2534
    -0.2286   0.3982   0.4725   0.7069   1.0487   1.1544   1.2320   1.6175
     1.8805   1.9884   2.2468   2.3386   2.7635   2.8865   3.0062   3.0228
     3.1722   3.2264   3.3764   3.7834   4.3299   4.7590   5.4258   5.5230
     6.0033   6.4372  10.6950  11.0456  13.0649  13.1257  13.2474  13.5737
    13.5893  13.8408  14.0921  14.3759

          k = 0.2222-0.2020 0.0000 ( 20759 PWs)   bands (ev):

   -11.9398 -11.6356 -11.1197 -10.4083  -9.5165  -8.5014  -8.2106  -7.9623
    -7.5113  -7.4610  -6.9512  -6.7730  -4.2338  -3.9121  -3.4873  -2.9126
    -2.4062  -2.2186  -2.0871  -1.6757  -0.9690  -0.5265  -0.2601  -0.2174
     0.2529   0.9069   0.9203   1.2204   1.4346   1.5046   1.8285   1.9024
     2.0289   2.2539   2.3294   2.4343   2.6101   2.6304   2.8452   2.9635
     3.0646   3.2013   3.3812   3.6827   4.3497   4.5650   5.3445   5.4574
     6.0794   6.2360  11.3667  11.6970  13.8956  14.2036  14.2862  14.3080
    14.5913  14.7061  14.8638  14.8963

          k = 0.2222-0.3030 0.0000 ( 20801 PWs)   bands (ev):

   -11.0288 -10.7338 -10.2377  -9.7828  -9.5590  -9.4931  -8.9976  -8.7485
    -8.3187  -7.9044  -7.5404  -7.2756  -4.5889  -4.2344  -3.8133  -3.1199
    -2.5604  -1.7717  -1.3157  -1.2285  -1.0881  -0.3780  -0.1481  -0.0187
     0.1267   0.2805   0.5542   0.8659   1.0422   1.2006   1.5193   1.6040
     1.7285   1.8806   2.2128   2.9305   3.2674   3.5368   3.6142   3.7521
     3.9888   4.0127   4.1630   4.1974   4.2653   4.2805   4.8158   5.2056
     5.4897   5.5327  12.3612  12.5900  13.8282  13.8764  14.7049  14.9582
    15.1403  15.1590  15.2222  15.5651

          k = 0.3333-0.0000 0.0000 ( 20766 PWs)   bands (ev):

   -11.5624 -11.2568 -10.7371 -10.0166  -9.1021  -8.0186  -6.8150  -6.2058
    -5.9277  -5.5618  -5.4515  -4.7897  -4.3760  -3.9432  -3.5120  -3.1881
    -3.1702  -2.9300  -1.7903  -1.5263  -1.2781  -0.8652  -0.5744  -0.3182
    -0.1736  -0.0994   0.2944   0.3265   0.6470   0.7082   0.9483   1.0035
     1.6043   1.6194   1.6565   1.7974   1.9571   2.0257   2.1018   2.2726
     2.4698   2.6918   2.6930   2.8997   2.9478   2.9544   3.0152   4.0740
     5.2184   6.0418  11.5792  11.7347  12.1025  12.2459  12.7641  12.8678
    13.6446  13.9188  14.3469  14.6683

          k = 0.3333-0.1010 0.0000 ( 20794 PWs)   bands (ev):

   -11.3810 -11.0767 -10.5597  -9.8437  -8.9370  -7.8691  -6.7050  -6.4140
    -6.1456  -5.7384  -5.5371  -5.2028  -4.1198  -4.1095  -3.9552  -3.8901
    -3.7697  -3.0379  -1.9561  -1.4152  -1.1129  -0.9443  -0.7922  -0.3825
    -0.1491  -0.1163   0.2594   0.6360   0.6978   0.7493   0.7667   1.0165
     1.0985   1.4892   1.6423   1.7135   1.9304   1.9949   2.0842   2.1861
     2.3158   2.6828   2.8612   2.8742   3.4888   3.8346   3.9469   4.1477
     5.0301   5.8510  11.8536  12.0730  12.7571  12.7640  13.1254  13.1403
    13.5514  13.8379  14.2697  14.4660

          k = 0.3333-0.2020 0.0000 ( 20813 PWs)   bands (ev):

   -10.8409 -10.5414 -10.0333  -9.3329  -8.4556  -7.4794  -7.3918  -7.1604
    -6.7131  -6.4716  -6.1181  -5.8517  -4.3252  -4.0792  -3.8667  -3.6523
    -3.5182  -3.4715  -2.5637  -1.7746  -1.4473  -1.3995  -1.0290  -0.8881
    -0.8364  -0.6718  -0.5856  -0.5360   0.2506   0.3915   0.7682   0.9085
     1.6299   1.8309   2.1125   2.2081   2.4543   2.4847   2.6085   2.7227
     2.8972   2.9240   3.0690   3.3474   3.4397   3.9717   4.5122   4.7466
     5.2185   5.3689  12.4871  12.6911  13.7877  13.7932  14.2009  14.2500
    14.4973  14.6455  14.7575  14.8982

          k = 0.3333-0.3030 0.0000 ( 20863 PWs)   bands (ev):

    -9.9585  -9.6693  -9.1828  -8.7784  -8.5196  -8.4969  -8.0134  -7.7281
    -7.3478  -6.9092  -6.5758  -6.3002  -3.8407  -3.6412  -3.4629  -3.3861
    -3.2547  -2.9584  -2.7248  -2.5149  -2.4313  -2.2656  -1.8920  -1.7419
    -1.1791  -1.0664  -0.4401  -0.4400  -0.2659  -0.1261   0.1973   0.7532
     1.4375   1.9541   2.1909   2.2069   2.6122   2.6165   2.9717   3.4264
     3.5114   3.5198   3.8303   3.9787   4.2453   4.3053   4.4466   4.5050
     5.0510   5.2302  13.2616  13.3595  14.6876  14.7302  14.8942  14.9938
    15.2503  15.5441  15.6561  15.7236

          k = 0.4444-0.0000 0.0000 ( 20772 PWs)   bands (ev):

   -10.0368  -9.7369  -9.2267  -8.5194  -8.1723  -7.8811  -7.6214  -7.3847
    -6.6964  -6.5573  -5.8209  -5.3756  -4.7812  -4.1463  -3.6236  -2.9848
    -2.4138  -2.1404  -1.8162  -1.7835  -1.2596  -0.5305  -0.4138  -0.3235
    -0.0853  -0.0360   0.0130   0.4342   0.8165   0.8865   0.9693   1.0495
     1.1000   1.1912   1.2865   1.3333   1.4192   1.5402   1.5576   1.6781
     1.7105   1.7310   1.7636   1.8828   2.1556   2.9481   3.0741   3.8021
     4.1590   4.9823  12.1997  12.2189  12.7466  12.7684  13.0759  13.0804
    13.3516  13.6057  13.6460  13.7106

          k = 0.4444-0.1010 0.0000 ( 20816 PWs)   bands (ev):

    -9.8648  -9.5667  -9.0598  -8.3580  -8.0396  -7.7514  -7.4688  -7.2602
    -6.5801  -6.4212  -5.7188  -5.2833  -4.6755  -4.1135  -3.5666  -3.2279
    -3.2215  -3.0194  -2.9021  -2.4437  -1.5584  -1.4943  -1.3280  -1.2334
    -0.4635  -0.2192   0.0211   0.4002   0.7482   0.8913   0.9679   1.0019
     1.0856   1.3604   1.4754   1.6542   1.7201   1.8208   1.9142   1.9604
     2.1929   2.2439   2.3669   2.4791   2.6313   3.0783   3.1652   3.8962
     4.1491   4.9634  12.7753  12.8300  12.8589  12.9628  13.0290  13.3035
    13.5424  13.8293  14.0259  14.1560

          k = 0.4444-0.2020 0.0000 ( 20837 PWs)   bands (ev):

    -9.3613  -9.0692  -8.5733  -7.8902  -7.7376  -7.4608  -7.0307  -6.9869
    -6.3346  -6.0450  -5.5236  -5.0968  -4.7754  -4.5379  -4.3765  -4.2283
    -3.9567  -3.8203  -3.4891  -3.2050  -2.9694  -2.7511  -2.5218  -2.3722
    -1.0865  -0.7970  -0.5367   0.0930   0.1178   0.3539   0.5461   0.7577
     1.2293   1.3942   1.5653   1.6997   2.0005   2.3437   2.6273   2.6820
     2.8073   3.0482   3.1037   3.2826   3.5441   3.7696   3.9574   4.1080
     4.1828   4.8821  13.4782  13.5594  13.7830  13.8696  14.0688  14.1417
    14.3562  14.3697  14.6387  14.8794

          k = 0.4444-0.3030 0.0000 ( 20868 PWs)   bands (ev):

    -8.5866  -8.3067  -7.8353  -7.8127  -7.5398  -7.2094  -7.0560  -6.5146
    -6.3220  -5.7566  -5.4669  -5.3494  -5.1169  -5.0544  -4.6526  -4.6046
    -4.3475  -4.2182  -3.9359  -3.8255  -3.8098  -3.5926  -3.3328  -3.1473
    -1.1956  -1.0587  -0.6960  -0.6568  -0.2943   0.1233   0.4012   0.6746
     0.8674   1.2574   1.3777   1.6473   2.1717   2.3792   2.6809   2.6904
     3.3060   3.4243   3.6827   3.8748   4.0723   4.2592   4.4783   4.4856
     4.7128   4.7934  14.0181  14.0312  14.6774  14.6914  15.2396  15.3474
    15.7360  15.8149  15.8418  15.8900

     the Fermi energy is     8.2457 ev

!    total energy              =    -447.15217182 Ry
     estimated scf accuracy    <          1.2E-10 Ry
     smearing contrib. (-TS)   =       0.00000000 Ry
     internal energy E=F+TS    =    -447.15217182 Ry

     The total energy is F=E-TS. E is the sum of the following terms:
     one-electron contribution =   -3118.81316050 Ry
     hartree contribution      =    1615.59137734 Ry
     xc contribution           =    -115.33490403 Ry
     ewald contribution        =    1319.31516504 Ry
     one-center paw contrib.   =    -147.91064967 Ry

     convergence has been achieved in   7 iterations

     negative rho (up, down):  3.027E-06 0.000E+00

     Forces acting on atoms (cartesian axes, Ry/au):

     atom    1 type  1   force =    -0.00000000    0.00030789    0.00021766
     atom    2 type  1   force =    -0.00000000   -0.00030789    0.00021766
     atom    3 type  1   force =     0.00000000   -0.00002410    0.00021714
     atom    4 type  1   force =     0.00000000    0.00002410    0.00021714
     atom    5 type  1   force =     0.00000000    0.00005775   -0.00024739
     atom    6 type  1   force =     0.00000000   -0.00005775   -0.00024739
     atom    7 type  1   force =     0.00000000   -0.00004380   -0.00062406
     atom    8 type  1   force =     0.00000000    0.00004380   -0.00062406
     atom    9 type  1   force =     0.00000000    0.00006977   -0.00054635
     atom   10 type  1   force =     0.00000000   -0.00006977   -0.00054635
     atom   11 type  1   force =     0.00000000    0.00005979   -0.00019917
     atom   12 type  1   force =     0.00000000   -0.00005979   -0.00019917
     atom   13 type  1   force =     0.00000000    0.00005979    0.00019917
     atom   14 type  1   force =     0.00000000   -0.00005979    0.00019917
     atom   15 type  1   force =     0.00000000   -0.00006977    0.00054635
     atom   16 type  1   force =     0.00000000    0.00006977    0.00054635
     atom   17 type  1   force =     0.00000000   -0.00004380    0.00062406
     atom   18 type  1   force =     0.00000000    0.00004380    0.00062406
     atom   19 type  1   force =     0.00000000    0.00005775    0.00024739
     atom   20 type  1   force =     0.00000000   -0.00005775    0.00024739
     atom   21 type  1   force =     0.00000000   -0.00002410   -0.00021714
     atom   22 type  1   force =     0.00000000    0.00002410   -0.00021714
     atom   23 type  1   force =    -0.00000000    0.00030789   -0.00021766
     atom   24 type  1   force =     0.00000000   -0.00030789   -0.00021766
     atom   25 type  2   force =     0.00000000   -0.00020951   -0.00029984
     atom   26 type  2   force =     0.00000000    0.00020951   -0.00029984
     atom   27 type  2   force =     0.00000000   -0.00020951    0.00029984
     atom   28 type  2   force =     0.00000000    0.00020951    0.00029984

     Total force =     0.002122     Total SCF correction =     0.000017
     Energy error            =      1.0E-05 Ry
     Gradient error          =      6.2E-04 Ry/Bohr

     number of scf cycles    =   9
     number of bfgs steps    =   8

     energy             old  =    -447.1521616361 Ry
     energy             new  =    -447.1521718160 Ry

     CASE: energy            _new < energy            _old

     new trust radius        =       0.0014918617 bohr
     new conv_thr            =       0.0000000001 Ry


ATOMIC_POSITIONS (angstrom)
C               -0.0000000000       -0.9125050371       18.7641176574
C                1.2634728900       -1.7677257129       18.7641176574
C                1.2634728900       -2.6831169322       17.5286419786
C               -0.0000000000        0.0028861822       17.5286419786
C                0.0000000000       -0.8928752385       16.2623672884
C                1.2634728900       -1.7873555115       16.2623672884
C                1.2634728900       -2.6802537328       14.9992401775
C                0.0000000000        0.0000229828       14.9992401775
C                1.2634728900       -1.7868122522       13.7355304096
C                0.0000000000       -0.8934184978       13.7355304096
C                0.0000000000       -0.0000580574       12.4713124199
C                1.2634728900       -2.6801726926       12.4713124199
C                1.2634728900       -1.7868785574       11.2068519401
C               -0.0000000000       -0.8933521926       11.2068519401
C                1.2634728900       -2.6802389978        9.9426339504
C                0.0000000000        0.0000082478        9.9426339504
C               -0.0000000000       -0.8934332328        8.6789241825
C                1.2634728900       -1.7867975172        8.6789241825
C                1.2634728900       -2.6796957385        7.4157970716
C                0.0000000000       -0.0005350115        7.4157970716
C                0.0000000000       -0.8962964322        6.1495223914
C                1.2634728900       -1.7839343178        6.1495223914
C                1.2634728900       -2.6993255371        4.9140467026
C               -0.0000000000        0.0190947871        4.9140467026
H                0.0000000000       -0.3129273319       19.6855828152
H                1.2634728900       -2.3673034181       19.6855828152
H                1.2634728900       -2.0997478319        3.9925815448
H               -0.0000000000       -0.5804829181        3.9925815448



     Writing config-only to output data dir /tmp/qe/slab.save/ :
     XML data file
     NEW-OLD atomic charge density approx. for the potential

     Check: negative core charge=   -0.000001

     negative rho (up, down):  3.011E-06 0.000E+00

     total cpu time spent up to now is      366.2 secs

     Self-consistent Calculation

     iteration #  1     ecut=    90.00 Ry     beta= 0.30
     Davidson diagonalization with overlap
     ethr =  1.00E-06,  avg # of iterations =  2.0

     Threshold (ethr) on eigenvalues was too large:
     Diagonalizing with lowered threshold

     Davidson diagonalization with overlap
     ethr =  1.86E-09,  avg # of iterations =  4.8

     negative rho (up, down):  3.015E-06 0.000E+00

     total cpu time spent up to now is      377.0 secs

     total energy              =    -447.15217680 Ry
     estimated scf accuracy    <       0.00000210 Ry

     iteration #  2     ecut=    90.00 Ry     beta= 0.30
     Davidson diagonalization with overlap
     ethr =  2.10E-09,  avg # of iterations =  2.0

     negative rho (up, down):  3.022E-06 0.000E+00

     total cpu time spent up to now is      381.1 secs

     total energy              =    -447.15217682 Ry
     estimated scf accuracy    <       0.00000064 Ry

     iteration #  3     ecut=    90.00 Ry     beta= 0.30
     Davidson diagonalization with overlap
     ethr =  6.42E-10,  avg # of iterations =  1.1

     negative rho (up, down):  3.029E-06 0.000E+00

     total cpu time spent up to now is      384.9 secs

     total energy              =    -447.15217681 Ry
     estimated scf accuracy    <       0.00000018 Ry

     iteration #  4     ecut=    90.00 Ry     beta= 0.30
     Davidson diagonalization with overlap
     ethr =  1.80E-10,  avg # of iterations =  2.0

     negative rho (up, down):  3.029E-06 0.000E+00

     total cpu time spent up to now is      389.1 secs

     total energy              =    -447.15217683 Ry
     estimated scf accuracy    <       0.00000001 Ry

     iteration #  5     ecut=    90.00 Ry     beta= 0.30
     Davidson diagonalization with overlap
     ethr =  1.02E-11,  avg # of iterations =  3.1

     negative rho (up, down):  3.029E-06 0.000E+00

     total cpu time spent up to now is      394.3 secs

     total energy              =    -447.15217684 Ry
     estimated scf accuracy    <          4.2E-09 Ry

     iteration #  6     ecut=    90.00 Ry     beta= 0.30
     Davidson diagonalization with overlap
     ethr =  4.15E-12,  avg # of iterations =  2.1

     negative rho (up, down):  3.029E-06 0.000E+00

     total cpu time spent up to now is      398.6 secs

     total energy              =    -447.15217684 Ry
     estimated scf accuracy    <          3.9E-10 Ry

     iteration #  7     ecut=    90.00 Ry     beta= 0.30
     Davidson diagonalization with overlap
     ethr =  3.94E-13,  avg # of iterations =  2.5

     negative rho (up, down):  3.028E-06 0.000E+00

     total cpu time spent up to now is      403.3 secs

     End of self-consistent calculation

          k = 0.0000-0.0000 0.0000 ( 20853 PWs)   bands (ev):

   -13.5824 -13.2671 -12.7368 -12.0019 -11.0676  -9.9599  -8.7270  -7.4377
    -6.2072  -5.3013  -4.9821  -4.9763  -4.9191  -4.6426  -4.1734  -3.5194
    -2.6751  -1.8108  -1.7671  -1.6548  -1.0874  -1.0259  -0.4937  -0.1231
     0.0965   0.7723   1.0517   1.0548   1.5283   1.7776   2.1332   2.1908
     2.3575   2.7515   3.4438   3.5817   3.7244   4.2259   5.0349   5.0558
     5.0788   5.8026   6.3262   6.4002   6.4752   7.0179   7.3036   7.3626
     7.4066   7.6336   9.4988   9.9473  12.1694  12.5605  12.8108  13.0795
    13.2259  13.4108  13.4194  13.5984

          k = 0.0000-0.1010 0.0000 ( 20851 PWs)   bands (ev):

   -13.3952 -13.0809 -12.5526 -11.8212 -10.8934  -9.7989  -8.5991  -7.4204
    -7.0971  -6.8804  -6.5449  -6.5362  -4.2098  -3.9022  -3.5782  -3.0076
    -2.8566  -2.6663  -1.8817  -0.9368  -0.8192  -0.3485  -0.1585   0.2432
     0.5014   1.0189   1.2349   1.3701   1.7092   1.9523   2.3540   2.4491
     2.4555   2.8957   3.5579   3.6380   3.9292   4.2930   4.8575   5.0304
     5.2996   5.6953   6.0228   6.2341   6.4032   6.6226   6.8616   6.9268
     6.9796   7.1947   9.7175  10.1616  12.3267  12.3294  12.9424  13.3230
    13.4524  13.7627  13.9171  14.1115

          k = 0.0000-0.2020 0.0000 ( 20798 PWs)   bands (ev):

   -12.8355 -12.5248 -12.0034 -11.2846 -10.3817  -9.3506  -9.0089  -8.7524
    -8.2910  -8.2846  -7.7250  -7.5631  -4.9484  -4.6009  -4.1665  -3.5456
    -2.8472  -2.2308  -1.4598  -0.8087  -0.4602   0.5065   0.8659   1.1583
     1.5404   1.8193   1.9809   2.2456   2.3403   2.4689   2.6947   2.8333
     3.2684   3.3143   3.8809   3.9614   4.1286   4.4687   4.9686   4.9916
     5.0929   5.3758   5.5972   5.6490   5.6857   5.6979   5.7009   6.0297
     6.3271   6.3818  10.3615  10.7445  12.2873  12.6428  13.0412  13.4853
    13.5625  13.7335  14.3068  14.5029

          k = 0.0000-0.3030 0.0000 ( 20770 PWs)   bands (ev):

   -11.9102 -11.6078 -11.1049 -10.6370 -10.4162 -10.3385  -9.8338  -9.5912
    -9.1422  -8.7270  -8.3479  -8.0784  -5.3699  -5.0126  -4.5483  -3.8546
    -3.2173  -2.4282  -1.6941  -0.8609  -0.1278   0.7412   1.3142   2.2160
     2.6503   2.7160   3.1169   3.2401   3.3013   3.5193   3.5930   3.7524
     3.8969   3.9543   4.2817   4.3045   4.3106   4.4419   4.5560   4.5758
     4.7001   4.7313   4.7741   4.9427   4.9460   5.0152   5.0488   5.2063
     5.3046   5.3331  11.3726  11.5831  12.4565  12.5478  12.7538  13.1356
    13.4014  13.8446  14.1541  14.4139

          k = 0.1111-0.0000 0.0000 ( 20803 PWs)   bands (ev):

   -13.3558 -13.0411 -12.5120 -11.7787 -10.8466  -9.7415  -8.5118  -7.2267
    -6.0018  -5.1013  -4.8510  -4.7795  -4.7765  -4.5773  -4.1126  -3.4651
    -2.6292  -1.6192  -1.6074  -1.5752  -0.9154  -0.8214  -0.4709   0.0221
     0.2966   0.4980   0.7582   0.7797   1.1576   1.1891   1.2477   1.7723
     2.1207   2.4027   2.4891   3.2902   3.5461   3.6744   4.1120   4.8751
     4.8792   4.9790   5.5245   5.8997   5.9917   6.2698   6.3388   6.5592
     6.5971   7.2440   9.7281  10.1514  12.3362  13.0224  13.1459  13.2755
    13.5812  13.6305  13.8949  14.0876

          k = 0.1111-0.1010 0.0000 ( 20797 PWs)   bands (ev):

   -13.1690 -12.8554 -12.3284 -11.5987 -10.6731  -9.5816  -8.3855  -7.2132
    -6.9137  -6.6970  -6.3525  -6.3507  -4.0570  -3.7585  -3.4383  -2.8743
    -2.7867  -2.6446  -1.7638  -0.8346  -0.7688  -0.2590  -0.1477   0.2979
     0.5359   0.8061   1.0237   1.0803   1.3072   1.4675   1.4726   2.0205
     2.3940   2.4809   2.6900   3.4087   3.5511   3.8881   4.1301   4.6331
     4.7538   4.9962   5.3191   5.3236   5.3519   5.5962   6.1150   6.4327
     6.9101   7.1526   9.9632  10.3855  12.5994  13.1314  13.7060  13.7484
    13.9249  14.1464  14.2652  14.3376

          k = 0.1111-0.2020 0.0000 ( 20800 PWs)   bands (ev):

   -12.6110 -12.3010 -11.7811 -11.0643 -10.1642  -9.1369  -8.8041  -8.5489
    -8.0905  -8.0771  -7.5273  -7.3633  -4.7561  -4.4156  -3.9785  -3.3727
    -2.6787  -2.0745  -1.3711  -0.7488  -0.5987   0.3319   0.6470   0.9974
     1.0659   1.3946   1.7772   1.8174   1.9962   2.2509   2.4734   2.5997
     2.8091   2.9685   3.3738   3.7308   3.8198   3.8308   4.0979   4.1412
     4.2026   4.3140   4.3645   4.3669   4.8241   5.1621   5.6584   6.2087
     6.6514   6.6796  10.6238  11.0077  13.1241  13.1600  13.8115  14.1860
    14.2984  14.8542  14.8556  15.0085

          k = 0.1111-0.3030 0.0000 ( 20773 PWs)   bands (ev):

   -11.6888 -11.3874 -10.8862 -10.4213 -10.2003 -10.1242  -9.6219  -9.3788
    -8.9339  -8.5196  -8.1441  -7.8763  -5.1667  -4.8111  -4.3545  -3.6621
    -3.0374  -2.2484  -1.5376  -0.7043  -0.0364   0.7557   1.0372   1.5841
     1.8033   2.0192   2.2273   2.4501   2.6422   2.8179   2.9959   3.0037
     3.1269   3.3975   3.4848   3.5741   3.8138   3.8706   3.8944   3.9731
     4.1666   4.3635   4.4592   4.5202   4.7229   5.0678   5.2667   5.4125
     5.5834   5.6269  11.6553  11.9229  13.0664  13.0671  13.3945  13.8576
    13.9739  14.5517  14.9666  15.1831

          k = 0.2222-0.0000 0.0000 ( 20844 PWs)   bands (ev):

   -12.6791 -12.3665 -11.8409 -11.1126 -10.1870  -9.0899  -7.8700  -6.5973
    -5.3883  -4.9606  -4.6905  -4.5029  -4.2320  -4.1786  -4.1739  -3.5931
    -2.7687  -1.7729  -1.2035  -1.0202  -1.0155  -0.9329  -0.6414  -0.4866
    -0.4253  -0.2245   0.1133   0.4208   0.5897   0.8415   0.8810   1.4187
     1.6411   1.8108   1.9081   2.4293   2.4523   3.1155   3.3033   3.4040
     3.6450   4.0014   4.1632   4.1964   4.2944   4.6613   4.7113   4.9185
     5.9532   6.8142  10.4483  10.7929  12.4092  12.4675  12.9505  13.0567
    13.1754  13.7957  14.0019  14.1773

          k = 0.2222-0.1010 0.0000 ( 20776 PWs)   bands (ev):

   -12.4940 -12.1826 -11.6592 -10.9349 -10.0163  -8.9335  -7.7489  -6.6002
    -6.4322  -6.2129  -5.8546  -5.7901  -3.7627  -3.4783  -3.2769  -3.1241
    -3.0481  -2.6068  -1.5644  -1.1524  -1.0308  -0.6937  -0.4732  -0.2532
    -0.2284   0.3998   0.4741   0.7069   1.0485   1.1544   1.2311   1.6178
     1.8812   1.9890   2.2473   2.3383   2.7641   2.8866   3.0066   3.0213
     3.1738   3.2266   3.3763   3.7834   4.3302   4.7588   5.4260   5.5231
     6.0024   6.4377  10.6947  11.0456  13.0655  13.1252  13.2475  13.5748
    13.5881  13.8413  14.0935  14.3755

          k = 0.2222-0.2020 0.0000 ( 20759 PWs)   bands (ev):

   -11.9413 -11.6340 -11.1184 -10.4079  -9.5162  -8.5009  -8.2123  -7.9606
    -7.5102  -7.4608  -6.9512  -6.7731  -4.2335  -3.9123  -3.4862  -2.9117
    -2.4056  -2.2208  -2.0860  -1.6754  -0.9678  -0.5254  -0.2605  -0.2181
     0.2534   0.9060   0.9207   1.2207   1.4330   1.5055   1.8293   1.9034
     2.0291   2.2541   2.3295   2.4348   2.6100   2.6309   2.8456   2.9632
     3.0640   3.2014   3.3824   3.6831   4.3493   4.5655   5.3445   5.4580
     6.0799   6.2351  11.3663  11.6968  13.8959  14.2049  14.2862  14.3077
    14.5913  14.7064  14.8640  14.8952

          k = 0.2222-0.3030 0.0000 ( 20801 PWs)   bands (ev):

   -11.0303 -10.7321 -10.2363  -9.7841  -9.5587  -9.4915  -8.9964  -8.7482
    -8.3186  -7.9039  -7.5405  -7.2755  -4.5888  -4.2350  -3.8118  -3.1186
    -2.5607  -1.7713  -1.3150  -1.2310  -1.0870  -0.3775  -0.1471  -0.0207
     0.1278   0.2808   0.5545   0.8665   1.0427   1.2011   1.5204   1.6035
     1.7281   1.8807   2.2124   2.9305   3.2669   3.5367   3.6140   3.7522
     3.9899   4.0150   4.1629   4.1973   4.2651   4.2807   4.8162   5.2065
     5.4884   5.5330  12.3609  12.5898  13.8276  13.8760  14.7063  14.9579
    15.1402  15.1598  15.2214  15.5654

          k = 0.3333-0.0000 0.0000 ( 20766 PWs)   bands (ev):

   -11.5640 -11.2551 -10.7357 -10.0162  -9.1018  -8.0183  -6.8147  -6.2075
    -5.9258  -5.5617  -5.4500  -4.7892  -4.3761  -3.9428  -3.5118  -3.1880
    -3.1715  -2.9297  -1.7899  -1.5279  -1.2764  -0.8638  -0.5742  -0.3178
    -0.1726  -0.0982   0.2942   0.3270   0.6468   0.7075   0.9488   1.0040
     1.6042   1.6200   1.6569   1.7967   1.9569   2.0244   2.1024   2.2728
     2.4703   2.6923   2.6929   2.8988   2.9488   2.9567   3.0152   4.0736
     5.2180   6.0422  11.5794  11.7352  12.1021  12.2454  12.7639  12.8678
    13.6443  13.9191  14.3467  14.6698

          k = 0.3333-0.1010 0.0000 ( 20794 PWs)   bands (ev):

   -11.3825 -11.0751 -10.5583  -9.8433  -8.9367  -7.8687  -6.7046  -6.4156
    -6.1438  -5.7371  -5.5370  -5.2026  -4.1188  -4.1105  -3.9548  -3.8901
    -3.7697  -3.0376  -1.9557  -1.4143  -1.1118  -0.9443  -0.7922  -0.3823
    -0.1485  -0.1180   0.2595   0.6351   0.6990   0.7497   0.7665   1.0183
     1.0996   1.4882   1.6430   1.7128   1.9314   1.9945   2.0832   2.1869
     2.3170   2.6828   2.8617   2.8747   3.4894   3.8348   3.9472   4.1467
     5.0296   5.8513  11.8537  12.0734  12.7568  12.7637  13.1250  13.1406
    13.5510  13.8383  14.2699  14.4658

          k = 0.3333-0.2020 0.0000 ( 20813 PWs)   bands (ev):

   -10.8425 -10.5398 -10.0319  -9.3325  -8.4552  -7.4792  -7.3931  -7.1587
    -6.7118  -6.4713  -6.1181  -5.8517  -4.3266  -4.0777  -3.8658  -3.6520
    -3.5177  -3.4718  -2.5631  -1.7734  -1.4467  -1.3999  -1.0304  -0.8872
    -0.8356  -0.6710  -0.5862  -0.5356   0.2510   0.3914   0.7682   0.9088
     1.6289   1.8311   2.1123   2.2080   2.4557   2.4860   2.6091   2.7231
     2.8967   2.9235   3.0685   3.3484   3.4400   3.9715   4.5122   4.7465
     5.2176   5.3694  12.4870  12.6912  13.7874  13.7930  14.2011  14.2505
    14.4977  14.6452  14.7581  14.8986

          k = 0.3333-0.3030 0.0000 ( 20863 PWs)   bands (ev):

    -9.9600  -9.6676  -9.1813  -8.7797  -8.5193  -8.4952  -8.0122  -7.7277
    -7.3477  -6.9087  -6.5760  -6.3001  -3.8405  -3.6425  -3.4633  -3.3846
    -3.2533  -2.9575  -2.7247  -2.5152  -2.4317  -2.2640  -1.8912  -1.7419
    -1.1790  -1.0663  -0.4397  -0.4392  -0.2658  -0.1263   0.1977   0.7528
     1.4373   1.9538   2.1906   2.2068   2.6134   2.6164   2.9722   3.4270
     3.5109   3.5203   3.8299   3.9797   4.2438   4.3060   4.4471   4.5048
     5.0515   5.2293  13.2620  13.3600  14.6873  14.7296  14.8940  14.9933
    15.2515  15.5443  15.6565  15.7241

          k = 0.4444-0.0000 0.0000 ( 20772 PWs)   bands (ev):

   -10.0384  -9.7352  -9.2253  -8.5190  -8.1739  -7.8793  -7.6211  -7.3833
    -6.6960  -6.5569  -5.8206  -5.3753  -4.7808  -4.1462  -3.6233  -2.9849
    -2.4137  -2.1403  -1.8161  -1.7848  -1.2596  -0.5321  -0.4137  -0.3218
    -0.0854  -0.0373   0.0144   0.4347   0.8174   0.8869   0.9715   1.0479
     1.0989   1.1927   1.2867   1.3344   1.4184   1.5391   1.5578   1.6791
     1.7127   1.7328   1.7645   1.8825   2.1558   2.9475   3.0738   3.8026
     4.1584   4.9827  12.1994  12.2188  12.7467  12.7688  13.0755  13.0802
    13.3518  13.6055  13.6461  13.7110

          k = 0.4444-0.1010 0.0000 ( 20816 PWs)   bands (ev):

    -9.8663  -9.5650  -9.0584  -8.3576  -8.0411  -7.7496  -7.4685  -7.2588
    -6.5797  -6.4208  -5.7185  -5.2830  -4.6752  -4.1133  -3.5662  -3.2270
    -3.2227  -3.0195  -2.9019  -2.4435  -1.5577  -1.4956  -1.3280  -1.2332
    -0.4629  -0.2185   0.0215   0.4008   0.7484   0.8919   0.9684   1.0002
     1.0861   1.3608   1.4759   1.6548   1.7207   1.8228   1.9139   1.9615
     2.1919   2.2433   2.3689   2.4770   2.6328   3.0776   3.1649   3.8967
     4.1485   4.9638  12.7751  12.8297  12.8589  12.9628  13.0295  13.3037
    13.5428  13.8293  14.0257  14.1558

          k = 0.4444-0.2020 0.0000 ( 20837 PWs)   bands (ev):

    -9.3628  -9.0675  -8.5719  -7.8898  -7.7392  -7.4590  -7.0304  -6.9854
    -6.3341  -6.0446  -5.5233  -5.0965  -4.7768  -4.5366  -4.3762  -4.2274
    -3.9568  -3.8205  -3.4886  -3.2064  -2.9682  -2.7503  -2.5219  -2.3724
    -1.0862  -0.7974  -0.5354   0.0940   0.1182   0.3535   0.5464   0.7582
     1.2296   1.3952   1.5651   1.6991   2.0010   2.3438   2.6282   2.6808
     2.8069   3.0496   3.1037   3.2828   3.5430   3.7700   3.9569   4.1076
     4.1829   4.8825  13.4788  13.5602  13.7833  13.8704  14.0688  14.1422
    14.3559  14.3695  14.6391  14.8795

          k = 0.4444-0.3030 0.0000 ( 20868 PWs)   bands (ev):

    -8.5882  -8.3049  -7.8339  -7.8142  -7.5380  -7.2087  -7.0548  -6.5141
    -6.3217  -5.7561  -5.4668  -5.3509  -5.1159  -5.0539  -4.6515  -4.6061
    -4.3462  -4.2177  -3.9354  -3.8251  -3.8094  -3.5924  -3.3330  -3.1474
    -1.1955  -1.0588  -0.6953  -0.6562  -0.2936   0.1238   0.4016   0.6750
     0.8672   1.2579   1.3777   1.6478   2.1712   2.3792   2.6806   2.6907
     3.3055   3.4243   3.6830   3.8744   4.0723   4.2592   4.4775   4.4861
     4.7132   4.7927  14.0194  14.0325  14.6784  14.6924  15.2390  15.3473
    15.7347  15.8138  15.8425  15.8914

     the Fermi energy is     8.2461 ev

!    total energy              =    -447.15217684 Ry
     estimated scf accuracy    <          4.8E-11 Ry
     smearing contrib. (-TS)   =       0.00000000 Ry
     internal energy E=F+TS    =    -447.15217684 Ry

     The total energy is F=E-TS. E is the sum of the following terms:
     one-electron contribution =   -3119.39101987 Ry
     hartree contribution      =    1615.88098810 Ry
     xc contribution           =    -115.33446340 Ry
     ewald contribution        =    1319.60295598 Ry
     one-center paw contrib.   =    -147.91063764 Ry

     convergence has been achieved in   7 iterations

     negative rho (up, down):  3.028E-06 0.000E+00

     Forces acting on atoms (cartesian axes, Ry/au):

     atom    1 type  1   force =     0.00000000   -0.00004829   -0.00013477
     atom    2 type  1   force =     0.00000000    0.00004829   -0.00013477
     atom    3 type  1   force =     0.00000000    0.00001293    0.00014979
     atom    4 type  1   force =     0.00000000   -0.00001293    0.00014979
     atom    5 type  1   force =    -0.00000000    0.00007788    0.00004099
     atom    6 type  1   force =     0.00000000   -0.00007788    0.00004099
     atom    7 type  1   force =     0.00000000    0.00008131   -0.00031022
     atom    8 type  1   force =     0.00000000   -0.00008131   -0.00031022
     atom    9 type  1   force =     0.00000000   -0.00002561   -0.00042367
     atom   10 type  1   force =     0.00000000    0.00002561   -0.00042367
     atom   11 type  1   force =     0.00000000    0.00000779   -0.00019048
     atom   12 type  1   force =     0.00000000   -0.00000779   -0.00019048
     atom   13 type  1   force =     0.00000000    0.00000779    0.00019048
     atom   14 type  1   force =     0.00000000   -0.00000779    0.00019048
     atom   15 type  1   force =     0.00000000    0.00002561    0.00042367
     atom   16 type  1   force =     0.00000000   -0.00002561    0.00042367
     atom   17 type  1   force =     0.00000000    0.00008131    0.00031022
     atom   18 type  1   force =     0.00000000   -0.00008131    0.00031022
     atom   19 type  1   force =     0.00000000    0.00007788   -0.00004099
     atom   20 type  1   force =    -0.00000000   -0.00007788   -0.00004099
     atom   21 type  1   force =     0.00000000    0.00001293   -0.00014979
     atom   22 type  1   force =     0.00000000   -0.00001293   -0.00014979
     atom   23 type  1   force =     0.00000000   -0.00004829    0.00013477
     atom   24 type  1   force =     0.00000000    0.00004829    0.00013477
     atom   25 type  2   force =     0.00000000   -0.00009167   -0.00028187
     atom   26 type  2   force =     0.00000000    0.00009167   -0.00028187
     atom   27 type  2   force =     0.00000000   -0.00009167    0.00028187
     atom   28 type  2   force =     0.00000000    0.00009167    0.00028187

     Total force =     0.001354     Total SCF correction =     0.000017
     Energy error            =      5.0E-06 Ry
     Gradient error          =      4.2E-04 Ry/Bohr

     number of scf cycles    =  10
     number of bfgs steps    =   9

     energy             old  =    -447.1521718160 Ry
     energy             new  =    -447.1521768369 Ry

     CASE: energy            _new < energy            _old

     new trust radius        =       0.0011104691 bohr
     new conv_thr            =            1.0E-10 Ry


ATOMIC_POSITIONS (angstrom)
C               -0.0000000000       -0.9124932408       18.7640675204
C                1.2634728900       -1.7677375092       18.7640675204
C                1.2634728900       -2.6830856295       17.5286226347
C               -0.0000000000        0.0028548795       17.5286226347
C                0.0000000000       -0.8928029194       16.2620510120
C                1.2634728900       -1.7874278306       16.2620510120
C                1.2634728900       -2.6802101763       14.9986541590
C                0.0000000000       -0.0000205737       14.9986541590
C                1.2634728900       -1.7868151142       13.7349954921
C                0.0000000000       -0.8934156358       13.7349954921
C                0.0000000000       -0.0000470382       12.4711028725
C                1.2634728900       -2.6801837118       12.4711028725
C                1.2634728900       -1.7868675382       11.2070614875
C               -0.0000000000       -0.8933632118       11.2070614875
C                1.2634728900       -2.6802361358        9.9431688679
C                0.0000000000        0.0000053858        9.9431688679
C               -0.0000000000       -0.8933896763        8.6795102010
C                1.2634728900       -1.7868410737        8.6795102010
C                1.2634728900       -2.6796234194        7.4161133480
C                0.0000000000       -0.0006073306        7.4161133480
C                0.0000000000       -0.8962651295        6.1495417353
C                1.2634728900       -1.7839656205        6.1495417353
C                1.2634728900       -2.6993137408        4.9140968396
C               -0.0000000000        0.0190829908        4.9140968396
H                0.0000000000       -0.3131494814       19.6855537517
H                1.2634728900       -2.3670812686       19.6855537517
H                1.2634728900       -2.0999699814        3.9926106083
H               -0.0000000000       -0.5802607686        3.9926106083



     Writing config-only to output data dir /tmp/qe/slab.save/ :
     XML data file
     NEW-OLD atomic charge density approx. for the potential

     Check: negative core charge=   -0.000001

     negative rho (up, down):  3.036E-06 0.000E+00

     total cpu time spent up to now is      404.7 secs

     Self-consistent Calculation

     iteration #  1     ecut=    90.00 Ry     beta= 0.30
     Davidson diagonalization with overlap
     ethr =  1.00E-06,  avg # of iterations =  2.0

     Threshold (ethr) on eigenvalues was too large:
     Diagonalizing with lowered threshold

     Davidson diagonalization with overlap
     ethr =  1.09E-09,  avg # of iterations =  5.0

     negative rho (up, down):  3.035E-06 0.000E+00

     total cpu time spent up to now is      415.5 secs

     total energy              =    -447.15217916 Ry
     estimated scf accuracy    <       0.00000114 Ry

     iteration #  2     ecut=    90.00 Ry     beta= 0.30
     Davidson diagonalization with overlap
     ethr =  1.14E-09,  avg # of iterations =  2.0

     negative rho (up, down):  3.033E-06 0.000E+00

     total cpu time spent up to now is      419.7 secs

     total energy              =    -447.15217917 Ry
     estimated scf accuracy    <       0.00000035 Ry

     iteration #  3     ecut=    90.00 Ry     beta= 0.30
     Davidson diagonalization with overlap
     ethr =  3.49E-10,  avg # of iterations =  1.4

     negative rho (up, down):  3.031E-06 0.000E+00

     total cpu time spent up to now is      423.6 secs

     total energy              =    -447.15217917 Ry
     estimated scf accuracy    <       0.00000010 Ry

     iteration #  4     ecut=    90.00 Ry     beta= 0.30
     Davidson diagonalization with overlap
     ethr =  9.90E-11,  avg # of iterations =  2.0

     negative rho (up, down):  3.030E-06 0.000E+00

     total cpu time spent up to now is      427.8 secs

     total energy              =    -447.15217918 Ry
     estimated scf accuracy    <          7.1E-09 Ry

     iteration #  5     ecut=    90.00 Ry     beta= 0.30
     Davidson diagonalization with overlap
     ethr =  7.07E-12,  avg # of iterations =  2.6

     negative rho (up, down):  3.030E-06 0.000E+00

     total cpu time spent up to now is      432.7 secs

     total energy              =    -447.15217918 Ry
     estimated scf accuracy    <          2.4E-09 Ry

     iteration #  6     ecut=    90.00 Ry     beta= 0.30
     Davidson diagonalization with overlap
     ethr =  2.41E-12,  avg # of iterations =  2.0

     negative rho (up, down):  3.030E-06 0.000E+00

     total cpu time spent up to now is      437.1 secs

     total energy              =    -447.15217918 Ry
     estimated scf accuracy    <          3.2E-10 Ry

     iteration #  7     ecut=    90.00 Ry     beta= 0.30
     Davidson diagonalization with overlap
     ethr =  3.19E-13,  avg # of iterations =  2.5

     negative rho (up, down):  3.030E-06 0.000E+00

     total cpu time spent up to now is      441.8 secs

     End of self-consistent calculation

          k = 0.0000-0.0000 0.0000 ( 20853 PWs)   bands (ev):

   -13.5834 -13.2655 -12.7368 -12.0021 -11.0677  -9.9599  -8.7268  -7.4375
    -6.2071  -5.3009  -4.9826  -4.9754  -4.9205  -4.6409  -4.1737  -3.5201
    -2.6756  -1.8107  -1.7669  -1.6551  -1.0876  -1.0263  -0.4940  -0.1229
     0.0958   0.7720   1.0520   1.0550   1.5278   1.7793   2.1326   2.1910
     2.3579   2.7515   3.4441   3.5809   3.7249   4.2265   5.0356   5.0549
     5.0793   5.8034   6.3268   6.3994   6.4760   7.0187   7.3034   7.3619
     7.4077   7.6344   9.4985   9.9470  12.1690  12.5600  12.8123  13.0809
    13.2261  13.4122  13.4177  13.5985

          k = 0.0000-0.1010 0.0000 ( 20851 PWs)   bands (ev):

   -13.3961 -13.0794 -12.5526 -11.8214 -10.8934  -9.7989  -8.5990  -7.4203
    -7.0980  -6.8790  -6.5449  -6.5362  -4.2101  -3.9024  -3.5782  -3.0077
    -2.8559  -2.6674  -1.8819  -0.9368  -0.8188  -0.3482  -0.1590   0.2417
     0.5016   1.0189   1.2352   1.3700   1.7087   1.9540   2.3542   2.4491
     2.4552   2.8957   3.5583   3.6381   3.9287   4.2936   4.8577   5.0310
     5.2990   5.6961   6.0230   6.2348   6.4031   6.6235   6.8628   6.9269
     6.9800   7.1941   9.7172  10.1612  12.3270  12.3291  12.9435  13.3230
    13.4527  13.7637  13.9173  14.1122

          k = 0.0000-0.2020 0.0000 ( 20798 PWs)   bands (ev):

   -12.8365 -12.5232 -12.0035 -11.2849 -10.3818  -9.3505  -9.0098  -8.7510
    -8.2910  -8.2845  -7.7251  -7.5630  -4.9486  -4.6013  -4.1660  -3.5451
    -2.8478  -2.2311  -1.4596  -0.8092  -0.4606   0.5067   0.8664   1.1589
     1.5391   1.8192   1.9810   2.2452   2.3402   2.4706   2.6945   2.8336
     3.2683   3.3144   3.8813   3.9609   4.1285   4.4693   4.9685   4.9923
     5.0926   5.3765   5.5982   5.6497   5.6856   5.6990   5.7009   6.0306
     6.3254   6.3824  10.3612  10.7442  12.2877  12.6428  13.0417  13.4858
    13.5625  13.7336  14.3070  14.5030

          k = 0.0000-0.3030 0.0000 ( 20770 PWs)   bands (ev):

   -11.9111 -11.6063 -11.1049 -10.6378 -10.4166 -10.3371  -9.8338  -9.5913
    -9.1424  -8.7269  -8.3479  -8.0782  -5.3702  -5.0133  -4.5474  -3.8540
    -3.2179  -2.4289  -1.6941  -0.8615  -0.1275   0.7408   1.3141   2.2159
     2.6501   2.7158   3.1165   3.2412   3.3029   3.5184   3.5932   3.7523
     3.8965   3.9545   4.2816   4.3042   4.3112   4.4431   4.5560   4.5755
     4.6999   4.7325   4.7748   4.9431   4.9464   5.0161   5.0484   5.2051
     5.3048   5.3331  11.3724  11.5831  12.4567  12.5482  12.7535  13.1357
    13.4017  13.8444  14.1544  14.4139

          k = 0.1111-0.0000 0.0000 ( 20803 PWs)   bands (ev):

   -13.3567 -13.0396 -12.5120 -11.7789 -10.8466  -9.7414  -8.5117  -7.2265
    -6.0016  -5.1009  -4.8525  -4.7800  -4.7755  -4.5756  -4.1130  -3.4658
    -2.6297  -1.6195  -1.6073  -1.5751  -0.9156  -0.8218  -0.4712   0.0224
     0.2958   0.4975   0.7600   0.7793   1.1579   1.1893   1.2479   1.7723
     2.1202   2.4031   2.4895   3.2908   3.5454   3.6749   4.1127   4.8759
     4.8796   4.9782   5.5252   5.9006   5.9923   6.2695   6.3399   6.5594
     6.5967   7.2434   9.7278  10.1511  12.3360  13.0238  13.1444  13.2769
    13.5818  13.6307  13.8955  14.0871

          k = 0.1111-0.1010 0.0000 ( 20797 PWs)   bands (ev):

   -13.1700 -12.8539 -12.3284 -11.5989 -10.6732  -9.5815  -8.3854  -7.2130
    -6.9146  -6.6956  -6.3525  -6.3508  -4.0572  -3.7587  -3.4383  -2.8745
    -2.7858  -2.6457  -1.7640  -0.8346  -0.7685  -0.2588  -0.1481   0.2966
     0.5358   0.8059   1.0253   1.0802   1.3074   1.4676   1.4727   2.0206
     2.3940   2.4805   2.6904   3.4092   3.5513   3.8876   4.1308   4.6333
     4.7545   4.9956   5.3199   5.3243   5.3528   5.5956   6.1154   6.4326
     6.9104   7.1525   9.9629  10.3852  12.5990  13.1324  13.7071  13.7474
    13.9254  14.1459  14.2657  14.3388

          k = 0.1111-0.2020 0.0000 ( 20800 PWs)   bands (ev):

   -12.6119 -12.2995 -11.7811 -11.0646 -10.1642  -9.1368  -8.8050  -8.5475
    -8.0905  -8.0769  -7.5274  -7.3632  -4.7563  -4.4161  -3.9781  -3.3722
    -2.6793  -2.0748  -1.3709  -0.7499  -0.5987   0.3326   0.6479   0.9975
     1.0644   1.3944   1.7771   1.8179   1.9962   2.2521   2.4729   2.5998
     2.8088   2.9688   3.3739   3.7303   3.8200   3.8311   4.0986   4.1419
     4.2040   4.3130   4.3644   4.3676   4.8243   5.1619   5.6585   6.2091
     6.6520   6.6791  10.6235  11.0074  13.1249  13.1596  13.8117  14.1861
    14.2988  14.8542  14.8555  15.0088

          k = 0.1111-0.3030 0.0000 ( 20773 PWs)   bands (ev):

   -11.6897 -11.3859 -10.8863 -10.4221 -10.2007 -10.1228  -9.6219  -9.3789
    -8.9341  -8.5196  -8.1440  -7.8762  -5.1670  -4.8118  -4.3537  -3.6614
    -3.0381  -2.2490  -1.5375  -0.7049  -0.0360   0.7549   1.0372   1.5854
     1.8040   2.0184   2.2268   2.4499   2.6426   2.8192   2.9961   3.0041
     3.1263   3.3976   3.4847   3.5745   3.8141   3.8706   3.8956   3.9734
     4.1667   4.3633   4.4587   4.5202   4.7233   5.0675   5.2675   5.4129
     5.5839   5.6261  11.6551  11.9228  13.0661  13.0671  13.3950  13.8578
    13.9736  14.5515  14.9665  15.1833

          k = 0.2222-0.0000 0.0000 ( 20844 PWs)   bands (ev):

   -12.6800 -12.3650 -11.8409 -11.1129 -10.1870  -9.0898  -7.8699  -6.5972
    -5.3881  -4.9620  -4.6889  -4.5024  -4.2323  -4.1776  -4.1744  -3.5937
    -2.7691  -1.7733  -1.2041  -1.0201  -1.0154  -0.9312  -0.6417  -0.4864
    -0.4255  -0.2249   0.1134   0.4211   0.5894   0.8418   0.8802   1.4190
     1.6416   1.8109   1.9075   2.4299   2.4526   3.1161   3.3026   3.4042
     3.6456   4.0021   4.1633   4.1975   4.2947   4.6625   4.7105   4.9179
     5.9524   6.8137  10.4481  10.7927  12.4092  12.4673  12.9505  13.0578
    13.1749  13.7966  14.0024  14.1773

          k = 0.2222-0.1010 0.0000 ( 20776 PWs)   bands (ev):

   -12.4949 -12.1810 -11.6593 -10.9351 -10.0163  -8.9334  -7.7488  -6.6001
    -6.4332  -6.2114  -5.8547  -5.7902  -3.7630  -3.4785  -3.2765  -3.1255
    -3.0471  -2.6069  -1.5643  -1.1523  -1.0304  -0.6935  -0.4741  -0.2533
    -0.2283   0.4008   0.4747   0.7069   1.0482   1.1544   1.2301   1.6179
     1.8818   1.9893   2.2476   2.3379   2.7645   2.8870   3.0075   3.0211
     3.1742   3.2269   3.3762   3.7835   4.3303   4.7588   5.4261   5.5235
     6.0019   6.4374  10.6945  11.0454  13.0657  13.1251  13.2474  13.5759
    13.5875  13.8417  14.0944  14.3758

          k = 0.2222-0.2020 0.0000 ( 20759 PWs)   bands (ev):

   -11.9423 -11.6324 -11.1184 -10.4082  -9.5162  -8.5008  -8.2132  -7.9592
    -7.5102  -7.4606  -6.9513  -6.7730  -4.2338  -3.9127  -3.4859  -2.9112
    -2.4056  -2.2222  -2.0848  -1.6756  -0.9678  -0.5253  -0.2606  -0.2182
     0.2536   0.9055   0.9209   1.2208   1.4323   1.5067   1.8296   1.9041
     2.0297   2.2543   2.3296   2.4354   2.6093   2.6315   2.8457   2.9632
     3.0636   3.2013   3.3828   3.6830   4.3490   4.5656   5.3442   5.4583
     6.0804   6.2350  11.3661  11.6966  13.8959  14.2057  14.2862  14.3076
    14.5914  14.7067  14.8644  14.8947

          k = 0.2222-0.3030 0.0000 ( 20801 PWs)   bands (ev):

   -11.0312 -10.7305 -10.2364  -9.7850  -9.5591  -9.4900  -8.9964  -8.7482
    -8.3188  -7.9038  -7.5405  -7.2753  -4.5890  -4.2357  -3.8111  -3.1179
    -2.5614  -1.7719  -1.3143  -1.2325  -1.0856  -0.3776  -0.1469  -0.0217
     0.1291   0.2809   0.5546   0.8667   1.0430   1.2012   1.5208   1.6033
     1.7284   1.8811   2.2124   2.9304   3.2665   3.5363   3.6136   3.7522
     3.9908   4.0162   4.1626   4.1980   4.2644   4.2803   4.8162   5.2072
     5.4876   5.5338  12.3608  12.5899  13.8272  13.8758  14.7069  14.9577
    15.1403  15.1602  15.2208  15.5654

          k = 0.3333-0.0000 0.0000 ( 20766 PWs)   bands (ev):

   -11.5649 -11.2535 -10.7357 -10.0165  -9.1018  -8.0182  -6.8146  -6.2086
    -5.9242  -5.5616  -5.4502  -4.7897  -4.3759  -3.9431  -3.5114  -3.1871
    -3.1719  -2.9298  -1.7900  -1.5288  -1.2747  -0.8638  -0.5742  -0.3180
    -0.1725  -0.0980   0.2939   0.3271   0.6468   0.7069   0.9492   1.0043
     1.6046   1.6203   1.6571   1.7959   1.9579   2.0245   2.1027   2.2730
     2.4704   2.6924   2.6928   2.8971   2.9495   2.9582   3.0149   4.0730
     5.2172   6.0418  11.5795  11.7354  12.1020  12.2453  12.7639  12.8680
    13.6443  13.9201  14.3465  14.6705

          k = 0.3333-0.1010 0.0000 ( 20794 PWs)   bands (ev):

   -11.3835 -11.0735 -10.5583  -9.8435  -8.9367  -7.8687  -6.7045  -6.4168
    -6.1422  -5.7372  -5.5369  -5.2029  -4.1185  -4.1107  -3.9550  -3.8891
    -3.7697  -3.0377  -1.9557  -1.4142  -1.1117  -0.9443  -0.7925  -0.3816
    -0.1481  -0.1188   0.2595   0.6351   0.6995   0.7507   0.7663   1.0188
     1.1001   1.4877   1.6437   1.7120   1.9318   1.9943   2.0825   2.1868
     2.3174   2.6823   2.8617   2.8749   3.4897   3.8347   3.9477   4.1465
     5.0288   5.8510  11.8537  12.0735  12.7567  12.7636  13.1251  13.1408
    13.5510  13.8388  14.2704  14.4658

          k = 0.3333-0.2020 0.0000 ( 20813 PWs)   bands (ev):

   -10.8434 -10.5382 -10.0320  -9.3328  -8.4553  -7.4793  -7.3940  -7.1572
    -6.7119  -6.4712  -6.1183  -5.8517  -4.3272  -4.0762  -3.8659  -3.6520
    -3.5176  -3.4723  -2.5632  -1.7730  -1.4464  -1.4004  -1.0309  -0.8870
    -0.8347  -0.6707  -0.5863  -0.5353   0.2514   0.3911   0.7685   0.9087
     1.6285   1.8309   2.1120   2.2075   2.4562   2.4870   2.6095   2.7238
     2.8965   2.9228   3.0679   3.3486   3.4401   3.9715   4.5120   4.7470
     5.2175   5.3692  12.4870  12.6913  13.7874  13.7930  14.2015  14.2508
    14.4982  14.6455  14.7584  14.8989

          k = 0.3333-0.3030 0.0000 ( 20863 PWs)   bands (ev):

    -9.9610  -9.6660  -9.1814  -8.7806  -8.5197  -8.4937  -8.0122  -7.7278
    -7.3479  -6.9086  -6.5760  -6.2999  -3.8408  -3.6432  -3.4640  -3.3830
    -3.2530  -2.9572  -2.7248  -2.5156  -2.4319  -2.2624  -1.8911  -1.7421
    -1.1792  -1.0661  -0.4401  -0.4387  -0.2656  -0.1260   0.1979   0.7523
     1.4373   1.9534   2.1903   2.2066   2.6141   2.6163   2.9724   3.4272
     3.5104   3.5204   3.8298   3.9806   4.2428   4.3066   4.4476   4.5047
     5.0521   5.2292  13.2622  13.3604  14.6872  14.7295  14.8940  14.9931
    15.2520  15.5445  15.6571  15.7240

          k = 0.4444-0.0000 0.0000 ( 20772 PWs)   bands (ev):

   -10.0393  -9.7336  -9.2253  -8.5193  -8.1749  -7.8777  -7.6212  -7.3834
    -6.6963  -6.5569  -5.8207  -5.3752  -4.7808  -4.1460  -3.6232  -2.9847
    -2.4136  -2.1398  -1.8151  -1.7851  -1.2595  -0.5330  -0.4133  -0.3201
    -0.0844  -0.0374   0.0144   0.4344   0.8175   0.8869   0.9721   1.0470
     1.0980   1.1944   1.2867   1.3352   1.4173   1.5384   1.5579   1.6794
     1.7132   1.7331   1.7645   1.8823   2.1553   2.9467   3.0733   3.8025
     4.1576   4.9825  12.1995  12.2189  12.7469  12.7694  13.0756  13.0802
    13.3520  13.6056  13.6466  13.7114

          k = 0.4444-0.1010 0.0000 ( 20816 PWs)   bands (ev):

    -9.8673  -9.5634  -9.0584  -8.3579  -8.0422  -7.7481  -7.4685  -7.2589
    -6.5801  -6.4208  -5.7186  -5.2828  -4.6752  -4.1131  -3.5662  -3.2265
    -3.2231  -3.0185  -2.9018  -2.4434  -1.5573  -1.4959  -1.3270  -1.2331
    -0.4631  -0.2185   0.0214   0.4010   0.7490   0.8917   0.9684   0.9995
     1.0862   1.3610   1.4759   1.6547   1.7209   1.8232   1.9137   1.9619
     2.1919   2.2432   2.3699   2.4758   2.6336   3.0769   3.1647   3.8966
     4.1477   4.9636  12.7752  12.8297  12.8592  12.9630  13.0300  13.3039
    13.5432  13.8296  14.0258  14.1559

          k = 0.4444-0.2020 0.0000 ( 20837 PWs)   bands (ev):

    -9.3638  -9.0659  -8.5719  -7.8901  -7.7403  -7.4574  -7.0305  -6.9856
    -6.3345  -6.0445  -5.5234  -5.0964  -4.7773  -4.5352  -4.3761  -4.2273
    -3.9564  -3.8204  -3.4886  -3.2069  -2.9667  -2.7502  -2.5216  -2.3724
    -1.0863  -0.7980  -0.5348   0.0947   0.1180   0.3526   0.5462   0.7584
     1.2296   1.3956   1.5646   1.6988   2.0013   2.3438   2.6285   2.6803
     2.8064   3.0508   3.1040   3.2835   3.5421   3.7708   3.9568   4.1073
     4.1827   4.8823  13.4792  13.5607  13.7835  13.8709  14.0690  14.1426
    14.3563  14.3695  14.6396  14.8799

          k = 0.4444-0.3030 0.0000 ( 20868 PWs)   bands (ev):

    -8.5892  -8.3034  -7.8340  -7.8153  -7.5365  -7.2091  -7.0549  -6.5145
    -6.3218  -5.7562  -5.4668  -5.3515  -5.1150  -5.0532  -4.6513  -4.6066
    -4.3447  -4.2178  -3.9354  -3.8248  -3.8092  -3.5924  -3.3331  -3.1473
    -1.1957  -1.0589  -0.6952  -0.6558  -0.2938   0.1236   0.4018   0.6752
     0.8666   1.2580   1.3772   1.6480   2.1708   2.3794   2.6802   2.6909
     3.3054   3.4247   3.6832   3.8738   4.0729   4.2599   4.4775   4.4862
     4.7131   4.7929  14.0204  14.0335  14.6795  14.6936  15.2394  15.3473
    15.7343  15.8131  15.8429  15.8936

     the Fermi energy is     8.2473 ev

!    total energy              =    -447.15217918 Ry
     estimated scf accuracy    <          4.4E-11 Ry
     smearing contrib. (-TS)   =       0.00000000 Ry
     internal energy E=F+TS    =    -447.15217918 Ry

     The total energy is F=E-TS. E is the sum of the following terms:
     one-electron contribution =   -3119.88109933 Ry
     hartree contribution      =    1616.12642749 Ry
     xc contribution           =    -115.33485336 Ry
     ewald contribution        =    1319.84799217 Ry
     one-center paw contrib.   =    -147.91064616 Ry

     convergence has been achieved in   7 iterations

     negative rho (up, down):  3.030E-06 0.000E+00

     Forces acting on atoms (cartesian axes, Ry/au):

     atom    1 type  1   force =     0.00000000   -0.00017296   -0.00025575
     atom    2 type  1   force =     0.00000000    0.00017296   -0.00025575
     atom    3 type  1   force =     0.00000000   -0.00007239   -0.00004717
     atom    4 type  1   force =     0.00000000    0.00007239   -0.00004717
     atom    5 type  1   force =     0.00000000   -0.00004016    0.00006882
     atom    6 type  1   force =     0.00000000    0.00004016    0.00006882
     atom    7 type  1   force =     0.00000000   -0.00000318   -0.00005911
     atom    8 type  1   force =     0.00000000    0.00000318   -0.00005911
     atom    9 type  1   force =     0.00000000    0.00002322   -0.00018867
     atom   10 type  1   force =     0.00000000   -0.00002322   -0.00018867
     atom   11 type  1   force =     0.00000000    0.00005316   -0.00010371
     atom   12 type  1   force =     0.00000000   -0.00005316   -0.00010371
     atom   13 type  1   force =     0.00000000    0.00005316    0.00010371
     atom   14 type  1   force =     0.00000000   -0.00005316    0.00010371
     atom   15 type  1   force =     0.00000000   -0.00002322    0.00018867
     atom   16 type  1   force =     0.00000000    0.00002322    0.00018867
     atom   17 type  1   force =     0.00000000   -0.00000318    0.00005911
     atom   18 type  1   force =     0.00000000    0.00000318    0.00005911
     atom   19 type  1   force =     0.00000000   -0.00004016   -0.00006882
     atom   20 type  1   force =     0.00000000    0.00004016   -0.00006882
     atom   21 type  1   force =     0.00000000   -0.00007239    0.00004717
     atom   22 type  1   force =     0.00000000    0.00007239    0.00004717
     atom   23 type  1   force =     0.00000000   -0.00017296    0.00025575
     atom   24 type  1   force =     0.00000000    0.00017296    0.00025575
     atom   25 type  2   force =     0.00000000    0.00002461   -0.00019631
     atom   26 type  2   force =     0.00000000   -0.00002461   -0.00019631
     atom   27 type  2   force =     0.00000000    0.00002461    0.00019631
     atom   28 type  2   force =     0.00000000   -0.00002461    0.00019631

     Total force =     0.000898     Total SCF correction =     0.000017
     Energy error            =      2.3E-06 Ry
     Gradient error          =      2.6E-04 Ry/Bohr

     number of scf cycles    =  11
     number of bfgs steps    =  10

     energy             old  =    -447.1521768369 Ry
     energy             new  =    -447.1521791833 Ry

     CASE: energy            _new < energy            _old

     new trust radius        =       0.0005946379 bohr
     new conv_thr            =            1.0E-10 Ry


ATOMIC_POSITIONS (angstrom)
C               -0.0000000000       -0.9125411845       18.7638867430
C                1.2634728900       -1.7676895655       18.7638867430
C                1.2634728900       -2.6831258451       17.5285878917
C               -0.0000000000        0.0028950951       17.5285878917
C                0.0000000000       -0.8928015721       16.2619715357
C                1.2634728900       -1.7874291779       16.2619715357
C                1.2634728900       -2.6802042349       14.9984013826
C                0.0000000000       -0.0000265151       14.9984013826
C                1.2634728900       -1.7867948287       13.7346814779
C                0.0000000000       -0.8934359213       13.7346814779
C                0.0000000000       -0.0000034106       12.4709611111
C                1.2634728900       -2.6802273394       12.4709611111
C                1.2634728900       -1.7868239106       11.2072032489
C               -0.0000000000       -0.8934068394       11.2072032489
C                1.2634728900       -2.6802564213        9.9434828821
C                0.0000000000        0.0000256713        9.9434828821
C               -0.0000000000       -0.8933837349        8.6797629774
C                1.2634728900       -1.7868470151        8.6797629774
C                1.2634728900       -2.6796220721        7.4161928243
C                0.0000000000       -0.0006086779        7.4161928243
C                0.0000000000       -0.8963053451        6.1495764783
C                1.2634728900       -1.7839254049        6.1495764783
C                1.2634728900       -2.6993616845        4.9142776170
C               -0.0000000000        0.0191309345        4.9142776170
H                0.0000000000       -0.3132936661       19.6853836333
H                1.2634728900       -2.3669370839       19.6853836333
H                1.2634728900       -2.1001141661        3.9927807267
H               -0.0000000000       -0.5801165839        3.9927807267



     Writing config-only to output data dir /tmp/qe/slab.save/ :
     XML data file
     NEW-OLD atomic charge density approx. for the potential

     Check: negative core charge=   -0.000001

     negative rho (up, down):  3.048E-06 0.000E+00

     total cpu time spent up to now is      443.2 secs

     Self-consistent Calculation

     iteration #  1     ecut=    90.00 Ry     beta= 0.30
     Davidson diagonalization with overlap
     ethr =  1.00E-06,  avg # of iterations =  2.0

     Threshold (ethr) on eigenvalues was too large:
     Diagonalizing with lowered threshold

     Davidson diagonalization with overlap
     ethr =  3.82E-10,  avg # of iterations =  5.0

     negative rho (up, down):  3.045E-06 0.000E+00

     total cpu time spent up to now is      453.7 secs

     total energy              =    -447.15218008 Ry
     estimated scf accuracy    <       0.00000040 Ry

     iteration #  2     ecut=    90.00 Ry     beta= 0.30
     Davidson diagonalization with overlap
     ethr =  3.96E-10,  avg # of iterations =  2.0

     negative rho (up, down):  3.039E-06 0.000E+00

     total cpu time spent up to now is      457.9 secs

     total energy              =    -447.15218009 Ry
     estimated scf accuracy    <       0.00000011 Ry

     iteration #  3     ecut=    90.00 Ry     beta= 0.30
     Davidson diagonalization with overlap
     ethr =  1.06E-10,  avg # of iterations =  2.0

     negative rho (up, down):  3.035E-06 0.000E+00

     total cpu time spent up to now is      462.0 secs

     total energy              =    -447.15218009 Ry
     estimated scf accuracy    <       0.00000003 Ry

     iteration #  4     ecut=    90.00 Ry     beta= 0.30
     Davidson diagonalization with overlap
     ethr =  2.96E-11,  avg # of iterations =  2.0

     negative rho (up, down):  3.033E-06 0.000E+00

     total cpu time spent up to now is      466.2 secs

     total energy              =    -447.15218009 Ry
     estimated scf accuracy    <          4.2E-09 Ry

     iteration #  5     ecut=    90.00 Ry     beta= 0.30
     Davidson diagonalization with overlap
     ethr =  4.19E-12,  avg # of iterations =  2.0

     negative rho (up, down):  3.033E-06 0.000E+00

     total cpu time spent up to now is      470.6 secs

     total energy              =    -447.15218009 Ry
     estimated scf accuracy    <          5.9E-10 Ry

     iteration #  6     ecut=    90.00 Ry     beta= 0.30
     Davidson diagonalization with overlap
     ethr =  5.85E-13,  avg # of iterations =  2.4

     negative rho (up, down):  3.034E-06 0.000E+00

     total cpu time spent up to now is      475.4 secs

     total energy              =    -447.15218009 Ry
     estimated scf accuracy    <          1.3E-10 Ry

     iteration #  7     ecut=    90.00 Ry     beta= 0.30
     Davidson diagonalization with overlap
     ethr =  1.33E-13,  avg # of iterations =  2.2

     negative rho (up, down):  3.034E-06 0.000E+00

     total cpu time spent up to now is      480.1 secs

     End of self-consistent calculation

          k = 0.0000-0.0000 0.0000 ( 20853 PWs)   bands (ev):

   -13.5839 -13.2650 -12.7375 -12.0025 -11.0680  -9.9600  -8.7269  -7.4376
    -6.2072  -5.3011  -4.9831  -4.9753  -4.9210  -4.6401  -4.1746  -3.5205
    -2.6757  -1.8108  -1.7671  -1.6551  -1.0879  -1.0261  -0.4940  -0.1230
     0.0958   0.7721   1.0520   1.0554   1.5272   1.7796   2.1328   2.1900
     2.3580   2.7508   3.4436   3.5811   3.7251   4.2260   5.0352   5.0552
     5.0794   5.8029   6.3271   6.3998   6.4755   7.0182   7.3033   7.3625
     7.4072   7.6338   9.4985   9.9470  12.1689  12.5595  12.8125  13.0820
    13.2253  13.4122  13.4177  13.5985

          k = 0.0000-0.1010 0.0000 ( 20851 PWs)   bands (ev):

   -13.3967 -13.0788 -12.5534 -11.8219 -10.8937  -9.7990  -8.5991  -7.4205
    -7.0984  -6.8786  -6.5450  -6.5368  -4.2103  -3.9026  -3.5783  -3.0078
    -2.8556  -2.6679  -1.8820  -0.9370  -0.8190  -0.3477  -0.1591   0.2411
     0.5019   1.0191   1.2358   1.3698   1.7080   1.9543   2.3532   2.4491
     2.4553   2.8950   3.5578   3.6383   3.9288   4.2931   4.8580   5.0306
     5.2990   5.6956   6.0234   6.2342   6.4034   6.6229   6.8626   6.9274
     6.9795   7.1939   9.7172  10.1612  12.3269  12.3290  12.9437  13.3221
    13.4529  13.7643  13.9168  14.1121

          k = 0.0000-0.2020 0.0000 ( 20798 PWs)   bands (ev):

   -12.8370 -12.5227 -12.0042 -11.2853 -10.3820  -9.3507  -9.0103  -8.7506
    -8.2917  -8.2846  -7.7254  -7.5631  -4.9487  -4.6015  -4.1659  -3.5449
    -2.8482  -2.2313  -1.4594  -0.8092  -0.4608   0.5068   0.8667   1.1594
     1.5383   1.8195   1.9810   2.2445   2.3403   2.4708   2.6946   2.8326
     3.2683   3.3137   3.8807   3.9611   4.1286   4.4688   4.9686   4.9917
     5.0928   5.3758   5.5976   5.6494   5.6859   5.6990   5.7000   6.0309
     6.3249   6.3829  10.3612  10.7443  12.2879  12.6427  13.0419  13.4858
    13.5621  13.7334  14.3065  14.5032

          k = 0.0000-0.3030 0.0000 ( 20770 PWs)   bands (ev):

   -11.9116 -11.6058 -11.1057 -10.6383 -10.4171 -10.3366  -9.8345  -9.5915
    -9.1428  -8.7271  -8.3480  -8.0784  -5.3702  -5.0135  -4.5471  -3.8537
    -3.2182  -2.4294  -1.6936  -0.8615  -0.1271   0.7409   1.3143   2.2161
     2.6501   2.7161   3.1159   3.2419   3.3031   3.5178   3.5922   3.7527
     3.8963   3.9538   4.2810   4.3043   4.3107   4.4430   4.5549   4.5755
     4.6999   4.7323   4.7744   4.9427   4.9459   5.0166   5.0484   5.2047
     5.3049   5.3332  11.3725  11.5832  12.4569  12.5485  12.7535  13.1357
    13.4018  13.8443  14.1541  14.4138

          k = 0.1111-0.0000 0.0000 ( 20803 PWs)   bands (ev):

   -13.3572 -13.0390 -12.5127 -11.7793 -10.8469  -9.7416  -8.5118  -7.2266
    -6.0018  -5.1010  -4.8530  -4.7805  -4.7754  -4.5748  -4.1138  -3.4662
    -2.6298  -1.6196  -1.6074  -1.5753  -0.9158  -0.8216  -0.4711   0.0223
     0.2958   0.4969   0.7602   0.7794   1.1579   1.1883   1.2483   1.7716
     2.1203   2.4032   2.4890   3.2903   3.5455   3.6750   4.1123   4.8754
     4.8796   4.9784   5.5248   5.9008   5.9918   6.2697   6.3395   6.5591
     6.5965   7.2440   9.7278  10.1511  12.3359  13.0247  13.1435  13.2779
    13.5827  13.6304  13.8958  14.0866

          k = 0.1111-0.1010 0.0000 ( 20797 PWs)   bands (ev):

   -13.1705 -12.8534 -12.3291 -11.5993 -10.6734  -9.5817  -8.3856  -7.2132
    -6.9151  -6.6952  -6.3531  -6.3509  -4.0574  -3.7589  -3.4384  -2.8746
    -2.7854  -2.6462  -1.7641  -0.8349  -0.7687  -0.2583  -0.1483   0.2960
     0.5359   0.8055   1.0256   1.0804   1.3075   1.4679   1.4717   2.0199
     2.3940   2.4806   2.6900   3.4087   3.5515   3.8876   4.1304   4.6335
     4.7540   4.9951   5.3199   5.3239   5.3530   5.5953   6.1154   6.4328
     6.9107   7.1523   9.9629  10.3852  12.5989  13.1331  13.7079  13.7468
    13.9259  14.1456  14.2657  14.3392

          k = 0.1111-0.2020 0.0000 ( 20800 PWs)   bands (ev):

   -12.6124 -12.2990 -11.7819 -11.0650 -10.1645  -9.1370  -8.8055  -8.5471
    -8.0912  -8.0770  -7.5277  -7.3634  -4.7564  -4.4162  -3.9780  -3.3720
    -2.6797  -2.0751  -1.3705  -0.7503  -0.5987   0.3328   0.6481   0.9978
     1.0636   1.3941   1.7768   1.8181   1.9960   2.2526   2.4722   2.5998
     2.8085   2.9686   3.3735   3.7300   3.8200   3.8307   4.0981   4.1418
     4.2043   4.3121   4.3641   4.3675   4.8244   5.1621   5.6587   6.2091
     6.6522   6.6788  10.6235  11.0075  13.1254  13.1596  13.8120  14.1862
    14.2988  14.8541  14.8551  15.0090

          k = 0.1111-0.3030 0.0000 ( 20773 PWs)   bands (ev):

   -11.6902 -11.3854 -10.8870 -10.4226 -10.2012 -10.1223  -9.6226  -9.3791
    -8.9345  -8.5198  -8.1442  -7.8763  -5.1670  -4.8120  -4.3534  -3.6611
    -3.0384  -2.2495  -1.5371  -0.7049  -0.0356   0.7547   1.0371   1.5857
     1.8042   2.0175   2.2265   2.4494   2.6427   2.8195   2.9957   3.0043
     3.1254   3.3973   3.4843   3.5741   3.8138   3.8705   3.8959   3.9732
     4.1663   4.3631   4.4584   4.5202   4.7234   5.0672   5.2679   5.4127
     5.5843   5.6254  11.6552  11.9230  13.0662  13.0673  13.3954  13.8580
    13.9736  14.5514  14.9663  15.1831

          k = 0.2222-0.0000 0.0000 ( 20844 PWs)   bands (ev):

   -12.6806 -12.3644 -11.8417 -11.1133 -10.1873  -9.0900  -7.8700  -6.5973
    -5.3883  -4.9625  -4.6881  -4.5026  -4.2331  -4.1775  -4.1749  -3.5941
    -2.7693  -1.7733  -1.2047  -1.0203  -1.0155  -0.9309  -0.6416  -0.4874
    -0.4257  -0.2247   0.1127   0.4210   0.5894   0.8413   0.8802   1.4190
     1.6412   1.8113   1.9076   2.4296   2.4527   3.1158   3.3027   3.4042
     3.6451   4.0016   4.1630   4.1973   4.2942   4.6629   4.7108   4.9176
     5.9527   6.8143  10.4481  10.7927  12.4090  12.4674  12.9505  13.0584
    13.1748  13.7975  14.0026  14.1779

          k = 0.2222-0.1010 0.0000 ( 20776 PWs)   bands (ev):

   -12.4954 -12.1805 -11.6600 -10.9356 -10.0166  -8.9336  -7.7489  -6.6003
    -6.4336  -6.2109  -5.8553  -5.7904  -3.7632  -3.4787  -3.2765  -3.1263
    -3.0467  -2.6069  -1.5644  -1.1527  -1.0309  -0.6934  -0.4748  -0.2533
    -0.2286   0.4011   0.4744   0.7067   1.0481   1.1542   1.2297   1.6177
     1.8818   1.9898   2.2473   2.3378   2.7643   2.8867   3.0076   3.0207
     3.1740   3.2264   3.3760   3.7834   4.3305   4.7585   5.4263   5.5236
     6.0017   6.4379  10.6945  11.0453  13.0656  13.1252  13.2474  13.5764
    13.5873  13.8424  14.0948  14.3763

          k = 0.2222-0.2020 0.0000 ( 20759 PWs)   bands (ev):

   -11.9428 -11.6319 -11.1192 -10.4086  -9.5165  -8.5010  -8.2137  -7.9587
    -7.5109  -7.4607  -6.9517  -6.7731  -4.2339  -3.9128  -3.4858  -2.9110
    -2.4058  -2.2230  -2.0844  -1.6758  -0.9684  -0.5258  -0.2606  -0.2180
     0.2533   0.9053   0.9207   1.2206   1.4317   1.5070   1.8293   1.9040
     2.0297   2.2540   2.3292   2.4351   2.6085   2.6320   2.8455   2.9633
     3.0633   3.2012   3.3829   3.6830   4.3492   4.5656   5.3446   5.4583
     6.0806   6.2347  11.3661  11.6967  13.8960  14.2066  14.2861  14.3075
    14.5914  14.7069  14.8647  14.8949

          k = 0.2222-0.3030 0.0000 ( 20801 PWs)   bands (ev):

   -11.0317 -10.7300 -10.2371  -9.7855  -9.5596  -9.4895  -8.9971  -8.7485
    -8.3191  -7.9040  -7.5407  -7.2755  -4.5891  -4.2359  -3.8108  -3.1176
    -2.5618  -1.7724  -1.3140  -1.2333  -1.0853  -0.3778  -0.1473  -0.0224
     0.1294   0.2805   0.5544   0.8663   1.0429   1.2007   1.5205   1.6034
     1.7280   1.8808   2.2125   2.9306   3.2667   3.5363   3.6135   3.7519
     3.9913   4.0164   4.1628   4.1985   4.2636   4.2799   4.8162   5.2072
     5.4872   5.5340  12.3610  12.5900  13.8271  13.8759  14.7075  14.9580
    15.1405  15.1606  15.2208  15.5654

          k = 0.3333-0.0000 0.0000 ( 20766 PWs)   bands (ev):

   -11.5655 -11.2530 -10.7365 -10.0169  -9.1021  -8.0184  -6.8147  -6.2091
    -5.9236  -5.5617  -5.4510  -4.7901  -4.3760  -3.9433  -3.5116  -3.1870
    -3.1724  -2.9299  -1.7900  -1.5294  -1.2743  -0.8647  -0.5743  -0.3186
    -0.1727  -0.0981   0.2937   0.3268   0.6467   0.7070   0.9492   1.0040
     1.6043   1.6201   1.6570   1.7959   1.9578   2.0240   2.1025   2.2730
     2.4702   2.6927   2.6928   2.8960   2.9496   2.9586   3.0148   4.0732
     5.2175   6.0423  11.5795  11.7355  12.1019  12.2453  12.7640  12.8681
    13.6444  13.9207  14.3464  14.6711

          k = 0.3333-0.1010 0.0000 ( 20794 PWs)   bands (ev):

   -11.3840 -11.0730 -10.5591  -9.8440  -8.9370  -7.8689  -6.7047  -6.4173
    -6.1415  -5.7379  -5.5371  -5.2033  -4.1188  -4.1111  -3.9553  -3.8889
    -3.7702  -3.0379  -1.9558  -1.4145  -1.1119  -0.9446  -0.7927  -0.3813
    -0.1483  -0.1194   0.2593   0.6347   0.6993   0.7509   0.7656   1.0186
     1.1000   1.4876   1.6437   1.7115   1.9319   1.9942   2.0826   2.1865
     2.3173   2.6823   2.8621   2.8748   3.4893   3.8349   3.9479   4.1461
     5.0291   5.8515  11.8538  12.0736  12.7567  12.7636  13.1253  13.1409
    13.5510  13.8391  14.2708  14.4658

          k = 0.3333-0.2020 0.0000 ( 20813 PWs)   bands (ev):

   -10.8440 -10.5377 -10.0327  -9.3332  -8.4556  -7.4796  -7.3945  -7.1567
    -6.7126  -6.4714  -6.1186  -5.8518  -4.3278  -4.0760  -3.8662  -3.6526
    -3.5177  -3.4724  -2.5632  -1.7731  -1.4467  -1.4008  -1.0313  -0.8873
    -0.8345  -0.6711  -0.5863  -0.5358   0.2511   0.3909   0.7685   0.9086
     1.6284   1.8311   2.1119   2.2070   2.4559   2.4873   2.6096   2.7241
     2.8964   2.9223   3.0676   3.3491   3.4402   3.9713   4.5122   4.7470
     5.2173   5.3697  12.4871  12.6915  13.7873  13.7929  14.2016  14.2509
    14.4983  14.6458  14.7586  14.8994

          k = 0.3333-0.3030 0.0000 ( 20863 PWs)   bands (ev):

    -9.9615  -9.6655  -9.1822  -8.7811  -8.5202  -8.4932  -8.0129  -7.7280
    -7.3483  -6.9088  -6.5762  -6.3001  -3.8408  -3.6437  -3.4641  -3.3826
    -3.2531  -2.9577  -2.7250  -2.5162  -2.4320  -2.2621  -1.8918  -1.7424
    -1.1794  -1.0664  -0.4405  -0.4389  -0.2660  -0.1261   0.1980   0.7523
     1.4376   1.9532   2.1901   2.2068   2.6142   2.6164   2.9725   3.4270
     3.5104   3.5202   3.8301   3.9807   4.2423   4.3069   4.4476   4.5050
     5.0523   5.2289  13.2624  13.3606  14.6872  14.7298  14.8941  14.9929
    15.2522  15.5447  15.6576  15.7247

          k = 0.4444-0.0000 0.0000 ( 20772 PWs)   bands (ev):

   -10.0398  -9.7331  -9.2261  -8.5197  -8.1755  -7.8772  -7.6214  -7.3841
    -6.6967  -6.5570  -5.8210  -5.3753  -4.7809  -4.1462  -3.6233  -2.9849
    -2.4137  -2.1401  -1.8151  -1.7856  -1.2597  -0.5336  -0.4136  -0.3196
    -0.0844  -0.0379   0.0135   0.4340   0.8172   0.8866   0.9719   1.0464
     1.0978   1.1952   1.2865   1.3352   1.4164   1.5381   1.5577   1.6793
     1.7130   1.7328   1.7644   1.8827   2.1552   2.9468   3.0736   3.8030
     4.1578   4.9830  12.1995  12.2189  12.7471  12.7696  13.0756  13.0802
    13.3520  13.6059  13.6468  13.7115

          k = 0.4444-0.1010 0.0000 ( 20816 PWs)   bands (ev):

    -9.8678  -9.5629  -9.0592  -8.3583  -8.0427  -7.7475  -7.4688  -7.2596
    -6.5805  -6.4210  -5.7188  -5.2830  -4.6753  -4.1133  -3.5663  -3.2268
    -3.2235  -3.0182  -2.9024  -2.4435  -1.5576  -1.4963  -1.3267  -1.2337
    -0.4633  -0.2187   0.0212   0.4008   0.7492   0.8915   0.9682   0.9989
     1.0860   1.3609   1.4758   1.6543   1.7206   1.8229   1.9135   1.9617
     2.1920   2.2436   2.3699   2.4750   2.6337   3.0770   3.1649   3.8971
     4.1479   4.9641  12.7752  12.8297  12.8593  12.9631  13.0302  13.3040
    13.5434  13.8296  14.0259  14.1560

          k = 0.4444-0.2020 0.0000 ( 20837 PWs)   bands (ev):

    -9.3643  -9.0654  -8.5727  -7.8905  -7.7408  -7.4568  -7.0307  -6.9863
    -6.3349  -6.0447  -5.5236  -5.0966  -4.7778  -4.5350  -4.3762  -4.2281
    -3.9566  -3.8208  -3.4888  -3.2075  -2.9663  -2.7509  -2.5219  -2.3728
    -1.0864  -0.7982  -0.5348   0.0949   0.1179   0.3521   0.5462   0.7584
     1.2294   1.3956   1.5644   1.6989   2.0011   2.3434   2.6283   2.6799
     2.8065   3.0509   3.1038   3.2836   3.5419   3.7709   3.9568   4.1074
     4.1830   4.8827  13.4794  13.5610  13.7835  13.8710  14.0691  14.1427
    14.3566  14.3694  14.6397  14.8800

          k = 0.4444-0.3030 0.0000 ( 20868 PWs)   bands (ev):

    -8.5897  -8.3028  -7.8347  -7.8158  -7.5359  -7.2096  -7.0555  -6.5148
    -6.3221  -5.7564  -5.4670  -5.3520  -5.1150  -5.0531  -4.6521  -4.6072
    -4.3444  -4.2183  -3.9361  -3.8249  -3.8094  -3.5926  -3.3334  -3.1475
    -1.1958  -1.0591  -0.6951  -0.6559  -0.2938   0.1235   0.4018   0.6751
     0.8666   1.2578   1.3771   1.6479   2.1709   2.3792   2.6804   2.6909
     3.3053   3.4246   3.6833   3.8741   4.0729   4.2598   4.4772   4.4866
     4.7135   4.7926  14.0207  14.0337  14.6799  14.6940  15.2397  15.3470
    15.7344  15.8120  15.8431  15.8945

     the Fermi energy is     8.2478 ev

!    total energy              =    -447.15218009 Ry
     estimated scf accuracy    <          1.2E-11 Ry
     smearing contrib. (-TS)   =       0.00000000 Ry
     internal energy E=F+TS    =    -447.15218009 Ry

     The total energy is F=E-TS. E is the sum of the following terms:
     one-electron contribution =   -3120.23886914 Ry
     hartree contribution      =    1616.30517204 Ry
     xc contribution           =    -115.33549204 Ry
     ewald contribution        =    1320.02767055 Ry
     one-center paw contrib.   =    -147.91066151 Ry

     convergence has been achieved in   7 iterations

     negative rho (up, down):  3.034E-06 0.000E+00

     Forces acting on atoms (cartesian axes, Ry/au):

     atom    1 type  1   force =     0.00000000   -0.00009875   -0.00023314
     atom    2 type  1   force =     0.00000000    0.00009875   -0.00023314
     atom    3 type  1   force =     0.00000000    0.00000334   -0.00015847
     atom    4 type  1   force =     0.00000000   -0.00000334   -0.00015847
     atom    5 type  1   force =     0.00000000   -0.00000447   -0.00001911
     atom    6 type  1   force =     0.00000000    0.00000447   -0.00001911
     atom    7 type  1   force =     0.00000000    0.00002916    0.00002845
     atom    8 type  1   force =     0.00000000   -0.00002916    0.00002845
     atom    9 type  1   force =     0.00000000   -0.00002980   -0.00000859
     atom   10 type  1   force =     0.00000000    0.00002980   -0.00000859
     atom   11 type  1   force =     0.00000000   -0.00001397   -0.00001603
     atom   12 type  1   force =     0.00000000    0.00001397   -0.00001603
     atom   13 type  1   force =     0.00000000   -0.00001397    0.00001603
     atom   14 type  1   force =     0.00000000    0.00001397    0.00001603
     atom   15 type  1   force =    -0.00000000    0.00002980    0.00000859
     atom   16 type  1   force =     0.00000000   -0.00002980    0.00000859
     atom   17 type  1   force =     0.00000000    0.00002916   -0.00002845
     atom   18 type  1   force =     0.00000000   -0.00002916   -0.00002845
     atom   19 type  1   force =     0.00000000   -0.00000447    0.00001911
     atom   20 type  1   force =     0.00000000    0.00000447    0.00001911
     atom   21 type  1   force =     0.00000000    0.00000334    0.00015847
     atom   22 type  1   force =     0.00000000   -0.00000334    0.00015847
     atom   23 type  1   force =     0.00000000   -0.00009875    0.00023314
     atom   24 type  1   force =     0.00000000    0.00009875    0.00023314
     atom   25 type  2   force =     0.00000000    0.00007054   -0.00014468
     atom   26 type  2   force =     0.00000000   -0.00007054   -0.00014468
     atom   27 type  2   force =    -0.00000000    0.00007054    0.00014468
     atom   28 type  2   force =     0.00000000   -0.00007054    0.00014468

     Total force =     0.000689     Total SCF correction =     0.000009
     Energy error            =      9.1E-07 Ry
     Gradient error          =      2.3E-04 Ry/Bohr

     number of scf cycles    =  12
     number of bfgs steps    =  11

     energy             old  =    -447.1521791833 Ry
     energy             new  =    -447.1521800929 Ry

     CASE: energy            _new < energy            _old

     new trust radius        =       0.0005132641 bohr
     new conv_thr            =            1.0E-10 Ry


ATOMIC_POSITIONS (angstrom)
C               -0.0000000000       -0.9125910765       18.7636197570
C                1.2634728900       -1.7676396735       18.7636197570
C                1.2634728900       -2.6831386547       17.5284605939
C               -0.0000000000        0.0029079047       17.5284605939
C                0.0000000000       -0.8927913936       16.2618988800
C                1.2634728900       -1.7874393564       16.2618988800
C                1.2634728900       -2.6801738105       14.9982490204
C                0.0000000000       -0.0000569395       14.9982490204
C                1.2634728900       -1.7868089506       13.7344709572
C                0.0000000000       -0.8934217994       13.7344709572
C                0.0000000000        0.0000078336       12.4708591803
C                1.2634728900       -2.6802385836       12.4708591803
C                1.2634728900       -1.7868126664       11.2073051797
C               -0.0000000000       -0.8934180836       11.2073051797
C                1.2634728900       -2.6802422994        9.9436934028
C                0.0000000000        0.0000115494        9.9436934028
C               -0.0000000000       -0.8933533105        8.6799153396
C                1.2634728900       -1.7868774395        8.6799153396
C                1.2634728900       -2.6796118936        7.4162654800
C                0.0000000000       -0.0006188564        7.4162654800
C                0.0000000000       -0.8963181547        6.1497037761
C                1.2634728900       -1.7839125953        6.1497037761
C                1.2634728900       -2.6994115765        4.9145446030
C               -0.0000000000        0.0191808265        4.9145446030
H                0.0000000000       -0.3133630158       19.6851366188
H                1.2634728900       -2.3668677342       19.6851366188
H                1.2634728900       -2.1001835158        3.9930277412
H               -0.0000000000       -0.5800472342        3.9930277412



     Writing config-only to output data dir /tmp/qe/slab.save/ :
     XML data file
     NEW-OLD atomic charge density approx. for the potential

     Check: negative core charge=   -0.000001

     negative rho (up, down):  3.060E-06 0.000E+00

     total cpu time spent up to now is      481.6 secs

     Self-consistent Calculation

     iteration #  1     ecut=    90.00 Ry     beta= 0.30
     Davidson diagonalization with overlap
     ethr =  1.00E-06,  avg # of iterations =  2.0

     Threshold (ethr) on eigenvalues was too large:
     Diagonalizing with lowered threshold

     Davidson diagonalization with overlap
     ethr =  3.15E-10,  avg # of iterations =  5.0

     negative rho (up, down):  3.056E-06 0.000E+00

     total cpu time spent up to now is      492.0 secs

     total energy              =    -447.15218077 Ry
     estimated scf accuracy    <       0.00000034 Ry

     iteration #  2     ecut=    90.00 Ry     beta= 0.30
     Davidson diagonalization with overlap
     ethr =  3.40E-10,  avg # of iterations =  2.0

     negative rho (up, down):  3.049E-06 0.000E+00

     total cpu time spent up to now is      496.2 secs

     total energy              =    -447.15218079 Ry
     estimated scf accuracy    <       0.00000009 Ry

     iteration #  3     ecut=    90.00 Ry     beta= 0.30
     Davidson diagonalization with overlap
     ethr =  8.58E-11,  avg # of iterations =  2.0

     negative rho (up, down):  3.044E-06 0.000E+00

     total cpu time spent up to now is      500.3 secs

     total energy              =    -447.15218079 Ry
     estimated scf accuracy    <       0.00000003 Ry

     iteration #  4     ecut=    90.00 Ry     beta= 0.30
     Davidson diagonalization with overlap
     ethr =  2.63E-11,  avg # of iterations =  2.0

     negative rho (up, down):  3.041E-06 0.000E+00

     total cpu time spent up to now is      504.5 secs

     total energy              =    -447.15218079 Ry
     estimated scf accuracy    <          4.1E-09 Ry

     iteration #  5     ecut=    90.00 Ry     beta= 0.30
     Davidson diagonalization with overlap
     ethr =  4.14E-12,  avg # of iterations =  2.0

     negative rho (up, down):  3.042E-06 0.000E+00

     total cpu time spent up to now is      508.9 secs

     total energy              =    -447.15218079 Ry
     estimated scf accuracy    <          4.7E-10 Ry

     iteration #  6     ecut=    90.00 Ry     beta= 0.30
     Davidson diagonalization with overlap
     ethr =  4.70E-13,  avg # of iterations =  2.7

     negative rho (up, down):  3.043E-06 0.000E+00

     total cpu time spent up to now is      513.8 secs

     End of self-consistent calculation

          k = 0.0000-0.0000 0.0000 ( 20853 PWs)   bands (ev):

   -13.5844 -13.2650 -12.7384 -12.0030 -11.0683  -9.9602  -8.7271  -7.4376
    -6.2072  -5.3011  -4.9832  -4.9751  -4.9217  -4.6402  -4.1757  -3.5211
    -2.6762  -1.8112  -1.7676  -1.6555  -1.0882  -1.0261  -0.4942  -0.1231
     0.0958   0.7719   1.0520   1.0556   1.5268   1.7796   2.1327   2.1892
     2.3580   2.7504   3.4433   3.5811   3.7252   4.2257   5.0350   5.0552
     5.0794   5.8028   6.3271   6.3999   6.4754   7.0182   7.3031   7.3625
     7.4075   7.6341   9.4987   9.9470  12.1688  12.5592  12.8126  13.0829
    13.2246  13.4128  13.4170  13.5986

          k = 0.0000-0.1010 0.0000 ( 20851 PWs)   bands (ev):

   -13.3971 -13.0789 -12.5542 -11.8223 -10.8940  -9.7992  -8.5993  -7.4206
    -7.0988  -6.8787  -6.5450  -6.5373  -4.2107  -3.9031  -3.5786  -3.0081
    -2.8555  -2.6683  -1.8823  -0.9375  -0.8195  -0.3475  -0.1595   0.2407
     0.5019   1.0191   1.2361   1.3695   1.7077   1.9543   2.3523   2.4489
     2.4554   2.8946   3.5575   3.6382   3.9289   4.2928   4.8578   5.0304
     5.2991   5.6955   6.0233   6.2342   6.4035   6.6228   6.8628   6.9273
     6.9796   7.1937   9.7174  10.1613  12.3271  12.3289  12.9437  13.3215
    13.4531  13.7648  13.9167  14.1124

          k = 0.0000-0.2020 0.0000 ( 20798 PWs)   bands (ev):

   -12.8375 -12.5228 -12.0051 -11.2857 -10.3823  -9.3510  -9.0108  -8.7507
    -8.2925  -8.2847  -7.7256  -7.5632  -4.9491  -4.6018  -4.1660  -3.5450
    -2.8484  -2.2316  -1.4591  -0.8092  -0.4610   0.5067   0.8667   1.1596
     1.5375   1.8195   1.9807   2.2442   2.3404   2.4708   2.6944   2.8317
     3.2681   3.3133   3.8804   3.9612   4.1284   4.4685   4.9683   4.9915
     5.0929   5.3756   5.5973   5.6495   5.6857   5.6994   5.6997   6.0308
     6.3244   6.3829  10.3613  10.7443  12.2881  12.6428  13.0422  13.4858
    13.5618  13.7335  14.3062  14.5035

          k = 0.0000-0.3030 0.0000 ( 20770 PWs)   bands (ev):

   -11.9121 -11.6058 -11.1066 -10.6388 -10.4176 -10.3366  -9.8352  -9.5918
    -9.1432  -8.7274  -8.3481  -8.0785  -5.3705  -5.0139  -4.5472  -3.8538
    -3.2184  -2.4298  -1.6932  -0.8615  -0.1268   0.7409   1.3145   2.2162
     2.6500   2.7164   3.1157   3.2419   3.3030   3.5170   3.5914   3.7528
     3.8959   3.9534   4.2808   4.3039   4.3103   4.4429   4.5541   4.5753
     4.6995   4.7323   4.7743   4.9427   4.9459   5.0164   5.0481   5.2040
     5.3046   5.3330  11.3726  11.5833  12.4571  12.5488  12.7535  13.1358
    13.4020  13.8444  14.1540  14.4138

          k = 0.1111-0.0000 0.0000 ( 20803 PWs)   bands (ev):

   -13.3577 -13.0391 -12.5136 -11.7798 -10.8472  -9.7418  -8.5119  -7.2267
    -6.0017  -5.1010  -4.8537  -4.7807  -4.7752  -4.5749  -4.1150  -3.4668
    -2.6303  -1.6199  -1.6079  -1.5758  -0.9162  -0.8215  -0.4714   0.0221
     0.2958   0.4966   0.7603   0.7792   1.1578   1.1875   1.2485   1.7712
     2.1202   2.4032   2.4887   3.2901   3.5455   3.6750   4.1121   4.8753
     4.8795   4.9784   5.5247   5.9008   5.9918   6.2697   6.3398   6.5593
     6.5963   7.2439   9.7279  10.1511  12.3358  13.0251  13.1429  13.2788
    13.5829  13.6306  13.8957  14.0863

          k = 0.1111-0.1010 0.0000 ( 20797 PWs)   bands (ev):

   -13.1710 -12.8534 -12.3300 -11.5998 -10.6737  -9.5819  -8.3857  -7.2133
    -6.9154  -6.6953  -6.3537  -6.3508  -4.0579  -3.7594  -3.4387  -2.8749
    -2.7853  -2.6466  -1.7644  -0.8353  -0.7692  -0.2581  -0.1486   0.2956
     0.5359   0.8052   1.0256   1.0804   1.3074   1.4679   1.4709   2.0195
     2.3938   2.4807   2.6897   3.4085   3.5514   3.8877   4.1302   4.6333
     4.7539   4.9948   5.3199   5.3238   5.3531   5.5953   6.1154   6.4329
     6.9106   7.1523   9.9631  10.3852  12.5988  13.1337  13.7082  13.7463
    13.9261  14.1454  14.2657  14.3396

          k = 0.1111-0.2020 0.0000 ( 20800 PWs)   bands (ev):

   -12.6129 -12.2990 -11.7827 -11.0654 -10.1648  -9.1373  -8.8060  -8.5472
    -8.0919  -8.0771  -7.5279  -7.3634  -4.7568  -4.4166  -3.9781  -3.3721
    -2.6799  -2.0754  -1.3703  -0.7505  -0.5988   0.3326   0.6479   0.9980
     1.0631   1.3937   1.7766   1.8182   1.9957   2.2527   2.4716   2.5998
     2.8080   2.9684   3.3732   3.7299   3.8199   3.8304   4.0977   4.1415
     4.2044   4.3116   4.3640   4.3675   4.8244   5.1621   5.6586   6.2089
     6.6522   6.6787  10.6236  11.0075  13.1259  13.1595  13.8122  14.1864
    14.2989  14.8541  14.8549  15.0091

          k = 0.1111-0.3030 0.0000 ( 20773 PWs)   bands (ev):

   -11.6907 -11.3854 -10.8879 -10.4231 -10.2016 -10.1223  -9.6234  -9.3794
    -8.9348  -8.5200  -8.1443  -7.8764  -5.1673  -4.8124  -4.3534  -3.6612
    -3.0386  -2.2500  -1.5367  -0.7049  -0.0353   0.7546   1.0371   1.5857
     1.8044   2.0167   2.2264   2.4490   2.6427   2.8194   2.9953   3.0045
     3.1247   3.3971   3.4841   3.5737   3.8138   3.8705   3.8959   3.9731
     4.1658   4.3629   4.4581   4.5199   4.7232   5.0668   5.2681   5.4124
     5.5844   5.6249  11.6554  11.9231  13.0663  13.0674  13.3957  13.8582
    13.9738  14.5515  14.9663  15.1831

          k = 0.2222-0.0000 0.0000 ( 20844 PWs)   bands (ev):

   -12.6810 -12.3645 -11.8425 -11.1137 -10.1876  -9.0902  -7.8702  -6.5973
    -5.3882  -4.9632  -4.6882  -4.5026  -4.2343  -4.1774  -4.1750  -3.5947
    -2.7697  -1.7737  -1.2051  -1.0207  -1.0159  -0.9309  -0.6419  -0.4882
    -0.4261  -0.2247   0.1123   0.4208   0.5893   0.8410   0.8802   1.4189
     1.6410   1.8115   1.9075   2.4294   2.4526   3.1156   3.3027   3.4041
     3.6451   4.0015   4.1626   4.1975   4.2943   4.6628   4.7108   4.9172
     5.9528   6.8142  10.4481  10.7926  12.4088  12.4675  12.9503  13.0587
    13.1748  13.7983  14.0028  14.1784

          k = 0.2222-0.1010 0.0000 ( 20776 PWs)   bands (ev):

   -12.4959 -12.1805 -11.6609 -10.9360 -10.0169  -8.9338  -7.7491  -6.6005
    -6.4340  -6.2110  -5.8559  -5.7904  -3.7637  -3.4792  -3.2768  -3.1268
    -3.0466  -2.6072  -1.5647  -1.1532  -1.0314  -0.6933  -0.4751  -0.2534
    -0.2289   0.4009   0.4739   0.7064   1.0480   1.1540   1.2294   1.6175
     1.8817   1.9900   2.2470   2.3377   2.7640   2.8867   3.0077   3.0207
     3.1736   3.2263   3.3757   3.7834   4.3305   4.7585   5.4262   5.5237
     6.0017   6.4379  10.6946  11.0453  13.0654  13.1252  13.2472  13.5766
    13.5873  13.8431  14.0952  14.3766

          k = 0.2222-0.2020 0.0000 ( 20759 PWs)   bands (ev):

   -11.9433 -11.6319 -11.1200 -10.4090  -9.5168  -8.5013  -8.2142  -7.9588
    -7.5116  -7.4608  -6.9519  -6.7732  -4.2342  -3.9132  -3.4860  -2.9112
    -2.4061  -2.2235  -2.0843  -1.6760  -0.9691  -0.5262  -0.2605  -0.2178
     0.2530   0.9053   0.9206   1.2204   1.4314   1.5070   1.8289   1.9038
     2.0298   2.2538   2.3290   2.4349   2.6078   2.6322   2.8453   2.9634
     3.0630   3.2008   3.3827   3.6828   4.3494   4.5655   5.3447   5.4581
     6.0806   6.2347  11.3662  11.6967  13.8959  14.2073  14.2860  14.3075
    14.5915  14.7069  14.8649  14.8951

          k = 0.2222-0.3030 0.0000 ( 20801 PWs)   bands (ev):

   -11.0322 -10.7301 -10.2380  -9.7859  -9.5601  -9.4896  -8.9979  -8.7488
    -8.3194  -7.9043  -7.5407  -7.2756  -4.5894  -4.2363  -3.8108  -3.1177
    -2.5620  -1.7729  -1.3138  -1.2338  -1.0852  -0.3780  -0.1478  -0.0228
     0.1294   0.2801   0.5543   0.8660   1.0427   1.2003   1.5200   1.6035
     1.7280   1.8807   2.2127   2.9307   3.2669   3.5359   3.6131   3.7517
     3.9914   4.0162   4.1629   4.1987   4.2630   4.2796   4.8161   5.2071
     5.4870   5.5340  12.3611  12.5901  13.8272  13.8759  14.7079  14.9581
    15.1406  15.1606  15.2208  15.5654

          k = 0.3333-0.0000 0.0000 ( 20766 PWs)   bands (ev):

   -11.5659 -11.2530 -10.7374 -10.0173  -9.1024  -8.0186  -6.8149  -6.2097
    -5.9236  -5.5617  -5.4520  -4.7906  -4.3760  -3.9437  -3.5116  -3.1868
    -3.1725  -2.9302  -1.7903  -1.5298  -1.2743  -0.8656  -0.5744  -0.3190
    -0.1732  -0.0985   0.2933   0.3264   0.6467   0.7069   0.9491   1.0037
     1.6043   1.6199   1.6568   1.7960   1.9580   2.0240   2.1022   2.2728
     2.4700   2.6926   2.6929   2.8951   2.9493   2.9584   3.0146   4.0732
     5.2175   6.0423  11.5795  11.7354  12.1019  12.2453  12.7641  12.8683
    13.6445  13.9213  14.3464  14.6715

          k = 0.3333-0.1010 0.0000 ( 20794 PWs)   bands (ev):

   -11.3845 -11.0730 -10.5600  -9.8444  -8.9373  -7.8691  -6.7048  -6.4178
    -6.1416  -5.7388  -5.5373  -5.2036  -4.1191  -4.1114  -3.9557  -3.8886
    -3.7705  -3.0382  -1.9560  -1.4149  -1.1123  -0.9449  -0.7929  -0.3811
    -0.1486  -0.1197   0.2592   0.6346   0.6990   0.7510   0.7652   1.0183
     1.0997   1.4875   1.6436   1.7111   1.9318   1.9939   2.0826   2.1861
     2.3170   2.6822   2.8623   2.8746   3.4890   3.8349   3.9479   4.1459
     5.0292   5.8515  11.8538  12.0735  12.7566  12.7635  13.1255  13.1408
    13.5511  13.8392  14.2712  14.4657

          k = 0.3333-0.2020 0.0000 ( 20813 PWs)   bands (ev):

   -10.8445 -10.5377 -10.0336  -9.3337  -8.4559  -7.4799  -7.3949  -7.1567
    -6.7134  -6.4715  -6.1189  -5.8520  -4.3281  -4.0760  -3.8667  -3.6531
    -3.5179  -3.4728  -2.5634  -1.7734  -1.4470  -1.4010  -1.0316  -0.8876
    -0.8345  -0.6716  -0.5862  -0.5361   0.2509   0.3908   0.7685   0.9084
     1.6284   1.8311   2.1116   2.2065   2.4555   2.4871   2.6096   2.7241
     2.8963   2.9219   3.0675   3.3491   3.4402   3.9713   4.5123   4.7471
     5.2173   5.3698  12.4872  12.6915  13.7873  13.7928  14.2016  14.2509
    14.4983  14.6461  14.7586  14.8998

          k = 0.3333-0.3030 0.0000 ( 20863 PWs)   bands (ev):

    -9.9620  -9.6656  -9.1831  -8.7816  -8.5207  -8.4932  -8.0137  -7.7284
    -7.3486  -6.9091  -6.5763  -6.3002  -3.8412  -3.6441  -3.4645  -3.3826
    -3.2534  -2.9583  -2.7253  -2.5166  -2.4322  -2.2621  -1.8924  -1.7426
    -1.1797  -1.0666  -0.4410  -0.4391  -0.2662  -0.1261   0.1981   0.7523
     1.4377   1.9530   2.1897   2.2068   2.6142   2.6165   2.9724   3.4268
     3.5104   3.5199   3.8303   3.9806   4.2420   4.3069   4.4475   4.5051
     5.0524   5.2289  13.2624  13.3605  14.6873  14.7301  14.8941  14.9927
    15.2521  15.5447  15.6579  15.7249

          k = 0.4444-0.0000 0.0000 ( 20772 PWs)   bands (ev):

   -10.0403  -9.7331  -9.2270  -8.5202  -8.1760  -7.8772  -7.6218  -7.3851
    -6.6972  -6.5573  -5.8213  -5.3754  -4.7812  -4.1462  -3.6235  -2.9849
    -2.4138  -2.1401  -1.8149  -1.7857  -1.2596  -0.5341  -0.4135  -0.3196
    -0.0842  -0.0380   0.0126   0.4335   0.8168   0.8863   0.9715   1.0459
     1.0974   1.1953   1.2862   1.3349   1.4157   1.5377   1.5574   1.6790
     1.7126   1.7323   1.7640   1.8828   2.1549   2.9468   3.0736   3.8031
     4.1578   4.9830  12.1995  12.2190  12.7472  12.7697  13.0756  13.0801
    13.3521  13.6061  13.6470  13.7116

          k = 0.4444-0.1010 0.0000 ( 20816 PWs)   bands (ev):

    -9.8683  -9.5629  -9.0601  -8.3588  -8.0432  -7.7475  -7.4691  -7.2606
    -6.5810  -6.4212  -5.7192  -5.2832  -4.6756  -4.1134  -3.5665  -3.2270
    -3.2238  -3.0179  -2.9028  -2.4436  -1.5578  -1.4965  -1.3264  -1.2341
    -0.4638  -0.2191   0.0209   0.4005   0.7493   0.8911   0.9679   0.9986
     1.0857   1.3606   1.4756   1.6539   1.7202   1.8224   1.9131   1.9615
     2.1922   2.2437   2.3696   2.4746   2.6334   3.0770   3.1650   3.8972
     4.1479   4.9641  12.7751  12.8296  12.8594  12.9631  13.0303  13.3041
    13.5434  13.8297  14.0260  14.1560

          k = 0.4444-0.2020 0.0000 ( 20837 PWs)   bands (ev):

    -9.3648  -9.0654  -8.5736  -7.8910  -7.7413  -7.4569  -7.0310  -6.9873
    -6.3354  -6.0450  -5.5240  -5.0968  -4.7782  -4.5350  -4.3763  -4.2286
    -3.9567  -3.8208  -3.4891  -3.2078  -2.9662  -2.7513  -2.5220  -2.3729
    -1.0868  -0.7985  -0.5349   0.0948   0.1176   0.3517   0.5460   0.7581
     1.2291   1.3955   1.5642   1.6991   2.0009   2.3433   2.6281   2.6798
     2.8066   3.0509   3.1038   3.2836   3.5417   3.7709   3.9568   4.1074
     4.1831   4.8828  13.4794  13.5610  13.7834  13.8709  14.0692  14.1426
    14.3569  14.3693  14.6397  14.8801

          k = 0.4444-0.3030 0.0000 ( 20868 PWs)   bands (ev):

    -8.5902  -8.3029  -7.8357  -7.8163  -7.5360  -7.2103  -7.0563  -6.5153
    -6.3224  -5.7567  -5.4672  -5.3523  -5.1151  -5.0532  -4.6528  -4.6075
    -4.3445  -4.2188  -3.9365  -3.8252  -3.8096  -3.5927  -3.3335  -3.1476
    -1.1961  -1.0594  -0.6954  -0.6561  -0.2940   0.1233   0.4015   0.6749
     0.8665   1.2577   1.3769   1.6477   2.1710   2.3791   2.6805   2.6908
     3.3054   3.4246   3.6833   3.8742   4.0731   4.2599   4.4772   4.4867
     4.7136   4.7927  14.0206  14.0337  14.6801  14.6942  15.2400  15.3469
    15.7345  15.8116  15.8431  15.8954

     the Fermi energy is     8.2482 ev

!    total energy              =    -447.15218079 Ry
     estimated scf accuracy    <          9.2E-11 Ry
     smearing contrib. (-TS)   =       0.00000000 Ry
     internal energy E=F+TS    =    -447.15218079 Ry

     The total energy is F=E-TS. E is the sum of the following terms:
     one-electron contribution =   -3120.66459912 Ry
     hartree contribution      =    1616.51791586 Ry
     xc contribution           =    -115.33623964 Ry
     ewald contribution        =    1320.24142208 Ry
     one-center paw contrib.   =    -147.91067998 Ry

     convergence has been achieved in   6 iterations

     negative rho (up, down):  3.043E-06 0.000E+00

     Forces acting on atoms (cartesian axes, Ry/au):

     atom    1 type  1   force =    -0.00000000    0.00001202   -0.00014900
     atom    2 type  1   force =     0.00000000   -0.00001202   -0.00014900
     atom    3 type  1   force =     0.00000000    0.00000304   -0.00020270
     atom    4 type  1   force =     0.00000000   -0.00000304   -0.00020270
     atom    5 type  1   force =     0.00000000   -0.00002092   -0.00011206
     atom    6 type  1   force =     0.00000000    0.00002092   -0.00011206
     atom    7 type  1   force =     0.00000000   -0.00001887    0.00004854
     atom    8 type  1   force =     0.00000000    0.00001887    0.00004854
     atom    9 type  1   force =     0.00000000    0.00000434    0.00011306
     atom   10 type  1   force =     0.00000000   -0.00000434    0.00011306
     atom   11 type  1   force =    -0.00000000   -0.00000444    0.00005367
     atom   12 type  1   force =     0.00000000    0.00000444    0.00005367
     atom   13 type  1   force =     0.00000000   -0.00000444   -0.00005367
     atom   14 type  1   force =     0.00000000    0.00000444   -0.00005367
     atom   15 type  1   force =     0.00000000   -0.00000434   -0.00011306
     atom   16 type  1   force =     0.00000000    0.00000434   -0.00011306
     atom   17 type  1   force =     0.00000000   -0.00001887   -0.00004854
     atom   18 type  1   force =     0.00000000    0.00001887   -0.00004854
     atom   19 type  1   force =     0.00000000   -0.00002092    0.00011206
     atom   20 type  1   force =     0.00000000    0.00002092    0.00011206
     atom   21 type  1   force =     0.00000000    0.00000304    0.00020270
     atom   22 type  1   force =     0.00000000   -0.00000304    0.00020270
     atom   23 type  1   force =     0.00000000    0.00001202    0.00014900
     atom   24 type  1   force =     0.00000000   -0.00001202    0.00014900
     atom   25 type  2   force =     0.00000000    0.00007187   -0.00013742
     atom   26 type  2   force =     0.00000000   -0.00007187   -0.00013742
     atom   27 type  2   force =     0.00000000    0.00007187    0.00013742
     atom   28 type  2   force =    -0.00000000   -0.00007187    0.00013742

     Total force =     0.000690     Total SCF correction =     0.000027
     Energy error            =      7.0E-07 Ry
     Gradient error          =      2.0E-04 Ry/Bohr

     number of scf cycles    =  13
     number of bfgs steps    =  12

     energy             old  =    -447.1521800929 Ry
     energy             new  =    -447.1521807912 Ry

     CASE: energy            _new < energy            _old

     new trust radius        =       0.0005645905 bohr
     new conv_thr            =            1.0E-10 Ry


ATOMIC_POSITIONS (angstrom)
C               -0.0000000000       -0.9126239526       18.7633228029
C                1.2634728900       -1.7676067974       18.7633228029
C                1.2634728900       -2.6831550169       17.5282561788
C               -0.0000000000        0.0029242669       17.5282561788
C                0.0000000000       -0.8927969492       16.2617739032
C                1.2634728900       -1.7874338008       16.2617739032
C                1.2634728900       -2.6801639619       14.9981183028
C                0.0000000000       -0.0000667881       14.9981183028
C                1.2634728900       -1.7868095242       13.7343231023
C                0.0000000000       -0.8934212258       13.7343231023
C                0.0000000000        0.0000242674       12.4707894176
C                1.2634728900       -2.6802550174       12.4707894176
C                1.2634728900       -1.7867962326       11.2073749424
C               -0.0000000000       -0.8934345174       11.2073749424
C                1.2634728900       -2.6802417258        9.9438412577
C                0.0000000000        0.0000109758        9.9438412577
C               -0.0000000000       -0.8933434619        8.6800460572
C                1.2634728900       -1.7868872881        8.6800460572
C                1.2634728900       -2.6796174492        7.4163904568
C                0.0000000000       -0.0006133008        7.4163904568
C                0.0000000000       -0.8963345169        6.1499081912
C                1.2634728900       -1.7838962331        6.1499081912
C                1.2634728900       -2.6994444526        4.9148415571
C               -0.0000000000        0.0192137026        4.9148415571
H                0.0000000000       -0.3133750737       19.6848387997
H                1.2634728900       -2.3668556763       19.6848387997
H                1.2634728900       -2.1001955737        3.9933255603
H               -0.0000000000       -0.5800351763        3.9933255603



     Writing config-only to output data dir /tmp/qe/slab.save/ :
     XML data file
     NEW-OLD atomic charge density approx. for the potential

     Check: negative core charge=   -0.000001

     negative rho (up, down):  3.074E-06 0.000E+00

     total cpu time spent up to now is      515.3 secs

     Self-consistent Calculation

     iteration #  1     ecut=    90.00 Ry     beta= 0.30
     Davidson diagonalization with overlap
     ethr =  1.00E-06,  avg # of iterations =  2.0

     Threshold (ethr) on eigenvalues was too large:
     Diagonalizing with lowered threshold

     Davidson diagonalization with overlap
     ethr =  3.81E-10,  avg # of iterations =  4.8

     negative rho (up, down):  3.069E-06 0.000E+00

     total cpu time spent up to now is      525.5 secs

     total energy              =    -447.15218152 Ry
     estimated scf accuracy    <       0.00000035 Ry

     iteration #  2     ecut=    90.00 Ry     beta= 0.30
     Davidson diagonalization with overlap
     ethr =  3.46E-10,  avg # of iterations =  2.0

     negative rho (up, down):  3.061E-06 0.000E+00

     total cpu time spent up to now is      529.8 secs

     total energy              =    -447.15218153 Ry
     estimated scf accuracy    <       0.00000010 Ry

     iteration #  3     ecut=    90.00 Ry     beta= 0.30
     Davidson diagonalization with overlap
     ethr =  9.72E-11,  avg # of iterations =  1.9

     negative rho (up, down):  3.055E-06 0.000E+00

     total cpu time spent up to now is      533.9 secs

     total energy              =    -447.15218153 Ry
     estimated scf accuracy    <       0.00000003 Ry

     iteration #  4     ecut=    90.00 Ry     beta= 0.30
     Davidson diagonalization with overlap
     ethr =  2.62E-11,  avg # of iterations =  2.0

     negative rho (up, down):  3.054E-06 0.000E+00

     total cpu time spent up to now is      538.1 secs

     total energy              =    -447.15218154 Ry
     estimated scf accuracy    <          3.1E-09 Ry

     iteration #  5     ecut=    90.00 Ry     beta= 0.30
     Davidson diagonalization with overlap
     ethr =  3.10E-12,  avg # of iterations =  2.4

     negative rho (up, down):  3.054E-06 0.000E+00

     total cpu time spent up to now is      542.7 secs

     total energy              =    -447.15218154 Ry
     estimated scf accuracy    <          5.4E-10 Ry

     iteration #  6     ecut=    90.00 Ry     beta= 0.30
     Davidson diagonalization with overlap
     ethr =  5.35E-13,  avg # of iterations =  2.1

     negative rho (up, down):  3.055E-06 0.000E+00

     total cpu time spent up to now is      546.9 secs

     total energy              =    -447.15218154 Ry
     estimated scf accuracy    <          1.4E-10 Ry

     iteration #  7     ecut=    90.00 Ry     beta= 0.30
     Davidson diagonalization with overlap
     ethr =  1.36E-13,  avg # of iterations =  2.4

     negative rho (up, down):  3.056E-06 0.000E+00

     total cpu time spent up to now is      551.7 secs

     End of self-consistent calculation

          k = 0.0000-0.0000 0.0000 ( 20853 PWs)   bands (ev):

   -13.5849 -13.2654 -12.7392 -12.0033 -11.0685  -9.9605  -8.7272  -7.4377
    -6.2071  -5.3011  -4.9835  -4.9751  -4.9223  -4.6406  -4.1767  -3.5216
    -2.6766  -1.8116  -1.7680  -1.6558  -1.0886  -1.0260  -0.4945  -0.1234
     0.0960   0.7718   1.0518   1.0560   1.5264   1.7793   2.1327   2.1884
     2.3579   2.7500   3.4429   3.5812   3.7251   4.2254   5.0347   5.0554
     5.0794   5.8026   6.3270   6.4002   6.4753   7.0180   7.3030   7.3628
     7.4075   7.6341   9.4989   9.9471  12.1687  12.5588  12.8123  13.0840
    13.2240  13.4132  13.4166  13.5987

          k = 0.0000-0.1010 0.0000 ( 20851 PWs)   bands (ev):

   -13.3976 -13.0792 -12.5550 -11.8227 -10.8943  -9.7994  -8.5994  -7.4206
    -7.0993  -6.8790  -6.5449  -6.5378  -4.2111  -3.9035  -3.5788  -3.0084
    -2.8555  -2.6687  -1.8825  -0.9377  -0.8200  -0.3474  -0.1599   0.2405
     0.5018   1.0190   1.2364   1.3692   1.7073   1.9540   2.3515   2.4487
     2.4556   2.8942   3.5571   3.6380   3.9291   4.2925   4.8577   5.0301
     5.2992   5.6952   6.0232   6.2340   6.4037   6.6225   6.8628   6.9274
     6.9795   7.1936   9.7175  10.1614  12.3271  12.3289  12.9435  13.3209
    13.4534  13.7654  13.9164  14.1126

          k = 0.0000-0.2020 0.0000 ( 20798 PWs)   bands (ev):

   -12.8380 -12.5231 -12.0058 -11.2861 -10.3826  -9.3512  -9.0113  -8.7510
    -8.2931  -8.2848  -7.7258  -7.5632  -4.9494  -4.6022  -4.1662  -3.5451
    -2.8485  -2.2318  -1.4589  -0.8091  -0.4611   0.5066   0.8666   1.1597
     1.5370   1.8197   1.9805   2.2438   2.3404   2.4705   2.6943   2.8310
     3.2678   3.3129   3.8801   3.9614   4.1281   4.4681   4.9680   4.9911
     5.0931   5.3753   5.5970   5.6493   5.6855   5.6993   5.6994   6.0305
     6.3241   6.3827  10.3615  10.7444  12.2884  12.6428  13.0426  13.4857
    13.5617  13.7336  14.3059  14.5038

          k = 0.0000-0.3030 0.0000 ( 20770 PWs)   bands (ev):

   -11.9126 -11.6061 -11.1073 -10.6393 -10.4180 -10.3369  -9.8359  -9.5921
    -9.1434  -8.7276  -8.3482  -8.0785  -5.3708  -5.0142  -4.5473  -3.8539
    -3.2185  -2.4300  -1.6929  -0.8613  -0.1265   0.7411   1.3147   2.2164
     2.6498   2.7168   3.1152   3.2419   3.3027   3.5164   3.5907   3.7531
     3.8955   3.9530   4.2804   4.3036   4.3099   4.4426   4.5534   4.5752
     4.6991   4.7321   4.7741   4.9425   4.9458   5.0161   5.0479   5.2034
     5.3043   5.3328  11.3728  11.5835  12.4573  12.5491  12.7537  13.1360
    13.4023  13.8446  14.1539  14.4138

          k = 0.1111-0.0000 0.0000 ( 20803 PWs)   bands (ev):

   -13.3582 -13.0394 -12.5143 -11.7802 -10.8475  -9.7420  -8.5120  -7.2267
    -6.0016  -5.1010  -4.8543  -4.7810  -4.7753  -4.5753  -4.1159  -3.4673
    -2.6307  -1.6202  -1.6082  -1.5762  -0.9166  -0.8215  -0.4716   0.0219
     0.2960   0.4961   0.7599   0.7791   1.1576   1.1867   1.2489   1.7708
     2.1202   2.4030   2.4883   3.2898   3.5456   3.6749   4.1118   4.8751
     4.8793   4.9786   5.5246   5.9007   5.9917   6.2699   6.3398   6.5594
     6.5960   7.2442   9.7281  10.1512  12.3356  13.0253  13.1426  13.2798
    13.5831  13.6308  13.8956  14.0859

          k = 0.1111-0.1010 0.0000 ( 20797 PWs)   bands (ev):

   -13.1715 -12.8537 -12.3307 -11.6002 -10.6740  -9.5821  -8.3858  -7.2134
    -6.9159  -6.6956  -6.3542  -6.3508  -4.0583  -3.7598  -3.4389  -2.8753
    -2.7853  -2.6470  -1.7647  -0.8356  -0.7697  -0.2580  -0.1490   0.2953
     0.5359   0.8049   1.0253   1.0803   1.3072   1.4682   1.4702   2.0192
     2.3936   2.4808   2.6893   3.4082   3.5512   3.8878   4.1299   4.6331
     4.7537   4.9946   5.3198   5.3237   5.3530   5.5953   6.1153   6.4331
     6.9107   7.1523   9.9632  10.3853  12.5987  13.1345  13.7083  13.7462
    13.9263  14.1454  14.2656  14.3398

          k = 0.1111-0.2020 0.0000 ( 20800 PWs)   bands (ev):

   -12.6134 -12.2993 -11.7835 -11.0658 -10.1651  -9.1375  -8.8065  -8.5475
    -8.0926  -8.0772  -7.5282  -7.3635  -4.7571  -4.4169  -3.9783  -3.3723
    -2.6800  -2.0756  -1.3701  -0.7506  -0.5989   0.3324   0.6476   0.9981
     1.0628   1.3934   1.7763   1.8183   1.9954   2.2527   2.4711   2.5998
     2.8076   2.9681   3.3728   3.7298   3.8197   3.8301   4.0972   4.1412
     4.2042   4.3111   4.3638   4.3674   4.8242   5.1623   5.6585   6.2087
     6.6522   6.6786  10.6238  11.0076  13.1264  13.1595  13.8125  14.1866
    14.2990  14.8542  14.8547  15.0093

          k = 0.1111-0.3030 0.0000 ( 20773 PWs)   bands (ev):

   -11.6912 -11.3857 -10.8887 -10.4236 -10.2020 -10.1226  -9.6240  -9.3797
    -8.9351  -8.5203  -8.1444  -7.8765  -5.1677  -4.8127  -4.3536  -3.6614
    -3.0387  -2.2502  -1.5363  -0.7047  -0.0351   0.7545   1.0370   1.5855
     1.8044   2.0160   2.2263   2.4486   2.6427   2.8191   2.9949   3.0046
     3.1242   3.3969   3.4838   3.5733   3.8137   3.8706   3.8957   3.9730
     4.1653   4.3626   4.4577   4.5195   4.7229   5.0664   5.2680   5.4121
     5.5844   5.6245  11.6556  11.9232  13.0666  13.0676  13.3961  13.8585
    13.9741  14.5518  14.9662  15.1832

          k = 0.2222-0.0000 0.0000 ( 20844 PWs)   bands (ev):

   -12.6816 -12.3648 -11.8433 -11.1141 -10.1879  -9.0904  -7.8703  -6.5974
    -5.3881  -4.9638  -4.6886  -4.5026  -4.2352  -4.1774  -4.1753  -3.5952
    -2.7701  -1.7740  -1.2055  -1.0212  -1.0163  -0.9312  -0.6422  -0.4890
    -0.4265  -0.2247   0.1120   0.4205   0.5891   0.8407   0.8804   1.4186
     1.6407   1.8119   1.9075   2.4292   2.4524   3.1154   3.3029   3.4040
     3.6449   4.0013   4.1622   4.1975   4.2942   4.6626   4.7110   4.9168
     5.9531   6.8145  10.4482  10.7926  12.4086  12.4676  12.9501  13.0588
    13.1749  13.7992  14.0030  14.1788

          k = 0.2222-0.1010 0.0000 ( 20776 PWs)   bands (ev):

   -12.4964 -12.1809 -11.6616 -10.9364 -10.0172  -8.9340  -7.7492  -6.6006
    -6.4344  -6.2113  -5.8565  -5.7904  -3.7640  -3.4796  -3.2770  -3.1272
    -3.0468  -2.6075  -1.5650  -1.1537  -1.0319  -0.6933  -0.4755  -0.2536
    -0.2292   0.4007   0.4735   0.7061   1.0479   1.1537   1.2293   1.6172
     1.8816   1.9903   2.2467   2.3377   2.7637   2.8865   3.0076   3.0205
     3.1733   3.2260   3.3753   3.7834   4.3305   4.7584   5.4263   5.5237
     6.0017   6.4382  10.6947  11.0453  13.0652  13.1253  13.2471  13.5767
    13.5874  13.8439  14.0955  14.3768

          k = 0.2222-0.2020 0.0000 ( 20759 PWs)   bands (ev):

   -11.9438 -11.6322 -11.1208 -10.4094  -9.5171  -8.5015  -8.2147  -7.9591
    -7.5123  -7.4609  -6.9521  -6.7733  -4.2346  -3.9135  -3.4861  -2.9114
    -2.4063  -2.2240  -2.0845  -1.6762  -0.9696  -0.5267  -0.2605  -0.2177
     0.2527   0.9054   0.9204   1.2202   1.4309   1.5068   1.8286   1.9035
     2.0297   2.2536   2.3287   2.4347   2.6073   2.6325   2.8450   2.9636
     3.0627   3.2005   3.3824   3.6826   4.3495   4.5653   5.3450   5.4580
     6.0806   6.2347  11.3664  11.6967  13.8958  14.2083  14.2859  14.3074
    14.5915  14.7070  14.8650  14.8955

          k = 0.2222-0.3030 0.0000 ( 20801 PWs)   bands (ev):

   -11.0327 -10.7304 -10.2388  -9.7864  -9.5605  -9.4899  -8.9986  -8.7491
    -8.3197  -7.9045  -7.5409  -7.2757  -4.5897  -4.2366  -3.8109  -3.1178
    -2.5621  -1.7731  -1.3138  -1.2342  -1.0854  -0.3780  -0.1482  -0.0232
     0.1292   0.2798   0.5542   0.8657   1.0424   1.2000   1.5197   1.6037
     1.7279   1.8805   2.2129   2.9310   3.2672   3.5355   3.6128   3.7514
     3.9913   4.0158   4.1632   4.1987   4.2625   4.2793   4.8159   5.2070
     5.4868   5.5340  12.3613  12.5902  13.8274  13.8761  14.7085  14.9583
    15.1406  15.1608  15.2210  15.5655

          k = 0.3333-0.0000 0.0000 ( 20766 PWs)   bands (ev):

   -11.5665 -11.2534 -10.7381 -10.0177  -9.1027  -8.0188  -6.8150  -6.2103
    -5.9240  -5.5617  -5.4528  -4.7910  -4.3759  -3.9440  -3.5116  -3.1868
    -3.1728  -2.9305  -1.7905  -1.5303  -1.2746  -0.8664  -0.5745  -0.3194
    -0.1736  -0.0989   0.2929   0.3261   0.6467   0.7070   0.9488   1.0034
     1.6043   1.6196   1.6566   1.7962   1.9580   2.0239   2.1019   2.2726
     2.4697   2.6924   2.6932   2.8944   2.9489   2.9580   3.0145   4.0734
     5.2178   6.0426  11.5796  11.7353  12.1019  12.2453  12.7643  12.8684
    13.6446  13.9217  14.3464  14.6722

          k = 0.3333-0.1010 0.0000 ( 20794 PWs)   bands (ev):

   -11.3850 -11.0733 -10.5607  -9.8448  -8.9376  -7.8693  -6.7050  -6.4184
    -6.1419  -5.7395  -5.5374  -5.2039  -4.1193  -4.1117  -3.9561  -3.8887
    -3.7708  -3.0385  -1.9562  -1.4153  -1.1126  -0.9452  -0.7930  -0.3811
    -0.1489  -0.1200   0.2591   0.6343   0.6987   0.7508   0.7648   1.0180
     1.0993   1.4873   1.6434   1.7108   1.9316   1.9936   2.0826   2.1858
     2.3168   2.6821   2.8626   2.8745   3.4887   3.8350   3.9479   4.1457
     5.0294   5.8518  11.8539  12.0735  12.7566  12.7635  13.1256  13.1408
    13.5512  13.8393  14.2716  14.4657

          k = 0.3333-0.2020 0.0000 ( 20813 PWs)   bands (ev):

   -10.8450 -10.5380 -10.0344  -9.3340  -8.4562  -7.4802  -7.3954  -7.1571
    -6.7141  -6.4717  -6.1191  -5.8521  -4.3286  -4.0763  -3.8671  -3.6536
    -3.5180  -3.4731  -2.5637  -1.7737  -1.4473  -1.4012  -1.0320  -0.8879
    -0.8347  -0.6720  -0.5862  -0.5365   0.2507   0.3909   0.7684   0.9083
     1.6284   1.8311   2.1113   2.2061   2.4552   2.4869   2.6095   2.7240
     2.8961   2.9216   3.0674   3.3493   3.4402   3.9712   4.5124   4.7471
     5.2172   5.3700  12.4874  12.6915  13.7873  13.7928  14.2016  14.2509
    14.4983  14.6463  14.7585  14.9003

          k = 0.3333-0.3030 0.0000 ( 20863 PWs)   bands (ev):

    -9.9625  -9.6659  -9.1839  -8.7821  -8.5211  -8.4935  -8.0144  -7.7287
    -7.3489  -6.9093  -6.5764  -6.3003  -3.8415  -3.6446  -3.4648  -3.3829
    -3.2536  -2.9589  -2.7255  -2.5171  -2.4323  -2.2624  -1.8930  -1.7428
    -1.1799  -1.0669  -0.4412  -0.4394  -0.2664  -0.1262   0.1981   0.7524
     1.4379   1.9527   2.1894   2.2069   2.6140   2.6166   2.9723   3.4267
     3.5106   3.5197   3.8305   3.9805   4.2418   4.3069   4.4475   4.5054
     5.0524   5.2289  13.2625  13.3605  14.6875  14.7304  14.8941  14.9927
    15.2521  15.5448  15.6580  15.7254

          k = 0.4444-0.0000 0.0000 ( 20772 PWs)   bands (ev):

   -10.0409  -9.7334  -9.2278  -8.5206  -8.1765  -7.8775  -7.6221  -7.3859
    -6.6976  -6.5575  -5.8216  -5.3756  -4.7815  -4.1463  -3.6237  -2.9848
    -2.4138  -2.1401  -1.8149  -1.7859  -1.2596  -0.5347  -0.4136  -0.3200
    -0.0842  -0.0381   0.0118   0.4331   0.8164   0.8860   0.9711   1.0454
     1.0971   1.1951   1.2859   1.3344   1.4151   1.5374   1.5571   1.6787
     1.7122   1.7319   1.7637   1.8830   2.1547   2.9470   3.0737   3.8034
     4.1580   4.9833  12.1994  12.2189  12.7473  12.7697  13.0756  13.0801
    13.3522  13.6062  13.6470  13.7116

          k = 0.4444-0.1010 0.0000 ( 20816 PWs)   bands (ev):

    -9.8689  -9.5633  -9.0609  -8.3592  -8.0437  -7.7479  -7.4694  -7.2614
    -6.5814  -6.4215  -5.7195  -5.2833  -4.6758  -4.1134  -3.5667  -3.2272
    -3.2241  -3.0180  -2.9031  -2.4437  -1.5580  -1.4969  -1.3265  -1.2345
    -0.4641  -0.2195   0.0207   0.4002   0.7492   0.8908   0.9676   0.9983
     1.0854   1.3603   1.4754   1.6535   1.7199   1.8220   1.9128   1.9613
     2.1922   2.2437   2.3692   2.4743   2.6331   3.0771   3.1650   3.8975
     4.1481   4.9644  12.7751  12.8296  12.8594  12.9632  13.0303  13.3041
    13.5435  13.8297  14.0261  14.1561

          k = 0.4444-0.2020 0.0000 ( 20837 PWs)   bands (ev):

    -9.3653  -9.0657  -8.5744  -7.8914  -7.7419  -7.4572  -7.0313  -6.9881
    -6.3358  -6.0452  -5.5243  -5.0970  -4.7786  -4.5353  -4.3766  -4.2291
    -3.9568  -3.8210  -3.4893  -3.2083  -2.9664  -2.7518  -2.5223  -2.3730
    -1.0871  -0.7987  -0.5352   0.0947   0.1172   0.3515   0.5459   0.7578
     1.2288   1.3953   1.5641   1.6992   2.0006   2.3431   2.6278   2.6798
     2.8068   3.0507   3.1037   3.2835   3.5417   3.7708   3.9568   4.1075
     4.1833   4.8831  13.4793  13.5609  13.7834  13.8708  14.0692  14.1426
    14.3570  14.3692  14.6397  14.8801

          k = 0.4444-0.3030 0.0000 ( 20868 PWs)   bands (ev):

    -8.5907  -8.3032  -7.8364  -7.8169  -7.5363  -7.2107  -7.0570  -6.5157
    -6.3227  -5.7571  -5.4675  -5.3528  -5.1154  -5.0534  -4.6534  -4.6080
    -4.3448  -4.2191  -3.9370  -3.8255  -3.8097  -3.5929  -3.3337  -3.1478
    -1.1964  -1.0597  -0.6956  -0.6563  -0.2942   0.1231   0.4013   0.6746
     0.8665   1.2576   1.3768   1.6475   2.1712   2.3791   2.6807   2.6907
     3.3055   3.4245   3.6833   3.8744   4.0731   4.2598   4.4771   4.4869
     4.7139   4.7926  14.0205  14.0336  14.6800  14.6941  15.2402  15.3468
    15.7347  15.8115  15.8431  15.8959

     the Fermi energy is     8.2484 ev

!    total energy              =    -447.15218154 Ry
     estimated scf accuracy    <          1.6E-11 Ry
     smearing contrib. (-TS)   =       0.00000000 Ry
     internal energy E=F+TS    =    -447.15218154 Ry

     The total energy is F=E-TS. E is the sum of the following terms:
     one-electron contribution =   -3121.16461494 Ry
     hartree contribution      =    1616.76745558 Ry
     xc contribution           =    -115.33704096 Ry
     ewald contribution        =    1320.49271826 Ry
     one-center paw contrib.   =    -147.91069948 Ry

     convergence has been achieved in   7 iterations

     negative rho (up, down):  3.056E-06 0.000E+00

     Forces acting on atoms (cartesian axes, Ry/au):

     atom    1 type  1   force =     0.00000000    0.00009434   -0.00008233
     atom    2 type  1   force =     0.00000000   -0.00009434   -0.00008233
     atom    3 type  1   force =     0.00000000    0.00002552   -0.00020637
     atom    4 type  1   force =     0.00000000   -0.00002552   -0.00020637
     atom    5 type  1   force =     0.00000000   -0.00000684   -0.00017027
     atom    6 type  1   force =     0.00000000    0.00000684   -0.00017027
     atom    7 type  1   force =     0.00000000   -0.00002687    0.00004293
     atom    8 type  1   force =     0.00000000    0.00002687    0.00004293
     atom    9 type  1   force =    -0.00000000    0.00000107    0.00017975
     atom   10 type  1   force =     0.00000000   -0.00000107    0.00017975
     atom   11 type  1   force =     0.00000000   -0.00002575    0.00009684
     atom   12 type  1   force =     0.00000000    0.00002575    0.00009684
     atom   13 type  1   force =     0.00000000   -0.00002575   -0.00009684
     atom   14 type  1   force =    -0.00000000    0.00002575   -0.00009684
     atom   15 type  1   force =     0.00000000   -0.00000107   -0.00017975
     atom   16 type  1   force =     0.00000000    0.00000107   -0.00017975
     atom   17 type  1   force =     0.00000000   -0.00002687   -0.00004293
     atom   18 type  1   force =     0.00000000    0.00002687   -0.00004293
     atom   19 type  1   force =     0.00000000   -0.00000684    0.00017027
     atom   20 type  1   force =     0.00000000    0.00000684    0.00017027
     atom   21 type  1   force =     0.00000000    0.00002552    0.00020637
     atom   22 type  1   force =     0.00000000   -0.00002552    0.00020637
     atom   23 type  1   force =     0.00000000    0.00009434    0.00008233
     atom   24 type  1   force =     0.00000000   -0.00009434    0.00008233
     atom   25 type  2   force =     0.00000000    0.00006008   -0.00013457
     atom   26 type  2   force =     0.00000000   -0.00006008   -0.00013457
     atom   27 type  2   force =     0.00000000    0.00006008    0.00013457
     atom   28 type  2   force =     0.00000000   -0.00006008    0.00013457

     Total force =     0.000786     Total SCF correction =     0.000009
     Energy error            =      7.5E-07 Ry
     Gradient error          =      2.1E-04 Ry/Bohr

     number of scf cycles    =  14
     number of bfgs steps    =  13

     energy             old  =    -447.1521807912 Ry
     energy             new  =    -447.1521815377 Ry

     CASE: energy            _new < energy            _old

     new trust radius        =       0.0008468858 bohr
     new conv_thr            =            1.0E-10 Ry


ATOMIC_POSITIONS (angstrom)
C               -0.0000000000       -0.9126493872       18.7628939310
C                1.2634728900       -1.7675813628       18.7628939310
C                1.2634728900       -2.6831653908       17.5279132013
C               -0.0000000000        0.0029346408       17.5279132013
C                0.0000000000       -0.8928026544       16.2615373637
C                1.2634728900       -1.7874280956       16.2615373637
C                1.2634728900       -2.6801556933       14.9979294357
C                0.0000000000       -0.0000750567       14.9979294357
C                1.2634728900       -1.7868139359       13.7341616131
C                0.0000000000       -0.8934168141       13.7341616131
C                0.0000000000        0.0000327831       12.4707203016
C                1.2634728900       -2.6802635331       12.4707203016
C                1.2634728900       -1.7867877169       11.2074440584
C               -0.0000000000       -0.8934430331       11.2074440584
C                1.2634728900       -2.6802373141        9.9440027469
C                0.0000000000        0.0000065641        9.9440027469
C               -0.0000000000       -0.8933351933        8.6802349243
C                1.2634728900       -1.7868955567        8.6802349243
C                1.2634728900       -2.6796231544        7.4166269963
C                0.0000000000       -0.0006075956        7.4166269963
C                0.0000000000       -0.8963448908        6.1502511687
C                1.2634728900       -1.7838858592        6.1502511687
C                1.2634728900       -2.6994698872        4.9152704290
C               -0.0000000000        0.0192391372        4.9152704290
H                0.0000000000       -0.3133549030       19.6843911012
H                1.2634728900       -2.3668758470       19.6843911012
H                1.2634728900       -2.1001754030        3.9937732588
H               -0.0000000000       -0.5800553470        3.9937732588



     Writing config-only to output data dir /tmp/qe/slab.save/ :
     XML data file
     NEW-OLD atomic charge density approx. for the potential

     Check: negative core charge=   -0.000001

     negative rho (up, down):  3.103E-06 0.000E+00

     total cpu time spent up to now is      553.2 secs

     Self-consistent Calculation

     iteration #  1     ecut=    90.00 Ry     beta= 0.30
     Davidson diagonalization with overlap
     ethr =  1.00E-06,  avg # of iterations =  2.0

     Threshold (ethr) on eigenvalues was too large:
     Diagonalizing with lowered threshold

     Davidson diagonalization with overlap
     ethr =  7.47E-10,  avg # of iterations =  4.8

     negative rho (up, down):  3.097E-06 0.000E+00

     total cpu time spent up to now is      563.5 secs

     total energy              =    -447.15218258 Ry
     estimated scf accuracy    <       0.00000076 Ry

     iteration #  2     ecut=    90.00 Ry     beta= 0.30
     Davidson diagonalization with overlap
     ethr =  7.65E-10,  avg # of iterations =  2.0

     negative rho (up, down):  3.086E-06 0.000E+00

     total cpu time spent up to now is      567.7 secs

     total energy              =    -447.15218260 Ry
     estimated scf accuracy    <       0.00000022 Ry

     iteration #  3     ecut=    90.00 Ry     beta= 0.30
     Davidson diagonalization with overlap
     ethr =  2.21E-10,  avg # of iterations =  1.5

     negative rho (up, down):  3.076E-06 0.000E+00

     total cpu time spent up to now is      571.6 secs

     total energy              =    -447.15218260 Ry
     estimated scf accuracy    <       0.00000007 Ry

     iteration #  4     ecut=    90.00 Ry     beta= 0.30
     Davidson diagonalization with overlap
     ethr =  6.69E-11,  avg # of iterations =  2.0

     negative rho (up, down):  3.075E-06 0.000E+00

     total cpu time spent up to now is      575.7 secs

     total energy              =    -447.15218261 Ry
     estimated scf accuracy    <          5.8E-09 Ry

     iteration #  5     ecut=    90.00 Ry     beta= 0.30
     Davidson diagonalization with overlap
     ethr =  5.80E-12,  avg # of iterations =  2.4

     negative rho (up, down):  3.075E-06 0.000E+00

     total cpu time spent up to now is      580.6 secs

     total energy              =    -447.15218261 Ry
     estimated scf accuracy    <          1.3E-09 Ry

     iteration #  6     ecut=    90.00 Ry     beta= 0.30
     Davidson diagonalization with overlap
     ethr =  1.35E-12,  avg # of iterations =  2.1

     negative rho (up, down):  3.076E-06 0.000E+00

     total cpu time spent up to now is      584.8 secs

     total energy              =    -447.15218261 Ry
     estimated scf accuracy    <          2.6E-10 Ry

     iteration #  7     ecut=    90.00 Ry     beta= 0.30
     Davidson diagonalization with overlap
     ethr =  2.63E-13,  avg # of iterations =  2.4

     negative rho (up, down):  3.077E-06 0.000E+00

     total cpu time spent up to now is      589.4 secs

     End of self-consistent calculation

          k = 0.0000-0.0000 0.0000 ( 20853 PWs)   bands (ev):

   -13.5857 -13.2660 -12.7400 -12.0039 -11.0689  -9.9607  -8.7273  -7.4376
    -6.2069  -5.3010  -4.9838  -4.9752  -4.9234  -4.6415  -4.1778  -3.5223
    -2.6772  -1.8121  -1.7686  -1.6563  -1.0892  -1.0260  -0.4949  -0.1238
     0.0962   0.7715   1.0515   1.0565   1.5257   1.7787   2.1326   2.1876
     2.3577   2.7496   3.4425   3.5813   3.7250   4.2251   5.0345   5.0556
     5.0793   5.8025   6.3269   6.4004   6.4753   7.0180   7.3028   7.3630
     7.4075   7.6342   9.4992   9.9473  12.1686  12.5582  12.8118  13.0856
    13.2234  13.4138  13.4158  13.5989

          k = 0.0000-0.1010 0.0000 ( 20851 PWs)   bands (ev):

   -13.3984 -13.0798 -12.5558 -11.8232 -10.8947  -9.7997  -8.5995  -7.4206
    -7.1000  -6.8795  -6.5449  -6.5384  -4.2117  -3.9041  -3.5790  -3.0089
    -2.8557  -2.6693  -1.8829  -0.9380  -0.8206  -0.3475  -0.1604   0.2403
     0.5017   1.0189   1.2368   1.3688   1.7066   1.9534   2.3507   2.4483
     2.4556   2.8938   3.5567   3.6377   3.9293   4.2922   4.8575   5.0299
     5.2994   5.6951   6.0230   6.2339   6.4038   6.6224   6.8627   6.9274
     6.9794   7.1933   9.7178  10.1615  12.3273  12.3288  12.9431  13.3204
    13.4538  13.7663  13.9162  14.1131

          k = 0.0000-0.2020 0.0000 ( 20798 PWs)   bands (ev):

   -12.8388 -12.5237 -12.0067 -11.2866 -10.3830  -9.3515  -9.0120  -8.7516
    -8.2938  -8.2849  -7.7261  -7.5633  -4.9500  -4.6027  -4.1664  -3.5455
    -2.8485  -2.2321  -1.4587  -0.8091  -0.4614   0.5065   0.8665   1.1596
     1.5363   1.8197   1.9803   2.2432   2.3403   2.4699   2.6940   2.8302
     3.2673   3.3125   3.8797   3.9617   4.1276   4.4678   4.9676   4.9909
     5.0933   5.3750   5.5967   5.6491   5.6852   5.6989   5.6993   6.0301
     6.3236   6.3824  10.3618  10.7446  12.2887  12.6429  13.0430  13.4854
    13.5616  13.7337  14.3057  14.5043

          k = 0.0000-0.3030 0.0000 ( 20770 PWs)   bands (ev):

   -11.9134 -11.6068 -11.1082 -10.6401 -10.4185 -10.3376  -9.8367  -9.5925
    -9.1438  -8.7279  -8.3484  -8.0786  -5.3714  -5.0147  -4.5475  -3.8541
    -3.2186  -2.4302  -1.6926  -0.8610  -0.1263   0.7414   1.3149   2.2166
     2.6495   2.7171   3.1147   3.2416   3.3022   3.5156   3.5900   3.7535
     3.8949   3.9526   4.2800   4.3029   4.3095   4.4423   4.5528   4.5748
     4.6984   4.7318   4.7739   4.9423   4.9456   5.0154   5.0475   5.2026
     5.3039   5.3323  11.3731  11.5837  12.4578  12.5495  12.7540  13.1363
    13.4026  13.8450  14.1540  14.4138

          k = 0.1111-0.0000 0.0000 ( 20803 PWs)   bands (ev):

   -13.3590 -13.0400 -12.5152 -11.7807 -10.8479  -9.7423  -8.5121  -7.2266
    -6.0015  -5.1009  -4.8554  -4.7813  -4.7754  -4.5762  -4.1171  -3.4680
    -2.6313  -1.6208  -1.6087  -1.5768  -0.9171  -0.8215  -0.4721   0.0214
     0.2963   0.4954   0.7594   0.7788   1.1572   1.1859   1.2494   1.7704
     2.1201   2.4028   2.4880   3.2895   3.5457   3.6747   4.1116   4.8750
     4.8791   4.9787   5.5246   5.9005   5.9917   6.2700   6.3398   6.5595
     6.5956   7.2445   9.7284  10.1513  12.3354  13.0254  13.1423  13.2814
    13.5831  13.6312  13.8953  14.0853

          k = 0.1111-0.1010 0.0000 ( 20797 PWs)   bands (ev):

   -13.1723 -12.8544 -12.3316 -11.6007 -10.6744  -9.5824  -8.3859  -7.2134
    -6.9166  -6.6961  -6.3547  -6.3508  -4.0588  -3.7604  -3.4392  -2.8758
    -2.7856  -2.6476  -1.7651  -0.8360  -0.7703  -0.2581  -0.1495   0.2949
     0.5358   0.8043   1.0248   1.0802   1.3068   1.4685   1.4694   2.0187
     2.3932   2.4809   2.6890   3.4079   3.5509   3.8880   4.1297   4.6328
     4.7535   4.9943   5.3195   5.3236   5.3528   5.5953   6.1153   6.4333
     6.9108   7.1522   9.9635  10.3854  12.5986  13.1356  13.7083  13.7460
    13.9264  14.1453  14.2654  14.3401

          k = 0.1111-0.2020 0.0000 ( 20800 PWs)   bands (ev):

   -12.6142 -12.3000 -11.7843 -11.0663 -10.1655  -9.1378  -8.8072  -8.5481
    -8.0933  -8.0773  -7.5284  -7.3636  -4.7577  -4.4175  -3.9785  -3.3726
    -2.6800  -2.0758  -1.3700  -0.7509  -0.5991   0.3321   0.6472   0.9981
     1.0624   1.3929   1.7759   1.8184   1.9949   2.2526   2.4706   2.5997
     2.8071   2.9677   3.3724   3.7296   3.8193   3.8298   4.0968   4.1409
     4.2039   4.3107   4.3636   4.3673   4.8240   5.1626   5.6584   6.2085
     6.6521   6.6785  10.6241  11.0077  13.1273  13.1596  13.8130  14.1869
    14.2991  14.8544  14.8547  15.0094

          k = 0.1111-0.3030 0.0000 ( 20773 PWs)   bands (ev):

   -11.6920 -11.3864 -10.8895 -10.4244 -10.2026 -10.1233  -9.6248  -9.3801
    -8.9355  -8.5205  -8.1446  -7.8766  -5.1682  -4.8132  -4.3538  -3.6616
    -3.0388  -2.2503  -1.5361  -0.7045  -0.0350   0.7545   1.0369   1.5850
     1.8044   2.0154   2.2261   2.4482   2.6427   2.8187   2.9945   3.0048
     3.1236   3.3966   3.4835   3.5729   3.8135   3.8708   3.8953   3.9729
     4.1647   4.3622   4.4572   4.5190   4.7224   5.0660   5.2678   5.4118
     5.5841   5.6240  11.6559  11.9234  13.0669  13.0680  13.3967  13.8588
    13.9745  14.5522  14.9662  15.1834

          k = 0.2222-0.0000 0.0000 ( 20844 PWs)   bands (ev):

   -12.6823 -12.3654 -11.8441 -11.1146 -10.1883  -9.0907  -7.8704  -6.5973
    -5.3880  -4.9648  -4.6894  -4.5025  -4.2363  -4.1775  -4.1756  -3.5959
    -2.7707  -1.7745  -1.2062  -1.0218  -1.0168  -0.9318  -0.6426  -0.4898
    -0.4271  -0.2247   0.1115   0.4201   0.5888   0.8403   0.8806   1.4183
     1.6404   1.8123   1.9074   2.4290   2.4521   3.1153   3.3030   3.4037
     3.6448   4.0011   4.1617   4.1975   4.2941   4.6621   4.7111   4.9162
     5.9533   6.8148  10.4485  10.7927  12.4085  12.4676  12.9499  13.0590
    13.1751  13.8006  14.0033  14.1793

          k = 0.2222-0.1010 0.0000 ( 20776 PWs)   bands (ev):

   -12.4972 -12.1815 -11.6625 -10.9369 -10.0176  -8.9343  -7.7493  -6.6007
    -6.4351  -6.2119  -5.8571  -5.7905  -3.7646  -3.4802  -3.2774  -3.1278
    -3.0472  -2.6080  -1.5654  -1.1542  -1.0324  -0.6935  -0.4761  -0.2538
    -0.2297   0.4003   0.4730   0.7058   1.0478   1.1533   1.2293   1.6168
     1.8814   1.9907   2.2463   2.3376   2.7634   2.8865   3.0073   3.0201
     3.1728   3.2258   3.3749   3.7834   4.3304   4.7583   5.4263   5.5236
     6.0016   6.4384  10.6950  11.0454  13.0650  13.1253  13.2469  13.5767
    13.5876  13.8449  14.0961  14.3769

          k = 0.2222-0.2020 0.0000 ( 20759 PWs)   bands (ev):

   -11.9446 -11.6329 -11.1217 -10.4099  -9.5175  -8.5018  -8.2155  -7.9597
    -7.5130  -7.4611  -6.9524  -6.7733  -4.2351  -3.9141  -3.4863  -2.9117
    -2.4065  -2.2247  -2.0850  -1.6765  -0.9702  -0.5271  -0.2606  -0.2176
     0.2523   0.9054   0.9202   1.2200   1.4304   1.5064   1.8283   1.9033
     2.0295   2.2532   2.3284   2.4345   2.6067   2.6326   2.8446   2.9637
     3.0623   3.2000   3.3820   3.6823   4.3497   4.5651   5.3452   5.4578
     6.0806   6.2346  11.3667  11.6969  13.8957  14.2095  14.2859  14.3074
    14.5916  14.7070  14.8651  14.8959

          k = 0.2222-0.3030 0.0000 ( 20801 PWs)   bands (ev):

   -11.0335 -10.7311 -10.2396  -9.7872  -9.5610  -9.4905  -8.9994  -8.7495
    -8.3202  -7.9048  -7.5411  -7.2758  -4.5903  -4.2371  -3.8112  -3.1181
    -2.5622  -1.7733  -1.3140  -1.2348  -1.0859  -0.3781  -0.1488  -0.0239
     0.1287   0.2794   0.5541   0.8653   1.0421   1.1997   1.5193   1.6039
     1.7277   1.8804   2.2132   2.9313   3.2676   3.5349   3.6122   3.7511
     3.9909   4.0154   4.1634   4.1986   4.2620   4.2789   4.8157   5.2068
     5.4867   5.5339  12.3615  12.5904  13.8278  13.8763  14.7095  14.9586
    15.1406  15.1611  15.2213  15.5656

          k = 0.3333-0.0000 0.0000 ( 20766 PWs)   bands (ev):

   -11.5673 -11.2540 -10.7390 -10.0182  -9.1031  -8.0191  -6.8151  -6.2112
    -5.9247  -5.5617  -5.4538  -4.7917  -4.3758  -3.9445  -3.5115  -3.1869
    -3.1730  -2.9309  -1.7908  -1.5311  -1.2753  -0.8673  -0.5746  -0.3199
    -0.1741  -0.0993   0.2924   0.3256   0.6468   0.7070   0.9483   1.0030
     1.6044   1.6192   1.6561   1.7964   1.9580   2.0237   2.1016   2.2722
     2.4694   2.6920   2.6937   2.8936   2.9482   2.9573   3.0142   4.0735
     5.2180   6.0429  11.5797  11.7353  12.1019  12.2453  12.7644  12.8685
    13.6447  13.9222  14.3464  14.6734

          k = 0.3333-0.1010 0.0000 ( 20794 PWs)   bands (ev):

   -11.3858 -11.0740 -10.5616  -9.8453  -8.9380  -7.8696  -6.7051  -6.4193
    -6.1426  -5.7402  -5.5376  -5.2043  -4.1196  -4.1122  -3.9566  -3.8889
    -3.7711  -3.0389  -1.9566  -1.4158  -1.1129  -0.9457  -0.7932  -0.3813
    -0.1492  -0.1205   0.2590   0.6338   0.6983   0.7505   0.7644   1.0177
     1.0989   1.4870   1.6432   1.7103   1.9313   1.9932   2.0826   2.1853
     2.3164   2.6819   2.8630   2.8742   3.4884   3.8349   3.9478   4.1453
     5.0297   5.8521  11.8541  12.0735  12.7566  12.7634  13.1257  13.1407
    13.5514  13.8394  14.2721  14.4657

          k = 0.3333-0.2020 0.0000 ( 20813 PWs)   bands (ev):

   -10.8458 -10.5387 -10.0352  -9.3346  -8.4566  -7.4807  -7.3960  -7.1577
    -6.7149  -6.4719  -6.1195  -5.8522  -4.3292  -4.0768  -3.8675  -3.6542
    -3.5183  -3.4736  -2.5640  -1.7741  -1.4477  -1.4015  -1.0326  -0.8882
    -0.8350  -0.6724  -0.5863  -0.5369   0.2506   0.3909   0.7683   0.9080
     1.6284   1.8311   2.1107   2.2056   2.4548   2.4865   2.6094   2.7236
     2.8958   2.9214   3.0673   3.3496   3.4401   3.9712   4.5125   4.7471
     5.2171   5.3703  12.4876  12.6916  13.7872  13.7927  14.2016  14.2509
    14.4982  14.6464  14.7584  14.9011

          k = 0.3333-0.3030 0.0000 ( 20863 PWs)   bands (ev):

    -9.9633  -9.6666  -9.1847  -8.7829  -8.5216  -8.4942  -8.0153  -7.7291
    -7.3493  -6.9096  -6.5767  -6.3004  -3.8420  -3.6453  -3.4653  -3.3834
    -3.2539  -2.9595  -2.7257  -2.5177  -2.4327  -2.2630  -1.8937  -1.7431
    -1.1802  -1.0672  -0.4415  -0.4396  -0.2667  -0.1263   0.1981   0.7526
     1.4381   1.9523   2.1889   2.2070   2.6137   2.6167   2.9721   3.4265
     3.5108   3.5194   3.8307   3.9803   4.2416   4.3068   4.4473   4.5057
     5.0524   5.2288  13.2626  13.3606  14.6877  14.7307  14.8941  14.9926
    15.2521  15.5447  15.6582  15.7260

          k = 0.4444-0.0000 0.0000 ( 20772 PWs)   bands (ev):

   -10.0417  -9.7341  -9.2286  -8.5211  -8.1773  -7.8782  -7.6225  -7.3868
    -6.6982  -6.5578  -5.8221  -5.3758  -4.7818  -4.1463  -3.6239  -2.9847
    -2.4139  -2.1400  -1.8150  -1.7862  -1.2595  -0.5355  -0.4135  -0.3207
    -0.0843  -0.0384   0.0109   0.4325   0.8158   0.8855   0.9707   1.0445
     1.0965   1.1945   1.2855   1.3338   1.4144   1.5368   1.5566   1.6782
     1.7118   1.7314   1.7633   1.8830   2.1544   2.9472   3.0737   3.8038
     4.1582   4.9837  12.1994  12.2189  12.7473  12.7698  13.0755  13.0800
    13.3523  13.6064  13.6471  13.7116

          k = 0.4444-0.1010 0.0000 ( 20816 PWs)   bands (ev):

    -9.8697  -9.5639  -9.0618  -8.3597  -8.0446  -7.7486  -7.4699  -7.2623
    -6.5819  -6.4218  -5.7200  -5.2835  -4.6762  -4.1135  -3.5669  -3.2273
    -3.2246  -3.0182  -2.9034  -2.4438  -1.5580  -1.4974  -1.3267  -1.2348
    -0.4647  -0.2200   0.0204   0.3998   0.7491   0.8902   0.9671   0.9978
     1.0850   1.3598   1.4751   1.6531   1.7194   1.8216   1.9123   1.9609
     2.1921   2.2435   2.3688   2.4738   2.6327   3.0773   3.1650   3.8979
     4.1483   4.9647  12.7750  12.8295  12.8594  12.9631  13.0303  13.3042
    13.5435  13.8297  14.0263  14.1562

          k = 0.4444-0.2020 0.0000 ( 20837 PWs)   bands (ev):

    -9.3661  -9.0664  -8.5753  -7.8919  -7.7427  -7.4579  -7.0318  -6.9890
    -6.3364  -6.0455  -5.5247  -5.0972  -4.7792  -4.5358  -4.3769  -4.2296
    -3.9570  -3.8211  -3.4896  -3.2089  -2.9669  -2.7521  -2.5225  -2.3732
    -1.0876  -0.7991  -0.5356   0.0944   0.1167   0.3511   0.5457   0.7574
     1.2284   1.3951   1.5640   1.6993   2.0003   2.3430   2.6275   2.6797
     2.8069   3.0504   3.1035   3.2833   3.5416   3.7707   3.9569   4.1076
     4.1835   4.8834  13.4793  13.5609  13.7832  13.8707  14.0691  14.1425
    14.3572  14.3691  14.6397  14.8802

          k = 0.4444-0.3030 0.0000 ( 20868 PWs)   bands (ev):

    -8.5915  -8.3039  -7.8373  -7.8177  -7.5370  -7.2114  -7.0579  -6.5162
    -6.3232  -5.7575  -5.4678  -5.3533  -5.1157  -5.0537  -4.6541  -4.6086
    -4.3453  -4.2195  -3.9375  -3.8259  -3.8099  -3.5932  -3.3339  -3.1479
    -1.1969  -1.0601  -0.6960  -0.6567  -0.2945   0.1228   0.4008   0.6742
     0.8665   1.2574   1.3767   1.6472   2.1714   2.3790   2.6809   2.6906
     3.3057   3.4245   3.6833   3.8747   4.0731   4.2598   4.4770   4.4872
     4.7142   4.7925  14.0204  14.0334  14.6799  14.6940  15.2404  15.3467
    15.7349  15.8115  15.8432  15.8964

     the Fermi energy is     8.2486 ev

!    total energy              =    -447.15218261 Ry
     estimated scf accuracy    <          2.2E-11 Ry
     smearing contrib. (-TS)   =       0.00000000 Ry
     internal energy E=F+TS    =    -447.15218261 Ry

     The total energy is F=E-TS. E is the sum of the following terms:
     one-electron contribution =   -3121.92984626 Ry
     hartree contribution      =    1617.14964418 Ry
     xc contribution           =    -115.33819447 Ry
     ewald contribution        =    1320.87694111 Ry
     one-center paw contrib.   =    -147.91072717 Ry

     convergence has been achieved in   7 iterations

     negative rho (up, down):  3.077E-06 0.000E+00

     Forces acting on atoms (cartesian axes, Ry/au):

     atom    1 type  1   force =     0.00000000    0.00016167   -0.00001337
     atom    2 type  1   force =     0.00000000   -0.00016167   -0.00001337
     atom    3 type  1   force =     0.00000000    0.00003501   -0.00018869
     atom    4 type  1   force =     0.00000000   -0.00003501   -0.00018869
     atom    5 type  1   force =     0.00000000    0.00000031   -0.00020831
     atom    6 type  1   force =     0.00000000   -0.00000031   -0.00020831
     atom    7 type  1   force =     0.00000000   -0.00004084    0.00003168
     atom    8 type  1   force =    -0.00000000    0.00004084    0.00003168
     atom    9 type  1   force =     0.00000000    0.00001180    0.00022439
     atom   10 type  1   force =     0.00000000   -0.00001180    0.00022439
     atom   11 type  1   force =     0.00000000   -0.00002888    0.00012825
     atom   12 type  1   force =     0.00000000    0.00002888    0.00012825
     atom   13 type  1   force =    -0.00000000   -0.00002888   -0.00012825
     atom   14 type  1   force =     0.00000000    0.00002888   -0.00012825
     atom   15 type  1   force =     0.00000000   -0.00001180   -0.00022439
     atom   16 type  1   force =     0.00000000    0.00001180   -0.00022439
     atom   17 type  1   force =     0.00000000   -0.00004084   -0.00003168
     atom   18 type  1   force =     0.00000000    0.00004084   -0.00003168
     atom   19 type  1   force =     0.00000000    0.00000031    0.00020831
     atom   20 type  1   force =     0.00000000   -0.00000031    0.00020831
     atom   21 type  1   force =     0.00000000    0.00003501    0.00018869
     atom   22 type  1   force =     0.00000000   -0.00003501    0.00018869
     atom   23 type  1   force =     0.00000000    0.00016167    0.00001337
     atom   24 type  1   force =     0.00000000   -0.00016167    0.00001337
     atom   25 type  2   force =     0.00000000    0.00004193   -0.00012805
     atom   26 type  2   force =     0.00000000   -0.00004193   -0.00012805
     atom   27 type  2   force =     0.00000000    0.00004193    0.00012805
     atom   28 type  2   force =     0.00000000   -0.00004193    0.00012805

     Total force =     0.000883     Total SCF correction =     0.000009
     Energy error            =      1.1E-06 Ry
     Gradient error          =      2.2E-04 Ry/Bohr

     number of scf cycles    =  15
     number of bfgs steps    =  14

     energy             old  =    -447.1521815377 Ry
     energy             new  =    -447.1521826082 Ry

     CASE: energy            _new < energy            _old

     new trust radius        =       0.0012703287 bohr
     new conv_thr            =            1.0E-10 Ry


ATOMIC_POSITIONS (angstrom)
C               -0.0000000000       -0.9126632400       18.7622794742
C                1.2634728900       -1.7675675100       18.7622794742
C                1.2634728900       -2.6831728163       17.5273763146
C               -0.0000000000        0.0029420663       17.5273763146
C                0.0000000000       -0.8928123338       16.2611402011
C                1.2634728900       -1.7874184162       16.2611402011
C                1.2634728900       -2.6801565031       14.9976549564
C               -0.0000000000       -0.0000742469       14.9976549564
C                1.2634728900       -1.7868129055       13.7339825443
C                0.0000000000       -0.8934178445       13.7339825443
C                0.0000000000        0.0000404875       12.4706541377
C                1.2634728900       -2.6802712375       12.4706541377
C                1.2634728900       -1.7867800125       11.2075102223
C                0.0000000000       -0.8934507375       11.2075102223
C                1.2634728900       -2.6802383445        9.9441818157
C                0.0000000000        0.0000075945        9.9441818157
C               -0.0000000000       -0.8933360031        8.6805094036
C                1.2634728900       -1.7868947469        8.6805094036
C                1.2634728900       -2.6796328338        7.4170241589
C                0.0000000000       -0.0005979162        7.4170241589
C                0.0000000000       -0.8963523163        6.1507880554
C                1.2634728900       -1.7838784337        6.1507880554
C                1.2634728900       -2.6994837400        4.9158848858
C               -0.0000000000        0.0192529900        4.9158848858
H                0.0000000000       -0.3132877887       19.6837222309
H                1.2634728900       -2.3669429613       19.6837222309
H                1.2634728900       -2.1001082887        3.9944421291
H               -0.0000000000       -0.5801224613        3.9944421291



     Writing config-only to output data dir /tmp/qe/slab.save/ :
     XML data file
     NEW-OLD atomic charge density approx. for the potential

     Check: negative core charge=   -0.000001

     negative rho (up, down):  3.148E-06 0.000E+00

     total cpu time spent up to now is      590.8 secs

     Self-consistent Calculation

     iteration #  1     ecut=    90.00 Ry     beta= 0.30
     Davidson diagonalization with overlap
     ethr =  1.00E-06,  avg # of iterations =  2.0

     Threshold (ethr) on eigenvalues was too large:
     Diagonalizing with lowered threshold

     Davidson diagonalization with overlap
     ethr =  1.47E-09,  avg # of iterations =  4.3

     negative rho (up, down):  3.140E-06 0.000E+00

     total cpu time spent up to now is      601.3 secs

     total energy              =    -447.15218395 Ry
     estimated scf accuracy    <       0.00000169 Ry

     iteration #  2     ecut=    90.00 Ry     beta= 0.30
     Davidson diagonalization with overlap
     ethr =  1.69E-09,  avg # of iterations =  2.0

     negative rho (up, down):  3.124E-06 0.000E+00

     total cpu time spent up to now is      605.4 secs

     total energy              =    -447.15218399 Ry
     estimated scf accuracy    <       0.00000049 Ry

     iteration #  3     ecut=    90.00 Ry     beta= 0.30
     Davidson diagonalization with overlap
     ethr =  4.94E-10,  avg # of iterations =  1.4

     negative rho (up, down):  3.109E-06 0.000E+00

     total cpu time spent up to now is      609.3 secs

     total energy              =    -447.15218399 Ry
     estimated scf accuracy    <       0.00000016 Ry

     iteration #  4     ecut=    90.00 Ry     beta= 0.30
     Davidson diagonalization with overlap
     ethr =  1.60E-10,  avg # of iterations =  1.9

     negative rho (up, down):  3.107E-06 0.000E+00

     total cpu time spent up to now is      613.4 secs

     total energy              =    -447.15218401 Ry
     estimated scf accuracy    <       0.00000001 Ry

     iteration #  5     ecut=    90.00 Ry     beta= 0.30
     Davidson diagonalization with overlap
     ethr =  1.15E-11,  avg # of iterations =  2.5

     negative rho (up, down):  3.108E-06 0.000E+00

     total cpu time spent up to now is      618.3 secs

     total energy              =    -447.15218401 Ry
     estimated scf accuracy    <          3.1E-09 Ry

     iteration #  6     ecut=    90.00 Ry     beta= 0.30
     Davidson diagonalization with overlap
     ethr =  3.09E-12,  avg # of iterations =  2.0

     negative rho (up, down):  3.109E-06 0.000E+00

     total cpu time spent up to now is      622.7 secs

     total energy              =    -447.15218401 Ry
     estimated scf accuracy    <          4.9E-10 Ry

     iteration #  7     ecut=    90.00 Ry     beta= 0.30
     Davidson diagonalization with overlap
     ethr =  4.87E-13,  avg # of iterations =  2.2

     negative rho (up, down):  3.111E-06 0.000E+00

     total cpu time spent up to now is      627.1 secs

     End of self-consistent calculation

          k = 0.0000-0.0000 0.0000 ( 20853 PWs)   bands (ev):

   -13.5868 -13.2671 -12.7410 -12.0046 -11.0695  -9.9611  -8.7275  -7.4375
    -6.2066  -5.3008  -4.9843  -4.9754  -4.9249  -4.6430  -4.1792  -3.5234
    -2.6782  -1.8127  -1.7694  -1.6572  -1.0900  -1.0261  -0.4956  -0.1245
     0.0967   0.7710   1.0509   1.0572   1.5247   1.7778   2.1323   2.1867
     2.3573   2.7490   3.4421   3.5813   3.7247   4.2247   5.0343   5.0558
     5.0791   5.8024   6.3266   6.4008   6.4753   7.0181   7.3024   7.3634
     7.4077   7.6343   9.4996   9.9475  12.1685  12.5573  12.8110  13.0881
    13.2227  13.4146  13.4147  13.5994

          k = 0.0000-0.1010 0.0000 ( 20851 PWs)   bands (ev):

   -13.3996 -13.0809 -12.5568 -11.8239 -10.8952  -9.8001  -8.5996  -7.4206
    -7.1010  -6.8804  -6.5450  -6.5390  -4.2124  -3.9050  -3.5793  -3.0097
    -2.8562  -2.6702  -1.8835  -0.9384  -0.8213  -0.3479  -0.1613   0.2401
     0.5013   1.0187   1.2373   1.3683   1.7056   1.9525   2.3499   2.4477
     2.4557   2.8932   3.5563   3.6372   3.9295   4.2919   4.8571   5.0297
     5.2996   5.6950   6.0228   6.2339   6.4039   6.6223   6.8626   6.9273
     6.9793   7.1929   9.7183  10.1618  12.3275  12.3288  12.9425  13.3199
    13.4545  13.7677  13.9159  14.1139

          k = 0.0000-0.2020 0.0000 ( 20798 PWs)   bands (ev):

   -12.8399 -12.5248 -12.0077 -11.2873 -10.3836  -9.3519  -9.0132  -8.7526
    -8.2947  -8.2850  -7.7265  -7.5634  -4.9508  -4.6036  -4.1666  -3.5460
    -2.8484  -2.2323  -1.4585  -0.8091  -0.4619   0.5064   0.8662   1.1593
     1.5356   1.8197   1.9799   2.2422   2.3401   2.4690   2.6935   2.8294
     3.2666   3.3120   3.8793   3.9620   4.1269   4.4675   4.9669   4.9907
     5.0936   5.3749   5.5964   5.6486   5.6847   5.6986   5.6990   6.0295
     6.3230   6.3818  10.3623  10.7449  12.2893  12.6431  13.0438  13.4851
    13.5618  13.7341  14.3056  14.5050

          k = 0.0000-0.3030 0.0000 ( 20770 PWs)   bands (ev):

   -11.9146 -11.6079 -11.1091 -10.6412 -10.4192 -10.3386  -9.8376  -9.5930
    -9.1444  -8.7282  -8.3487  -8.0787  -5.3722  -5.0154  -4.5480  -3.8545
    -3.2188  -2.4301  -1.6924  -0.8607  -0.1260   0.7418   1.3151   2.2170
     2.6489   2.7176   3.1138   3.2410   3.3014   3.5147   3.5893   3.7539
     3.8939   3.9522   4.2793   4.3020   4.3091   4.4417   4.5523   4.5743
     4.6974   4.7314   4.7736   4.9421   4.9454   5.0144   5.0469   5.2016
     5.3032   5.3315  11.3736  11.5842  12.4584  12.5502  12.7546  13.1367
    13.4032  13.8456  14.1542  14.4138

          k = 0.1111-0.0000 0.0000 ( 20803 PWs)   bands (ev):

   -13.3602 -13.0411 -12.5162 -11.7814 -10.8484  -9.7426  -8.5123  -7.2266
    -6.0012  -5.1007  -4.8569  -4.7818  -4.7756  -4.5777  -4.1184  -3.4691
    -2.6323  -1.6216  -1.6093  -1.5776  -0.9180  -0.8216  -0.4727   0.0207
     0.2967   0.4944   0.7584   0.7783   1.1567   1.1851   1.2501   1.7698
     2.1199   2.4024   2.4875   3.2892   3.5457   3.6744   4.1115   4.8750
     4.8788   4.9789   5.5246   5.9000   5.9917   6.2702   6.3399   6.5597
     6.5950   7.2449   9.7288  10.1515  12.3353  13.0254  13.1421  13.2837
    13.5829  13.6319  13.8949  14.0844

          k = 0.1111-0.1010 0.0000 ( 20797 PWs)   bands (ev):

   -13.1734 -12.8555 -12.3326 -11.6014 -10.6750  -9.5827  -8.3861  -7.2134
    -6.9177  -6.6970  -6.3554  -6.3509  -4.0596  -3.7613  -3.4395  -2.8765
    -2.7861  -2.6485  -1.7656  -0.8363  -0.7711  -0.2585  -0.1504   0.2945
     0.5355   0.8036   1.0240   1.0800   1.3062   1.4686   1.4690   2.0182
     2.3926   2.4809   2.6885   3.4075   3.5504   3.8881   4.1295   4.6324
     4.7535   4.9940   5.3191   5.3237   5.3523   5.5953   6.1153   6.4336
     6.9109   7.1521   9.9640  10.3857  12.5985  13.1373  13.7082  13.7460
    13.9265  14.1454  14.2653  14.3404

          k = 0.1111-0.2020 0.0000 ( 20800 PWs)   bands (ev):

   -12.6154 -12.3011 -11.7853 -11.0670 -10.1660  -9.1381  -8.8083  -8.5491
    -8.0941  -8.0775  -7.5289  -7.3636  -4.7585  -4.4183  -3.9787  -3.3732
    -2.6799  -2.0761  -1.3699  -0.7512  -0.5995   0.3316   0.6466   0.9979
     1.0620   1.3921   1.7753   1.8185   1.9941   2.2524   2.4701   2.5997
     2.8064   2.9672   3.3719   3.7293   3.8188   3.8293   4.0962   4.1405
     4.2034   4.3102   4.3632   4.3671   4.8236   5.1630   5.6582   6.2081
     6.6518   6.6783  10.6246  11.0081  13.1285  13.1597  13.8137  14.1875
    14.2993  14.8547  14.8548  15.0096

          k = 0.1111-0.3030 0.0000 ( 20773 PWs)   bands (ev):

   -11.6931 -11.3875 -10.8905 -10.4255 -10.2033 -10.1243  -9.6258  -9.3806
    -8.9360  -8.5209  -8.1449  -7.8767  -5.1691  -4.8139  -4.3543  -3.6619
    -3.0389  -2.2503  -1.5359  -0.7041  -0.0348   0.7544   1.0366   1.5842
     1.8043   2.0147   2.2257   2.4475   2.6429   2.8179   2.9939   3.0049
     3.1230   3.3961   3.4829   3.5725   3.8132   3.8711   3.8948   3.9729
     4.1641   4.3615   4.4564   4.5181   4.7217   5.0655   5.2674   5.4113
     5.5836   5.6235  11.6563  11.9238  13.0676  13.0685  13.3976  13.8594
    13.9752  14.5529  14.9662  15.1837

          k = 0.2222-0.0000 0.0000 ( 20844 PWs)   bands (ev):

   -12.6835 -12.3665 -11.8451 -11.1153 -10.1889  -9.0911  -7.8706  -6.5972
    -5.3877  -4.9664  -4.6909  -4.5024  -4.2377  -4.1777  -4.1761  -3.5970
    -2.7717  -1.7753  -1.2072  -1.0225  -1.0173  -0.9328  -0.6432  -0.4906
    -0.4279  -0.2247   0.1109   0.4194   0.5884   0.8399   0.8811   1.4177
     1.6401   1.8131   1.9072   2.4288   2.4516   3.1152   3.3031   3.4032
     3.6448   4.0010   4.1611   4.1974   4.2939   4.6613   4.7114   4.9152
     5.9537   6.8152  10.4489  10.7929  12.4083  12.4675  12.9496  13.0591
    13.1753  13.8026  14.0038  14.1797

          k = 0.2222-0.1010 0.0000 ( 20776 PWs)   bands (ev):

   -12.4984 -12.1826 -11.6635 -10.9376 -10.0181  -8.9347  -7.7495  -6.6007
    -6.4362  -6.2129  -5.8578  -5.7906  -3.7653  -3.4811  -3.2779  -3.1287
    -3.0479  -2.6088  -1.5660  -1.1548  -1.0330  -0.6939  -0.4768  -0.2543
    -0.2304   0.3998   0.4725   0.7052   1.0475   1.1526   1.2294   1.6162
     1.8810   1.9913   2.2458   2.3376   2.7629   2.8864   3.0068   3.0194
     3.1723   3.2255   3.3744   3.7833   4.3302   4.7583   5.4263   5.5235
     6.0015   6.4389  10.6954  11.0457  13.0648  13.1253  13.2467  13.5768
    13.5878  13.8462  14.0970  14.3770

          k = 0.2222-0.2020 0.0000 ( 20759 PWs)   bands (ev):

   -11.9457 -11.6340 -11.1226 -10.4106  -9.5180  -8.5022  -8.2166  -7.9608
    -7.5139  -7.4612  -6.9528  -6.7735  -4.2359  -3.9150  -3.4866  -2.9123
    -2.4067  -2.2257  -2.0858  -1.6768  -0.9708  -0.5277  -0.2608  -0.2175
     0.2517   0.9055   0.9200   1.2198   1.4295   1.5057   1.8280   1.9030
     2.0293   2.2528   2.3280   2.4343   2.6060   2.6328   2.8440   2.9637
     3.0616   3.1993   3.3813   3.6819   4.3500   4.5649   5.3457   5.4576
     6.0805   6.2345  11.3671  11.6972  13.8955  14.2114  14.2859  14.3073
    14.5917  14.7071  14.8653  14.8967

          k = 0.2222-0.3030 0.0000 ( 20801 PWs)   bands (ev):

   -11.0347 -10.7322 -10.2406  -9.7884  -9.5617  -9.4916  -9.0003  -8.7500
    -8.3207  -7.9052  -7.5413  -7.2759  -4.5911  -4.2379  -3.8117  -3.1184
    -2.5623  -1.7733  -1.3143  -1.2357  -1.0867  -0.3781  -0.1494  -0.0249
     0.1279   0.2788   0.5541   0.8647   1.0417   1.1992   1.5190   1.6041
     1.7274   1.8803   2.2134   2.9318   3.2680   3.5341   3.6114   3.7507
     3.9903   4.0148   4.1639   4.1981   4.2615   4.2785   4.8154   5.2065
     5.4864   5.5336  12.3620  12.5907  13.8284  13.8767  14.7109  14.9590
    15.1406  15.1615  15.2216  15.5659

          k = 0.3333-0.0000 0.0000 ( 20766 PWs)   bands (ev):

   -11.5684 -11.2551 -10.7400 -10.0190  -9.1037  -8.0195  -6.8153  -6.2125
    -5.9260  -5.5617  -5.4550  -4.7925  -4.3755  -3.9453  -3.5114  -3.1871
    -3.1735  -2.9315  -1.7912  -1.5323  -1.2764  -0.8683  -0.5748  -0.3206
    -0.1749  -0.0998   0.2915   0.3250   0.6469   0.7069   0.9476   1.0025
     1.6046   1.6188   1.6555   1.7968   1.9579   2.0234   2.1012   2.2716
     2.4689   2.6913   2.6943   2.8927   2.9471   2.9563   3.0139   4.0735
     5.2183   6.0434  11.5800  11.7354  12.1019  12.2453  12.7645  12.8687
    13.6447  13.9227  14.3466  14.6751

          k = 0.3333-0.1010 0.0000 ( 20794 PWs)   bands (ev):

   -11.3870 -11.0751 -10.5626  -9.8460  -8.9386  -7.8700  -6.7053  -6.4206
    -6.1439  -5.7411  -5.5378  -5.2049  -4.1198  -4.1130  -3.9573  -3.8894
    -3.7715  -3.0396  -1.9570  -1.4165  -1.1133  -0.9464  -0.7934  -0.3816
    -0.1497  -0.1213   0.2590   0.6330   0.6979   0.7499   0.7641   1.0173
     1.0983   1.4863   1.6429   1.7096   1.9309   1.9924   2.0825   2.1847
     2.3158   2.6816   2.8636   2.8738   3.4880   3.8348   3.9475   4.1447
     5.0301   5.8526  11.8544  12.0737  12.7565  12.7633  13.1259  13.1407
    13.5516  13.8394  14.2728  14.4659

          k = 0.3333-0.2020 0.0000 ( 20813 PWs)   bands (ev):

   -10.8469 -10.5398 -10.0362  -9.3353  -8.4571  -7.4813  -7.3970  -7.1589
    -6.7159  -6.4721  -6.1200  -5.8524  -4.3302  -4.0777  -3.8681  -3.6549
    -3.5186  -3.4744  -2.5646  -1.7746  -1.4483  -1.4018  -1.0335  -0.8885
    -0.8356  -0.6729  -0.5865  -0.5374   0.2504   0.3911   0.7681   0.9077
     1.6284   1.8310   2.1099   2.2049   2.4544   2.4858   2.6090   2.7229
     2.8952   2.9212   3.0671   3.3500   3.4400   3.9712   4.5127   4.7470
     5.2170   5.3708  12.4879  12.6918  13.7871  13.7926  14.2016  14.2509
    14.4981  14.6465  14.7583  14.9021

          k = 0.3333-0.3030 0.0000 ( 20863 PWs)   bands (ev):

    -9.9645  -9.6677  -9.1857  -8.7841  -8.5223  -8.4953  -8.0162  -7.7296
    -7.3499  -6.9100  -6.5770  -6.3006  -3.8428  -3.6463  -3.4661  -3.3844
    -3.2543  -2.9603  -2.7261  -2.5186  -2.4332  -2.2639  -1.8945  -1.7434
    -1.1806  -1.0677  -0.4417  -0.4399  -0.2671  -0.1265   0.1980   0.7527
     1.4383   1.9517   2.1881   2.2071   2.6132   2.6168   2.9719   3.4264
     3.5111   3.5191   3.8309   3.9799   4.2413   4.3067   4.4471   4.5061
     5.0524   5.2287  13.2629  13.3608  14.6881  14.7313  14.8941  14.9926
    15.2522  15.5447  15.6583  15.7270

          k = 0.4444-0.0000 0.0000 ( 20772 PWs)   bands (ev):

   -10.0429  -9.7352  -9.2297  -8.5219  -8.1786  -7.8794  -7.6231  -7.3879
    -6.6990  -6.5582  -5.8227  -5.3760  -4.7823  -4.1462  -3.6241  -2.9844
    -2.4139  -2.1399  -1.8152  -1.7866  -1.2593  -0.5368  -0.4134  -0.3218
    -0.0844  -0.0387   0.0098   0.4317   0.8151   0.8847   0.9701   1.0433
     1.0957   1.1933   1.2848   1.3329   1.4135   1.5360   1.5560   1.6776
     1.7113   1.7308   1.7627   1.8830   2.1539   2.9476   3.0737   3.8044
     4.1586   4.9842  12.1993  12.2188  12.7473  12.7699  13.0754  13.0799
    13.3527  13.6065  13.6471  13.7116

          k = 0.4444-0.1010 0.0000 ( 20816 PWs)   bands (ev):

    -9.8709  -9.5651  -9.0628  -8.3604  -8.0458  -7.7497  -7.4705  -7.2634
    -6.5827  -6.4222  -5.7206  -5.2837  -4.6767  -4.1134  -3.5671  -3.2273
    -3.2254  -3.0187  -2.9038  -2.4438  -1.5581  -1.4982  -1.3273  -1.2352
    -0.4654  -0.2208   0.0200   0.3991   0.7487   0.8895   0.9663   0.9971
     1.0844   1.3591   1.4747   1.6526   1.7187   1.8211   1.9115   1.9605
     2.1918   2.2432   2.3683   2.4731   2.6321   3.0774   3.1650   3.8984
     4.1487   4.9653  12.7749  12.8294  12.8594  12.9631  13.0302  13.3044
    13.5435  13.8297  14.0266  14.1564

          k = 0.4444-0.2020 0.0000 ( 20837 PWs)   bands (ev):

    -9.3674  -9.0676  -8.5763  -7.8927  -7.7440  -7.4591  -7.0324  -6.9901
    -6.3372  -6.0459  -5.5254  -5.0974  -4.7801  -4.5366  -4.3774  -4.2300
    -3.9571  -3.8213  -3.4899  -3.2099  -2.9677  -2.7525  -2.5229  -2.3734
    -1.0884  -0.7997  -0.5361   0.0940   0.1159   0.3508   0.5454   0.7567
     1.2279   1.3948   1.5639   1.6995   1.9999   2.3428   2.6271   2.6796
     2.8071   3.0500   3.1032   3.2829   3.5415   3.7704   3.9570   4.1077
     4.1838   4.8839  13.4793  13.5608  13.7831  13.8706  14.0690  14.1424
    14.3573  14.3690  14.6397  14.8802

          k = 0.4444-0.3030 0.0000 ( 20868 PWs)   bands (ev):

    -8.5928  -8.3051  -7.8384  -7.8190  -7.5382  -7.2122  -7.0589  -6.5169
    -6.3238  -5.7580  -5.4682  -5.3542  -5.1163  -5.0542  -4.6548  -4.6096
    -4.3461  -4.2199  -3.9380  -3.8264  -3.8101  -3.5935  -3.3343  -3.1481
    -1.1976  -1.0608  -0.6967  -0.6573  -0.2949   0.1225   0.4001   0.6736
     0.8665   1.2572   1.3766   1.6468   2.1716   2.3789   2.6811   2.6904
     3.3058   3.4245   3.6833   3.8750   4.0730   4.2597   4.4768   4.4876
     4.7147   4.7924  14.0204  14.0334  14.6798  14.6939  15.2404  15.3468
    15.7350  15.8119  15.8434  15.8969

     the Fermi energy is     8.2486 ev

!    total energy              =    -447.15218400 Ry
     estimated scf accuracy    <          5.1E-11 Ry
     smearing contrib. (-TS)   =       0.00000000 Ry
     internal energy E=F+TS    =    -447.15218401 Ry

     The total energy is F=E-TS. E is the sum of the following terms:
     one-electron contribution =   -3123.07164873 Ry
     hartree contribution      =    1617.72002484 Ry
     xc contribution           =    -115.33986387 Ry
     ewald contribution        =    1321.45007046 Ry
     one-center paw contrib.   =    -147.91076671 Ry

     convergence has been achieved in   7 iterations

     negative rho (up, down):  3.111E-06 0.000E+00

     Forces acting on atoms (cartesian axes, Ry/au):

     atom    1 type  1   force =     0.00000000    0.00020118    0.00004989
     atom    2 type  1   force =     0.00000000   -0.00020118    0.00004989
     atom    3 type  1   force =     0.00000000    0.00004238   -0.00014555
     atom    4 type  1   force =     0.00000000   -0.00004238   -0.00014555
     atom    5 type  1   force =     0.00000000    0.00001004   -0.00021518
     atom    6 type  1   force =     0.00000000   -0.00001004   -0.00021518
     atom    7 type  1   force =     0.00000000   -0.00004457    0.00001486
     atom    8 type  1   force =     0.00000000    0.00004457    0.00001486
     atom    9 type  1   force =     0.00000000    0.00001301    0.00023424
     atom   10 type  1   force =     0.00000000   -0.00001301    0.00023424
     atom   11 type  1   force =     0.00000000   -0.00003689    0.00014010
     atom   12 type  1   force =     0.00000000    0.00003689    0.00014010
     atom   13 type  1   force =     0.00000000   -0.00003689   -0.00014010
     atom   14 type  1   force =     0.00000000    0.00003689   -0.00014010
     atom   15 type  1   force =     0.00000000   -0.00001301   -0.00023424
     atom   16 type  1   force =     0.00000000    0.00001301   -0.00023424
     atom   17 type  1   force =    -0.00000000   -0.00004457   -0.00001486
     atom   18 type  1   force =     0.00000000    0.00004457   -0.00001486
     atom   19 type  1   force =     0.00000000    0.00001004    0.00021518
     atom   20 type  1   force =     0.00000000   -0.00001004    0.00021518
     atom   21 type  1   force =     0.00000000    0.00004238    0.00014555
     atom   22 type  1   force =     0.00000000   -0.00004238    0.00014555
     atom   23 type  1   force =     0.00000000    0.00020118   -0.00004989
     atom   24 type  1   force =    -0.00000000   -0.00020118   -0.00004989
     atom   25 type  2   force =    -0.00000000    0.00001882   -0.00010701
     atom   26 type  2   force =     0.00000000   -0.00001882   -0.00010701
     atom   27 type  2   force =     0.00000000    0.00001882    0.00010701
     atom   28 type  2   force =     0.00000000   -0.00001882    0.00010701

     Total force =     0.000900     Total SCF correction =     0.000013
     Energy error            =      1.4E-06 Ry
     Gradient error          =      2.3E-04 Ry/Bohr

     number of scf cycles    =  16
     number of bfgs steps    =  15

     energy             old  =    -447.1521826082 Ry
     energy             new  =    -447.1521840050 Ry

     CASE: energy            _new < energy            _old

     new trust radius        =       0.0019054931 bohr
     new conv_thr            =            1.0E-10 Ry


ATOMIC_POSITIONS (angstrom)
C               -0.0000000000       -0.9126529186       18.7613958302
C                1.2634728900       -1.7675778314       18.7613958302
C                1.2634728900       -2.6831703854       17.5265462615
C               -0.0000000000        0.0029396354       17.5265462615
C                0.0000000000       -0.8928249478       16.2604887845
C                1.2634728900       -1.7874058022       16.2604887845
C                1.2634728900       -2.6801716895       14.9972494922
C               -0.0000000000       -0.0000590605       14.9972494922
C                1.2634728900       -1.7868084625       13.7337927674
C                0.0000000000       -0.8934222875       13.7337927674
C                0.0000000000        0.0000359621       12.4706032627
C                1.2634728900       -2.6802667121       12.4706032627
C                1.2634728900       -1.7867845379       11.2075610973
C                0.0000000000       -0.8934462121       11.2075610973
C                1.2634728900       -2.6802427875        9.9443715926
C                0.0000000000        0.0000120375        9.9443715926
C               -0.0000000000       -0.8933511895        8.6809148678
C                1.2634728900       -1.7868795605        8.6809148678
C                1.2634728900       -2.6796454478        7.4176755755
C               -0.0000000000       -0.0005853022        7.4176755755
C                0.0000000000       -0.8963498854        6.1516181085
C                1.2634728900       -1.7838808646        6.1516181085
C                1.2634728900       -2.6994734186        4.9167685298
C               -0.0000000000        0.0192426686        4.9167685298
H                0.0000000000       -0.3131451414       19.6827240283
H                1.2634728900       -2.3670856086       19.6827240283
H                1.2634728900       -2.0999656414        3.9954403317
H               -0.0000000000       -0.5802651086        3.9954403317



     Writing config-only to output data dir /tmp/qe/slab.save/ :
     XML data file
     NEW-OLD atomic charge density approx. for the potential

     Check: negative core charge=   -0.000001

     negative rho (up, down):  3.217E-06 0.000E+00

     total cpu time spent up to now is      628.6 secs

     Self-consistent Calculation

     iteration #  1     ecut=    90.00 Ry     beta= 0.30
     Davidson diagonalization with overlap
     ethr =  1.00E-06,  avg # of iterations =  2.0

     Threshold (ethr) on eigenvalues was too large:
     Diagonalizing with lowered threshold

     Davidson diagonalization with overlap
     ethr =  3.11E-09,  avg # of iterations =  4.0

     negative rho (up, down):  3.204E-06 0.000E+00

     total cpu time spent up to now is      639.0 secs

     total energy              =    -447.15218533 Ry
     estimated scf accuracy    <       0.00000377 Ry

     iteration #  2     ecut=    90.00 Ry     beta= 0.30
     Davidson diagonalization with overlap
     ethr =  3.77E-09,  avg # of iterations =  2.0

     negative rho (up, down):  3.182E-06 0.000E+00

     total cpu time spent up to now is      643.1 secs

     total energy              =    -447.15218541 Ry
     estimated scf accuracy    <       0.00000112 Ry

     iteration #  3     ecut=    90.00 Ry     beta= 0.30
     Davidson diagonalization with overlap
     ethr =  1.12E-09,  avg # of iterations =  1.6

     negative rho (up, down):  3.160E-06 0.000E+00

     total cpu time spent up to now is      647.1 secs

     total energy              =    -447.15218540 Ry
     estimated scf accuracy    <       0.00000038 Ry

     iteration #  4     ecut=    90.00 Ry     beta= 0.30
     Davidson diagonalization with overlap
     ethr =  3.80E-10,  avg # of iterations =  1.9

     negative rho (up, down):  3.157E-06 0.000E+00

     total cpu time spent up to now is      651.3 secs

     total energy              =    -447.15218543 Ry
     estimated scf accuracy    <       0.00000003 Ry

     iteration #  5     ecut=    90.00 Ry     beta= 0.30
     Davidson diagonalization with overlap
     ethr =  2.52E-11,  avg # of iterations =  2.3

     negative rho (up, down):  3.159E-06 0.000E+00

     total cpu time spent up to now is      656.3 secs

     total energy              =    -447.15218543 Ry
     estimated scf accuracy    <          7.2E-09 Ry

     iteration #  6     ecut=    90.00 Ry     beta= 0.30
     Davidson diagonalization with overlap
     ethr =  7.17E-12,  avg # of iterations =  2.1

     negative rho (up, down):  3.160E-06 0.000E+00

     total cpu time spent up to now is      660.8 secs

     total energy              =    -447.15218543 Ry
     estimated scf accuracy    <          1.1E-09 Ry

     iteration #  7     ecut=    90.00 Ry     beta= 0.30
     Davidson diagonalization with overlap
     ethr =  1.10E-12,  avg # of iterations =  2.4

     negative rho (up, down):  3.161E-06 0.000E+00

     total cpu time spent up to now is      665.4 secs

     total energy              =    -447.15218543 Ry
     estimated scf accuracy    <          2.4E-10 Ry

     iteration #  8     ecut=    90.00 Ry     beta= 0.30
     Davidson diagonalization with overlap
     ethr =  2.41E-13,  avg # of iterations =  2.7

     negative rho (up, down):  3.163E-06 0.000E+00

     total cpu time spent up to now is      670.6 secs

     End of self-consistent calculation

          k = 0.0000-0.0000 0.0000 ( 20853 PWs)   bands (ev):

   -13.5885 -13.2689 -12.7421 -12.0055 -11.0703  -9.9616  -8.7276  -7.4373
    -6.2061  -5.3004  -4.9850  -4.9758  -4.9272  -4.6454  -4.1808  -3.5249
    -2.6797  -1.8134  -1.7704  -1.6585  -1.0912  -1.0263  -0.4966  -0.1255
     0.0974   0.7703   1.0502   1.0584   1.5233   1.7763   2.1319   2.1860
     2.3567   2.7483   3.4416   3.5812   3.7243   4.2245   5.0342   5.0560
     5.0787   5.8026   6.3263   6.4012   6.4756   7.0184   7.3020   7.3639
     7.4079   7.6346   9.5002   9.9479  12.1684  12.5561  12.8098  13.0918
    13.2220  13.4129  13.4161  13.6001

          k = 0.0000-0.1010 0.0000 ( 20851 PWs)   bands (ev):

   -13.4013 -13.0827 -12.5579 -11.8248 -10.8960  -9.8005  -8.5997  -7.4204
    -7.1026  -6.8818  -6.5450  -6.5397  -4.2135  -3.9063  -3.5796  -3.0108
    -2.8569  -2.6714  -1.8843  -0.9387  -0.8223  -0.3486  -0.1626   0.2399
     0.5007   1.0182   1.2380   1.3676   1.7042   1.9510   2.3491   2.4468
     2.4556   2.8926   3.5558   3.6365   3.9297   4.2916   4.8565   5.0296
     5.2999   5.6951   6.0225   6.2341   6.4040   6.6225   6.8626   6.9273
     6.9792   7.1923   9.7189  10.1622  12.3279  12.3288  12.9415  13.3194
    13.4556  13.7696  13.9156  14.1153

          k = 0.0000-0.2020 0.0000 ( 20798 PWs)   bands (ev):

   -12.8416 -12.5266 -12.0087 -11.2882 -10.3843  -9.3523  -9.0148  -8.7541
    -8.2955  -8.2852  -7.7271  -7.5634  -4.9520  -4.6048  -4.1671  -3.5469
    -2.8481  -2.2326  -1.4583  -0.8091  -0.4625   0.5061   0.8659   1.1587
     1.5348   1.8195   1.9795   2.2409   2.3398   2.4677   2.6929   2.8288
     3.2655   3.3114   3.8789   3.9624   4.1258   4.4673   4.9659   4.9906
     5.0941   5.3749   5.5964   5.6479   5.6839   5.6983   5.6984   6.0286
     6.3223   6.3808  10.3630  10.7454  12.2902  12.6434  13.0449  13.4845
    13.5623  13.7347  14.3058  14.5059

          k = 0.0000-0.3030 0.0000 ( 20770 PWs)   bands (ev):

   -11.9162 -11.6096 -11.1102 -10.6428 -10.4201 -10.3403  -9.8387  -9.5937
    -9.1452  -8.7286  -8.3490  -8.0788  -5.3736  -5.0165  -4.5487  -3.8550
    -3.2189  -2.4299  -1.6924  -0.8602  -0.1258   0.7425   1.3153   2.2176
     2.6482   2.7182   3.1126   3.2401   3.3003   3.5137   3.5888   3.7546
     3.8925   3.9517   4.2783   4.3005   4.3087   4.4409   4.5521   4.5734
     4.6960   4.7310   4.7732   4.9419   4.9451   5.0129   5.0459   5.2002
     5.3023   5.3303  11.3743  11.5848  12.4595  12.5512  12.7555  13.1374
    13.4040  13.8465  14.1546  14.4137

          k = 0.1111-0.0000 0.0000 ( 20803 PWs)   bands (ev):

   -13.3619 -13.0429 -12.5173 -11.7823 -10.8492  -9.7431  -8.5124  -7.2263
    -6.0006  -5.1003  -4.8592  -4.7824  -4.7759  -4.5801  -4.1201  -3.4706
    -2.6338  -1.6229  -1.6100  -1.5786  -0.9192  -0.8218  -0.4738   0.0197
     0.2974   0.4930   0.7570   0.7775   1.1559   1.1843   1.2512   1.7692
     2.1194   2.4018   2.4871   3.2889   3.5455   3.6739   4.1115   4.8752
     4.8784   4.9791   5.5249   5.8994   5.9920   6.2704   6.3401   6.5600
     6.5942   7.2454   9.7295  10.1519  12.3351  13.0252  13.1422  13.2871
    13.5824  13.6330  13.8941  14.0832

          k = 0.1111-0.1010 0.0000 ( 20797 PWs)   bands (ev):

   -13.1751 -12.8572 -12.3337 -11.6023 -10.6757  -9.5832  -8.3862  -7.2132
    -6.9193  -6.6985  -6.3560  -6.3509  -4.0606  -3.7627  -3.4398  -2.8777
    -2.7869  -2.6498  -1.7665  -0.8366  -0.7721  -0.2592  -0.1516   0.2939
     0.5351   0.8025   1.0227   1.0796   1.3052   1.4679   1.4699   2.0176
     2.3916   2.4808   2.6881   3.4073   3.5496   3.8882   4.1295   4.6318
     4.7536   4.9937   5.3185   5.3239   5.3516   5.5954   6.1153   6.4341
     6.9110   7.1519   9.9646  10.3861  12.5984  13.1399  13.7079  13.7462
    13.9265  14.1455  14.2650  14.3409

          k = 0.1111-0.2020 0.0000 ( 20800 PWs)   bands (ev):

   -12.6171 -12.3028 -11.7864 -11.0680 -10.1667  -9.1386  -8.8100  -8.5507
    -8.0950  -8.0777  -7.5294  -7.3637  -4.7597  -4.4196  -3.9791  -3.3741
    -2.6797  -2.0764  -1.3700  -0.7518  -0.6002   0.3309   0.6459   0.9975
     1.0618   1.3911   1.7743   1.8187   1.9931   2.2520   2.4697   2.5995
     2.8055   2.9664   3.3712   3.7289   3.8181   3.8288   4.0957   4.1400
     4.2025   4.3097   4.3626   4.3668   4.8231   5.1635   5.6579   6.2078
     6.6514   6.6780  10.6252  11.0085  13.1304  13.1598  13.8148  14.1883
    14.2997  14.8550  14.8555  15.0098

          k = 0.1111-0.3030 0.0000 ( 20773 PWs)   bands (ev):

   -11.6948 -11.3892 -10.8915 -10.4271 -10.2042 -10.1260  -9.6268  -9.3813
    -8.9368  -8.5212  -8.1452  -7.8767  -5.1704  -4.8150  -4.3550  -3.6625
    -3.0390  -2.2501  -1.5360  -0.7037  -0.0347   0.7543   1.0363   1.5830
     1.8040   2.0141   2.2252   2.4465   2.6433   2.8168   2.9932   3.0050
     3.1225   3.3954   3.4823   3.5721   3.8127   3.8717   3.8939   3.9730
     4.1633   4.3606   4.4553   4.5169   4.7205   5.0648   5.2666   5.4108
     5.5827   5.6229  11.6570  11.9243  13.0685  13.0694  13.3990  13.8602
    13.9763  14.5540  14.9663  15.1844

          k = 0.2222-0.0000 0.0000 ( 20844 PWs)   bands (ev):

   -12.6852 -12.3683 -11.8462 -11.1163 -10.1896  -9.0916  -7.8707  -6.5970
    -5.3872  -4.9686  -4.6932  -4.5020  -4.2392  -4.1780  -4.1767  -3.5985
    -2.7731  -1.7766  -1.2087  -1.0236  -1.0180  -0.9342  -0.6442  -0.4914
    -0.4291  -0.2250   0.1103   0.4183   0.5877   0.8394   0.8817   1.4168
     1.6398   1.8141   1.9069   2.4287   2.4509   3.1153   3.3031   3.4025
     3.6449   4.0010   4.1604   4.1973   4.2937   4.6600   4.7115   4.9138
     5.9541   6.8157  10.4496  10.7933  12.4082  12.4673  12.9491  13.0593
    13.1757  13.8055  14.0045  14.1802

          k = 0.2222-0.1010 0.0000 ( 20776 PWs)   bands (ev):

   -12.5001 -12.1844 -11.6646 -10.9386 -10.0189  -8.9351  -7.7496  -6.6006
    -6.4378  -6.2145  -5.8586  -5.7907  -3.7663  -3.4823  -3.2785  -3.1300
    -3.0490  -2.6100  -1.5669  -1.1555  -1.0336  -0.6946  -0.4779  -0.2549
    -0.2313   0.3991   0.4720   0.7045   1.0472   1.1517   1.2296   1.6155
     1.8805   1.9922   2.2453   2.3375   2.7623   2.8865   3.0060   3.0184
     3.1716   3.2251   3.3737   3.7831   4.3300   4.7582   5.4263   5.5232
     6.0014   6.4394  10.6960  11.0461  13.0646  13.1252  13.2465  13.5768
    13.5883  13.8481  14.0984  14.3770

          k = 0.2222-0.2020 0.0000 ( 20759 PWs)   bands (ev):

   -11.9474 -11.6358 -11.1237 -10.4116  -9.5188  -8.5026  -8.2183  -7.9624
    -7.5148  -7.4614  -6.9534  -6.7736  -4.2371  -3.9163  -3.4869  -2.9132
    -2.4068  -2.2271  -2.0871  -1.6773  -0.9713  -0.5285  -0.2611  -0.2175
     0.2510   0.9057   0.9197   1.2196   1.4282   1.5046   1.8276   1.9027
     2.0290   2.2522   2.3275   2.4341   2.6053   2.6330   2.8431   2.9637
     3.0607   3.1982   3.3803   3.6813   4.3503   4.5645   5.3462   5.4574
     6.0804   6.2345  11.3678  11.6976  13.8953  14.2141  14.2860  14.3073
    14.5918  14.7072  14.8654  14.8977

          k = 0.2222-0.3030 0.0000 ( 20801 PWs)   bands (ev):

   -11.0364 -10.7339 -10.2417  -9.7900  -9.5626  -9.4933  -9.0014  -8.7507
    -8.3215  -7.9055  -7.5418  -7.2760  -4.5924  -4.2390  -3.8124  -3.1190
    -2.5625  -1.7732  -1.3148  -1.2368  -1.0881  -0.3781  -0.1500  -0.0262
     0.1266   0.2780   0.5541   0.8641   1.0413   1.1987   1.5188   1.6045
     1.7270   1.8804   2.2138   2.9325   3.2687   3.5327   3.6103   3.7503
     3.9892   4.0140   4.1646   4.1972   4.2610   4.2779   4.8150   5.2061
     5.4862   5.5332  12.3626  12.5911  13.8293  13.8773  14.7131  14.9595
    15.1405  15.1623  15.2221  15.5664

          k = 0.3333-0.0000 0.0000 ( 20766 PWs)   bands (ev):

   -11.5702 -11.2569 -10.7411 -10.0199  -9.1045  -8.0200  -6.8155  -6.2145
    -5.9280  -5.5615  -5.4563  -4.7938  -4.3750  -3.9464  -3.5110  -3.1874
    -3.1741  -2.9324  -1.7917  -1.5340  -1.2781  -0.8693  -0.5750  -0.3216
    -0.1760  -0.1005   0.2903   0.3242   0.6472   0.7068   0.9465   1.0019
     1.6050   1.6183   1.6545   1.7974   1.9578   2.0231   2.1007   2.2706
     2.4683   2.6902   2.6953   2.8917   2.9456   2.9548   3.0133   4.0735
     5.2188   6.0440  11.5805  11.7356  12.1019  12.2453  12.7647  12.8690
    13.6447  13.9233  14.3469  14.6778

          k = 0.3333-0.1010 0.0000 ( 20794 PWs)   bands (ev):

   -11.3887 -11.0769 -10.5637  -9.8470  -8.9394  -7.8705  -6.7054  -6.4226
    -6.1459  -5.7421  -5.5379  -5.2057  -4.1199  -4.1141  -3.9582  -3.8903
    -3.7718  -3.0405  -1.9577  -1.4175  -1.1136  -0.9474  -0.7937  -0.3821
    -0.1504  -0.1223   0.2590   0.6319   0.6975   0.7490   0.7638   1.0169
     1.0976   1.4852   1.6424   1.7088   1.9303   1.9913   2.0821   2.1840
     2.3151   2.6811   2.8644   2.8733   3.4875   3.8346   3.9471   4.1439
     5.0305   5.8532  11.8550  12.0740  12.7564  12.7632  13.1261  13.1406
    13.5517  13.8394  14.2736  14.4661

          k = 0.3333-0.2020 0.0000 ( 20813 PWs)   bands (ev):

   -10.8487 -10.5416 -10.0373  -9.3362  -8.4579  -7.4822  -7.3983  -7.1606
    -6.7169  -6.4723  -6.1207  -5.8526  -4.3316  -4.0790  -3.8689  -3.6557
    -3.5190  -3.4755  -2.5654  -1.7753  -1.4491  -1.4022  -1.0349  -0.8888
    -0.8364  -0.6734  -0.5869  -0.5379   0.2503   0.3915   0.7677   0.9071
     1.6284   1.8308   2.1086   2.2040   2.4540   2.4847   2.6085   2.7219
     2.8942   2.9211   3.0669   3.3507   3.4398   3.9713   4.5129   4.7469
     5.2168   5.3714  12.4885  12.6922  13.7870  13.7925  14.2016  14.2510
    14.4980  14.6465  14.7580  14.9036

          k = 0.3333-0.3030 0.0000 ( 20863 PWs)   bands (ev):

    -9.9662  -9.6694  -9.1868  -8.7858  -8.5233  -8.4970  -8.0173  -7.7304
    -7.3508  -6.9104  -6.5775  -6.3007  -3.8440  -3.6477  -3.4671  -3.3858
    -3.2549  -2.9612  -2.7266  -2.5196  -2.4340  -2.2653  -1.8952  -1.7438
    -1.1811  -1.0684  -0.4418  -0.4402  -0.2676  -0.1267   0.1978   0.7529
     1.4385   1.9507   2.1871   2.2072   2.6125   2.6170   2.9715   3.4264
     3.5115   3.5188   3.8310   3.9795   4.2410   4.3065   4.4469   4.5067
     5.0523   5.2286  13.2633  13.3611  14.6888  14.7319  14.8941  14.9927
    15.2524  15.5446  15.6584  15.7283

          k = 0.4444-0.0000 0.0000 ( 20772 PWs)   bands (ev):

   -10.0446  -9.7371  -9.2308  -8.5229  -8.1804  -7.8813  -7.6239  -7.3890
    -6.7000  -6.5588  -5.8236  -5.3762  -4.7829  -4.1461  -3.6244  -2.9840
    -2.4138  -2.1395  -1.8154  -1.7871  -1.2589  -0.5386  -0.4130  -0.3237
    -0.0846  -0.0392   0.0086   0.4306   0.8141   0.8837   0.9695   1.0415
     1.0945   1.1914   1.2838   1.3317   1.4124   1.5348   1.5551   1.6768
     1.7105   1.7301   1.7619   1.8827   2.1532   2.9481   3.0736   3.8052
     4.1591   4.9849  12.1991  12.2188  12.7472  12.7700  13.0753  13.0798
    13.3532  13.6068  13.6471  13.7117

          k = 0.4444-0.1010 0.0000 ( 20816 PWs)   bands (ev):

    -9.8726  -9.5669  -9.0639  -8.3614  -8.0477  -7.7516  -7.4713  -7.2646
    -6.5838  -6.4227  -5.7215  -5.2839  -4.6773  -4.1133  -3.5674  -3.2271
    -3.2266  -3.0196  -2.9039  -2.4438  -1.5579  -1.4993  -1.3283  -1.2354
    -0.4664  -0.2219   0.0195   0.3981   0.7481   0.8884   0.9651   0.9960
     1.0837   1.3580   1.4742   1.6520   1.7179   1.8206   1.9104   1.9598
     2.1911   2.2424   2.3677   2.4723   2.6314   3.0777   3.1648   3.8993
     4.1491   4.9660  12.7747  12.8293  12.8592  12.9630  13.0302  13.3047
    13.5437  13.8298  14.0271  14.1566

          k = 0.4444-0.2020 0.0000 ( 20837 PWs)   bands (ev):

    -9.3691  -9.0694  -8.5774  -7.8937  -7.7458  -7.4610  -7.0332  -6.9913
    -6.3383  -6.0464  -5.5263  -5.0976  -4.7814  -4.5377  -4.3780  -4.2303
    -3.9573  -3.8214  -3.4902  -3.2112  -2.9690  -2.7528  -2.5233  -2.3737
    -1.0896  -0.8006  -0.5369   0.0934   0.1147   0.3504   0.5448   0.7557
     1.2273   1.3944   1.5637   1.6995   1.9993   2.3426   2.6266   2.6796
     2.8072   3.0493   3.1028   3.2824   3.5415   3.7700   3.9571   4.1079
     4.1842   4.8847  13.4793  13.5608  13.7830  13.8706  14.0689  14.1423
    14.3574  14.3689  14.6398  14.8803

          k = 0.4444-0.3030 0.0000 ( 20868 PWs)   bands (ev):

    -8.5945  -8.3069  -7.8395  -7.8209  -7.5401  -7.2132  -7.0601  -6.5179
    -6.3247  -5.7588  -5.4688  -5.3555  -5.1172  -5.0550  -4.6554  -4.6110
    -4.3475  -4.2203  -3.9386  -3.8271  -3.8103  -3.5940  -3.3348  -3.1484
    -1.1986  -1.0617  -0.6976  -0.6582  -0.2955   0.1220   0.3991   0.6727
     0.8665   1.2570   1.3764   1.6464   2.1719   2.3789   2.6813   2.6901
     3.3061   3.4245   3.6834   3.8755   4.0729   4.2596   4.4765   4.4882
     4.7155   4.7922  14.0204  14.0334  14.6797  14.6938  15.2404  15.3470
    15.7352  15.8129  15.8438  15.8975

     the Fermi energy is     8.2486 ev

!    total energy              =    -447.15218543 Ry
     estimated scf accuracy    <          4.8E-11 Ry
     smearing contrib. (-TS)   =       0.00000000 Ry
     internal energy E=F+TS    =    -447.15218543 Ry

     The total energy is F=E-TS. E is the sum of the following terms:
     one-electron contribution =   -3124.77566649 Ry
     hartree contribution      =    1618.57118406 Ry
     xc contribution           =    -115.34229152 Ry
     ewald contribution        =    1322.30541188 Ry
     one-center paw contrib.   =    -147.91082335 Ry

     convergence has been achieved in   8 iterations

     negative rho (up, down):  3.163E-06 0.000E+00

     Forces acting on atoms (cartesian axes, Ry/au):

     atom    1 type  1   force =     0.00000000    0.00017950    0.00009079
     atom    2 type  1   force =     0.00000000   -0.00017950    0.00009079
     atom    3 type  1   force =     0.00000000    0.00003573   -0.00006613
     atom    4 type  1   force =     0.00000000   -0.00003573   -0.00006613
     atom    5 type  1   force =     0.00000000    0.00001520   -0.00016201
     atom    6 type  1   force =     0.00000000   -0.00001520   -0.00016201
     atom    7 type  1   force =     0.00000000   -0.00003724   -0.00000550
     atom    8 type  1   force =     0.00000000    0.00003724   -0.00000550
     atom    9 type  1   force =     0.00000000    0.00001599    0.00017687
     atom   10 type  1   force =     0.00000000   -0.00001599    0.00017687
     atom   11 type  1   force =    -0.00000000   -0.00002694    0.00011136
     atom   12 type  1   force =     0.00000000    0.00002694    0.00011136
     atom   13 type  1   force =     0.00000000   -0.00002694   -0.00011136
     atom   14 type  1   force =    -0.00000000    0.00002694   -0.00011136
     atom   15 type  1   force =     0.00000000   -0.00001599   -0.00017687
     atom   16 type  1   force =     0.00000000    0.00001599   -0.00017687
     atom   17 type  1   force =     0.00000000   -0.00003724    0.00000550
     atom   18 type  1   force =     0.00000000    0.00003724    0.00000550
     atom   19 type  1   force =     0.00000000    0.00001520    0.00016201
     atom   20 type  1   force =     0.00000000   -0.00001520    0.00016201
     atom   21 type  1   force =     0.00000000    0.00003573    0.00006613
     atom   22 type  1   force =     0.00000000   -0.00003573    0.00006613
     atom   23 type  1   force =    -0.00000000    0.00017950   -0.00009079
     atom   24 type  1   force =     0.00000000   -0.00017950   -0.00009079
     atom   25 type  2   force =    -0.00000000   -0.00000782   -0.00005917
     atom   26 type  2   force =     0.00000000    0.00000782   -0.00005917
     atom   27 type  2   force =     0.00000000   -0.00000782    0.00005917
     atom   28 type  2   force =    -0.00000000    0.00000782    0.00005917

     Total force =     0.000699     Total SCF correction =     0.000013
     Energy error            =      1.4E-06 Ry
     Gradient error          =      1.8E-04 Ry/Bohr

     number of scf cycles    =  17
     number of bfgs steps    =  16

     energy             old  =    -447.1521840050 Ry
     energy             new  =    -447.1521854302 Ry

     CASE: energy            _new < energy            _old

     new trust radius        =       0.0010572876 bohr
     new conv_thr            =            1.0E-10 Ry


ATOMIC_POSITIONS (angstrom)
C               -0.0000000000       -0.9126182344       18.7609378738
C                1.2634728900       -1.7676125156       18.7609378738
C                1.2634728900       -2.6831571206       17.5260609986
C                0.0000000000        0.0029263706       17.5260609986
C                0.0000000000       -0.8928301178       16.2600706299
C                1.2634728900       -1.7874006322       16.2600706299
C                1.2634728900       -2.6801943275       14.9970246324
C               -0.0000000000       -0.0000364225       14.9970246324
C                1.2634728900       -1.7867988011       13.7337571959
C                0.0000000000       -0.8934319489       13.7337571959
C                0.0000000000        0.0000239238       12.4706189591
C                1.2634728900       -2.6802546738       12.4706189591
C                1.2634728900       -1.7867965762       11.2075454009
C                0.0000000000       -0.8934341738       11.2075454009
C                1.2634728900       -2.6802524489        9.9444071641
C                0.0000000000        0.0000216989        9.9444071641
C               -0.0000000000       -0.8933738275        8.6811397276
C                1.2634728900       -1.7868569225        8.6811397276
C                1.2634728900       -2.6796506178        7.4180937301
C               -0.0000000000       -0.0005801322        7.4180937301
C                0.0000000000       -0.8963366206        6.1521033714
C                1.2634728900       -1.7838941294        6.1521033714
C                1.2634728900       -2.6994387344        4.9172264862
C               -0.0000000000        0.0192079844        4.9172264862
H                0.0000000000       -0.3130338299       19.6821757204
H                1.2634728900       -2.3671969201       19.6821757204
H                1.2634728900       -2.0998543299        3.9959886396
H               -0.0000000000       -0.5803764201        3.9959886396



     Writing config-only to output data dir /tmp/qe/slab.save/ :
     XML data file
     NEW-OLD atomic charge density approx. for the potential

     Check: negative core charge=   -0.000001

     negative rho (up, down):  3.221E-06 0.000E+00

     total cpu time spent up to now is      672.0 secs

     Self-consistent Calculation

     iteration #  1     ecut=    90.00 Ry     beta= 0.30
     Davidson diagonalization with overlap
     ethr =  1.00E-06,  avg # of iterations =  2.0

     Threshold (ethr) on eigenvalues was too large:
     Diagonalizing with lowered threshold

     Davidson diagonalization with overlap
     ethr =  1.09E-09,  avg # of iterations =  4.7

     negative rho (up, down):  3.214E-06 0.000E+00

     total cpu time spent up to now is      682.5 secs

     total energy              =    -447.15218582 Ry
     estimated scf accuracy    <       0.00000117 Ry

     iteration #  2     ecut=    90.00 Ry     beta= 0.30
     Davidson diagonalization with overlap
     ethr =  1.17E-09,  avg # of iterations =  2.0

     negative rho (up, down):  3.202E-06 0.000E+00

     total cpu time spent up to now is      686.6 secs

     total energy              =    -447.15218584 Ry
     estimated scf accuracy    <       0.00000036 Ry

     iteration #  3     ecut=    90.00 Ry     beta= 0.30
     Davidson diagonalization with overlap
     ethr =  3.56E-10,  avg # of iterations =  1.3

     negative rho (up, down):  3.191E-06 0.000E+00

     total cpu time spent up to now is      690.5 secs

     total energy              =    -447.15218584 Ry
     estimated scf accuracy    <       0.00000011 Ry

     iteration #  4     ecut=    90.00 Ry     beta= 0.30
     Davidson diagonalization with overlap
     ethr =  1.12E-10,  avg # of iterations =  1.9

     negative rho (up, down):  3.190E-06 0.000E+00

     total cpu time spent up to now is      694.6 secs

     total energy              =    -447.15218585 Ry
     estimated scf accuracy    <          7.2E-09 Ry

     iteration #  5     ecut=    90.00 Ry     beta= 0.30
     Davidson diagonalization with overlap
     ethr =  7.20E-12,  avg # of iterations =  2.5

     negative rho (up, down):  3.191E-06 0.000E+00

     total cpu time spent up to now is      699.6 secs

     total energy              =    -447.15218585 Ry
     estimated scf accuracy    <          2.4E-09 Ry

     iteration #  6     ecut=    90.00 Ry     beta= 0.30
     Davidson diagonalization with overlap
     ethr =  2.37E-12,  avg # of iterations =  2.2

     negative rho (up, down):  3.191E-06 0.000E+00

     total cpu time spent up to now is      704.1 secs

     total energy              =    -447.15218585 Ry
     estimated scf accuracy    <          3.3E-10 Ry

     iteration #  7     ecut=    90.00 Ry     beta= 0.30
     Davidson diagonalization with overlap
     ethr =  3.32E-13,  avg # of iterations =  2.8

     negative rho (up, down):  3.192E-06 0.000E+00

     total cpu time spent up to now is      709.1 secs

     total energy              =    -447.15218585 Ry
     estimated scf accuracy    <          1.9E-10 Ry

     iteration #  8     ecut=    90.00 Ry     beta= 0.30
     Davidson diagonalization with overlap
     ethr =  1.93E-13,  avg # of iterations =  2.3

     negative rho (up, down):  3.193E-06 0.000E+00

     total cpu time spent up to now is      713.8 secs

     End of self-consistent calculation

          k = 0.0000-0.0000 0.0000 ( 20853 PWs)   bands (ev):

   -13.5895 -13.2700 -12.7423 -12.0060 -11.0706  -9.9618  -8.7276  -7.4371
    -6.2058  -5.3001  -4.9854  -4.9760  -4.9285  -4.6469  -4.1813  -3.5258
    -2.6805  -1.8137  -1.7709  -1.6592  -1.0919  -1.0266  -0.4972  -0.1261
     0.0978   0.7698   1.0497   1.0590   1.5225   1.7754   2.1316   2.1860
     2.3564   2.7481   3.4414   3.5810   3.7240   4.2245   5.0344   5.0560
     5.0786   5.8029   6.3261   6.4013   6.4759   7.0188   7.3017   7.3642
     7.4081   7.6348   9.5005   9.9482  12.1683  12.5554  12.8090  13.0938
    13.2220  13.4120  13.4169  13.6005

          k = 0.0000-0.1010 0.0000 ( 20851 PWs)   bands (ev):

   -13.4023 -13.0838 -12.5581 -11.8253 -10.8963  -9.8007  -8.5997  -7.4202
    -7.1035  -6.8826  -6.5451  -6.5397  -4.2140  -3.9071  -3.5797  -3.0115
    -2.8575  -2.6721  -1.8847  -0.9387  -0.8226  -0.3492  -0.1634   0.2399
     0.5003   1.0179   1.2383   1.3673   1.7034   1.9502   2.3492   2.4462
     2.4555   2.8924   3.5557   3.6360   3.9297   4.2917   4.8562   5.0298
     5.3000   5.6954   6.0223   6.2343   6.4039   6.6228   6.8625   6.9272
     6.9791   7.1920   9.7193  10.1625  12.3281  12.3288  12.9409  13.3196
    13.4562  13.7707  13.9156  14.1161

          k = 0.0000-0.2020 0.0000 ( 20798 PWs)   bands (ev):

   -12.8426 -12.5277 -12.0090 -11.2887 -10.3846  -9.3524  -9.0157  -8.7551
    -8.2957  -8.2853  -7.7274  -7.5634  -4.9527  -4.6056  -4.1673  -3.5474
    -2.8479  -2.2327  -1.4584  -0.8092  -0.4629   0.5060   0.8657   1.1581
     1.5347   1.8193   1.9793   2.2401   2.3395   2.4669   2.6924   2.8288
     3.2648   3.3112   3.8788   3.9625   4.1252   4.4674   4.9654   4.9908
     5.0944   5.3751   5.5966   5.6475   5.6834   5.6978   5.6986   6.0281
     6.3219   6.3802  10.3633  10.7457  12.2906  12.6436  13.0455  13.4841
    13.5629  13.7351  14.3061  14.5064

          k = 0.0000-0.3030 0.0000 ( 20770 PWs)   bands (ev):

   -11.9172 -11.6107 -11.1104 -10.6438 -10.4206 -10.3414  -9.8389  -9.5940
    -9.1456  -8.7287  -8.3493  -8.0787  -5.3743  -5.0171  -4.5492  -3.8553
    -3.2189  -2.4295  -1.6927  -0.8600  -0.1257   0.7429   1.3154   2.2180
     2.6477   2.7184   3.1120   3.2395   3.2996   3.5134   3.5889   3.7549
     3.8917   3.9516   4.2778   4.2997   4.3087   4.4405   4.5525   4.5728
     4.6952   4.7309   4.7731   4.9418   4.9450   5.0119   5.0453   5.1996
     5.3018   5.3296  11.3747  11.5852  12.4601  12.5517  12.7561  13.1378
    13.4044  13.8471  14.1550  14.4136

          k = 0.1111-0.0000 0.0000 ( 20803 PWs)   bands (ev):

   -13.3628 -13.0440 -12.5175 -11.7828 -10.8495  -9.7433  -8.5125  -7.2262
    -6.0003  -5.1000  -4.8605  -4.7828  -4.7762  -4.5816  -4.1205  -3.4715
    -2.6346  -1.6237  -1.6103  -1.5791  -0.9198  -0.8220  -0.4744   0.0191
     0.2978   0.4922   0.7561   0.7771   1.1554   1.1843   1.2519   1.7689
     2.1191   2.4014   2.4869   3.2890   3.5454   3.6736   4.1116   4.8755
     4.8781   4.9791   5.5252   5.8989   5.9923   6.2705   6.3402   6.5601
     6.5937   7.2457   9.7298  10.1522  12.3350  13.0249  13.1425  13.2889
    13.5820  13.6336  13.8937  14.0825

          k = 0.1111-0.1010 0.0000 ( 20797 PWs)   bands (ev):

   -13.1761 -12.8583 -12.3339 -11.6028 -10.6761  -9.5834  -8.3862  -7.2130
    -6.9202  -6.6993  -6.3562  -6.3510  -4.0612  -3.7634  -3.4399  -2.8784
    -2.7876  -2.6505  -1.7669  -0.8366  -0.7724  -0.2598  -0.1523   0.2936
     0.5348   0.8018   1.0220   1.0793   1.3046   1.4679   1.4704   2.0173
     2.3911   2.4807   2.6879   3.4073   3.5491   3.8881   4.1297   4.6315
     4.7539   4.9936   5.3182   5.3241   5.3510   5.5955   6.1154   6.4342
     6.9111   7.1518   9.9650  10.3864  12.5983  13.1413  13.7075  13.7465
    13.9265  14.1456  14.2649  14.3411

          k = 0.1111-0.2020 0.0000 ( 20800 PWs)   bands (ev):

   -12.6180 -12.3039 -11.7866 -11.0684 -10.1671  -9.1387  -8.8109  -8.5516
    -8.0952  -8.0777  -7.5297  -7.3637  -4.7604  -4.4203  -3.9794  -3.3746
    -2.6794  -2.0765  -1.3702  -0.7521  -0.6006   0.3305   0.6456   0.9971
     1.0618   1.3905   1.7738   1.8188   1.9926   2.2517   2.4697   2.5995
     2.8052   2.9660   3.3710   3.7287   3.8176   3.8286   4.0956   4.1399
     4.2020   4.3096   4.3622   4.3666   4.8228   5.1638   5.6577   6.2076
     6.6511   6.6779  10.6256  11.0088  13.1314  13.1599  13.8153  14.1888
    14.2999  14.8553  14.8560  15.0100

          k = 0.1111-0.3030 0.0000 ( 20773 PWs)   bands (ev):

   -11.6958 -11.3903 -10.8917 -10.4281 -10.2046 -10.1271  -9.6270  -9.3817
    -8.9372  -8.5213  -8.1455  -7.8767  -5.1711  -4.8156  -4.3555  -3.6628
    -3.0390  -2.2497  -1.5362  -0.7035  -0.0347   0.7543   1.0361   1.5823
     1.8038   2.0140   2.2249   2.4461   2.6435   2.8161   2.9930   3.0050
     3.1226   3.3949   3.4819   3.5721   3.8124   3.8720   3.8934   3.9732
     4.1630   4.3600   4.4546   4.5163   4.7198   5.0646   5.2660   5.4106
     5.5820   5.6228  11.6574  11.9246  13.0690  13.0699  13.3998  13.8607
    13.9769  14.5546  14.9664  15.1849

          k = 0.2222-0.0000 0.0000 ( 20844 PWs)   bands (ev):

   -12.6862 -12.3694 -11.8465 -11.1168 -10.1900  -9.0918  -7.8707  -6.5969
    -5.3868  -4.9698  -4.6947  -4.5017  -4.2397  -4.1783  -4.1771  -3.5993
    -2.7739  -1.7773  -1.2095  -1.0241  -1.0183  -0.9351  -0.6448  -0.4915
    -0.4298  -0.2252   0.1100   0.4177   0.5873   0.8392   0.8821   1.4163
     1.6398   1.8147   1.9066   2.4288   2.4504   3.1154   3.3030   3.4020
     3.6450   4.0012   4.1601   4.1972   4.2936   4.6593   4.7115   4.9131
     5.9543   6.8160  10.4500  10.7937  12.4083  12.4671  12.9489  13.0593
    13.1759  13.8070  14.0049  14.1803

          k = 0.2222-0.1010 0.0000 ( 20776 PWs)   bands (ev):

   -12.5011 -12.1855 -11.6648 -10.9390 -10.0193  -8.9353  -7.7496  -6.6004
    -6.4387  -6.2155  -5.8588  -5.7908  -3.7667  -3.4830  -3.2788  -3.1306
    -3.0498  -2.6107  -1.5673  -1.1558  -1.0337  -0.6952  -0.4784  -0.2554
    -0.2318   0.3987   0.4719   0.7042   1.0469   1.1511   1.2298   1.6152
     1.8802   1.9927   2.2451   2.3374   2.7620   2.8866   3.0054   3.0178
     3.1714   3.2250   3.3734   3.7830   4.3299   4.7582   5.4262   5.5230
     6.0013   6.4397  10.6965  11.0465  13.0646  13.1250  13.2463  13.5769
    13.5885  13.8490  14.0992  14.3769

          k = 0.2222-0.2020 0.0000 ( 20759 PWs)   bands (ev):

   -11.9484 -11.6369 -11.1239 -10.4120  -9.5191  -8.5028  -8.2192  -7.9634
    -7.5150  -7.4615  -6.9537  -6.7736  -4.2378  -3.9170  -3.4871  -2.9138
    -2.4068  -2.2278  -2.0879  -1.6775  -0.9713  -0.5287  -0.2614  -0.2177
     0.2507   0.9058   0.9197   1.2195   1.4276   1.5039   1.8276   1.9026
     2.0288   2.2520   2.3273   2.4342   2.6052   2.6329   2.8427   2.9636
     3.0602   3.1977   3.3797   3.6809   4.3503   4.5643   5.3465   5.4574
     6.0804   6.2344  11.3682  11.6979  13.8953  14.2155  14.2862  14.3073
    14.5918  14.7072  14.8654  14.8983

          k = 0.2222-0.3030 0.0000 ( 20801 PWs)   bands (ev):

   -11.0373 -10.7350 -10.2419  -9.7909  -9.5631  -9.4944  -9.0016  -8.7510
    -8.3220  -7.9056  -7.5420  -7.2759  -4.5932  -4.2395  -3.8129  -3.1193
    -2.5625  -1.7728  -1.3152  -1.2374  -1.0890  -0.3780  -0.1502  -0.0270
     0.1258   0.2776   0.5541   0.8639   1.0411   1.1985   1.5189   1.6046
     1.7268   1.8805   2.2139   2.9330   3.2689   3.5320   3.6097   3.7502
     3.9885   4.0137   4.1649   4.1965   4.2610   4.2776   4.8148   5.2060
     5.4861   5.5330  12.3630  12.5914  13.8298  13.8777  14.7144  14.9597
    15.1404  15.1628  15.2223  15.5667

          k = 0.3333-0.0000 0.0000 ( 20766 PWs)   bands (ev):

   -11.5711 -11.2580 -10.7413 -10.0204  -9.1048  -8.0202  -6.8155  -6.2156
    -5.9293  -5.5613  -5.4567  -4.7944  -4.3747  -3.9470  -3.5107  -3.1877
    -3.1744  -2.9328  -1.7920  -1.5350  -1.2792  -0.8695  -0.5751  -0.3220
    -0.1765  -0.1008   0.2896   0.3238   0.6473   0.7066   0.9458   1.0016
     1.6053   1.6180   1.6540   1.7977   1.9576   2.0229   2.1005   2.2701
     2.4680   2.6895   2.6958   2.8914   2.9447   2.9540   3.0130   4.0734
     5.2189   6.0443  11.5808  11.7358  12.1018  12.2453  12.7648  12.8691
    13.6447  13.9235  14.3471  14.6794

          k = 0.3333-0.1010 0.0000 ( 20794 PWs)   bands (ev):

   -11.3897 -11.0780 -10.5639  -9.8475  -8.9397  -7.8707  -6.7055  -6.4236
    -6.1471  -5.7423  -5.5379  -5.2061  -4.1198  -4.1147  -3.9587  -3.8910
    -3.7717  -3.0410  -1.9580  -1.4179  -1.1136  -0.9479  -0.7938  -0.3826
    -0.1507  -0.1229   0.2591   0.6313   0.6973   0.7484   0.7639   1.0169
     1.0973   1.4844   1.6422   1.7084   1.9300   1.9907   2.0818   2.1838
     2.3147   2.6808   2.8649   2.8730   3.4875   3.8344   3.9468   4.1435
     5.0307   5.8536  11.8554  12.0743  12.7564  12.7631  13.1260  13.1407
    13.5517  13.8394  14.2740  14.4662

          k = 0.3333-0.2020 0.0000 ( 20813 PWs)   bands (ev):

   -10.8496 -10.5427 -10.0375  -9.3367  -8.4582  -7.4826  -7.3991  -7.1617
    -6.7172  -6.4724  -6.1211  -5.8527  -4.3323  -4.0798  -3.8693  -3.6559
    -3.5193  -3.4762  -2.5659  -1.7756  -1.4494  -1.4024  -1.0357  -0.8888
    -0.8370  -0.6735  -0.5873  -0.5380   0.2504   0.3918   0.7675   0.9068
     1.6284   1.8306   2.1079   2.2036   2.4540   2.4841   2.6082   2.7212
     2.8936   2.9212   3.0668   3.3511   3.4397   3.9713   4.5131   4.7468
     5.2167   5.3718  12.4889  12.6925  13.7870  13.7926  14.2015  14.2511
    14.4980  14.6464  14.7579  14.9043

          k = 0.3333-0.3030 0.0000 ( 20863 PWs)   bands (ev):

    -9.9672  -9.6705  -9.1870  -8.7867  -8.5237  -8.4981  -8.0175  -7.7307
    -7.3513  -6.9105  -6.5777  -6.3007  -3.8447  -3.6485  -3.4677  -3.3867
    -3.2551  -2.9614  -2.7268  -2.5201  -2.4345  -2.2661  -1.8953  -1.7440
    -1.1813  -1.0687  -0.4417  -0.4402  -0.2678  -0.1269   0.1977   0.7529
     1.4385   1.9502   2.1865   2.2072   2.6120   2.6170   2.9713   3.4265
     3.5118   3.5188   3.8310   3.9792   4.2409   4.3063   4.4468   4.5070
     5.0523   5.2286  13.2637  13.3613  14.6891  14.7323  14.8941  14.9929
    15.2527  15.5445  15.6584  15.7290

          k = 0.4444-0.0000 0.0000 ( 20772 PWs)   bands (ev):

   -10.0456  -9.7382  -9.2310  -8.5234  -8.1814  -7.8825  -7.6243  -7.3893
    -6.7006  -6.5590  -5.8241  -5.3762  -4.7832  -4.1459  -3.6246  -2.9837
    -2.4137  -2.1392  -1.8156  -1.7874  -1.2586  -0.5396  -0.4127  -0.3249
    -0.0848  -0.0394   0.0083   0.4300   0.8136   0.8832   0.9693   1.0405
     1.0938   1.1901   1.2833   1.3310   1.4120   1.5341   1.5546   1.6764
     1.7103   1.7298   1.7615   1.8824   2.1529   2.9484   3.0734   3.8057
     4.1593   4.9853  12.1990  12.2188  12.7472  12.7701  13.0752  13.0797
    13.3536  13.6068  13.6471  13.7117

          k = 0.4444-0.1010 0.0000 ( 20816 PWs)   bands (ev):

    -9.8736  -9.5680  -9.0642  -8.3619  -8.0487  -7.7528  -7.4717  -7.2648
    -6.5843  -6.4229  -5.7219  -5.2839  -4.6776  -4.1131  -3.5675  -3.2273
    -3.2269  -3.0203  -2.9038  -2.4436  -1.5577  -1.5000  -1.3291  -1.2354
    -0.4670  -0.2225   0.0194   0.3976   0.7477   0.8879   0.9645   0.9955
     1.0833   1.3574   1.4740   1.6517   1.7175   1.8205   1.9099   1.9595
     2.1905   2.2418   2.3675   2.4719   2.6311   3.0778   3.1647   3.8998
     4.1493   4.9664  12.7746  12.8293  12.8591  12.9629  13.0302  13.3049
    13.5437  13.8298  14.0273  14.1567

          k = 0.4444-0.2020 0.0000 ( 20837 PWs)   bands (ev):

    -9.3701  -9.0705  -8.5777  -7.8942  -7.7469  -7.4622  -7.0336  -6.9916
    -6.3388  -6.0466  -5.5267  -5.0976  -4.7821  -4.5384  -4.3784  -4.2302
    -3.9574  -3.8215  -3.4902  -3.2119  -2.9699  -2.7527  -2.5235  -2.3739
    -1.0902  -0.8011  -0.5373   0.0930   0.1140   0.3503   0.5445   0.7551
     1.2270   1.3942   1.5636   1.6994   1.9990   2.3426   2.6264   2.6796
     2.8072   3.0490   3.1026   3.2820   3.5414   3.7697   3.9571   4.1081
     4.1844   4.8851  13.4794  13.5608  13.7829  13.8707  14.0688  14.1423
    14.3573  14.3689  14.6399  14.8803

          k = 0.4444-0.3030 0.0000 ( 20868 PWs)   bands (ev):

    -8.5955  -8.3080  -7.8398  -7.8219  -7.5413  -7.2136  -7.0605  -6.5184
    -6.3252  -5.7591  -5.4691  -5.3562  -5.1176  -5.0555  -4.6554  -4.6117
    -4.3483  -4.2203  -3.9386  -3.8274  -3.8103  -3.5942  -3.3351  -3.1484
    -1.1992  -1.0622  -0.6982  -0.6586  -0.2959   0.1217   0.3985   0.6722
     0.8665   1.2570   1.3763   1.6462   2.1720   2.3789   2.6813   2.6900
     3.3062   3.4245   3.6835   3.8758   4.0729   4.2596   4.4764   4.4885
     4.7159   4.7922  14.0206  14.0335  14.6797  14.6938  15.2402  15.3473
    15.7352  15.8137  15.8441  15.8975

     the Fermi energy is     8.2483 ev

!    total energy              =    -447.15218585 Ry
     estimated scf accuracy    <          5.8E-12 Ry
     smearing contrib. (-TS)   =       0.00000000 Ry
     internal energy E=F+TS    =    -447.15218585 Ry

     The total energy is F=E-TS. E is the sum of the following terms:
     one-electron contribution =   -3125.72115599 Ry
     hartree contribution      =    1619.04368520 Ry
     xc contribution           =    -115.34357861 Ry
     ewald contribution        =    1322.77971636 Ry
     one-center paw contrib.   =    -147.91085280 Ry

     convergence has been achieved in   8 iterations

     negative rho (up, down):  3.193E-06 0.000E+00

     Forces acting on atoms (cartesian axes, Ry/au):

     atom    1 type  1   force =     0.00000000    0.00009126    0.00006509
     atom    2 type  1   force =     0.00000000   -0.00009126    0.00006509
     atom    3 type  1   force =     0.00000000    0.00001717   -0.00000824
     atom    4 type  1   force =     0.00000000   -0.00001717   -0.00000824
     atom    5 type  1   force =     0.00000000    0.00001000   -0.00006962
     atom    6 type  1   force =     0.00000000   -0.00001000   -0.00006962
     atom    7 type  1   force =     0.00000000   -0.00001772   -0.00001018
     atom    8 type  1   force =     0.00000000    0.00001772   -0.00001018
     atom    9 type  1   force =     0.00000000    0.00000710    0.00007769
     atom   10 type  1   force =     0.00000000   -0.00000710    0.00007769
     atom   11 type  1   force =     0.00000000   -0.00001537    0.00005165
     atom   12 type  1   force =     0.00000000    0.00001537    0.00005165
     atom   13 type  1   force =     0.00000000   -0.00001537   -0.00005165
     atom   14 type  1   force =     0.00000000    0.00001537   -0.00005165
     atom   15 type  1   force =     0.00000000   -0.00000710   -0.00007769
     atom   16 type  1   force =     0.00000000    0.00000710   -0.00007769
     atom   17 type  1   force =     0.00000000   -0.00001772    0.00001018
     atom   18 type  1   force =     0.00000000    0.00001772    0.00001018
     atom   19 type  1   force =     0.00000000    0.00001000    0.00006962
     atom   20 type  1   force =     0.00000000   -0.00001000    0.00006962
     atom   21 type  1   force =     0.00000000    0.00001717    0.00000824
     atom   22 type  1   force =     0.00000000   -0.00001717    0.00000824
     atom   23 type  1   force =     0.00000000    0.00009126   -0.00006509
     atom   24 type  1   force =     0.00000000   -0.00009126   -0.00006509
     atom   25 type  2   force =     0.00000000   -0.00001358   -0.00001755
     atom   26 type  2   force =     0.00000000    0.00001358   -0.00001755
     atom   27 type  2   force =     0.00000000   -0.00001358    0.00001755
     atom   28 type  2   force =     0.00000000    0.00001358    0.00001755

     Total force =     0.000333     Total SCF correction =     0.000002
     Energy error            =      4.2E-07 Ry
     Gradient error          =      9.1E-05 Ry/Bohr

     bfgs converged in  18 scf cycles and  17 bfgs steps
     (criteria: energy <  1.0E-05 Ry, force <  1.0E-04 Ry/Bohr)

     End of BFGS Geometry Optimization

     Final energy             =    -447.1521858457 Ry

     File /tmp/qe/slab.bfgs deleted, as requested
Begin final coordinates

ATOMIC_POSITIONS (angstrom)
C               -0.0000000000       -0.9126182344       18.7609378738
C                1.2634728900       -1.7676125156       18.7609378738
C                1.2634728900       -2.6831571206       17.5260609986
C                0.0000000000        0.0029263706       17.5260609986
C                0.0000000000       -0.8928301178       16.2600706299
C                1.2634728900       -1.7874006322       16.2600706299
C                1.2634728900       -2.6801943275       14.9970246324
C               -0.0000000000       -0.0000364225       14.9970246324
C                1.2634728900       -1.7867988011       13.7337571959
C                0.0000000000       -0.8934319489       13.7337571959
C                0.0000000000        0.0000239238       12.4706189591
C                1.2634728900       -2.6802546738       12.4706189591
C                1.2634728900       -1.7867965762       11.2075454009
C                0.0000000000       -0.8934341738       11.2075454009
C                1.2634728900       -2.6802524489        9.9444071641
C                0.0000000000        0.0000216989        9.9444071641
C               -0.0000000000       -0.8933738275        8.6811397276
C                1.2634728900       -1.7868569225        8.6811397276
C                1.2634728900       -2.6796506178        7.4180937301
C               -0.0000000000       -0.0005801322        7.4180937301
C                0.0000000000       -0.8963366206        6.1521033714
C                1.2634728900       -1.7838941294        6.1521033714
C                1.2634728900       -2.6994387344        4.9172264862
C               -0.0000000000        0.0192079844        4.9172264862
H                0.0000000000       -0.3130338299       19.6821757204
H                1.2634728900       -2.3671969201       19.6821757204
H                1.2634728900       -2.0998543299        3.9959886396
H               -0.0000000000       -0.5803764201        3.9959886396
End final coordinates



     Writing all to output data dir /tmp/qe/slab.save/ :
     XML data file, charge density, pseudopotentials, collected wavefunctions

     init_run     :      2.81s CPU      3.02s WALL (       1 calls)
     electrons    :    678.91s CPU    687.36s WALL (      18 calls)
     update_pot   :      3.56s CPU      3.59s WALL (      17 calls)
     forces       :     14.57s CPU     15.01s WALL (      18 calls)

     Called by init_run:
     wfcinit      :      2.41s CPU      2.56s WALL (       1 calls)
     potinit      :      0.20s CPU      0.22s WALL (       1 calls)
     hinit0       :      0.06s CPU      0.07s WALL (       1 calls)

     Called by electrons:
     c_bands      :    538.63s CPU    543.39s WALL (     147 calls)
     sum_band     :    107.13s CPU    109.07s WALL (     147 calls)
     v_of_rho     :     10.40s CPU     10.56s WALL (     152 calls)
     newd         :      6.67s CPU      7.69s WALL (     152 calls)
     PAW_pot      :     20.66s CPU     20.74s WALL (     169 calls)
     mix_rho      :      0.76s CPU      0.78s WALL (     147 calls)

     Called by c_bands:
     init_us_2    :     17.49s CPU     17.68s WALL (    6600 calls)
     cegterg      :    511.34s CPU    515.78s WALL (    2940 calls)

     Called by *egterg:
     cdiaghg      :     28.51s CPU     28.79s WALL (   10063 calls)
     h_psi        :    368.32s CPU    372.03s WALL (   10683 calls)
     s_psi        :     31.32s CPU     31.44s WALL (   10683 calls)
     g_psi        :      2.38s CPU      2.40s WALL (    7723 calls)

     Called by h_psi:
     h_psi:calbec :     29.60s CPU     29.81s WALL (   10683 calls)
     vloc_psi     :    303.67s CPU    306.94s WALL (   10683 calls)
     add_vuspsi   :     32.32s CPU     32.46s WALL (   10683 calls)

     General routines
     calbec       :     46.92s CPU     47.23s WALL (   15403 calls)
     fft          :      4.50s CPU      4.69s WALL (    2168 calls)
     ffts         :      0.19s CPU      0.20s WALL (     299 calls)
     fftw         :    272.94s CPU    275.57s WALL ( 1040466 calls)
     interpolate  :      0.39s CPU      0.40s WALL (     152 calls)

     Parallel routines

     PWSCF        :  11m45.58s CPU  11m55.07s WALL


   This run was terminated on:  13:19: 6   1Aug2026            

=------------------------------------------------------------------------------=
   JOB DONE.
=------------------------------------------------------------------------------=
Note: The following floating-point exceptions are signalling: IEEE_UNDERFLOW_FLAG IEEE_DENORMAL
Note: The following floating-point exceptions are signalling: IEEE_UNDERFLOW_FLAG IEEE_DENORMAL
Note: The following floating-point exceptions are signalling: IEEE_UNDERFLOW_FLAG IEEE_DENORMAL
Note: The following floating-point exceptions are signalling: IEEE_UNDERFLOW_FLAG IEEE_DENORMAL
Note: The following floating-point exceptions are signalling: IEEE_UNDERFLOW_FLAG IEEE_DENORMAL
Note: The following floating-point exceptions are signalling: IEEE_UNDERFLOW_FLAG IEEE_DENORMAL
Note: The following floating-point exceptions are signalling: IEEE_UNDERFLOW_FLAG IEEE_DENORMAL
Note: The following floating-point exceptions are signalling: IEEE_UNDERFLOW_FLAG IEEE_DENORMAL
