
     Program PWSCF v.7.3.1 starts on  2Aug2026 at 15:45:39 

     This program is part of the open-source Quantum ESPRESSO suite
     for quantum simulation of materials; please cite
         "P. Giannozzi et al., J. Phys.:Condens. Matter 21 395502 (2009);
         "P. Giannozzi et al., J. Phys.:Condens. Matter 29 465901 (2017);
         "P. Giannozzi et al., J. Chem. Phys. 152 154105 (2020);
          URL http://www.quantum-espresso.org", 
     in publications or presentations arising from this work. More details at
     http://www.quantum-espresso.org/quote

     Parallel version (MPI), running on     8 processors

     MPI processes distributed on     1 nodes
     767914 MiB available memory on the printing compute node when the environment starts

     Reading input from pw.in

     Current dimensions of program PWSCF are:
     Max number of different atomic species (ntypx) = 10
     Max number of k-points (npk) =  40000
     Max angular momentum in pseudopotentials (lmaxx) =  4
     file C.pbe-n-kjpaw_psl.1.0.0.UPF: wavefunction(s)  2S 2P renormalized
     Message from routine setup:
     using ibrav=0 with symmetry is DISCOURAGED, use correct ibrav instead

     R & G space division:  proc/nbgrp/npool/nimage =       8
     Subspace diagonalization in iterative solution of the eigenvalue problem:
     a serial algorithm will be used


     Parallelization info
     --------------------
     sticks:   dense  smooth     PW     G-vecs:    dense   smooth      PW
     Min         141      69     20                50795    17899    2910
     Max         142      70     21                50846    17966    2967
     Sum        1135     559    163               406661   143595   23447

     Using Slab Decomposition



     bravais-lattice index     =            0
     lattice parameter (alat)  =       4.7744  a.u.
     unit-cell volume          =    1245.5002 (a.u.)^3
     number of atoms/cell      =           26
     number of atomic types    =            2
     number of electrons       =        98.00
     number of Kohn-Sham states=           59
     kinetic-energy cutoff     =      90.0000  Ry
     charge density cutoff     =     720.0000  Ry
     scf convergence threshold =      1.0E-08
     mixing beta               =       0.3000
     number of iterations used =            8  plain     mixing
     energy convergence thresh.=      1.0E-05
     force convergence thresh. =      1.0E-04
     Exchange-correlation= PBE
                           (   1   4   3   4   0   0   0)
     nstep                     =           50


     celldm(1)=   4.774375  celldm(2)=   0.000000  celldm(3)=   0.000000
     celldm(4)=   0.000000  celldm(5)=   0.000000  celldm(6)=   0.000000

     crystal axes: (cart. coord. in units of alat)
               a(1) = (   1.000000   0.000000   0.000000 )  
               a(2) = (   0.500000   0.866025   0.000000 )  
               a(3) = (   0.000000   0.000000  13.214891 )  

     reciprocal axes: (cart. coord. in units 2 pi/alat)
               b(1) = (  1.000000 -0.577350  0.000000 )  
               b(2) = (  0.000000  1.154701  0.000000 )  
               b(3) = (  0.000000  0.000000  0.075672 )  


     PseudoPot. # 1 for C  read from file:
     ./C.pbe-n-kjpaw_psl.1.0.0.UPF
     MD5 check sum: 5d2aebdfa2cae82b50a7e79e9516da0f
     Pseudo is Projector augmented-wave + core cor, Zval =  4.0
     Generated using "atomic" code by A. Dal Corso  v.5.1
     Shape of augmentation charge: PSQ
     Using radial grid of 1073 points,  4 beta functions with: 
                l(1) =   0
                l(2) =   0
                l(3) =   1
                l(4) =   1
     Q(r) pseudized with 0 coefficients 


     PseudoPot. # 2 for H  read from file:
     ./H_ONCV_PBE-1.0.oncvpsp.upf
     MD5 check sum: 1790becc920ee074925cf490c71280fe
     Pseudo is Norm-conserving, Zval =  1.0
     Generated using ONCVPSP code by D. R. Hamann
     Using radial grid of 1166 points,  2 beta functions with: 
                l(1) =   0
                l(2) =   0

     atomic species   valence    mass     pseudopotential
     C                 4.00    12.01100     C ( 1.00)
     H                 1.00     1.00800     H ( 1.00)

     12 Sym. Ops., with inversion, found ( 6 have fractional translation)



   Cartesian axes

     site n.     atom                  positions (alat units)
         1        C      tau(   1) = (   0.5000000   0.2886751  11.2002389  )
         2        C      tau(   2) = (   1.0000000   0.5773503  10.9961148  )
         3        C      tau(   3) = (   1.0000000   0.5773503  10.3837424  )
         4        C      tau(   4) = (   0.0000000   0.0000000  10.1796182  )
         5        C      tau(   5) = (   0.0000000   0.0000000   9.5672458  )
         6        C      tau(   6) = (   0.5000000   0.2886751   9.3631216  )
         7        C      tau(   7) = (   0.5000000   0.2886751   8.7507492  )
         8        C      tau(   8) = (   1.0000000   0.5773503   8.5466251  )
         9        C      tau(   9) = (   1.0000000   0.5773503   7.9342526  )
        10        C      tau(  10) = (   0.0000000   0.0000000   7.7301285  )
        11        C      tau(  11) = (   0.0000000   0.0000000   7.1177560  )
        12        C      tau(  12) = (   0.5000000   0.2886751   6.9136319  )
        13        C      tau(  13) = (   0.5000000   0.2886751   6.3012595  )
        14        C      tau(  14) = (   1.0000000   0.5773503   6.0971353  )
        15        C      tau(  15) = (   1.0000000   0.5773503   5.4847629  )
        16        C      tau(  16) = (   0.0000000   0.0000000   5.2806387  )
        17        C      tau(  17) = (   0.0000000   0.0000000   4.6682663  )
        18        C      tau(  18) = (   0.5000000   0.2886751   4.4641422  )
        19        C      tau(  19) = (   0.5000000   0.2886751   3.8517697  )
        20        C      tau(  20) = (   1.0000000   0.5773503   3.6476456  )
        21        C      tau(  21) = (   1.0000000   0.5773503   3.0352731  )
        22        C      tau(  22) = (   0.0000000   0.0000000   2.8311490  )
        23        C      tau(  23) = (   0.0000000   0.0000000   2.2187766  )
        24        C      tau(  24) = (   0.5000000   0.2886751   2.0146524  )
        25        H      tau(  25) = (   0.5000000   0.2886751  11.6316675  )
        26        H      tau(  26) = (   0.5000000   0.2886751   1.5832239  )

     number of k points=    12  Marzari-Vanderbilt smearing, width (Ry)=  0.0100
                       cart. coord. in units 2pi/alat
        k(    1) = (   0.0000000   0.0000000   0.0000000), wk =   0.0246914
        k(    2) = (   0.0000000   0.1283001   0.0000000), wk =   0.1481481
        k(    3) = (   0.0000000   0.2566001   0.0000000), wk =   0.1481481
        k(    4) = (   0.0000000   0.3849002   0.0000000), wk =   0.1481481
        k(    5) = (   0.0000000   0.5132002   0.0000000), wk =   0.1481481
        k(    6) = (   0.1111111   0.1924501   0.0000000), wk =   0.1481481
        k(    7) = (   0.1111111   0.3207501   0.0000000), wk =   0.2962963
        k(    8) = (   0.1111111   0.4490502   0.0000000), wk =   0.2962963
        k(    9) = (   0.1111111  -0.5773503   0.0000000), wk =   0.1481481
        k(   10) = (   0.2222222   0.3849002   0.0000000), wk =   0.1481481
        k(   11) = (   0.2222222  -0.6415003   0.0000000), wk =   0.2962963
        k(   12) = (   0.3333333  -0.5773503   0.0000000), wk =   0.0493827

     Dense  grid:   406661 G-vectors     FFT dimensions: (  45,  45, 540)

     Smooth grid:   143595 G-vectors     FFT dimensions: (  30,  30, 384)

     Estimated max dynamical RAM per process >     154.16 MB

     Estimated total dynamical RAM >       1.20 GB

     Check: negative core charge=   -0.000001

     Initial potential from superposition of free atoms

     starting charge      97.9990, renormalised to      98.0000
     Starting wfcs are   98 randomized atomic wfcs
     Checking if some PAW data can be deallocated... 

     total cpu time spent up to now is        1.8 secs

     Self-consistent Calculation

     iteration #  1     ecut=    90.00 Ry     beta= 0.30
     Davidson diagonalization with overlap
     ethr =  1.00E-02,  avg # of iterations =  2.5

     total cpu time spent up to now is        4.9 secs

     total energy              =    -444.96553547 Ry
     estimated scf accuracy    <       1.59211859 Ry

     iteration #  2     ecut=    90.00 Ry     beta= 0.30
     Davidson diagonalization with overlap
     ethr =  1.62E-03,  avg # of iterations =  3.6

     negative rho (up, down):  4.679E-07 0.000E+00

     total cpu time spent up to now is        7.4 secs

     total energy              =    -444.75017579 Ry
     estimated scf accuracy    <       0.61022780 Ry

     iteration #  3     ecut=    90.00 Ry     beta= 0.30
     Davidson diagonalization with overlap
     ethr =  6.23E-04,  avg # of iterations =  6.0

     negative rho (up, down):  1.720E-07 0.000E+00

     total cpu time spent up to now is       10.1 secs

     total energy              =    -444.79220864 Ry
     estimated scf accuracy    <       0.03492565 Ry

     iteration #  4     ecut=    90.00 Ry     beta= 0.30
     Davidson diagonalization with overlap
     c_bands:  1 eigenvalues not converged
     ethr =  3.56E-05,  avg # of iterations =  9.9

     negative rho (up, down):  7.105E-08 0.000E+00

     total cpu time spent up to now is       13.8 secs

     total energy              =    -444.79690670 Ry
     estimated scf accuracy    <       0.00565876 Ry

     iteration #  5     ecut=    90.00 Ry     beta= 0.30
     Davidson diagonalization with overlap
     ethr =  5.77E-06,  avg # of iterations =  7.8

     negative rho (up, down):  5.642E-08 0.000E+00

     total cpu time spent up to now is       17.1 secs

     total energy              =    -444.79762398 Ry
     estimated scf accuracy    <       0.00109670 Ry

     iteration #  6     ecut=    90.00 Ry     beta= 0.30
     Davidson diagonalization with overlap
     ethr =  1.12E-06,  avg # of iterations =  7.1

     negative rho (up, down):  4.179E-08 0.000E+00

     total cpu time spent up to now is       20.2 secs

     total energy              =    -444.79771583 Ry
     estimated scf accuracy    <       0.00029839 Ry

     iteration #  7     ecut=    90.00 Ry     beta= 0.30
     Davidson diagonalization with overlap
     ethr =  3.04E-07,  avg # of iterations =  2.0

     negative rho (up, down):  3.966E-08 0.000E+00

     total cpu time spent up to now is       22.9 secs

     total energy              =    -444.79774159 Ry
     estimated scf accuracy    <       0.00006359 Ry

     iteration #  8     ecut=    90.00 Ry     beta= 0.30
     Davidson diagonalization with overlap
     ethr =  6.49E-08,  avg # of iterations =  2.1

     negative rho (up, down):  3.447E-08 0.000E+00

     total cpu time spent up to now is       25.5 secs

     total energy              =    -444.79775189 Ry
     estimated scf accuracy    <       0.00000351 Ry

     iteration #  9     ecut=    90.00 Ry     beta= 0.30
     Davidson diagonalization with overlap
     ethr =  3.58E-09,  avg # of iterations =  3.1

     negative rho (up, down):  3.306E-08 0.000E+00

     total cpu time spent up to now is       28.5 secs

     total energy              =    -444.79775299 Ry
     estimated scf accuracy    <       0.00000095 Ry

     iteration # 10     ecut=    90.00 Ry     beta= 0.30
     Davidson diagonalization with overlap
     ethr =  9.70E-10,  avg # of iterations =  2.7

     negative rho (up, down):  3.355E-08 0.000E+00

     total cpu time spent up to now is       31.3 secs

     total energy              =    -444.79775318 Ry
     estimated scf accuracy    <       0.00000040 Ry

     iteration # 11     ecut=    90.00 Ry     beta= 0.30
     Davidson diagonalization with overlap
     ethr =  4.10E-10,  avg # of iterations =  2.0

     negative rho (up, down):  3.453E-08 0.000E+00

     total cpu time spent up to now is       33.7 secs

     total energy              =    -444.79775322 Ry
     estimated scf accuracy    <       0.00000005 Ry

     iteration # 12     ecut=    90.00 Ry     beta= 0.30
     Davidson diagonalization with overlap
     ethr =  5.22E-11,  avg # of iterations =  3.2

     negative rho (up, down):  3.520E-08 0.000E+00

     total cpu time spent up to now is       36.6 secs

     total energy              =    -444.79775324 Ry
     estimated scf accuracy    <       0.00000001 Ry

     iteration # 13     ecut=    90.00 Ry     beta= 0.30
     Davidson diagonalization with overlap
     ethr =  1.23E-11,  avg # of iterations =  2.5

     negative rho (up, down):  3.740E-08 0.000E+00

     total cpu time spent up to now is       39.3 secs

     End of self-consistent calculation

          k = 0.0000 0.0000 0.0000 ( 17885 PWs)   bands (ev):

   -12.2138 -12.0766 -11.8531 -11.5459 -11.1572 -10.6898 -10.1475  -9.5356
    -8.8626  -8.1453  -7.4216  -6.7949  -3.9603  -3.3311  -2.4159  -1.3461
    -0.1853   1.0343   2.2893   3.5579   4.8146   6.0290   6.3898   6.3898
     6.4803   6.4803   6.6262   6.6262   6.8240   6.8240   7.0698   7.0698
     7.1577   7.3575   7.3575   7.6784   7.6784   8.0192   8.0192   8.1411
     8.3605   8.3605   8.6753   8.6753   8.8643   8.9300   8.9300   9.0930
     9.0930  11.3919  12.0066  14.0970  14.8303  14.8303  14.9129  15.0881
    15.0882  15.4606  15.4606

          k = 0.0000 0.1283 0.0000 ( 17983 PWs)   bands (ev):

   -11.9114 -11.7746 -11.5518 -11.2454 -10.8580 -10.3923  -9.8522  -9.2430
    -8.5736  -7.8608  -7.1430  -6.5233  -3.6870  -3.0665  -2.1642  -1.1107
     0.0297   1.2228   2.4426   3.6614   4.8372   4.9385   5.0432   5.2120
     5.4400   5.7222   5.7364   5.8401   5.8546   6.0065   6.1462   6.2310
     6.3890   6.5073   6.6710   6.8274   7.0657   7.1265   7.1800   7.4194
     7.5493   7.6608   7.8355   7.9139   8.0599   8.2456   8.5114   8.5833
     8.6809  11.6886  12.2472  14.3195  14.4982  14.8475  15.2464  15.4301
    15.6770  15.6905  15.9095

          k = 0.0000 0.2566 0.0000 ( 17943 PWs)   bands (ev):

   -11.0103 -10.8747 -10.6539 -10.3506  -9.9674  -9.5072  -8.9741  -8.3740
    -7.7162  -7.0180  -6.3185  -5.7191  -2.9213  -2.3302  -1.4759  -0.4897
     0.5493   1.5142   2.0135   2.1025   2.2159   2.4513   2.7565   2.9731
     3.1464   3.5657   3.9900   4.0094   4.4527   4.5385   4.6532   4.8374
     4.8633   4.9982   5.0856   5.2035   5.3907   5.4191   5.7429   5.9337
     6.1290   6.5309   6.7361   6.9247   7.2801   7.3670   7.5633   7.7435
     7.7744  12.5800  12.9710  13.8483  14.1459  14.5931  14.9830  15.1958
    15.5797  15.8427  16.1069

          k = 0.0000 0.3849 0.0000 ( 17956 PWs)   bands (ev):

    -9.5336  -9.4008  -9.1847  -8.8883  -8.5146  -8.0672  -7.5508  -6.9722
    -6.3417  -5.6775  -5.0167  -4.4528  -2.2274  -1.7973  -1.4703  -1.3444
    -1.0801  -0.7079  -0.2963  -0.0239   0.1688   0.4266   0.8656   0.9645
     1.5419   1.6374   2.1199   2.3825   2.5802   3.0561   3.5332   3.6374
     3.6525   3.8441   4.0558   4.1023   4.4197   4.6332   4.7860   5.1872
     5.3369   5.6043   5.9949   6.0123   6.3800   6.5260   6.6726   6.8589
     6.8704  13.3947  13.6077  13.9216  14.0856  14.4521  14.6513  14.9275
    15.3166  15.7163  16.1274

          k = 0.0000 0.5132 0.0000 ( 17988 PWs)   bands (ev):

    -7.5622  -7.4404  -7.2447  -6.9815  -6.6608  -6.2988  -5.9199  -5.5458
    -5.1685  -4.7617  -4.3136  -3.8441  -3.7075  -3.5100  -3.2080  -3.1427
    -2.7401  -2.6294  -2.2270  -2.1597  -1.6555  -1.0694  -0.5017  -0.0423
     0.7760   1.1932   1.7632   2.3340   2.6084   2.7234   2.9045   2.9877
     3.1086   3.2900   3.3030   3.5649   3.8868   4.0362   4.2583   4.6652
     4.7782   5.0880   5.4446   5.5015   5.8740   5.9748   6.1703   6.3154
     6.3592  13.5711  13.8279  14.1080  14.3612  14.5205  14.7370  14.8156
    15.1502  15.3047  15.6110

          k = 0.1111 0.1925 0.0000 ( 17961 PWs)   bands (ev):

   -11.3096 -11.1736 -10.9521 -10.6477 -10.2630  -9.8009  -9.2653  -8.6619
    -8.0000  -7.2968  -6.5910  -5.9849  -3.1638  -2.5619  -1.6889  -0.6744
     0.4137   1.5316   2.6226   3.3960   3.4121   3.4670   3.4948   3.5929
     3.7521   3.9985   4.1080   4.4170   4.5604   4.8918   4.9753   5.0761
     5.1637   5.3591   5.3960   5.6293   5.7588   6.0252   6.1333   6.3704
     6.5657   6.6277   6.6464   6.8291   7.0493   7.2389   7.5109   8.0027
     8.4091  12.3042  12.7679  14.8534  14.9917  15.0530  15.2825  15.3361
    15.5781  15.8870  16.2465

          k = 0.1111 0.3208 0.0000 ( 17910 PWs)   bands (ev):

   -10.1197  -9.9856  -9.7673  -9.4677  -9.0894  -8.6358  -8.1113  -7.5220
    -6.8778  -6.1964  -5.5165  -4.9363  -2.3059  -1.7606  -1.0038  -0.2369
     0.2374   0.5631   0.7994   0.9884   1.1188   1.3158   1.6735   1.7870
     2.0714   2.3448   2.5426   2.8200   3.0070   3.3234   3.4165   3.4695
     3.6204   3.9086   4.1916   4.3152   4.4657   4.5133   4.7037   4.8297
     5.1025   5.2596   5.6002   5.8341   5.9538   6.2535   6.7103   7.2188
     7.5552  13.4775  13.7568  14.4214  14.8195  15.2510  15.8023  16.0873
    16.1565  16.3076  16.5059

          k = 0.1111 0.4491 0.0000 ( 17954 PWs)   bands (ev):

    -8.3845  -8.2552  -8.0453  -7.7583  -7.3980  -6.9693  -6.4790  -5.9367
    -5.3563  -4.7581  -4.1719  -3.6557  -2.6344  -2.5774  -2.4516  -2.3516
    -2.1833  -1.8104  -1.3617  -0.8623  -0.3346   0.1358   0.3238   0.5832
     0.8279   1.0844   1.3304   1.9415   2.2379   2.3859   2.5966   2.6671
     2.8421   2.8797   3.1812   3.2488   3.5363   3.6066   3.9452   4.0791
     4.5528   4.5746   4.9981   5.2150   5.3571   5.5900   5.8050   6.2702
     6.5688  14.1231  14.4139  14.7719  15.1843  15.5105  15.8644  16.1085
    16.2722  16.4158  16.6781

          k = 0.1111-0.5774 0.0000 ( 17982 PWs)   bands (ev):

    -6.3504  -6.3464  -6.3188  -6.2757  -6.1695  -6.0053  -5.7804  -5.4947
    -5.1493  -4.7470  -4.2926  -3.8946  -3.7542  -3.6259  -3.2801  -3.2026
    -2.6991  -2.6600  -2.1380  -2.0575  -1.5782  -1.4987  -1.1184  -1.0819
     1.5693   1.6583   1.8363   1.8867   2.0248   2.0367   2.2694   2.4043
     2.5508   2.6968   2.8178   2.9508   3.0011   3.4007   3.4731   4.0070
     4.0073   4.5444   4.5962   5.0266   5.1232   5.3756   5.6114   5.8516
     5.9530  14.2292  14.5847  15.0425  15.4335  15.5229  15.7595  15.7878
    16.1049  16.3395  16.4765

          k = 0.2222 0.3849 0.0000 ( 17927 PWs)   bands (ev):

    -8.6665  -8.5358  -8.3233  -8.0322  -7.6658  -7.2280  -6.7242  -6.1618
    -5.5514  -4.9104  -4.2722  -3.7185  -2.1497  -1.7886  -1.4270  -1.1713
    -0.9737  -0.7676  -0.5247  -0.2398   0.0804   0.4037   0.5220   0.7495
     0.7606   1.0695   1.1799   1.3335   1.7380   1.7455   2.1126   2.3349
     2.5752   2.5790   2.9420   2.9900   3.1438   3.4680   3.4764   3.7003
     3.8497   3.8926   4.2151   4.4609   4.7991   5.3359   5.8834   6.3338
     6.6264  14.7618  14.8596  15.3792  15.4723  15.8061  15.9729  16.3568
    16.7314  17.0953  17.1925

          k = 0.2222-0.6415 0.0000 ( 17997 PWs)   bands (ev):

    -6.7427  -6.6246  -6.4353  -6.1815  -5.8735  -5.5278  -5.1690  -4.8212
    -4.4819  -4.1279  -3.7494  -3.2465  -3.1354  -2.9562  -2.7247  -2.4819
    -2.3518  -2.1280  -1.9652  -1.8265  -1.5083  -1.1372  -0.7689  -0.4611
     0.3562   0.5008   0.5624   0.7696   1.0402   1.1800   1.3260   1.5642
     1.6733   1.9155   2.1371   2.4222   2.6885   2.9281   3.2071   3.3287
     3.4490   3.6429   3.7226   4.1696   4.5585   4.7899   4.9275   5.2701
     5.5283  14.8349  15.1703  15.6292  15.9548  16.1110  16.4313  16.7249
    16.7867  17.0252  17.3348

          k = 0.3333-0.5774 0.0000 ( 18015 PWs)   bands (ev):

    -4.8537  -4.8534  -4.8534  -4.8094  -4.8083  -4.8083  -4.7633  -4.7619
    -4.7619  -4.6626  -4.6626  -3.3665  -3.3660  -2.4466  -2.4466  -2.4240
    -2.2325  -2.2325  -2.1730  -1.9529  -1.9529  -1.8940  -1.6694  -1.6694
    -0.0930  -0.0242  -0.0242   0.2099   0.3709   0.3709   0.6697   0.8420
     0.8420   1.1324   1.2211   1.2211   3.2194   3.3802   3.3802   3.3947
     3.7195   3.7195   3.8021   4.1010   4.1010   4.1731   4.3814   4.3814
     4.4069  15.5334  15.5334  15.6682  15.8628  15.8628  16.1334  16.4720
    16.4721  16.7868  17.2746

     the Fermi energy is    10.6280 ev

!    total energy              =    -444.79775325 Ry
     estimated scf accuracy    <          3.1E-09 Ry
     smearing contrib. (-TS)   =      -0.00000000 Ry
     internal energy E=F+TS    =    -444.79775325 Ry

     The total energy is F=E-TS. E is the sum of the following terms:
     one-electron contribution =   -3713.77496032 Ry
     hartree contribution      =    1917.35168878 Ry
     xc contribution           =    -113.81661720 Ry
     ewald contribution        =    1613.35120559 Ry
     one-center paw contrib.   =    -147.90907010 Ry

     convergence has been achieved in  13 iterations

     negative rho (up, down):  3.740E-08 0.000E+00

     Forces acting on atoms (cartesian axes, Ry/au):

     atom    1 type  1   force =     0.00000000    0.00000000   -0.05270184
     atom    2 type  1   force =     0.00000000    0.00000000    0.03238536
     atom    3 type  1   force =     0.00000000    0.00000000    0.00017067
     atom    4 type  1   force =     0.00000000    0.00000000    0.00078421
     atom    5 type  1   force =     0.00000000    0.00000000   -0.00009436
     atom    6 type  1   force =     0.00000000    0.00000000    0.00014152
     atom    7 type  1   force =     0.00000000   -0.00000000   -0.00003872
     atom    8 type  1   force =     0.00000000    0.00000000    0.00003475
     atom    9 type  1   force =     0.00000000    0.00000000   -0.00002208
     atom   10 type  1   force =     0.00000000    0.00000000    0.00001945
     atom   11 type  1   force =     0.00000000    0.00000000   -0.00000461
     atom   12 type  1   force =    -0.00000000    0.00000000    0.00002258
     atom   13 type  1   force =     0.00000000    0.00000000   -0.00002258
     atom   14 type  1   force =     0.00000000    0.00000000    0.00000461
     atom   15 type  1   force =    -0.00000000   -0.00000000   -0.00001945
     atom   16 type  1   force =     0.00000000    0.00000000    0.00002208
     atom   17 type  1   force =    -0.00000000    0.00000000   -0.00003475
     atom   18 type  1   force =    -0.00000000    0.00000000    0.00003872
     atom   19 type  1   force =    -0.00000000   -0.00000000   -0.00014152
     atom   20 type  1   force =     0.00000000    0.00000000    0.00009436
     atom   21 type  1   force =     0.00000000    0.00000000   -0.00078421
     atom   22 type  1   force =     0.00000000    0.00000000   -0.00017067
     atom   23 type  1   force =     0.00000000   -0.00000000   -0.03238536
     atom   24 type  1   force =    -0.00000000    0.00000000    0.05270184
     atom   25 type  2   force =    -0.00000000   -0.00000000    0.01929511
     atom   26 type  2   force =     0.00000000   -0.00000000   -0.01929511

     Total force =     0.091644     Total SCF correction =     0.000080

     BFGS Geometry Optimization
     Energy error            =      0.0E+00 Ry
     Gradient error          =      5.3E-02 Ry/Bohr

     number of scf cycles    =   1
     number of bfgs steps    =   0

     energy             new  =    -444.7977532465 Ry

     new trust radius        =       0.0527018375 bohr
     new conv_thr            =       0.0000000100 Ry


ATOMIC_POSITIONS (angstrom)
C                1.2632452000        0.7293349600       28.2694076586
C                2.5264904100        1.4586699200       27.7987161758
C                2.5264904100        1.4586699200       26.2345158034
C                0.0000000000        0.0000000000       25.7191227848
C                0.0000000000        0.0000000000       24.1715047793
C                1.2632452000        0.7293349600       23.6559119073
C                1.2632452000        0.7293349600       22.1086634401
C                2.5264904100        1.4586699200       21.5929846315
C                2.5264904100        1.4586699200       20.0458014640
C                0.0000000000        0.0000000000       19.5301057524
C                0.0000000000        0.0000000000       17.9829399318
C                1.2632452000        0.7293349600       17.4672366293
C                1.2632452000        0.7293349600       15.9200596407
C                2.5264904100        1.4586699200       15.4043563382
C                2.5264904100        1.4586699200       13.8571905176
C                0.0000000000        0.0000000000       13.3414948060
C               -0.0000000000        0.0000000000       11.7943116385
C                1.2632452000        0.7293349600       11.2786328299
C                1.2632452000        0.7293349600        9.7313843627
C                2.5264904100        1.4586699200        9.2157914907
C                2.5264904100        1.4586699200        7.6681734852
C               -0.0000000000        0.0000000000        7.1527804666
C                0.0000000000       -0.0000000000        5.5885800942
C                1.2632452000        0.7293349600        5.1178886114
H                1.2632452000        0.7293349600       29.3975068000
H                1.2632452000        0.7293349600        3.9897894700



     Writing config-only to output data dir /tmp/qe/slab.save/ :
     XML data file
     NEW-OLD atomic charge density approx. for the potential

     Check: negative core charge=   -0.000001

     negative rho (up, down):  3.252E-08 0.000E+00

     total cpu time spent up to now is       40.4 secs

     Self-consistent Calculation

     iteration #  1     ecut=    90.00 Ry     beta= 0.30
     Davidson diagonalization with overlap
     ethr =  1.00E-06,  avg # of iterations =  8.9

     negative rho (up, down):  1.931E-08 0.000E+00

     total cpu time spent up to now is       45.3 secs

     total energy              =    -444.79885460 Ry
     estimated scf accuracy    <       0.00125690 Ry

     iteration #  2     ecut=    90.00 Ry     beta= 0.30
     Davidson diagonalization with overlap
     ethr =  1.28E-06,  avg # of iterations =  2.0

     negative rho (up, down):  1.465E-08 0.000E+00

     total cpu time spent up to now is       47.6 secs

     total energy              =    -444.79880376 Ry
     estimated scf accuracy    <       0.00036504 Ry

     iteration #  3     ecut=    90.00 Ry     beta= 0.30
     Davidson diagonalization with overlap
     ethr =  3.72E-07,  avg # of iterations =  2.6

     negative rho (up, down):  1.789E-08 0.000E+00

     total cpu time spent up to now is       50.1 secs

     total energy              =    -444.79883212 Ry
     estimated scf accuracy    <       0.00004688 Ry

     iteration #  4     ecut=    90.00 Ry     beta= 0.30
     Davidson diagonalization with overlap
     ethr =  4.78E-08,  avg # of iterations =  2.0

     negative rho (up, down):  2.136E-08 0.000E+00

     total cpu time spent up to now is       52.4 secs

     total energy              =    -444.79883406 Ry
     estimated scf accuracy    <       0.00001113 Ry

     iteration #  5     ecut=    90.00 Ry     beta= 0.30
     Davidson diagonalization with overlap
     ethr =  1.14E-08,  avg # of iterations =  2.0

     negative rho (up, down):  2.259E-08 0.000E+00

     total cpu time spent up to now is       54.9 secs

     total energy              =    -444.79883579 Ry
     estimated scf accuracy    <       0.00000107 Ry

     iteration #  6     ecut=    90.00 Ry     beta= 0.30
     Davidson diagonalization with overlap
     ethr =  1.09E-09,  avg # of iterations =  2.1

     negative rho (up, down):  2.450E-08 0.000E+00

     total cpu time spent up to now is       57.3 secs

     total energy              =    -444.79883593 Ry
     estimated scf accuracy    <       0.00000034 Ry

     iteration #  7     ecut=    90.00 Ry     beta= 0.30
     Davidson diagonalization with overlap
     ethr =  3.43E-10,  avg # of iterations =  2.1

     negative rho (up, down):  2.638E-08 0.000E+00

     total cpu time spent up to now is       59.6 secs

     total energy              =    -444.79883598 Ry
     estimated scf accuracy    <       0.00000008 Ry

     iteration #  8     ecut=    90.00 Ry     beta= 0.30
     Davidson diagonalization with overlap
     ethr =  7.82E-11,  avg # of iterations =  2.1

     negative rho (up, down):  2.859E-08 0.000E+00

     total cpu time spent up to now is       62.2 secs

     End of self-consistent calculation

          k = 0.0000 0.0000 0.0000 ( 17885 PWs)   bands (ev):

   -12.2504 -12.1161 -11.8993 -11.6020 -11.2243 -10.7659 -10.2276  -9.6128
    -8.9301  -8.1978  -7.4593  -6.8271  -3.9721  -3.3144  -2.3943  -1.3307
    -0.1739   1.0515   2.3238   3.6150   4.8877   6.0981   6.3523   6.3523
     6.4370   6.4370   6.5704   6.5704   6.7489   6.7489   6.9716   6.9716
     7.1972   7.2376   7.2376   7.5436   7.5436   7.8804   7.8804   8.1396
     8.2309   8.2309   8.5677   8.5677   8.8350   8.8530   8.8530   9.0447
     9.0447  11.4980  12.0646  14.0395  14.7991  14.7991  14.8695  15.0673
    15.0674  15.4486  15.4486

          k = 0.0000 0.1283 0.0000 ( 17983 PWs)   bands (ev):

   -11.9480 -11.8141 -11.5979 -11.3016 -10.9252 -10.4686  -9.9325  -9.3206
    -8.6414  -7.9136  -7.1808  -6.5555  -3.6983  -3.0483  -2.1404  -1.0929
     0.0432   1.2416   2.4778   3.7185   4.8962   4.9098   4.9995   5.1568
     5.3622   5.6327   5.6986   5.7954   5.8319   5.9480   6.0706   6.1521
     6.3306   6.4053   6.5544   6.7047   6.9431   7.0442   7.1571   7.3184
     7.4119   7.5986   7.7878   7.7923   8.0423   8.1425   8.4379   8.5556
     8.6339  11.7794  12.2875  14.2679  14.4628  14.8327  15.2087  15.4001
    15.6549  15.6735  15.8823

          k = 0.0000 0.2566 0.0000 ( 17943 PWs)   bands (ev):

   -11.0469 -10.9142 -10.7001 -10.4069 -10.0349  -9.5841  -9.0554  -8.4527
    -7.7850  -7.0716  -6.3567  -5.7514  -2.9313  -2.3078  -1.4460  -0.4657
     0.5661   1.5195   1.9775   2.0855   2.1711   2.3834   2.6761   2.9818
     3.0474   3.4505   3.8894   4.0391   4.3480   4.5004   4.6072   4.7763
     4.7801   5.0032   5.0429   5.1597   5.2849   5.3767   5.6171   5.9918
     6.0004   6.3941   6.7828   6.8011   7.1805   7.3796   7.4926   7.6975
     7.7532  12.6230  12.9602  13.8174  14.1151  14.5760  14.9226  15.1785
    15.5608  15.7782  16.0528

          k = 0.0000 0.3849 0.0000 ( 17956 PWs)   bands (ev):

    -9.5701  -9.4401  -9.2306  -8.9444  -8.5822  -8.1445  -7.6329  -7.0520
    -6.4117  -5.7318  -5.0550  -4.4848  -2.2434  -1.8014  -1.5024  -1.3809
    -1.1243  -0.7568  -0.3300  -0.0931   0.1798   0.3270   0.8499   0.8815
     1.4558   1.6229   2.0561   2.3629   2.5329   3.0480   3.4949   3.6057
     3.6468   3.7816   4.0181   4.0830   4.3119   4.6585   4.6990   5.0489
     5.4096   5.4673   5.8894   6.0523   6.2814   6.5486   6.6027   6.8132
     6.8531  13.3582  13.5729  13.8708  14.0706  14.4264  14.6064  14.8865
    15.2471  15.6336  16.0757

          k = 0.0000 0.5132 0.0000 ( 17988 PWs)   bands (ev):

    -7.5986  -7.4790  -7.2888  -7.0344  -6.7235  -6.3689  -5.9922  -5.6159
    -5.2355  -4.8241  -4.3699  -3.8980  -3.7460  -3.5677  -3.2843  -3.1893
    -2.8382  -2.6652  -2.3203  -2.2045  -1.7402  -1.1331  -0.5460  -0.0774
     0.7571   1.2044   1.7937   2.3663   2.5846   2.7605   2.8745   2.9493
     3.0615   3.2399   3.3490   3.4798   3.7781   4.1025   4.1300   4.5263
     4.8454   4.9508   5.3786   5.4969   5.7756   5.9947   6.1007   6.2973
     6.3136  13.5359  13.7898  14.0601  14.3065  14.4934  14.6547  14.8015
    15.0464  15.3017  15.4930

          k = 0.1111 0.1925 0.0000 ( 17961 PWs)   bands (ev):

   -11.3462 -11.2131 -10.9983 -10.7040 -10.3304  -9.8776  -9.3463  -8.7403
    -8.0685  -7.3501  -6.6291  -6.0172  -3.1742  -2.5408  -1.6608  -0.6519
     0.4309   1.5520   2.6533   3.3601   3.3748   3.4244   3.4691   3.5749
     3.6625   3.9663   3.9799   4.4174   4.4216   4.7954   4.8968   5.0215
     5.1734   5.2867   5.3030   5.5591   5.6419   5.9534   6.1289   6.2332
     6.5154   6.5237   6.6445   6.7686   6.9676   7.1727   7.4761   7.9839
     8.3795  12.3681  12.7798  14.8169  14.9588  15.0298  15.2384  15.3062
    15.5504  15.8747  16.1966

          k = 0.1111 0.3208 0.0000 ( 17910 PWs)   bands (ev):

   -10.1563 -10.0250  -9.8134  -9.5239  -9.1571  -8.7131  -8.1932  -7.6015
    -6.9474  -6.2506  -5.5548  -4.9686  -2.3156  -1.7387  -0.9784  -0.2336
     0.2148   0.5408   0.7598   0.9364   1.0977   1.2437   1.5774   1.7581
     1.9906   2.2626   2.4892   2.7602   2.9318   3.2634   3.3733   3.4721
     3.5607   3.8141   4.1025   4.3075   4.3822   4.4603   4.6664   4.7061
     5.1182   5.1839   5.5258   5.8309   5.9192   6.2142   6.7167   7.2138
     7.5292  13.4885  13.7261  14.3897  14.7924  15.2288  15.7911  16.0512
    16.1128  16.2821  16.4850

          k = 0.1111 0.4491 0.0000 ( 17954 PWs)   bands (ev):

    -8.4209  -8.2942  -8.0907  -7.8137  -7.4648  -7.0459  -6.5605  -6.0161
    -5.4261  -4.8129  -4.2113  -3.6874  -2.6661  -2.6126  -2.5005  -2.3865
    -2.2509  -1.8899  -1.4452  -0.9407  -0.3988   0.1174   0.2604   0.5881
     0.7611   1.0631   1.3077   1.9425   2.2086   2.3363   2.5371   2.6634
     2.7807   2.8157   3.0821   3.2429   3.4938   3.5441   3.9058   4.0324
     4.4293   4.6246   4.9105   5.2395   5.3078   5.5512   5.8285   6.2680
     6.5433  14.0931  14.3929  14.7575  15.1419  15.4687  15.7903  16.0321
    16.2386  16.3411  16.6259

          k = 0.1111-0.5774 0.0000 ( 17982 PWs)   bands (ev):

    -6.3859  -6.3822  -6.3538  -6.3125  -6.2129  -6.0592  -5.8460  -5.5700
    -5.2293  -4.8262  -4.3693  -3.9537  -3.8194  -3.6935  -3.3496  -3.2745
    -2.7722  -2.7328  -2.1992  -2.1295  -1.6246  -1.5608  -1.1559  -1.1276
     1.5655   1.6367   1.8481   1.8579   1.9819   1.9970   2.2620   2.3892
     2.5071   2.6736   2.8261   2.8799   2.9540   3.3513   3.4222   3.8736
     4.0389   4.4249   4.6270   4.9419   5.1319   5.3464   5.6317   5.8399
     5.9186  14.2014  14.5737  15.0363  15.4006  15.4910  15.6856  15.7779
    16.0211  16.3274  16.3808

          k = 0.2222 0.3849 0.0000 ( 17927 PWs)   bands (ev):

    -8.7030  -8.5750  -8.3690  -8.0880  -7.7331  -7.3053  -6.8065  -6.2420
    -5.6218  -4.9652  -4.3104  -3.7497  -2.1712  -1.8051  -1.4562  -1.2115
    -1.0219  -0.8241  -0.5883  -0.3052   0.0232   0.3706   0.4769   0.6695
     0.7459   0.9742   1.1659   1.2736   1.6865   1.7126   2.0477   2.2301
     2.4977   2.5417   2.8138   2.9209   3.1498   3.3549   3.4149   3.7054
     3.7770   3.8567   4.2063   4.4719   4.8473   5.3814   5.9100   6.3349
     6.6019  14.7389  14.8211  15.3427  15.4454  15.7643  15.9575  16.3544
    16.7044  17.1149  17.2194

          k = 0.2222-0.6415 0.0000 ( 17997 PWs)   bands (ev):

    -6.7790  -6.6629  -6.4789  -6.2336  -5.9351  -5.5965  -5.2394  -4.8887
    -4.5453  -4.1865  -3.8018  -3.3152  -3.2019  -2.9951  -2.7705  -2.5456
    -2.3983  -2.2007  -2.0127  -1.9039  -1.5941  -1.2129  -0.8315  -0.5071
     0.3169   0.4602   0.5256   0.6914   0.9251   1.1360   1.2146   1.5234
     1.6353   1.8307   2.1476   2.3307   2.7053   2.8729   3.2045   3.3146
     3.4231   3.6167   3.7374   4.2104   4.6079   4.7813   4.9507   5.2727
     5.5043  14.8109  15.1763  15.6668  15.9146  16.1729  16.3593  16.7301
    16.7794  16.9295  17.2725

          k = 0.3333-0.5774 0.0000 ( 18015 PWs)   bands (ev):

    -4.8892  -4.8890  -4.8890  -4.8445  -4.8433  -4.8433  -4.7988  -4.7968
    -4.7968  -4.7322  -4.7322  -3.5341  -3.5337  -2.4878  -2.4878  -2.4605
    -2.2866  -2.2866  -2.2087  -2.0171  -2.0171  -1.9291  -1.7763  -1.7763
    -0.1165  -0.1119  -0.1119   0.2027   0.2502   0.2502   0.6635   0.7323
     0.7323   1.1115   1.1502   1.1502   3.2670   3.3605   3.3605   3.5099
     3.7121   3.7121   3.8887   4.0885   4.0885   4.2189   4.3540   4.3540
     4.3998  15.5709  15.5709  15.6341  15.9073  15.9073  16.0942  16.4791
    16.4791  16.7187  17.2473

     the Fermi energy is    10.5721 ev

!    total energy              =    -444.79883598 Ry
     estimated scf accuracy    <          5.7E-09 Ry
     smearing contrib. (-TS)   =      -0.00000000 Ry
     internal energy E=F+TS    =    -444.79883598 Ry

     The total energy is F=E-TS. E is the sum of the following terms:
     one-electron contribution =   -3716.97381032 Ry
     hartree contribution      =    1918.77862084 Ry
     xc contribution           =    -113.80003967 Ry
     ewald contribution        =    1615.10537121 Ry
     one-center paw contrib.   =    -147.90897803 Ry

     convergence has been achieved in   8 iterations

     negative rho (up, down):  2.859E-08 0.000E+00

     Forces acting on atoms (cartesian axes, Ry/au):

     atom    1 type  1   force =    -0.00000000   -0.00000000    0.03583784
     atom    2 type  1   force =     0.00000000    0.00000000   -0.02254417
     atom    3 type  1   force =     0.00000000    0.00000000    0.00175446
     atom    4 type  1   force =     0.00000000    0.00000000    0.00275881
     atom    5 type  1   force =     0.00000000   -0.00000000   -0.00011845
     atom    6 type  1   force =     0.00000000    0.00000000    0.00013656
     atom    7 type  1   force =     0.00000000    0.00000000    0.00001306
     atom    8 type  1   force =     0.00000000   -0.00000000    0.00000701
     atom    9 type  1   force =     0.00000000   -0.00000000    0.00000899
     atom   10 type  1   force =     0.00000000   -0.00000000   -0.00000354
     atom   11 type  1   force =    -0.00000000   -0.00000000    0.00001047
     atom   12 type  1   force =     0.00000000    0.00000000   -0.00000471
     atom   13 type  1   force =    -0.00000000   -0.00000000    0.00000471
     atom   14 type  1   force =     0.00000000    0.00000000   -0.00001047
     atom   15 type  1   force =     0.00000000    0.00000000    0.00000354
     atom   16 type  1   force =     0.00000000    0.00000000   -0.00000899
     atom   17 type  1   force =     0.00000000    0.00000000   -0.00000701
     atom   18 type  1   force =    -0.00000000    0.00000000   -0.00001306
     atom   19 type  1   force =     0.00000000    0.00000000   -0.00013656
     atom   20 type  1   force =     0.00000000    0.00000000    0.00011845
     atom   21 type  1   force =     0.00000000   -0.00000000   -0.00275881
     atom   22 type  1   force =     0.00000000   -0.00000000   -0.00175446
     atom   23 type  1   force =     0.00000000   -0.00000000    0.02254417
     atom   24 type  1   force =     0.00000000    0.00000000   -0.03583784
     atom   25 type  2   force =     0.00000000    0.00000000   -0.01786221
     atom   26 type  2   force =     0.00000000   -0.00000000    0.01786221

     Total force =     0.065152     Total SCF correction =     0.000116
     Energy error            =      1.1E-03 Ry
     Gradient error          =      3.6E-02 Ry/Bohr

     number of scf cycles    =   2
     number of bfgs steps    =   1

     energy             old  =    -444.7977532465 Ry
     energy             new  =    -444.7988359804 Ry

     CASE: energy            _new < energy            _old

     new trust radius        =       0.0208687534 bohr
     new conv_thr            =       0.0000000100 Ry


ATOMIC_POSITIONS (angstrom)
C                1.2632452000        0.7293349600       28.2804509273
C                2.5264904100        1.4586699200       27.7917681429
C                2.5264904100        1.4586699200       26.2350605503
C                0.0000000000        0.0000000000       25.7199801453
C                0.0000000000       -0.0000000000       24.1714678777
C                1.2632452000        0.7293349600       23.6559545014
C                1.2632452000        0.7293349600       22.1086674341
C                2.5264904100        1.4586699200       21.5929868593
C                2.5264904100        1.4586699200       20.0458042203
C                0.0000000000       -0.0000000000       19.5301046832
C               -0.0000000000       -0.0000000000       17.9829431755
C                1.2632452000        0.7293349600       17.4672352023
C                1.2632452000        0.7293349600       15.9200610677
C                2.5264904100        1.4586699200       15.4043530945
C                2.5264904100        1.4586699200       13.8571915868
C                0.0000000000        0.0000000000       13.3414920497
C               -0.0000000000        0.0000000000       11.7943094107
C                1.2632452000        0.7293349600       11.2786288359
C                1.2632452000        0.7293349600        9.7313417686
C                2.5264904100        1.4586699200        9.2158283923
C                2.5264904100        1.4586699200        7.6673161247
C                0.0000000000       -0.0000000000        7.1522357197
C                0.0000000000       -0.0000000000        5.5955281271
C                1.2632452000        0.7293349600        5.1068453427
H                1.2632452000        0.7293349600       29.3919922045
H                1.2632452000        0.7293349600        3.9953040655



     Writing config-only to output data dir /tmp/qe/slab.save/ :
     XML data file
     NEW-OLD atomic charge density approx. for the potential

     Check: negative core charge=   -0.000001

     negative rho (up, down):  2.544E-08 0.000E+00

     total cpu time spent up to now is       63.2 secs

     Self-consistent Calculation

     iteration #  1     ecut=    90.00 Ry     beta= 0.30
     Davidson diagonalization with overlap
     ethr =  1.00E-06,  avg # of iterations =  6.1

     negative rho (up, down):  3.151E-08 0.000E+00

     total cpu time spent up to now is       67.1 secs

     total energy              =    -444.80014196 Ry
     estimated scf accuracy    <       0.00023005 Ry

     iteration #  2     ecut=    90.00 Ry     beta= 0.30
     Davidson diagonalization with overlap
     ethr =  2.35E-07,  avg # of iterations =  1.7

     negative rho (up, down):  3.693E-08 0.000E+00

     total cpu time spent up to now is       69.3 secs

     total energy              =    -444.80013300 Ry
     estimated scf accuracy    <       0.00006701 Ry

     iteration #  3     ecut=    90.00 Ry     beta= 0.30
     Davidson diagonalization with overlap
     ethr =  6.84E-08,  avg # of iterations =  2.0

     negative rho (up, down):  3.511E-08 0.000E+00

     total cpu time spent up to now is       71.7 secs

     total energy              =    -444.80013923 Ry
     estimated scf accuracy    <       0.00000813 Ry

     iteration #  4     ecut=    90.00 Ry     beta= 0.30
     Davidson diagonalization with overlap
     ethr =  8.29E-09,  avg # of iterations =  1.5

     negative rho (up, down):  3.289E-08 0.000E+00

     total cpu time spent up to now is       73.9 secs

     total energy              =    -444.80013959 Ry
     estimated scf accuracy    <       0.00000164 Ry

     iteration #  5     ecut=    90.00 Ry     beta= 0.30
     Davidson diagonalization with overlap
     ethr =  1.68E-09,  avg # of iterations =  2.0

     negative rho (up, down):  3.140E-08 0.000E+00

     total cpu time spent up to now is       76.4 secs

     total energy              =    -444.80013984 Ry
     estimated scf accuracy    <       0.00000015 Ry

     iteration #  6     ecut=    90.00 Ry     beta= 0.30
     Davidson diagonalization with overlap
     ethr =  1.51E-10,  avg # of iterations =  2.2

     negative rho (up, down):  3.007E-08 0.000E+00

     total cpu time spent up to now is       78.8 secs

     total energy              =    -444.80013986 Ry
     estimated scf accuracy    <       0.00000005 Ry

     iteration #  7     ecut=    90.00 Ry     beta= 0.30
     Davidson diagonalization with overlap
     ethr =  5.39E-11,  avg # of iterations =  1.9

     negative rho (up, down):  2.863E-08 0.000E+00

     total cpu time spent up to now is       81.1 secs

     End of self-consistent calculation

          k = 0.0000 0.0000 0.0000 ( 17885 PWs)   bands (ev):

   -12.2328 -12.0972 -11.8781 -11.5780 -11.1968 -10.7348 -10.1940  -9.5798
    -8.9015  -8.1762  -7.4437  -6.8124  -3.9646  -3.3191  -2.4026  -1.3370
    -0.1772   1.0478   2.3138   3.5948   4.8598   6.0719   6.3703   6.3703
     6.4577   6.4577   6.5965   6.5965   6.7829   6.7829   7.0149   7.0149
     7.1848   7.2892   7.2892   7.6001   7.6001   7.9363   7.9363   8.1449
     8.2805   8.2805   8.6071   8.6071   8.8504   8.8813   8.8813   9.0649
     9.0649  11.4522  12.0406  14.0642  14.8148  14.8148  14.8877  15.0793
    15.0793  15.4565  15.4565

          k = 0.0000 0.1283 0.0000 ( 17983 PWs)   bands (ev):

   -11.9304 -11.7952 -11.5768 -11.2776 -10.8977 -10.4374  -9.8988  -9.2874
    -8.6127  -7.8919  -7.1652  -6.5408  -3.6909  -3.0535  -2.1496  -1.1002
     0.0390   1.2372   2.4675   3.6985   4.8791   4.9194   5.0202   5.1821
     5.3966   5.6733   5.7167   5.8166   5.8467   5.9751   6.1018   6.1874
     6.3537   6.4497   6.6009   6.7570   6.9906   7.1007   7.1472   7.3564
     7.4672   7.6231   7.8102   7.8362   8.0517   8.1805   8.4653   8.5700
     8.6537  11.7404  12.2711  14.2903  14.4793  14.8404  15.2253  15.4154
    15.6653  15.6844  15.8954

          k = 0.0000 0.2566 0.0000 ( 17943 PWs)   bands (ev):

   -11.0293 -10.8953 -10.6789 -10.3829 -10.0073  -9.5526  -9.0213  -8.4191
    -7.7559  -7.0496  -6.3409  -5.7367  -2.9243  -2.3145  -1.4575  -0.4756
     0.5604   1.5208   1.9952   2.0962   2.1910   2.4135   2.7114   2.9836
     3.0863   3.4985   3.9387   4.0216   4.3895   4.5186   4.6289   4.8044
     4.8126   5.0286   5.0397   5.1732   5.3304   5.3951   5.6702   5.9739
     6.0486   6.4491   6.7655   6.8487   7.2175   7.3771   7.5192   7.7171
     7.7646  12.6057  12.9665  13.8322  14.1291  14.5841  14.9485  15.1868
    15.5693  15.8056  16.0759

          k = 0.0000 0.3849 0.0000 ( 17956 PWs)   bands (ev):

    -9.5525  -9.4212  -9.2095  -8.9204  -8.5545  -8.1128  -7.5984  -7.0179
    -6.3822  -5.7095  -5.0392  -4.4702  -2.2339  -1.7969  -1.4867  -1.3641
    -1.1050  -0.7350  -0.3135  -0.0641   0.1767   0.3687   0.8635   0.9095
     1.4902   1.6296   2.0811   2.3715   2.5524   3.0527   3.5132   3.6278
     3.6464   3.8102   4.0552   4.0746   4.3581   4.6736   4.7121   5.1060
     5.3803   5.5223   5.9367   6.0294   6.3180   6.5408   6.6291   6.8328
     6.8624  13.3757  13.5901  13.8953  14.0796  14.4401  14.6254  14.9036
    15.2766  15.6691  16.1024

          k = 0.0000 0.5132 0.0000 ( 17988 PWs)   bands (ev):

    -7.5810  -7.4603  -7.2683  -7.0115  -6.6974  -6.3397  -5.9613  -5.5855
    -5.2067  -4.7980  -4.3467  -3.8750  -3.7280  -3.5419  -3.2513  -3.1693
    -2.7973  -2.6495  -2.2806  -2.1858  -1.7056  -1.1075  -0.5279  -0.0615
     0.7673   1.2014   1.7812   2.3527   2.5980   2.7465   2.8888   2.9676
     3.0837   3.2687   3.3266   3.5172   3.8246   4.0761   4.1839   4.5836
     4.8180   5.0058   5.4260   5.4760   5.8122   5.9880   6.1270   6.3069
     6.3331  13.5528  13.8082  14.0825  14.3314  14.5077  14.6898  14.8128
    15.0898  15.3089  15.5425

          k = 0.1111 0.1925 0.0000 ( 17961 PWs)   bands (ev):

   -11.3286 -11.1942 -10.9771 -10.6799 -10.3028  -9.8462  -9.3123  -8.7069
    -8.0396  -7.3282  -6.6134  -6.0024  -3.1671  -2.5470  -1.6716  -0.6612
     0.4251   1.5469   2.6451   3.3773   3.3927   3.4446   3.4859   3.5823
     3.7017   3.9823   4.0345   4.4184   4.4772   4.8395   4.9249   5.0499
     5.1743   5.3084   5.3444   5.5881   5.6918   5.9986   6.1168   6.2896
     6.5356   6.5664   6.6467   6.7903   6.9979   7.1979   7.4895   7.9934
     8.3942  12.3412  12.7758  14.8337  14.9743  15.0415  15.2567  15.3213
    15.5633  15.8815  16.2199

          k = 0.1111 0.3208 0.0000 ( 17910 PWs)   bands (ev):

   -10.1387 -10.0061  -9.7922  -9.4999  -9.1293  -8.6814  -8.1588  -7.5676
    -6.9180  -6.2284  -5.5390  -4.9539  -2.3086  -1.7449  -0.9878  -0.2343
     0.2259   0.5525   0.7783   0.9610   1.1080   1.2738   1.6185   1.7733
     2.0235   2.2980   2.5119   2.7835   2.9614   3.2890   3.3933   3.4734
     3.5869   3.8555   4.1457   4.3192   4.4107   4.4796   4.6838   4.7560
     5.1267   5.1983   5.5557   5.8362   5.9270   6.2289   6.7135   7.2172
     7.5421  13.4858  13.7416  14.4049  14.8056  15.2395  15.7989  16.0673
    16.1322  16.2942  16.4959

          k = 0.1111 0.4491 0.0000 ( 17954 PWs)   bands (ev):

    -8.4033  -8.2754  -8.0697  -7.7899  -7.4373  -7.0144  -6.5262  -5.9821
    -5.3966  -4.7903  -4.1950  -3.6730  -2.6505  -2.5958  -2.4782  -2.3698
    -2.2226  -1.8568  -1.4098  -0.9070  -0.3713   0.1264   0.2871   0.5867
     0.7886   1.0742   1.3155   1.9418   2.2227   2.3593   2.5662   2.6642
     2.8185   2.8335   3.1254   3.2470   3.5391   3.5447   3.9380   4.0370
     4.4780   4.6050   4.9451   5.2304   5.3242   5.5678   5.8177   6.2694
     6.5557  14.1082  14.4053  14.7682  15.1642  15.4898  15.8241  16.0653
    16.2556  16.3752  16.6485

          k = 0.1111-0.5774 0.0000 ( 17982 PWs)   bands (ev):

    -6.3687  -6.3648  -6.3363  -6.2942  -6.1933  -6.0363  -5.8186  -5.5384
    -5.1960  -4.7939  -4.3384  -3.9270  -3.7925  -3.6632  -3.3198  -3.2428
    -2.7415  -2.7016  -2.1749  -2.1000  -1.6064  -1.5358  -1.1395  -1.1077
     1.5696   1.6497   1.8503   1.8665   2.0069   2.0127   2.2707   2.3924
     2.5283   2.6854   2.8216   2.9140   2.9702   3.4002   3.4144   3.9265
     4.0269   4.4706   4.6155   4.9725   5.1309   5.3556   5.6239   5.8461
     5.9346  14.2158  14.5830  15.0448  15.4189  15.5066  15.7187  15.7859
    16.0597  16.3363  16.4248

          k = 0.2222 0.3849 0.0000 ( 17927 PWs)   bands (ev):

    -8.6854  -8.5561  -8.3479  -8.0640  -7.7054  -7.2735  -6.7719  -6.2078
    -5.5921  -4.9427  -4.2946  -3.7354  -2.1596  -1.7956  -1.4423  -1.1934
    -1.0005  -0.7990  -0.5599  -0.2758   0.0490   0.3862   0.4971   0.7021
     0.7540   1.0106   1.1752   1.2952   1.7096   1.7291   2.0744   2.2802
     2.5333   2.5529   2.8644   2.9498   3.1472   3.4007   3.4360   3.7061
     3.8061   3.8716   4.2127   4.4697   4.8277   5.3616   5.8985   6.3351
     6.6139  14.7529  14.8421  15.3609  15.4589  15.7862  15.9655  16.3629
    16.7182  17.1138  17.2101

          k = 0.2222-0.6415 0.0000 ( 17997 PWs)   bands (ev):

    -6.7614  -6.6443  -6.4585  -6.2109  -5.9094  -5.5678  -5.2092  -4.8590
    -4.5175  -4.1613  -3.7794  -3.2877  -3.1746  -2.9769  -2.7497  -2.5184
    -2.3765  -2.1710  -1.9902  -1.8725  -1.5588  -1.1824  -0.8060  -0.4869
     0.3355   0.4798   0.5432   0.7269   0.9755   1.1546   1.2602   1.5406
     1.6535   1.8631   2.1442   2.3663   2.6990   2.8945   3.2076   3.3186
     3.4359   3.6293   3.7309   4.1946   4.5880   4.7870   4.9389   5.2714
     5.5158  14.8242  15.1802  15.6598  15.9352  16.1506  16.3961  16.7533
    16.7651  16.9749  17.3014

          k = 0.3333-0.5774 0.0000 ( 18015 PWs)   bands (ev):

    -4.8720  -4.8715  -4.8715  -4.8273  -4.8251  -4.8251  -4.7815  -4.7785
    -4.7785  -4.7062  -4.7062  -3.4700  -3.4696  -2.4689  -2.4689  -2.4429
    -2.2632  -2.2632  -2.1911  -1.9891  -1.9891  -1.9119  -1.7342  -1.7342
    -0.1049  -0.0707  -0.0707   0.2060   0.3009   0.3009   0.6656   0.7745
     0.7745   1.1211   1.1778   1.1778   3.2517   3.3716   3.3716   3.4639
     3.7175   3.7175   3.8484   4.0951   4.0951   4.1950   4.3670   4.3670
     4.4018  15.5647  15.5647  15.6518  15.8908  15.8908  16.1176  16.4773
    16.4773  16.7576  17.2600

     the Fermi energy is    10.5981 ev

!    total energy              =    -444.80013986 Ry
     estimated scf accuracy    <          9.5E-09 Ry
     smearing contrib. (-TS)   =      -0.00000000 Ry
     internal energy E=F+TS    =    -444.80013986 Ry

     The total energy is F=E-TS. E is the sum of the following terms:
     one-electron contribution =   -3715.40925013 Ry
     hartree contribution      =    1918.07092531 Ry
     xc contribution           =    -113.80864292 Ry
     ewald contribution        =    1614.25582172 Ry
     one-center paw contrib.   =    -147.90899383 Ry

     convergence has been achieved in   7 iterations

     negative rho (up, down):  2.863E-08 0.000E+00

     Forces acting on atoms (cartesian axes, Ry/au):

     atom    1 type  1   force =     0.00000000    0.00000000    0.00073917
     atom    2 type  1   force =    -0.00000000   -0.00000000   -0.00064589
     atom    3 type  1   force =     0.00000000    0.00000000    0.00117677
     atom    4 type  1   force =     0.00000000    0.00000000    0.00059447
     atom    5 type  1   force =     0.00000000    0.00000000    0.00067418
     atom    6 type  1   force =     0.00000000    0.00000000    0.00017949
     atom    7 type  1   force =     0.00000000    0.00000000    0.00001704
     atom    8 type  1   force =     0.00000000    0.00000000    0.00001187
     atom    9 type  1   force =     0.00000000   -0.00000000    0.00000371
     atom   10 type  1   force =     0.00000000    0.00000000   -0.00000142
     atom   11 type  1   force =     0.00000000   -0.00000000    0.00000064
     atom   12 type  1   force =     0.00000000    0.00000000    0.00000057
     atom   13 type  1   force =     0.00000000    0.00000000   -0.00000057
     atom   14 type  1   force =     0.00000000   -0.00000000   -0.00000064
     atom   15 type  1   force =     0.00000000    0.00000000    0.00000142
     atom   16 type  1   force =     0.00000000    0.00000000   -0.00000371
     atom   17 type  1   force =     0.00000000   -0.00000000   -0.00001187
     atom   18 type  1   force =     0.00000000   -0.00000000   -0.00001704
     atom   19 type  1   force =     0.00000000    0.00000000   -0.00017949
     atom   20 type  1   force =     0.00000000    0.00000000   -0.00067418
     atom   21 type  1   force =     0.00000000    0.00000000   -0.00059447
     atom   22 type  1   force =     0.00000000    0.00000000   -0.00117677
     atom   23 type  1   force =     0.00000000    0.00000000    0.00064589
     atom   24 type  1   force =     0.00000000   -0.00000000   -0.00073917
     atom   25 type  2   force =     0.00000000    0.00000000   -0.00278975
     atom   26 type  2   force =     0.00000000    0.00000000    0.00278975

     Total force =     0.004684     Total SCF correction =     0.000091
     Energy error            =      1.3E-03 Ry
     Gradient error          =      2.8E-03 Ry/Bohr

     number of scf cycles    =   3
     number of bfgs steps    =   2

     energy             old  =    -444.7988359804 Ry
     energy             new  =    -444.8001398620 Ry

     CASE: energy            _new < energy            _old

     new trust radius        =       0.0026472426 bohr
     new conv_thr            =       0.0000000028 Ry


ATOMIC_POSITIONS (angstrom)
C                1.2632452000        0.7293349600       28.2805552538
C                2.5264904100        1.4586699200       27.7916014630
C                2.5264904100        1.4586699200       26.2357004541
C                0.0000000000        0.0000000000       25.7202913029
C                0.0000000000        0.0000000000       24.1718419975
C                1.2632452000        0.7293349600       23.6560531327
C                1.2632452000        0.7293349600       22.1086767370
C                2.5264904100        1.4586699200       21.5929934219
C                2.5264904100        1.4586699200       20.0458061863
C                0.0000000000       -0.0000000000       19.5301039429
C               -0.0000000000       -0.0000000000       17.9829434509
C                1.2632452000        0.7293349600       17.4672355781
C                1.2632452000        0.7293349600       15.9200606919
C                2.5264904100        1.4586699200       15.4043528191
C                2.5264904100        1.4586699200       13.8571923271
C                0.0000000000        0.0000000000       13.3414900837
C               -0.0000000000       -0.0000000000       11.7943028481
C                1.2632452000        0.7293349600       11.2786195330
C                1.2632452000        0.7293349600        9.7312431373
C                2.5264904100        1.4586699200        9.2154542725
C                2.5264904100        1.4586699200        7.6670049671
C                0.0000000000        0.0000000000        7.1515958159
C                0.0000000000        0.0000000000        5.5956948070
C                1.2632452000        0.7293349600        5.1067410162
H                1.2632452000        0.7293349600       29.3905913441
H                1.2632452000        0.7293349600        3.9967049259



     Writing config-only to output data dir /tmp/qe/slab.save/ :
     XML data file
     NEW-OLD atomic charge density approx. for the potential

     Check: negative core charge=   -0.000001

     negative rho (up, down):  2.999E-08 0.000E+00

     total cpu time spent up to now is       82.1 secs

     Self-consistent Calculation

     iteration #  1     ecut=    90.00 Ry     beta= 0.30
     Davidson diagonalization with overlap
     ethr =  1.00E-06,  avg # of iterations =  2.0

     Threshold (ethr) on eigenvalues was too large:
     Diagonalizing with lowered threshold

     Davidson diagonalization with overlap
     ethr =  2.87E-09,  avg # of iterations =  2.9

     negative rho (up, down):  3.054E-08 0.000E+00

     total cpu time spent up to now is       87.0 secs

     total energy              =    -444.80015408 Ry
     estimated scf accuracy    <       0.00000322 Ry

     iteration #  2     ecut=    90.00 Ry     beta= 0.30
     Davidson diagonalization with overlap
     ethr =  3.29E-09,  avg # of iterations =  1.7

     negative rho (up, down):  3.043E-08 0.000E+00

     total cpu time spent up to now is       89.2 secs

     total energy              =    -444.80015406 Ry
     estimated scf accuracy    <       0.00000076 Ry

     iteration #  3     ecut=    90.00 Ry     beta= 0.30
     Davidson diagonalization with overlap
     ethr =  7.79E-10,  avg # of iterations =  2.0

     negative rho (up, down):  3.036E-08 0.000E+00

     total cpu time spent up to now is       91.6 secs

     total energy              =    -444.80015410 Ry
     estimated scf accuracy    <       0.00000015 Ry

     iteration #  4     ecut=    90.00 Ry     beta= 0.30
     Davidson diagonalization with overlap
     ethr =  1.57E-10,  avg # of iterations =  2.0

     negative rho (up, down):  3.021E-08 0.000E+00

     total cpu time spent up to now is       93.9 secs

     total energy              =    -444.80015410 Ry
     estimated scf accuracy    <       0.00000004 Ry

     iteration #  5     ecut=    90.00 Ry     beta= 0.30
     Davidson diagonalization with overlap
     ethr =  4.23E-11,  avg # of iterations =  2.0

     negative rho (up, down):  3.015E-08 0.000E+00

     total cpu time spent up to now is       96.2 secs

     total energy              =    -444.80015411 Ry
     estimated scf accuracy    <          4.8E-09 Ry

     iteration #  6     ecut=    90.00 Ry     beta= 0.30
     Davidson diagonalization with overlap
     ethr =  4.86E-12,  avg # of iterations =  2.1

     negative rho (up, down):  3.009E-08 0.000E+00

     total cpu time spent up to now is       98.7 secs

     End of self-consistent calculation

          k = 0.0000 0.0000 0.0000 ( 17885 PWs)   bands (ev):

   -12.2310 -12.0950 -11.8766 -11.5773 -11.1963 -10.7340 -10.1931  -9.5787
    -8.9001  -8.1747  -7.4426  -6.8113  -3.9643  -3.3204  -2.4046  -1.3386
    -0.1779   1.0476   2.3137   3.5947   4.8596   6.0715   6.3721   6.3721
     6.4601   6.4601   6.5986   6.5986   6.7843   6.7843   7.0161   7.0161
     7.1842   7.2909   7.2909   7.6020   7.6020   7.9384   7.9384   8.1447
     8.2830   8.2830   8.6100   8.6100   8.8513   8.8843   8.8843   9.0669
     9.0669  11.4497  12.0395  14.0662  14.8161  14.8161  14.8894  15.0801
    15.0801  15.4566  15.4566

          k = 0.0000 0.1283 0.0000 ( 17983 PWs)   bands (ev):

   -11.9286 -11.7931 -11.5752 -11.2769 -10.8972 -10.4366  -9.8979  -9.2863
    -8.6113  -7.8904  -7.1641  -6.5397  -3.6906  -3.0549  -2.1516  -1.1019
     0.0382   1.2369   2.4673   3.6982   4.8789   4.9213   5.0225   5.1842
     5.3978   5.6745   5.7185   5.8190   5.8472   5.9772   6.1029   6.1888
     6.3549   6.4510   6.6026   6.7587   6.9928   7.1028   7.1468   7.3591
     7.4693   7.6254   7.8117   7.8387   8.0524   8.1835   8.4682   8.5709
     8.6557  11.7382  12.2704  14.2919  14.4807  14.8409  15.2269  15.4166
    15.6657  15.6850  15.8964

          k = 0.0000 0.2566 0.0000 ( 17943 PWs)   bands (ev):

   -11.0275 -10.8931 -10.6774 -10.3822 -10.0068  -9.5518  -9.0203  -8.4180
    -7.7545  -7.0481  -6.3397  -5.7356  -2.9241  -2.3160  -1.4598  -0.4775
     0.5594   1.5209   1.9973   2.0970   2.1930   2.4147   2.7123   2.9835
     3.0877   3.5002   3.9407   4.0212   4.3917   4.5205   4.6314   4.8065
     4.8151   5.0285   5.0410   5.1751   5.3317   5.3969   5.6719   5.9730
     6.0506   6.4512   6.7644   6.8513   7.2205   7.3767   7.5220   7.7191
     7.7654  12.6048  12.9671  13.8335  14.1304  14.5849  14.9503  15.1874
    15.5703  15.8073  16.0772

          k = 0.0000 0.3849 0.0000 ( 17956 PWs)   bands (ev):

    -9.5508  -9.4191  -9.2079  -8.9197  -8.5540  -8.1120  -7.5974  -7.0169
    -6.3808  -5.7081  -5.0380  -4.4691  -2.2334  -1.7971  -1.4854  -1.3633
    -1.1047  -0.7349  -0.3133  -0.0629   0.1762   0.3699   0.8632   0.9108
     1.4914   1.6300   2.0826   2.3722   2.5540   3.0532   3.5151   3.6303
     3.6465   3.8124   4.0565   4.0742   4.3593   4.6724   4.7138   5.1081
     5.3788   5.5245   5.9393   6.0279   6.3211   6.5401   6.6319   6.8347
     6.8630  13.3771  13.5916  13.8970  14.0807  14.4420  14.6272  14.9047
    15.2780  15.6708  16.1037

          k = 0.0000 0.5132 0.0000 ( 17988 PWs)   bands (ev):

    -7.5793  -7.4582  -7.2667  -7.0108  -6.6970  -6.3390  -5.9604  -5.5844
    -5.2054  -4.7968  -4.3458  -3.8745  -3.7263  -3.5400  -3.2507  -3.1675
    -2.7964  -2.6481  -2.2794  -2.1846  -1.7041  -1.1059  -0.5265  -0.0602
     0.7678   1.2004   1.7791   2.3509   2.5989   2.7448   2.8899   2.9695
     3.0862   3.2709   3.3247   3.5186   3.8259   4.0744   4.1856   4.5857
     4.8164   5.0080   5.4286   5.4746   5.8152   5.9873   6.1299   6.3076
     6.3350  13.5543  13.8103  14.0844  14.3329  14.5096  14.6911  14.8150
    15.0912  15.3109  15.5443

          k = 0.1111 0.1925 0.0000 ( 17961 PWs)   bands (ev):

   -11.3268 -11.1920 -10.9755 -10.6792 -10.3023  -9.8454  -9.3113  -8.7058
    -8.0382  -7.3267  -6.6122  -6.0013  -3.1669  -2.5485  -1.6738  -0.6631
     0.4241   1.5465   2.6449   3.3789   3.3949   3.4470   3.4868   3.5838
     3.7029   3.9835   4.0353   4.4193   4.4784   4.8410   4.9269   5.0516
     5.1747   5.3104   5.3464   5.5898   5.6937   6.0003   6.1169   6.2914
     6.5378   6.5686   6.6473   6.7923   6.9999   7.1999   7.4911   7.9942
     8.3953  12.3397  12.7759  14.8346  14.9756  15.0422  15.2588  15.3223
    15.5646  15.8818  16.2210

          k = 0.1111 0.3208 0.0000 ( 17910 PWs)   bands (ev):

   -10.1369 -10.0040  -9.7907  -9.4992  -9.1289  -8.6807  -8.1578  -7.5665
    -6.9166  -6.2269  -5.5378  -4.9528  -2.3084  -1.7463  -0.9899  -0.2355
     0.2265   0.5537   0.7802   0.9621   1.1083   1.2748   1.6198   1.7738
     2.0248   2.2994   2.5130   2.7849   2.9630   3.2905   3.3952   3.4737
     3.5892   3.8574   4.1470   4.3191   4.4118   4.4816   4.6855   4.7576
     5.1266   5.1999   5.5579   5.8373   5.9279   6.2303   6.7136   7.2175
     7.5430  13.4859  13.7429  14.4061  14.8069  15.2406  15.7996  16.0683
    16.1337  16.2955  16.4967

          k = 0.1111 0.4491 0.0000 ( 17954 PWs)   bands (ev):

    -8.4016  -8.2733  -8.0682  -7.7892  -7.4369  -7.0137  -6.5253  -5.9811
    -5.3952  -4.7889  -4.1938  -3.6720  -2.6496  -2.5941  -2.4764  -2.3682
    -2.2223  -1.8564  -1.4091  -0.9062  -0.3702   0.1269   0.2887   0.5864
     0.7902   1.0750   1.3151   1.9411   2.2240   2.3616   2.5680   2.6640
     2.8199   2.8345   3.1264   3.2472   3.5403   3.5450   3.9384   4.0375
     4.4801   4.6041   4.9475   5.2299   5.3262   5.5696   5.8170   6.2695
     6.5567  14.1095  14.4067  14.7698  15.1663  15.4918  15.8263  16.0672
    16.2577  16.3776  16.6500

          k = 0.1111-0.5774 0.0000 ( 17982 PWs)   bands (ev):

    -6.3668  -6.3633  -6.3340  -6.2923  -6.1923  -6.0358  -5.8182  -5.5380
    -5.1954  -4.7932  -4.3378  -3.9256  -3.7919  -3.6611  -3.3194  -3.2408
    -2.7397  -2.7007  -2.1732  -2.0987  -1.6048  -1.5342  -1.1380  -1.1063
     1.5694   1.6507   1.8487   1.8684   2.0087   2.0139   2.2690   2.3928
     2.5290   2.6858   2.8204   2.9152   2.9708   3.4017   3.4136   3.9285
     4.0261   4.4730   4.6147   4.9753   5.1306   5.3576   5.6235   5.8463
     5.9358  14.2169  14.5843  15.0471  15.4215  15.5082  15.7207  15.7877
    16.0611  16.3375  16.4266

          k = 0.2222 0.3849 0.0000 ( 17927 PWs)   bands (ev):

    -8.6837  -8.5540  -8.3464  -8.0634  -7.7050  -7.2728  -6.7710  -6.2067
    -5.5907  -4.9413  -4.2935  -3.7344  -2.1589  -1.7953  -1.4419  -1.1928
    -0.9996  -0.7979  -0.5587  -0.2747   0.0501   0.3870   0.4984   0.7034
     0.7545   1.0119   1.1759   1.2961   1.7111   1.7295   2.0752   2.2811
     2.5347   2.5529   2.8663   2.9516   3.1470   3.4033   3.4380   3.7064
     3.8082   3.8732   4.2135   4.4698   4.8268   5.3605   5.8978   6.3352
     6.6148  14.7543  14.8438  15.3622  15.4600  15.7879  15.9663  16.3643
    16.7199  17.1151  17.2098

          k = 0.2222-0.6415 0.0000 ( 17997 PWs)   bands (ev):

    -6.7597  -6.6422  -6.4570  -6.2103  -5.9090  -5.5671  -5.2083  -4.8579
    -4.5161  -4.1598  -3.7783  -3.2883  -3.1750  -2.9752  -2.7475  -2.5169
    -2.3748  -2.1696  -1.9887  -1.8711  -1.5573  -1.1807  -0.8043  -0.4853
     0.3374   0.4816   0.5449   0.7282   0.9765   1.1561   1.2608   1.5419
     1.6537   1.8645   2.1435   2.3677   2.6982   2.8955   3.2076   3.3188
     3.4366   3.6303   3.7301   4.1936   4.5869   4.7874   4.9379   5.2713
     5.5167  14.8252  15.1812  15.6607  15.9367  16.1503  16.3988  16.7542
    16.7660  16.9787  17.3038

          k = 0.3333-0.5774 0.0000 ( 18015 PWs)   bands (ev):

    -4.8699  -4.8699  -4.8699  -4.8244  -4.8232  -4.8232  -4.7793  -4.7765
    -4.7765  -4.7078  -4.7078  -3.4728  -3.4723  -2.4672  -2.4672  -2.4412
    -2.2611  -2.2611  -2.1891  -1.9872  -1.9872  -1.9101  -1.7321  -1.7321
    -0.1034  -0.0693  -0.0693   0.2072   0.3027   0.3027   0.6664   0.7765
     0.7765   1.1220   1.1794   1.1794   3.2499   3.3721   3.3721   3.4595
     3.7173   3.7173   3.8455   4.0950   4.0950   4.1941   4.3679   4.3679
     4.4026  15.5651  15.5651  15.6528  15.8910  15.8910  16.1185  16.4784
    16.4784  16.7601  17.2619

     the Fermi energy is    10.6004 ev

!    total energy              =    -444.80015411 Ry
     estimated scf accuracy    <          9.3E-10 Ry
     smearing contrib. (-TS)   =      -0.00000000 Ry
     internal energy E=F+TS    =    -444.80015411 Ry

     The total energy is F=E-TS. E is the sum of the following terms:
     one-electron contribution =   -3715.14419493 Ry
     hartree contribution      =    1917.94368071 Ry
     xc contribution           =    -113.81062787 Ry
     ewald contribution        =    1614.12001158 Ry
     one-center paw contrib.   =    -147.90902360 Ry

     convergence has been achieved in   6 iterations

     negative rho (up, down):  3.009E-08 0.000E+00

     Forces acting on atoms (cartesian axes, Ry/au):

     atom    1 type  1   force =     0.00000000    0.00000000   -0.00086357
     atom    2 type  1   force =    -0.00000000    0.00000000   -0.00012057
     atom    3 type  1   force =     0.00000000   -0.00000000    0.00035790
     atom    4 type  1   force =     0.00000000    0.00000000    0.00077567
     atom    5 type  1   force =     0.00000000    0.00000000    0.00036654
     atom    6 type  1   force =     0.00000000    0.00000000    0.00043523
     atom    7 type  1   force =     0.00000000   -0.00000000    0.00012849
     atom    8 type  1   force =     0.00000000    0.00000000    0.00003992
     atom    9 type  1   force =     0.00000000    0.00000000    0.00000478
     atom   10 type  1   force =     0.00000000    0.00000000    0.00000658
     atom   11 type  1   force =    -0.00000000    0.00000000    0.00000206
     atom   12 type  1   force =     0.00000000   -0.00000000    0.00000030
     atom   13 type  1   force =     0.00000000   -0.00000000   -0.00000030
     atom   14 type  1   force =     0.00000000    0.00000000   -0.00000206
     atom   15 type  1   force =     0.00000000    0.00000000   -0.00000658
     atom   16 type  1   force =     0.00000000    0.00000000   -0.00000478
     atom   17 type  1   force =    -0.00000000    0.00000000   -0.00003992
     atom   18 type  1   force =     0.00000000   -0.00000000   -0.00012849
     atom   19 type  1   force =     0.00000000   -0.00000000   -0.00043523
     atom   20 type  1   force =     0.00000000    0.00000000   -0.00036654
     atom   21 type  1   force =     0.00000000    0.00000000   -0.00077567
     atom   22 type  1   force =     0.00000000    0.00000000   -0.00035790
     atom   23 type  1   force =     0.00000000    0.00000000    0.00012057
     atom   24 type  1   force =     0.00000000   -0.00000000    0.00086357
     atom   25 type  2   force =     0.00000000    0.00000000   -0.00116230
     atom   26 type  2   force =     0.00000000    0.00000000    0.00116230

     Total force =     0.002523     Total SCF correction =     0.000040
     Energy error            =      1.4E-05 Ry
     Gradient error          =      1.2E-03 Ry/Bohr

     number of scf cycles    =   4
     number of bfgs steps    =   3

     energy             old  =    -444.8001398620 Ry
     energy             new  =    -444.8001541081 Ry

     CASE: energy            _new < energy            _old

     new trust radius        =       0.0032038401 bohr
     new conv_thr            =       0.0000000001 Ry


ATOMIC_POSITIONS (angstrom)
C                1.2632452000        0.7293349600       28.2799085848
C                2.5264904100        1.4586699200       27.7913626508
C                2.5264904100        1.4586699200       26.2363006443
C                0.0000000000        0.0000000000       25.7211383577
C                0.0000000000        0.0000000000       24.1723304035
C                1.2632452000        0.7293349600       23.6564901262
C                1.2632452000        0.7293349600       22.1087972508
C                2.5264904100        1.4586699200       21.5930324649
C                2.5264904100        1.4586699200       20.0458113554
C                0.0000000000       -0.0000000000       19.5301096162
C               -0.0000000000       -0.0000000000       17.9829454733
C                1.2632452000        0.7293349600       17.4672360146
C                1.2632452000        0.7293349600       15.9200602554
C                2.5264904100        1.4586699200       15.4043507967
C                2.5264904100        1.4586699200       13.8571866538
C                0.0000000000        0.0000000000       13.3414849146
C               -0.0000000000       -0.0000000000       11.7942638051
C                1.2632452000        0.7293349600       11.2784990192
C                1.2632452000        0.7293349600        9.7308061438
C                2.5264904100        1.4586699200        9.2149658665
C                2.5264904100        1.4586699200        7.6661579123
C                0.0000000000        0.0000000000        7.1509956257
C                0.0000000000        0.0000000000        5.5959336192
C                1.2632452000        0.7293349600        5.1073876852
H                1.2632452000        0.7293349600       29.3888959449
H                1.2632452000        0.7293349600        3.9984003251



     Writing config-only to output data dir /tmp/qe/slab.save/ :
     XML data file
     NEW-OLD atomic charge density approx. for the potential

     Check: negative core charge=   -0.000001

     negative rho (up, down):  3.244E-08 0.000E+00

     total cpu time spent up to now is       99.8 secs

     Self-consistent Calculation

     iteration #  1     ecut=    90.00 Ry     beta= 0.30
     Davidson diagonalization with overlap
     ethr =  1.00E-06,  avg # of iterations =  2.0

     Threshold (ethr) on eigenvalues was too large:
     Diagonalizing with lowered threshold

     Davidson diagonalization with overlap
     ethr =  3.32E-09,  avg # of iterations =  3.8

     negative rho (up, down):  3.276E-08 0.000E+00

     total cpu time spent up to now is      105.0 secs

     total energy              =    -444.80016322 Ry
     estimated scf accuracy    <       0.00000397 Ry

     iteration #  2     ecut=    90.00 Ry     beta= 0.30
     Davidson diagonalization with overlap
     ethr =  4.05E-09,  avg # of iterations =  1.9

     negative rho (up, down):  3.246E-08 0.000E+00

     total cpu time spent up to now is      107.2 secs

     total energy              =    -444.80016333 Ry
     estimated scf accuracy    <       0.00000091 Ry

     iteration #  3     ecut=    90.00 Ry     beta= 0.30
     Davidson diagonalization with overlap
     ethr =  9.26E-10,  avg # of iterations =  2.0

     negative rho (up, down):  3.232E-08 0.000E+00

     total cpu time spent up to now is      109.6 secs

     total energy              =    -444.80016336 Ry
     estimated scf accuracy    <       0.00000023 Ry

     iteration #  4     ecut=    90.00 Ry     beta= 0.30
     Davidson diagonalization with overlap
     ethr =  2.34E-10,  avg # of iterations =  2.0

     negative rho (up, down):  3.220E-08 0.000E+00

     total cpu time spent up to now is      111.9 secs

     total energy              =    -444.80016337 Ry
     estimated scf accuracy    <       0.00000005 Ry

     iteration #  5     ecut=    90.00 Ry     beta= 0.30
     Davidson diagonalization with overlap
     ethr =  5.54E-11,  avg # of iterations =  2.0

     negative rho (up, down):  3.219E-08 0.000E+00

     total cpu time spent up to now is      114.2 secs

     total energy              =    -444.80016337 Ry
     estimated scf accuracy    <          6.8E-09 Ry

     iteration #  6     ecut=    90.00 Ry     beta= 0.30
     Davidson diagonalization with overlap
     ethr =  6.91E-12,  avg # of iterations =  2.2

     negative rho (up, down):  3.222E-08 0.000E+00

     total cpu time spent up to now is      116.7 secs

     total energy              =    -444.80016338 Ry
     estimated scf accuracy    <          1.3E-09 Ry

     iteration #  7     ecut=    90.00 Ry     beta= 0.30
     Davidson diagonalization with overlap
     ethr =  1.32E-12,  avg # of iterations =  2.4

     negative rho (up, down):  3.226E-08 0.000E+00

     total cpu time spent up to now is      119.2 secs

     total energy              =    -444.80016338 Ry
     estimated scf accuracy    <          3.4E-10 Ry

     iteration #  8     ecut=    90.00 Ry     beta= 0.30
     Davidson diagonalization with overlap
     ethr =  3.45E-13,  avg # of iterations =  1.8

     negative rho (up, down):  3.231E-08 0.000E+00

     total cpu time spent up to now is      121.5 secs

     End of self-consistent calculation

          k = 0.0000 0.0000 0.0000 ( 17885 PWs)   bands (ev):

   -12.2293 -12.0935 -11.8766 -11.5786 -11.1975 -10.7347 -10.1933  -9.5783
    -8.8993  -8.1742  -7.4425  -6.8108  -3.9636  -3.3212  -2.4065  -1.3399
    -0.1775   1.0488   2.3151   3.5961   4.8608   6.0728   6.3737   6.3737
     6.4616   6.4616   6.5986   6.5986   6.7832   6.7832   7.0151   7.0152
     7.1863   7.2904   7.2904   7.6019   7.6019   7.9386   7.9386   8.1472
     8.2831   8.2831   8.6100   8.6100   8.8530   8.8846   8.8846   9.0678
     9.0678  11.4490  12.0396  14.0675  14.8176  14.8176  14.8896  15.0815
    15.0815  15.4571  15.4571

          k = 0.0000 0.1283 0.0000 ( 17983 PWs)   bands (ev):

   -11.9270 -11.7915 -11.5752 -11.2782 -10.8984 -10.4373  -9.8981  -9.2859
    -8.6105  -7.8899  -7.1640  -6.5392  -3.6899  -3.0556  -2.1536  -1.1032
     0.0385   1.2381   2.4687   3.6995   4.8796   4.9229   5.0239   5.1842
     5.3965   5.6737   5.7201   5.8205   5.8474   5.9771   6.1028   6.1875
     6.3554   6.4500   6.6031   6.7582   6.9931   7.1026   7.1486   7.3592
     7.4696   7.6260   7.8127   7.8390   8.0542   8.1836   8.4686   8.5725
     8.6566  11.7376  12.2705  14.2929  14.4818  14.8412  15.2274  15.4181
    15.6658  15.6865  15.8971

          k = 0.0000 0.2566 0.0000 ( 17943 PWs)   bands (ev):

   -11.0258 -10.8915 -10.6774 -10.3834 -10.0080  -9.5525  -9.0206  -8.4176
    -7.7537  -7.0477  -6.3397  -5.7350  -2.9234  -2.3167  -1.4619  -0.4790
     0.5596   1.5221   1.9988   2.0979   2.1935   2.4134   2.7116   2.9840
     3.0873   3.5002   3.9411   4.0221   4.3922   4.5221   4.6328   4.8062
     4.8154   5.0293   5.0397   5.1754   5.3306   5.3979   5.6714   5.9735
     6.0505   6.4516   6.7655   6.8516   7.2206   7.3784   7.5224   7.7200
     7.7669  12.6048  12.9678  13.8345  14.1313  14.5850  14.9510  15.1877
    15.5707  15.8077  16.0775

          k = 0.0000 0.3849 0.0000 ( 17956 PWs)   bands (ev):

    -9.5491  -9.4175  -9.2080  -8.9210  -8.5552  -8.1127  -7.5977  -7.0165
    -6.3800  -5.7077  -5.0380  -4.4685  -2.2325  -1.7973  -1.4846  -1.3636
    -1.1058  -0.7359  -0.3138  -0.0626   0.1756   0.3698   0.8624   0.9111
     1.4915   1.6300   2.0829   2.3726   2.5547   3.0541   3.5167   3.6316
     3.6474   3.8120   4.0552   4.0750   4.3583   4.6726   4.7133   5.1080
     5.3787   5.5248   5.9397   6.0283   6.3212   6.5413   6.6323   6.8356
     6.8644  13.3782  13.5925  13.8980  14.0821  14.4437  14.6277  14.9047
    15.2777  15.6711  16.1044

          k = 0.0000 0.5132 0.0000 ( 17988 PWs)   bands (ev):

    -7.5776  -7.4566  -7.2667  -7.0120  -6.6981  -6.3396  -5.9606  -5.5841
    -5.2049  -4.7966  -4.3464  -3.8754  -3.7247  -3.5394  -3.2515  -3.1672
    -2.7971  -2.6482  -2.2792  -2.1842  -1.7037  -1.1058  -0.5265  -0.0595
     0.7687   1.1998   1.7773   2.3497   2.6002   2.7445   2.8910   2.9711
     3.0876   3.2705   3.3243   3.5172   3.8248   4.0741   4.1851   4.5856
     4.8161   5.0084   5.4289   5.4749   5.8154   5.9884   6.1302   6.3089
     6.3359  13.5556  13.8116  14.0851  14.3329  14.5116  14.6901  14.8177
    15.0903  15.3137  15.5442

          k = 0.1111 0.1925 0.0000 ( 17961 PWs)   bands (ev):

   -11.3251 -11.1904 -10.9756 -10.6805 -10.3035  -9.8461  -9.3116  -8.7054
    -8.0374  -7.3263  -6.6122  -6.0008  -3.1661  -2.5492  -1.6759  -0.6645
     0.4243   1.5476   2.6461   3.3805   3.3967   3.4480   3.4861   3.5853
     3.7013   3.9843   4.0333   4.4203   4.4771   4.8399   4.9281   5.0519
     5.1756   5.3106   5.3462   5.5906   5.6934   6.0005   6.1171   6.2915
     6.5386   6.5689   6.6480   6.7929   7.0005   7.2006   7.4920   7.9957
     8.3966  12.3395  12.7763  14.8353  14.9766  15.0430  15.2596  15.3235
    15.5651  15.8822  16.2218

          k = 0.1111 0.3208 0.0000 ( 17910 PWs)   bands (ev):

   -10.1352 -10.0024  -9.7907  -9.5005  -9.1301  -8.6814  -8.1581  -7.5661
    -6.9159  -6.2265  -5.5378  -4.9522  -2.3076  -1.7470  -0.9920  -0.2368
     0.2272   0.5546   0.7807   0.9616   1.1084   1.2739   1.6194   1.7741
     2.0250   2.2997   2.5132   2.7852   2.9627   3.2908   3.3968   3.4744
     3.5902   3.8566   4.1463   4.3193   4.4114   4.4824   4.6864   4.7578
     5.1265   5.2006   5.5581   5.8379   5.9282   6.2310   6.7144   7.2187
     7.5443  13.4865  13.7440  14.4072  14.8080  15.2413  15.8000  16.0689
    16.1349  16.2963  16.4975

          k = 0.1111 0.4491 0.0000 ( 17954 PWs)   bands (ev):

    -8.3999  -8.2717  -8.0682  -7.7905  -7.4381  -7.0144  -6.5255  -5.9807
    -5.3945  -4.7885  -4.1939  -3.6717  -2.6494  -2.5923  -2.4762  -2.3674
    -2.2241  -1.8576  -1.4097  -0.9062  -0.3701   0.1265   0.2899   0.5856
     0.7909   1.0754   1.3142   1.9404   2.2250   2.3626   2.5671   2.6641
     2.8190   2.8349   3.1256   3.2478   3.5408   3.5449   3.9386   4.0375
     4.4804   4.6041   4.9477   5.2300   5.3266   5.5705   5.8174   6.2704
     6.5578  14.1106  14.4083  14.7716  15.1681  15.4933  15.8270  16.0677
    16.2594  16.3783  16.6500

          k = 0.1111-0.5774 0.0000 ( 17982 PWs)   bands (ev):

    -6.3646  -6.3620  -6.3315  -6.2915  -6.1931  -6.0372  -5.8197  -5.5392
    -5.1961  -4.7938  -4.3389  -3.9253  -3.7921  -3.6604  -3.3195  -3.2404
    -2.7394  -2.7005  -2.1730  -2.0987  -1.6047  -1.5341  -1.1374  -1.1054
     1.5695   1.6521   1.8476   1.8699   2.0086   2.0143   2.2670   2.3928
     2.5282   2.6859   2.8198   2.9149   2.9707   3.4011   3.4135   3.9285
     4.0260   4.4733   4.6148   4.9754   5.1312   5.3579   5.6242   5.8474
     5.9370  14.2180  14.5864  15.0503  15.4230  15.5099  15.7195  15.7902
    16.0602  16.3385  16.4263

          k = 0.2222 0.3849 0.0000 ( 17927 PWs)   bands (ev):

    -8.6820  -8.5524  -8.3464  -8.0647  -7.7062  -7.2735  -6.7712  -6.2063
    -5.5900  -4.9409  -4.2935  -3.7339  -2.1580  -1.7953  -1.4428  -1.1934
    -0.9996  -0.7977  -0.5586  -0.2747   0.0497   0.3860   0.4994   0.7039
     0.7539   1.0117   1.1762   1.2955   1.7120   1.7285   2.0751   2.2799
     2.5354   2.5526   2.8661   2.9519   3.1471   3.4036   3.4381   3.7068
     3.8091   3.8740   4.2145   4.4706   4.8269   5.3604   5.8981   6.3361
     6.6160  14.7559  14.8456  15.3633  15.4608  15.7899  15.9670  16.3670
    16.7213  17.1173  17.2102

          k = 0.2222-0.6415 0.0000 ( 17997 PWs)   bands (ev):

    -6.7580  -6.6406  -6.4569  -6.2114  -5.9101  -5.5678  -5.2084  -4.8575
    -4.5153  -4.1590  -3.7781  -3.2911  -3.1773  -2.9736  -2.7461  -2.5171
    -2.3740  -2.1702  -1.9881  -1.8709  -1.5569  -1.1806  -0.8043  -0.4847
     0.3386   0.4820   0.5461   0.7270   0.9752   1.1568   1.2593   1.5423
     1.6535   1.8651   2.1425   2.3681   2.6972   2.8953   3.2078   3.3184
     3.4378   3.6313   3.7301   4.1934   4.5865   4.7882   4.9380   5.2720
     5.5178  14.8264  15.1833  15.6634  15.9383  16.1509  16.4017  16.7555
    16.7676  16.9823  17.3053

          k = 0.3333-0.5774 0.0000 ( 18015 PWs)   bands (ev):

    -4.8684  -4.8684  -4.8675  -4.8216  -4.8216  -4.8207  -4.7768  -4.7751
    -4.7751  -4.7135  -4.7135  -3.4790  -3.4786  -2.4660  -2.4660  -2.4398
    -2.2605  -2.2605  -2.1875  -1.9872  -1.9872  -1.9087  -1.7317  -1.7317
    -0.1030  -0.0688  -0.0688   0.2062   0.3027   0.3027   0.6649   0.7767
     0.7767   1.1220   1.1803   1.1803   3.2493   3.3729   3.3729   3.4570
     3.7175   3.7175   3.8438   4.0953   4.0953   4.1943   4.3687   4.3687
     4.4037  15.5658  15.5658  15.6536  15.8929  15.8929  16.1205  16.4813
    16.4813  16.7645  17.2641

     the Fermi energy is    10.6020 ev

!    total energy              =    -444.80016338 Ry
     estimated scf accuracy    <          7.1E-11 Ry
     smearing contrib. (-TS)   =      -0.00000000 Ry
     internal energy E=F+TS    =    -444.80016338 Ry

     The total energy is F=E-TS. E is the sum of the following terms:
     one-electron contribution =   -3714.94395443 Ry
     hartree contribution      =    1917.84588628 Ry
     xc contribution           =    -113.81305054 Ry
     ewald contribution        =    1614.02002317 Ry
     one-center paw contrib.   =    -147.90906785 Ry

     convergence has been achieved in   8 iterations

     negative rho (up, down):  3.231E-08 0.000E+00

     Forces acting on atoms (cartesian axes, Ry/au):

     atom    1 type  1   force =    -0.00000000    0.00000000   -0.00118867
     atom    2 type  1   force =     0.00000000   -0.00000000   -0.00012403
     atom    3 type  1   force =     0.00000000    0.00000000   -0.00005556
     atom    4 type  1   force =     0.00000000   -0.00000000    0.00001416
     atom    5 type  1   force =     0.00000000   -0.00000000    0.00042987
     atom    6 type  1   force =     0.00000000    0.00000000    0.00034298
     atom    7 type  1   force =     0.00000000    0.00000000    0.00024402
     atom    8 type  1   force =     0.00000000    0.00000000    0.00019322
     atom    9 type  1   force =     0.00000000    0.00000000    0.00003929
     atom   10 type  1   force =    -0.00000000    0.00000000    0.00001500
     atom   11 type  1   force =    -0.00000000    0.00000000    0.00000195
     atom   12 type  1   force =     0.00000000   -0.00000000    0.00000223
     atom   13 type  1   force =    -0.00000000   -0.00000000   -0.00000223
     atom   14 type  1   force =     0.00000000   -0.00000000   -0.00000195
     atom   15 type  1   force =     0.00000000   -0.00000000   -0.00001500
     atom   16 type  1   force =     0.00000000   -0.00000000   -0.00003929
     atom   17 type  1   force =     0.00000000    0.00000000   -0.00019322
     atom   18 type  1   force =     0.00000000   -0.00000000   -0.00024402
     atom   19 type  1   force =     0.00000000    0.00000000   -0.00034298
     atom   20 type  1   force =     0.00000000    0.00000000   -0.00042987
     atom   21 type  1   force =     0.00000000    0.00000000   -0.00001416
     atom   22 type  1   force =     0.00000000   -0.00000000    0.00005556
     atom   23 type  1   force =     0.00000000   -0.00000000    0.00012403
     atom   24 type  1   force =    -0.00000000    0.00000000    0.00118867
     atom   25 type  2   force =     0.00000000    0.00000000    0.00005794
     atom   26 type  2   force =     0.00000000    0.00000000   -0.00005794

     Total force =     0.001916     Total SCF correction =     0.000010
     Energy error            =      9.3E-06 Ry
     Gradient error          =      1.2E-03 Ry/Bohr

     number of scf cycles    =   5
     number of bfgs steps    =   4

     energy             old  =    -444.8001541081 Ry
     energy             new  =    -444.8001633763 Ry

     CASE: energy            _new < energy            _old

     new trust radius        =       0.0015854948 bohr
     new conv_thr            =            1.0E-10 Ry


ATOMIC_POSITIONS (angstrom)
C                1.2632452000        0.7293349600       28.2791339456
C                2.5264904100        1.4586699200       27.7910280464
C                2.5264904100        1.4586699200       26.2365804758
C                0.0000000000        0.0000000000       25.7214489633
C                0.0000000000        0.0000000000       24.1728597492
C                1.2632452000        0.7293349600       23.6568730784
C                1.2632452000        0.7293349600       22.1090081354
C                2.5264904100        1.4586699200       21.5931858663
C                2.5264904100        1.4586699200       20.0458421022
C                0.0000000000        0.0000000000       19.5301218011
C               -0.0000000000        0.0000000000       17.9829475268
C                1.2632452000        0.7293349600       17.4672378299
C                1.2632452000        0.7293349600       15.9200584401
C                2.5264904100        1.4586699200       15.4043487432
C                2.5264904100        1.4586699200       13.8571744689
C                0.0000000000        0.0000000000       13.3414541678
C               -0.0000000000        0.0000000000       11.7941104037
C                1.2632452000        0.7293349600       11.2782881346
C                1.2632452000        0.7293349600        9.7304231916
C                2.5264904100        1.4586699200        9.2144365208
C                2.5264904100        1.4586699200        7.6658473067
C                0.0000000000        0.0000000000        7.1507157942
C                0.0000000000        0.0000000000        5.5962682236
C                1.2632452000        0.7293349600        5.1081623244
H                1.2632452000        0.7293349600       29.3880569372
H                1.2632452000        0.7293349600        3.9992393328



     Writing config-only to output data dir /tmp/qe/slab.save/ :
     XML data file
     NEW-OLD atomic charge density approx. for the potential

     Check: negative core charge=   -0.000001

     negative rho (up, down):  3.407E-08 0.000E+00

     total cpu time spent up to now is      122.5 secs

     Self-consistent Calculation

     iteration #  1     ecut=    90.00 Ry     beta= 0.30
     Davidson diagonalization with overlap
     ethr =  1.00E-06,  avg # of iterations =  2.0

     Threshold (ethr) on eigenvalues was too large:
     Diagonalizing with lowered threshold

     Davidson diagonalization with overlap
     ethr =  1.02E-09,  avg # of iterations =  4.3

     negative rho (up, down):  3.431E-08 0.000E+00

     total cpu time spent up to now is      128.1 secs

     total energy              =    -444.80016669 Ry
     estimated scf accuracy    <       0.00000156 Ry

     iteration #  2     ecut=    90.00 Ry     beta= 0.30
     Davidson diagonalization with overlap
     ethr =  1.60E-09,  avg # of iterations =  2.0

     negative rho (up, down):  3.419E-08 0.000E+00

     total cpu time spent up to now is      130.5 secs

     total energy              =    -444.80016680 Ry
     estimated scf accuracy    <       0.00000036 Ry

     iteration #  3     ecut=    90.00 Ry     beta= 0.30
     Davidson diagonalization with overlap
     ethr =  3.72E-10,  avg # of iterations =  1.1

     negative rho (up, down):  3.418E-08 0.000E+00

     total cpu time spent up to now is      132.6 secs

     total energy              =    -444.80016680 Ry
     estimated scf accuracy    <       0.00000013 Ry

     iteration #  4     ecut=    90.00 Ry     beta= 0.30
     Davidson diagonalization with overlap
     ethr =  1.32E-10,  avg # of iterations =  2.0

     negative rho (up, down):  3.424E-08 0.000E+00

     total cpu time spent up to now is      134.9 secs

     total energy              =    -444.80016681 Ry
     estimated scf accuracy    <       0.00000001 Ry

     iteration #  5     ecut=    90.00 Ry     beta= 0.30
     Davidson diagonalization with overlap
     ethr =  1.45E-11,  avg # of iterations =  2.2

     negative rho (up, down):  3.434E-08 0.000E+00

     total cpu time spent up to now is      137.5 secs

     total energy              =    -444.80016681 Ry
     estimated scf accuracy    <          2.9E-09 Ry

     iteration #  6     ecut=    90.00 Ry     beta= 0.30
     Davidson diagonalization with overlap
     ethr =  2.97E-12,  avg # of iterations =  2.1

     negative rho (up, down):  3.441E-08 0.000E+00

     total cpu time spent up to now is      139.9 secs

     total energy              =    -444.80016681 Ry
     estimated scf accuracy    <          6.2E-10 Ry

     iteration #  7     ecut=    90.00 Ry     beta= 0.30
     Davidson diagonalization with overlap
     ethr =  6.34E-13,  avg # of iterations =  2.4

     negative rho (up, down):  3.445E-08 0.000E+00

     total cpu time spent up to now is      142.7 secs

     total energy              =    -444.80016681 Ry
     estimated scf accuracy    <          1.2E-10 Ry

     iteration #  8     ecut=    90.00 Ry     beta= 0.30
     Davidson diagonalization with overlap
     ethr =  1.20E-13,  avg # of iterations =  1.8

     negative rho (up, down):  3.452E-08 0.000E+00

     total cpu time spent up to now is      144.9 secs

     End of self-consistent calculation

          k = 0.0000 0.0000 0.0000 ( 17885 PWs)   bands (ev):

   -12.2287 -12.0932 -11.8777 -11.5801 -11.1987 -10.7357 -10.1940  -9.5789
    -8.8994  -8.1738  -7.4423  -6.8107  -3.9637  -3.3222  -2.4078  -1.3401
    -0.1770   1.0495   2.3159   3.5970   4.8617   6.0734   6.3743   6.3743
     6.4619   6.4619   6.5977   6.5977   6.7819   6.7819   7.0140   7.0140
     7.1863   7.2894   7.2894   7.6010   7.6010   7.9378   7.9378   8.1471
     8.2826   8.2826   8.6099   8.6099   8.8532   8.8850   8.8850   9.0682
     9.0682  11.4494  12.0399  14.0678  14.8179  14.8179  14.8896  15.0814
    15.0814  15.4564  15.4564

          k = 0.0000 0.1283 0.0000 ( 17983 PWs)   bands (ev):

   -11.9263 -11.7912 -11.5764 -11.2797 -10.8996 -10.4383  -9.8989  -9.2865
    -8.6105  -7.8895  -7.1638  -6.5391  -3.6900  -3.0567  -2.1549  -1.1034
     0.0390   1.2387   2.4694   3.7003   4.8803   4.9237   5.0242   5.1834
     5.3950   5.6726   5.7208   5.8208   5.8470   5.9761   6.1024   6.1861
     6.3551   6.4488   6.6024   6.7572   6.9926   7.1018   7.1487   7.3591
     7.4688   7.6263   7.8128   7.8385   8.0543   8.1836   8.4690   8.5727
     8.6570  11.7380  12.2707  14.2929  14.4821  14.8410  15.2278  15.4184
    15.6654  15.6864  15.8970

          k = 0.0000 0.2566 0.0000 ( 17943 PWs)   bands (ev):

   -11.0252 -10.8913 -10.6785 -10.3850 -10.0092  -9.5535  -9.0213  -8.4182
    -7.7538  -7.0472  -6.3395  -5.7349  -2.9234  -2.3178  -1.4633  -0.4793
     0.5600   1.5226   1.9992   2.0981   2.1933   2.4119   2.7107   2.9842
     3.0865   3.4994   3.9404   4.0227   4.3919   4.5227   4.6331   4.8052
     4.8156   5.0300   5.0382   5.1758   5.3294   5.3982   5.6705   5.9737
     6.0498   6.4509   6.7652   6.8513   7.2208   7.3782   7.5229   7.7204
     7.7670  12.6050  12.9677  13.8348  14.1316  14.5851  14.9511  15.1877
    15.5709  15.8078  16.0774

          k = 0.0000 0.3849 0.0000 ( 17956 PWs)   bands (ev):

    -9.5484  -9.4172  -9.2091  -8.9225  -8.5565  -8.1137  -7.5985  -7.0171
    -6.3802  -5.7073  -5.0378  -4.4685  -2.2326  -1.7984  -1.4848  -1.3644
    -1.1069  -0.7369  -0.3146  -0.0629   0.1752   0.3690   0.8619   0.9108
     1.4911   1.6301   2.0829   2.3730   2.5549   3.0546   3.5173   3.6319
     3.6477   3.8110   4.0537   4.0752   4.3570   4.6729   4.7123   5.1072
     5.3787   5.5242   5.9394   6.0279   6.3214   6.5410   6.6328   6.8360
     6.8645  13.3785  13.5926  13.8978  14.0825  14.4443  14.6277  14.9045
    15.2773  15.6709  16.1044

          k = 0.0000 0.5132 0.0000 ( 17988 PWs)   bands (ev):

    -7.5769  -7.4563  -7.2678  -7.0135  -6.6993  -6.3406  -5.9613  -5.5847
    -5.2054  -4.7969  -4.3469  -3.8764  -3.7240  -3.5397  -3.2525  -3.1674
    -2.7982  -2.6483  -2.2799  -2.1842  -1.7040  -1.1055  -0.5263  -0.0594
     0.7687   1.1990   1.7763   2.3495   2.6005   2.7440   2.8913   2.9718
     3.0879   3.2695   3.3243   3.5157   3.8235   4.0743   4.1841   4.5848
     4.8162   5.0077   5.4286   5.4746   5.8156   5.9883   6.1307   6.3090
     6.3363  13.5560  13.8121  14.0848  14.3326  14.5126  14.6889  14.8191
    15.0893  15.3151  15.5435

          k = 0.1111 0.1925 0.0000 ( 17961 PWs)   bands (ev):

   -11.3245 -11.1902 -10.9767 -10.6820 -10.3048  -9.8471  -9.3123  -8.7060
    -8.0375  -7.3258  -6.6120  -6.0007  -3.1662  -2.5503  -1.6773  -0.6648
     0.4248   1.5482   2.6467   3.3812   3.3975   3.4480   3.4849   3.5860
     3.6994   3.9844   4.0310   4.4208   4.4753   4.8387   4.9284   5.0515
     5.1763   5.3104   5.3453   5.5905   5.6924   6.0001   6.1173   6.2907
     6.5390   6.5686   6.6480   6.7932   7.0005   7.2007   7.4922   7.9958
     8.3968  12.3398  12.7764  14.8349  14.9770  15.0429  15.2604  15.3234
    15.5654  15.8820  16.2216

          k = 0.1111 0.3208 0.0000 ( 17910 PWs)   bands (ev):

   -10.1346 -10.0021  -9.7919  -9.5020  -9.1313  -8.6824  -8.1589  -7.5667
    -6.9160  -6.2261  -5.5376  -4.9521  -2.3076  -1.7482  -0.9936  -0.2373
     0.2274   0.5548   0.7804   0.9609   1.1082   1.2729   1.6186   1.7739
     2.0247   2.2991   2.5132   2.7849   2.9622   3.2905   3.3975   3.4745
     3.5903   3.8554   4.1454   4.3192   4.4107   4.4828   4.6867   4.7569
     5.1266   5.2004   5.5581   5.8384   5.9281   6.2311   6.7143   7.2187
     7.5445  13.4866  13.7438  14.4075  14.8085  15.2417  15.8003  16.0687
    16.1352  16.2968  16.4977

          k = 0.1111 0.4491 0.0000 ( 17954 PWs)   bands (ev):

    -8.3992  -8.2714  -8.0694  -7.7920  -7.4393  -7.0154  -6.5264  -5.9814
    -5.3947  -4.7882  -4.1938  -3.6717  -2.6500  -2.5914  -2.4769  -2.3675
    -2.2258  -1.8589  -1.4106  -0.9069  -0.3704   0.1265   0.2901   0.5852
     0.7907   1.0755   1.3133   1.9402   2.2255   2.3627   2.5658   2.6643
     2.8178   2.8349   3.1244   3.2481   3.5404   3.5446   3.9381   4.0374
     4.4799   4.6042   4.9478   5.2300   5.3269   5.5709   5.8171   6.2703
     6.5580  14.1108  14.4090  14.7723  15.1682  15.4937  15.8267  16.0676
    16.2601  16.3784  16.6495

          k = 0.1111-0.5774 0.0000 ( 17982 PWs)   bands (ev):

    -6.3634  -6.3617  -6.3305  -6.2924  -6.1947  -6.0389  -5.8213  -5.5407
    -5.1974  -4.7946  -4.3398  -3.9256  -3.7927  -3.6606  -3.3202  -3.2410
    -2.7398  -2.7010  -2.1728  -2.0987  -1.6046  -1.5339  -1.1373  -1.1052
     1.5693   1.6523   1.8468   1.8704   2.0080   2.0135   2.2659   2.3922
     2.5273   2.6850   2.8198   2.9143   2.9703   3.4002   3.4138   3.9278
     4.0262   4.4730   4.6148   4.9758   5.1311   5.3585   5.6241   5.8473
     5.9373  14.2182  14.5877  15.0523  15.4233  15.5107  15.7179  15.7918
    16.0592  16.3389  16.4257

          k = 0.2222 0.3849 0.0000 ( 17927 PWs)   bands (ev):

    -8.6813  -8.5521  -8.3476  -8.0662  -7.7075  -7.2745  -6.7721  -6.2070
    -5.5901  -4.9405  -4.2934  -3.7339  -2.1579  -1.7962  -1.4441  -1.1940
    -0.9999  -0.7980  -0.5591  -0.2754   0.0490   0.3853   0.4995   0.7035
     0.7534   1.0109   1.1762   1.2947   1.7122   1.7275   2.0749   2.2784
     2.5350   2.5527   2.8656   2.9516   3.1474   3.4037   3.4381   3.7070
     3.8093   3.8744   4.2149   4.4709   4.8270   5.3603   5.8977   6.3359
     6.6162  14.7560  14.8457  15.3634  15.4608  15.7904  15.9676  16.3684
    16.7229  17.1186  17.2106

          k = 0.2222-0.6415 0.0000 ( 17997 PWs)   bands (ev):

    -6.7573  -6.6403  -6.4580  -6.2130  -5.9114  -5.5687  -5.2092  -4.8582
    -4.5157  -4.1590  -3.7783  -3.2932  -3.1793  -2.9730  -2.7456  -2.5176
    -2.3741  -2.1708  -1.9883  -1.8711  -1.5573  -1.1808  -0.8045  -0.4846
     0.3391   0.4818   0.5465   0.7256   0.9736   1.1569   1.2577   1.5423
     1.6530   1.8648   2.1422   2.3676   2.6971   2.8948   3.2079   3.3183
     3.4379   3.6315   3.7301   4.1936   4.5867   4.7883   4.9376   5.2718
     5.5179  14.8267  15.1847  15.6650  15.9385  16.1517  16.4020  16.7563
    16.7681  16.9830  17.3061

          k = 0.3333-0.5774 0.0000 ( 18015 PWs)   bands (ev):

    -4.8679  -4.8679  -4.8665  -4.8216  -4.8216  -4.8188  -4.7756  -4.7756
    -4.7756  -4.7181  -4.7181  -3.4830  -3.4826  -2.4655  -2.4655  -2.4393
    -2.2604  -2.2604  -2.1870  -1.9875  -1.9875  -1.9085  -1.7322  -1.7322
    -0.1029  -0.0693  -0.0693   0.2058   0.3020   0.3020   0.6644   0.7764
     0.7764   1.1220   1.1804   1.1804   3.2494   3.3727   3.3727   3.4569
     3.7166   3.7166   3.8442   4.0945   4.0945   4.1953   4.3687   4.3687
     4.4044  15.5667  15.5667  15.6533  15.8942  15.8942  16.1204  16.4829
    16.4829  16.7652  17.2654

     the Fermi energy is    10.6027 ev

!    total energy              =    -444.80016681 Ry
     estimated scf accuracy    <          2.6E-11 Ry
     smearing contrib. (-TS)   =      -0.00000000 Ry
     internal energy E=F+TS    =    -444.80016681 Ry

     The total energy is F=E-TS. E is the sum of the following terms:
     one-electron contribution =   -3714.98391137 Ry
     hartree contribution      =    1917.86564234 Ry
     xc contribution           =    -113.81431110 Ry
     ewald contribution        =    1614.04150868 Ry
     one-center paw contrib.   =    -147.90909536 Ry

     convergence has been achieved in   8 iterations

     negative rho (up, down):  3.452E-08 0.000E+00

     Forces acting on atoms (cartesian axes, Ry/au):

     atom    1 type  1   force =     0.00000000    0.00000000   -0.00055706
     atom    2 type  1   force =    -0.00000000    0.00000000   -0.00021778
     atom    3 type  1   force =     0.00000000    0.00000000   -0.00046158
     atom    4 type  1   force =     0.00000000    0.00000000   -0.00006980
     atom    5 type  1   force =     0.00000000    0.00000000    0.00006846
     atom    6 type  1   force =     0.00000000    0.00000000    0.00033291
     atom    7 type  1   force =     0.00000000   -0.00000000    0.00029326
     atom    8 type  1   force =     0.00000000    0.00000000    0.00022077
     atom    9 type  1   force =     0.00000000    0.00000000    0.00010744
     atom   10 type  1   force =     0.00000000   -0.00000000    0.00006226
     atom   11 type  1   force =    -0.00000000    0.00000000    0.00000992
     atom   12 type  1   force =    -0.00000000    0.00000000    0.00000358
     atom   13 type  1   force =    -0.00000000    0.00000000   -0.00000358
     atom   14 type  1   force =     0.00000000    0.00000000   -0.00000992
     atom   15 type  1   force =     0.00000000    0.00000000   -0.00006226
     atom   16 type  1   force =     0.00000000    0.00000000   -0.00010744
     atom   17 type  1   force =    -0.00000000    0.00000000   -0.00022077
     atom   18 type  1   force =     0.00000000    0.00000000   -0.00029326
     atom   19 type  1   force =     0.00000000   -0.00000000   -0.00033291
     atom   20 type  1   force =     0.00000000    0.00000000   -0.00006846
     atom   21 type  1   force =     0.00000000    0.00000000    0.00006980
     atom   22 type  1   force =     0.00000000   -0.00000000    0.00046158
     atom   23 type  1   force =     0.00000000   -0.00000000    0.00021778
     atom   24 type  1   force =    -0.00000000   -0.00000000    0.00055706
     atom   25 type  2   force =     0.00000000   -0.00000000    0.00017793
     atom   26 type  2   force =    -0.00000000   -0.00000000   -0.00017793

     Total force =     0.001321     Total SCF correction =     0.000005
     Energy error            =      3.4E-06 Ry
     Gradient error          =      5.6E-04 Ry/Bohr

     number of scf cycles    =   6
     number of bfgs steps    =   5

     energy             old  =    -444.8001633763 Ry
     energy             new  =    -444.8001668085 Ry

     CASE: energy            _new < energy            _old

     new trust radius        =       0.0012032880 bohr
     new conv_thr            =            1.0E-10 Ry


ATOMIC_POSITIONS (angstrom)
C                1.2632452000        0.7293349600       28.2784971931
C                2.5264904100        1.4586699200       27.7906286364
C                2.5264904100        1.4586699200       26.2364357739
C                0.0000000000        0.0000000000       25.7215930966
C                0.0000000000        0.0000000000       24.1731848357
C                1.2632452000        0.7293349600       23.6573146745
C                1.2632452000        0.7293349600       22.1093288793
C                2.5264904100        1.4586699200       21.5934234024
C                2.5264904100        1.4586699200       20.0459410354
C                0.0000000000        0.0000000000       19.5301768543
C               -0.0000000000        0.0000000000       17.9829564716
C                1.2632452000        0.7293349600       17.4672414575
C                1.2632452000        0.7293349600       15.9200548125
C                2.5264904100        1.4586699200       15.4043397984
C                2.5264904100        1.4586699200       13.8571194157
C                0.0000000000        0.0000000000       13.3413552346
C               -0.0000000000        0.0000000000       11.7938728676
C                1.2632452000        0.7293349600       11.2779673907
C                1.2632452000        0.7293349600        9.7299815955
C                2.5264904100        1.4586699200        9.2141114343
C                2.5264904100        1.4586699200        7.6657031734
C                0.0000000000       -0.0000000000        7.1508604961
C                0.0000000000        0.0000000000        5.5966676336
C                1.2632452000        0.7293349600        5.1087990769
H                1.2632452000        0.7293349600       29.3875607738
H                1.2632452000        0.7293349600        3.9997354962



     Writing config-only to output data dir /tmp/qe/slab.save/ :
     XML data file
     NEW-OLD atomic charge density approx. for the potential

     Check: negative core charge=   -0.000001

     negative rho (up, down):  3.592E-08 0.000E+00

     total cpu time spent up to now is      146.0 secs

     Self-consistent Calculation

     iteration #  1     ecut=    90.00 Ry     beta= 0.30
     Davidson diagonalization with overlap
     ethr =  1.00E-06,  avg # of iterations =  2.0

     Threshold (ethr) on eigenvalues was too large:
     Diagonalizing with lowered threshold

     Davidson diagonalization with overlap
     ethr =  6.81E-10,  avg # of iterations =  4.8

     negative rho (up, down):  3.603E-08 0.000E+00

     total cpu time spent up to now is      151.7 secs

     total energy              =    -444.80016868 Ry
     estimated scf accuracy    <       0.00000089 Ry

     iteration #  2     ecut=    90.00 Ry     beta= 0.30
     Davidson diagonalization with overlap
     ethr =  9.06E-10,  avg # of iterations =  2.0

     negative rho (up, down):  3.589E-08 0.000E+00

     total cpu time spent up to now is      154.0 secs

     total energy              =    -444.80016871 Ry
     estimated scf accuracy    <       0.00000025 Ry

     iteration #  3     ecut=    90.00 Ry     beta= 0.30
     Davidson diagonalization with overlap
     ethr =  2.54E-10,  avg # of iterations =  1.0

     negative rho (up, down):  3.589E-08 0.000E+00

     total cpu time spent up to now is      156.2 secs

     total energy              =    -444.80016871 Ry
     estimated scf accuracy    <       0.00000008 Ry

     iteration #  4     ecut=    90.00 Ry     beta= 0.30
     Davidson diagonalization with overlap
     ethr =  8.49E-11,  avg # of iterations =  2.0

     negative rho (up, down):  3.598E-08 0.000E+00

     total cpu time spent up to now is      158.5 secs

     total energy              =    -444.80016872 Ry
     estimated scf accuracy    <          6.5E-09 Ry

     iteration #  5     ecut=    90.00 Ry     beta= 0.30
     Davidson diagonalization with overlap
     ethr =  6.64E-12,  avg # of iterations =  2.2

     negative rho (up, down):  3.611E-08 0.000E+00

     total cpu time spent up to now is      161.1 secs

     total energy              =    -444.80016872 Ry
     estimated scf accuracy    <          2.0E-09 Ry

     iteration #  6     ecut=    90.00 Ry     beta= 0.30
     Davidson diagonalization with overlap
     ethr =  2.04E-12,  avg # of iterations =  2.0

     negative rho (up, down):  3.617E-08 0.000E+00

     total cpu time spent up to now is      163.5 secs

     total energy              =    -444.80016872 Ry
     estimated scf accuracy    <          2.8E-10 Ry

     iteration #  7     ecut=    90.00 Ry     beta= 0.30
     Davidson diagonalization with overlap
     ethr =  2.87E-13,  avg # of iterations =  2.3

     negative rho (up, down):  3.626E-08 0.000E+00

     total cpu time spent up to now is      166.1 secs

     End of self-consistent calculation

          k = 0.0000 0.0000 0.0000 ( 17885 PWs)   bands (ev):

   -12.2283 -12.0938 -11.8794 -11.5813 -11.1995 -10.7364 -10.1947  -9.5795
    -8.8997  -8.1738  -7.4424  -6.8109  -3.9636  -3.3228  -2.4083  -1.3396
    -0.1763   1.0500   2.3165   3.5977   4.8625   6.0740   6.3746   6.3746
     6.4613   6.4613   6.5960   6.5960   6.7806   6.7806   7.0131   7.0131
     7.1870   7.2885   7.2885   7.6002   7.6002   7.9370   7.9370   8.1479
     8.2818   8.2818   8.6089   8.6089   8.8535   8.8842   8.8842   9.0681
     9.0681  11.4502  12.0403  14.0678  14.8182  14.8182  14.8891  15.0813
    15.0813  15.4560  15.4560

          k = 0.0000 0.1283 0.0000 ( 17983 PWs)   bands (ev):

   -11.9260 -11.7918 -11.5780 -11.2809 -10.9004 -10.4390  -9.8995  -9.2871
    -8.6109  -7.8895  -7.1639  -6.5393  -3.6899  -3.0572  -2.1554  -1.1029
     0.0397   1.2393   2.4700   3.7010   4.8807   4.9241   5.0235   5.1818
     5.3937   5.6719   5.7210   5.8201   5.8468   5.9744   6.1020   6.1848
     6.3547   6.4479   6.6017   6.7564   6.9920   7.1010   7.1493   7.3583
     7.4681   7.6259   7.8127   7.8378   8.0546   8.1827   8.4682   8.5730
     8.6569  11.7387  12.2710  14.2927  14.4821  14.8408  15.2277  15.4187
    15.6651  15.6864  15.8967

          k = 0.0000 0.2566 0.0000 ( 17943 PWs)   bands (ev):

   -11.0248 -10.8919 -10.6802 -10.3862 -10.0100  -9.5542  -9.0220  -8.4188
    -7.7541  -7.0473  -6.3396  -5.7351  -2.9233  -2.3184  -1.4638  -0.4788
     0.5606   1.5229   1.9989   2.0981   2.1923   2.4104   2.7100   2.9843
     3.0859   3.4987   3.9398   4.0234   4.3914   4.5230   4.6323   4.8034
     4.8149   5.0305   5.0369   5.1753   5.3285   5.3981   5.6696   5.9742
     6.0489   6.4502   6.7656   6.8506   7.2199   7.3787   7.5222   7.7202
     7.7673  12.6054  12.9676  13.8349  14.1315  14.5848  14.9509  15.1876
    15.5707  15.8075  16.0770

          k = 0.0000 0.3849 0.0000 ( 17956 PWs)   bands (ev):

    -9.5481  -9.4178  -9.2108  -8.9237  -8.5572  -8.1144  -7.5991  -7.0176
    -6.3805  -5.7073  -5.0380  -4.4686  -2.2325  -1.7993  -1.4851  -1.3651
    -1.1078  -0.7377  -0.3152  -0.0631   0.1748   0.3683   0.8614   0.9105
     1.4909   1.6301   2.0827   2.3731   2.5547   3.0548   3.5176   3.6311
     3.6480   3.8091   4.0524   4.0756   4.3562   4.6733   4.7115   5.1064
     5.3791   5.5235   5.9387   6.0281   6.3206   6.5414   6.6321   6.8358
     6.8647  13.3784  13.5924  13.8975  14.0828  14.4443  14.6272  14.9041
    15.2767  15.6705  16.1041

          k = 0.0000 0.5132 0.0000 ( 17988 PWs)   bands (ev):

    -7.5766  -7.4569  -7.2695  -7.0147  -6.7001  -6.3412  -5.9620  -5.5853
    -5.2059  -4.7974  -4.3476  -3.8773  -3.7236  -3.5404  -3.2533  -3.1682
    -2.7989  -2.6489  -2.2803  -2.1846  -1.7044  -1.1058  -0.5266  -0.0595
     0.7688   1.1986   1.7760   2.3498   2.6008   2.7439   2.8914   2.9720
     3.0871   3.2676   3.3246   3.5144   3.8227   4.0747   4.1833   4.5840
     4.8166   5.0070   5.4279   5.4750   5.8148   5.9887   6.1301   6.3093
     6.3361  13.5560  13.8119  14.0840  14.3321  14.5130  14.6878  14.8197
    15.0885  15.3156  15.5429

          k = 0.1111 0.1925 0.0000 ( 17961 PWs)   bands (ev):

   -11.3241 -11.1908 -10.9784 -10.6832 -10.3055  -9.8478  -9.3130  -8.7065
    -8.0378  -7.3259  -6.6121  -6.0009  -3.1661  -2.5509  -1.6777  -0.6643
     0.4254   1.5487   2.6471   3.3817   3.3974   3.4469   3.4834   3.5863
     3.6976   3.9843   4.0293   4.4211   4.4739   4.8377   4.9283   5.0508
     5.1768   5.3096   5.3441   5.5902   5.6914   5.9997   6.1174   6.2901
     6.5387   6.5678   6.6480   6.7927   7.0002   7.2004   7.4919   7.9960
     8.3970  12.3403  12.7764  14.8346  14.9772  15.0428  15.2606  15.3232
    15.5653  15.8819  16.2214

          k = 0.1111 0.3208 0.0000 ( 17910 PWs)   bands (ev):

   -10.1342 -10.0027  -9.7935  -9.5032  -9.1321  -8.6831  -8.1595  -7.5673
    -6.9163  -6.2261  -5.5377  -4.9523  -2.3075  -1.7488  -0.9943  -0.2371
     0.2276   0.5543   0.7794   0.9602   1.1080   1.2720   1.6180   1.7736
     2.0244   2.2983   2.5130   2.7844   2.9614   3.2900   3.3978   3.4745
     3.5897   3.8539   4.1447   4.3193   4.4101   4.4825   4.6866   4.7562
     5.1267   5.2001   5.5575   5.8384   5.9279   6.2310   6.7143   7.2188
     7.5447  13.4868  13.7436  14.4075  14.8086  15.2417  15.8003  16.0685
    16.1352  16.2969  16.4978

          k = 0.1111 0.4491 0.0000 ( 17954 PWs)   bands (ev):

    -8.3989  -8.2720  -8.0710  -7.7932  -7.4401  -7.0161  -6.5270  -5.9820
    -5.3950  -4.7883  -4.1941  -3.6720  -2.6509  -2.5907  -2.4783  -2.3680
    -2.2271  -1.8598  -1.4113  -0.9074  -0.3707   0.1262   0.2901   0.5847
     0.7903   1.0754   1.3128   1.9403   2.2257   2.3619   2.5640   2.6645
     2.8167   2.8350   3.1235   3.2482   3.5400   3.5445   3.9378   4.0372
     4.4793   4.6044   4.9472   5.2301   5.3265   5.5707   5.8172   6.2705
     6.5582  14.1109  14.4094  14.7726  15.1682  15.4936  15.8261  16.0673
    16.2600  16.3778  16.6489

          k = 0.1111-0.5774 0.0000 ( 17982 PWs)   bands (ev):

    -6.3626  -6.3617  -6.3305  -6.2940  -6.1963  -6.0402  -5.8225  -5.5418
    -5.1983  -4.7953  -4.3404  -3.9260  -3.7929  -3.6614  -3.3205  -3.2421
    -2.7404  -2.7014  -2.1732  -2.0990  -1.6051  -1.5340  -1.1375  -1.1053
     1.5695   1.6524   1.8466   1.8705   2.0067   2.0124   2.2655   2.3915
     2.5267   2.6844   2.8203   2.9139   2.9699   3.3993   3.4142   3.9270
     4.0266   4.4723   4.6151   4.9750   5.1313   5.3582   5.6244   5.8476
     5.9374  14.2183  14.5888  15.0534  15.4224  15.5112  15.7157  15.7928
    16.0582  16.3388  16.4250

          k = 0.2222 0.3849 0.0000 ( 17927 PWs)   bands (ev):

    -8.6810  -8.5527  -8.3492  -8.0674  -7.7082  -7.2752  -6.7727  -6.2075
    -5.5905  -4.9406  -4.2936  -3.7341  -2.1579  -1.7971  -1.4454  -1.1944
    -1.0001  -0.7985  -0.5598  -0.2763   0.0481   0.3843   0.4995   0.7032
     0.7528   1.0102   1.1759   1.2939   1.7122   1.7263   2.0747   2.2774
     2.5348   2.5528   2.8651   2.9509   3.1476   3.4031   3.4374   3.7071
     3.8090   3.8743   4.2150   4.4711   4.8274   5.3605   5.8978   6.3360
     6.6163  14.7562  14.8458  15.3634  15.4607  15.7909  15.9681  16.3694
    16.7240  17.1192  17.2110

          k = 0.2222-0.6415 0.0000 ( 17997 PWs)   bands (ev):

    -6.7570  -6.6409  -6.4597  -6.2142  -5.9121  -5.5694  -5.2099  -4.8589
    -4.5163  -4.1593  -3.7785  -3.2947  -3.1806  -2.9727  -2.7459  -2.5183
    -2.3748  -2.1714  -1.9889  -1.8713  -1.5577  -1.1814  -0.8051  -0.4848
     0.3391   0.4809   0.5464   0.7240   0.9724   1.1568   1.2565   1.5421
     1.6526   1.8646   2.1420   2.3672   2.6971   2.8943   3.2081   3.3182
     3.4380   3.6316   3.7302   4.1939   4.5869   4.7884   4.9376   5.2719
     5.5180  14.8268  15.1858  15.6661  15.9386  16.1523  16.4024  16.7569
    16.7685  16.9833  17.3064

          k = 0.3333-0.5774 0.0000 ( 18015 PWs)   bands (ev):

    -4.8675  -4.8675  -4.8661  -4.8222  -4.8222  -4.8182  -4.7767  -4.7767
    -4.7753  -4.7210  -4.7210  -3.4849  -3.4845  -2.4654  -2.4654  -2.4391
    -2.2610  -2.2610  -2.1873  -1.9883  -1.9883  -1.9088  -1.7330  -1.7330
    -0.1033  -0.0695  -0.0695   0.2045   0.3013   0.3013   0.6634   0.7759
     0.7759   1.1219   1.1802   1.1802   3.2498   3.3727   3.3727   3.4574
     3.7161   3.7161   3.8448   4.0942   4.0942   4.1961   4.3687   4.3687
     4.4047  15.5673  15.5673  15.6531  15.8954  15.8954  16.1209  16.4840
    16.4840  16.7664  17.2659

     the Fermi energy is    10.6030 ev

!    total energy              =    -444.80016872 Ry
     estimated scf accuracy    <          6.2E-11 Ry
     smearing contrib. (-TS)   =      -0.00000000 Ry
     internal energy E=F+TS    =    -444.80016872 Ry

     The total energy is F=E-TS. E is the sum of the following terms:
     one-electron contribution =   -3715.14525976 Ry
     hartree contribution      =    1917.94538909 Ry
     xc contribution           =    -113.81510343 Ry
     ewald contribution        =    1614.12392046 Ry
     one-center paw contrib.   =    -147.90911508 Ry

     convergence has been achieved in   7 iterations

     negative rho (up, down):  3.626E-08 0.000E+00

     Forces acting on atoms (cartesian axes, Ry/au):

     atom    1 type  1   force =    -0.00000000    0.00000000   -0.00005035
     atom    2 type  1   force =    -0.00000000   -0.00000000   -0.00023938
     atom    3 type  1   force =     0.00000000    0.00000000   -0.00029401
     atom    4 type  1   force =    -0.00000000   -0.00000000   -0.00033416
     atom    5 type  1   force =    -0.00000000   -0.00000000   -0.00000239
     atom    6 type  1   force =     0.00000000    0.00000000    0.00004533
     atom    7 type  1   force =    -0.00000000    0.00000000    0.00022068
     atom    8 type  1   force =     0.00000000    0.00000000    0.00024205
     atom    9 type  1   force =    -0.00000000   -0.00000000    0.00015258
     atom   10 type  1   force =     0.00000000    0.00000000    0.00011908
     atom   11 type  1   force =     0.00000000   -0.00000000    0.00003991
     atom   12 type  1   force =     0.00000000    0.00000000    0.00001768
     atom   13 type  1   force =     0.00000000    0.00000000   -0.00001768
     atom   14 type  1   force =    -0.00000000    0.00000000   -0.00003991
     atom   15 type  1   force =     0.00000000    0.00000000   -0.00011908
     atom   16 type  1   force =     0.00000000    0.00000000   -0.00015258
     atom   17 type  1   force =    -0.00000000    0.00000000   -0.00024205
     atom   18 type  1   force =    -0.00000000    0.00000000   -0.00022068
     atom   19 type  1   force =     0.00000000    0.00000000   -0.00004533
     atom   20 type  1   force =     0.00000000   -0.00000000    0.00000239
     atom   21 type  1   force =     0.00000000    0.00000000    0.00033416
     atom   22 type  1   force =    -0.00000000   -0.00000000    0.00029401
     atom   23 type  1   force =     0.00000000   -0.00000000    0.00023938
     atom   24 type  1   force =     0.00000000   -0.00000000    0.00005035
     atom   25 type  2   force =    -0.00000000   -0.00000000    0.00004671
     atom   26 type  2   force =     0.00000000    0.00000000   -0.00004671

     Total force =     0.000904     Total SCF correction =     0.000011
     Energy error            =      1.9E-06 Ry
     Gradient error          =      3.3E-04 Ry/Bohr

     number of scf cycles    =   7
     number of bfgs steps    =   6

     energy             old  =    -444.8001668085 Ry
     energy             new  =    -444.8001687180 Ry

     CASE: energy            _new < energy            _old

     new trust radius        =       0.0008193056 bohr
     new conv_thr            =            1.0E-10 Ry


ATOMIC_POSITIONS (angstrom)
C                1.2632452000        0.7293349600       28.2780636352
C                2.5264904100        1.4586699200       27.7902313317
C                2.5264904100        1.4586699200       26.2361753190
C               -0.0000000000        0.0000000000       25.7214221083
C               -0.0000000000        0.0000000000       24.1733925502
C                1.2632452000        0.7293349600       23.6575874676
C                1.2632452000        0.7293349600       22.1096715999
C                2.5264904100        1.4586699200       21.5937416205
C                2.5264904100        1.4586699200       20.0461114259
C                0.0000000000        0.0000000000       19.5302993458
C               -0.0000000000       -0.0000000000       17.9829934590
C                1.2632452000        0.7293349600       17.4672578439
C                1.2632452000        0.7293349600       15.9200384261
C                2.5264904100        1.4586699200       15.4043028110
C                2.5264904100        1.4586699200       13.8569969242
C                0.0000000000        0.0000000000       13.3411848441
C               -0.0000000000        0.0000000000       11.7935546495
C                1.2632452000        0.7293349600       11.2776246701
C                1.2632452000        0.7293349600        9.7297088024
C                2.5264904100        1.4586699200        9.2139037198
C                2.5264904100        1.4586699200        7.6658741617
C               -0.0000000000       -0.0000000000        7.1511209510
C                0.0000000000       -0.0000000000        5.5970649383
C                1.2632452000        0.7293349600        5.1092326348
H                1.2632452000        0.7293349600       29.3872836126
H                1.2632452000        0.7293349600        4.0000126574



     Writing config-only to output data dir /tmp/qe/slab.save/ :
     XML data file
     NEW-OLD atomic charge density approx. for the potential

     Check: negative core charge=   -0.000001

     negative rho (up, down):  3.719E-08 0.000E+00

     total cpu time spent up to now is      167.2 secs

     Self-consistent Calculation

     iteration #  1     ecut=    90.00 Ry     beta= 0.30
     Davidson diagonalization with overlap
     ethr =  1.00E-06,  avg # of iterations =  2.0

     Threshold (ethr) on eigenvalues was too large:
     Diagonalizing with lowered threshold

     Davidson diagonalization with overlap
     ethr =  5.33E-10,  avg # of iterations =  4.9

     negative rho (up, down):  3.734E-08 0.000E+00

     total cpu time spent up to now is      173.0 secs

     total energy              =    -444.80016986 Ry
     estimated scf accuracy    <       0.00000070 Ry

     iteration #  2     ecut=    90.00 Ry     beta= 0.30
     Davidson diagonalization with overlap
     ethr =  7.15E-10,  avg # of iterations =  2.0

     negative rho (up, down):  3.729E-08 0.000E+00

     total cpu time spent up to now is      175.4 secs

     total energy              =    -444.80016988 Ry
     estimated scf accuracy    <       0.00000020 Ry

     iteration #  3     ecut=    90.00 Ry     beta= 0.30
     Davidson diagonalization with overlap
     ethr =  2.07E-10,  avg # of iterations =  1.2

     negative rho (up, down):  3.737E-08 0.000E+00

     total cpu time spent up to now is      177.5 secs

     total energy              =    -444.80016988 Ry
     estimated scf accuracy    <       0.00000007 Ry

     iteration #  4     ecut=    90.00 Ry     beta= 0.30
     Davidson diagonalization with overlap
     ethr =  7.10E-11,  avg # of iterations =  2.0

     negative rho (up, down):  3.746E-08 0.000E+00

     total cpu time spent up to now is      179.9 secs

     total energy              =    -444.80016989 Ry
     estimated scf accuracy    <          5.2E-09 Ry

     iteration #  5     ecut=    90.00 Ry     beta= 0.30
     Davidson diagonalization with overlap
     ethr =  5.29E-12,  avg # of iterations =  2.3

     negative rho (up, down):  3.757E-08 0.000E+00

     total cpu time spent up to now is      182.6 secs

     total energy              =    -444.80016989 Ry
     estimated scf accuracy    <          1.7E-09 Ry

     iteration #  6     ecut=    90.00 Ry     beta= 0.30
     Davidson diagonalization with overlap
     ethr =  1.78E-12,  avg # of iterations =  2.2

     negative rho (up, down):  3.760E-08 0.000E+00

     total cpu time spent up to now is      185.1 secs

     total energy              =    -444.80016989 Ry
     estimated scf accuracy    <          2.8E-10 Ry

     iteration #  7     ecut=    90.00 Ry     beta= 0.30
     Davidson diagonalization with overlap
     ethr =  2.91E-13,  avg # of iterations =  2.0

     negative rho (up, down):  3.767E-08 0.000E+00

     total cpu time spent up to now is      187.5 secs

     End of self-consistent calculation

          k = 0.0000 0.0000 0.0000 ( 17885 PWs)   bands (ev):

   -12.2281 -12.0947 -11.8806 -11.5818 -11.1998 -10.7367 -10.1950  -9.5799
    -8.9001  -8.1736  -7.4422  -6.8109  -3.9637  -3.3236  -2.4084  -1.3389
    -0.1761   1.0501   2.3166   3.5979   4.8628   6.0743   6.3748   6.3748
     6.4605   6.4605   6.5949   6.5949   6.7802   6.7802   7.0128   7.0128
     7.1868   7.2882   7.2882   7.5998   7.5998   7.9367   7.9367   8.1477
     8.2815   8.2815   8.6087   8.6087   8.8535   8.8840   8.8840   9.0681
     9.0681  11.4506  12.0404  14.0678  14.8182  14.8182  14.8890  15.0808
    15.0808  15.4554  15.4554

          k = 0.0000 0.1283 0.0000 ( 17983 PWs)   bands (ev):

   -11.9258 -11.7927 -11.5793 -11.2813 -10.9007 -10.4393  -9.8998  -9.2875
    -8.6112  -7.8893  -7.1637  -6.5393  -3.6900  -3.0581  -2.1555  -1.1023
     0.0399   1.2393   2.4701   3.7011   4.8808   4.9243   5.0227   5.1808
     5.3933   5.6717   5.7212   5.8193   5.8467   5.9733   6.1019   6.1844
     6.3546   6.4477   6.6013   6.7561   6.9917   7.1007   7.1491   7.3582
     7.4678   7.6258   7.8126   7.8375   8.0544   8.1825   8.4681   8.5730
     8.6569  11.7390  12.2710  14.2924  14.4821  14.8406  15.2278  15.4188
    15.6648  15.6858  15.8965

          k = 0.0000 0.2566 0.0000 ( 17943 PWs)   bands (ev):

   -11.0246 -10.8928 -10.6815 -10.3866 -10.0102  -9.5545  -9.0223  -8.4192
    -7.7545  -7.0471  -6.3394  -5.7352  -2.9234  -2.3193  -1.4640  -0.4782
     0.5608   1.5228   1.9983   2.0981   2.1914   2.4097   2.7098   2.9843
     3.0856   3.4984   3.9394   4.0235   4.3911   4.5232   4.6315   4.8023
     4.8149   5.0307   5.0365   5.1754   5.3283   5.3981   5.6693   5.9744
     6.0486   6.4499   6.7653   6.8503   7.2198   7.3783   7.5221   7.7202
     7.7673  12.6055  12.9674  13.8349  14.1315  14.5848  14.9508  15.1874
    15.5706  15.8075  16.0768

          k = 0.0000 0.3849 0.0000 ( 17956 PWs)   bands (ev):

    -9.5479  -9.4187  -9.2121  -8.9242  -8.5575  -8.1147  -7.5995  -7.0181
    -6.3809  -5.7072  -5.0378  -4.4687  -2.2327  -1.8004  -1.4854  -1.3655
    -1.1082  -0.7381  -0.3155  -0.0632   0.1746   0.3680   0.8612   0.9103
     1.4909   1.6302   2.0827   2.3732   2.5546   3.0548   3.5178   3.6303
     3.6479   3.8080   4.0520   4.0755   4.3559   4.6733   4.7112   5.1061
     5.3792   5.5232   5.9385   6.0279   6.3205   6.5410   6.6321   6.8358
     6.8647  13.3784  13.5923  13.8972  14.0828  14.4441  14.6270  14.9040
    15.2766  15.6704  16.1039

          k = 0.0000 0.5132 0.0000 ( 17988 PWs)   bands (ev):

    -7.5764  -7.4578  -7.2707  -7.0152  -6.7004  -6.3416  -5.9623  -5.5858
    -5.2065  -4.7978  -4.3478  -3.8777  -3.7234  -3.5411  -3.2537  -3.1687
    -2.7991  -2.6491  -2.2806  -2.1847  -1.7046  -1.1057  -0.5265  -0.0596
     0.7687   1.1980   1.7760   2.3502   2.6008   2.7434   2.8913   2.9722
     3.0862   3.2664   3.3245   3.5140   3.8224   4.0748   4.1830   4.5837
     4.8167   5.0067   5.4277   5.4748   5.8147   5.9884   6.1301   6.3092
     6.3361  13.5560  13.8116  14.0835  14.3321  14.5131  14.6875  14.8198
    15.0884  15.3156  15.5427

          k = 0.1111 0.1925 0.0000 ( 17961 PWs)   bands (ev):

   -11.3239 -11.1917 -10.9796 -10.6837 -10.3058  -9.8481  -9.3133  -8.7069
    -8.0382  -7.3257  -6.6118  -6.0010  -3.1662  -2.5517  -1.6779  -0.6636
     0.4257   1.5487   2.6470   3.3822   3.3970   3.4460   3.4824   3.5865
     3.6967   3.9843   4.0284   4.4212   4.4734   4.8374   4.9284   5.0502
     5.1771   5.3092   5.3434   5.5899   5.6911   5.9995   6.1176   6.2897
     6.5387   6.5676   6.6480   6.7925   7.0000   7.2004   7.4918   7.9957
     8.3970  12.3405  12.7764  14.8342  14.9774  15.0426  15.2611  15.3228
    15.5655  15.8817  16.2212

          k = 0.1111 0.3208 0.0000 ( 17910 PWs)   bands (ev):

   -10.1340 -10.0036  -9.7948  -9.5037  -9.1324  -8.6834  -8.1599  -7.5677
    -6.9167  -6.2260  -5.5375  -4.9524  -2.3077  -1.7498  -0.9947  -0.2366
     0.2276   0.5537   0.7787   0.9599   1.1078   1.2717   1.6178   1.7733
     2.0243   2.2977   2.5131   2.7840   2.9612   3.2898   3.3979   3.4742
     3.5892   3.8532   4.1446   4.3193   4.4098   4.4824   4.6866   4.7558
     5.1268   5.1998   5.5575   5.8385   5.9278   6.2309   6.7141   7.2186
     7.5446  13.4868  13.7434  14.4075  14.8088  15.2418  15.8004  16.0683
    16.1352  16.2971  16.4978

          k = 0.1111 0.4491 0.0000 ( 17954 PWs)   bands (ev):

    -8.3987  -8.2729  -8.0723  -7.7937  -7.4404  -7.0164  -6.5274  -5.9824
    -5.3955  -4.7882  -4.1939  -3.6721  -2.6516  -2.5904  -2.4793  -2.3685
    -2.2276  -1.8601  -1.4116  -0.9078  -0.3710   0.1263   0.2900   0.5844
     0.7899   1.0754   1.3126   1.9405   2.2259   2.3612   2.5630   2.6646
     2.8163   2.8350   3.1231   3.2481   3.5398   3.5443   3.9375   4.0372
     4.4791   4.6044   4.9471   5.2301   5.3264   5.5708   5.8171   6.2702
     6.5581  14.1110  14.4098  14.7727  15.1680  15.4935  15.8259  16.0672
    16.2598  16.3774  16.6487

          k = 0.1111-0.5774 0.0000 ( 17982 PWs)   bands (ev):

    -6.3622  -6.3615  -6.3310  -6.2956  -6.1974  -6.0410  -5.8231  -5.5424
    -5.1989  -4.7955  -4.3405  -3.9261  -3.7929  -3.6621  -3.3207  -3.2428
    -2.7408  -2.7018  -2.1732  -2.0989  -1.6050  -1.5338  -1.1376  -1.1053
     1.5694   1.6522   1.8462   1.8705   2.0058   2.0113   2.2654   2.3910
     2.5265   2.6838   2.8206   2.9137   2.9698   3.3989   3.4143   3.9266
     4.0269   4.4721   4.6152   4.9750   5.1312   5.3583   5.6242   5.8473
     5.9374  14.2184  14.5897  15.0537  15.4214  15.5117  15.7145  15.7932
    16.0580  16.3387  16.4248

          k = 0.2222 0.3849 0.0000 ( 17927 PWs)   bands (ev):

    -8.6808  -8.5536  -8.3505  -8.0679  -7.7085  -7.2756  -6.7731  -6.2079
    -5.5909  -4.9405  -4.2933  -3.7342  -2.1581  -1.7983  -1.4461  -1.1944
    -1.0002  -0.7988  -0.5603  -0.2769   0.0475   0.3839   0.4996   0.7029
     0.7526   1.0098   1.1757   1.2935   1.7123   1.7256   2.0747   2.2769
     2.5345   2.5530   2.8650   2.9505   3.1477   3.4031   3.4373   3.7071
     3.8089   3.8743   4.2150   4.4711   4.8274   5.3606   5.8976   6.3358
     6.6163  14.7561  14.8456  15.3633  15.4605  15.7912  15.9687  16.3697
    16.7251  17.1194  17.2112

          k = 0.2222-0.6415 0.0000 ( 17997 PWs)   bands (ev):

    -6.7568  -6.6418  -6.4609  -6.2147  -5.9124  -5.5698  -5.2103  -4.8594
    -4.5170  -4.1597  -3.7784  -3.2954  -3.1812  -2.9725  -2.7464  -2.5185
    -2.3755  -2.1714  -1.9893  -1.8712  -1.5580  -1.1816  -0.8054  -0.4849
     0.3390   0.4802   0.5463   0.7232   0.9720   1.1567   1.2559   1.5421
     1.6523   1.8645   2.1420   2.3669   2.6973   2.8942   3.2082   3.3183
     3.4378   3.6315   3.7300   4.1939   4.5870   4.7884   4.9374   5.2716
     5.5180  14.8269  15.1867  15.6664  15.9386  16.1528  16.4024  16.7572
    16.7686  16.9833  17.3069

          k = 0.3333-0.5774 0.0000 ( 18015 PWs)   bands (ev):

    -4.8671  -4.8671  -4.8661  -4.8230  -4.8230  -4.8190  -4.7777  -4.7777
    -4.7755  -4.7222  -4.7222  -3.4851  -3.4847  -2.4653  -2.4653  -2.4389
    -2.2615  -2.2615  -2.1877  -1.9887  -1.9887  -1.9091  -1.7335  -1.7335
    -0.1035  -0.0696  -0.0696   0.2039   0.3010   0.3010   0.6633   0.7758
     0.7758   1.1220   1.1802   1.1802   3.2499   3.3726   3.3726   3.4575
     3.7155   3.7155   3.8454   4.0938   4.0938   4.1964   4.3687   4.3687
     4.4047  15.5678  15.5678  15.6531  15.8959  15.8959  16.1213  16.4843
    16.4843  16.7664  17.2662

     the Fermi energy is    10.6034 ev

!    total energy              =    -444.80016989 Ry
     estimated scf accuracy    <          8.1E-11 Ry
     smearing contrib. (-TS)   =      -0.00000000 Ry
     internal energy E=F+TS    =    -444.80016989 Ry

     The total energy is F=E-TS. E is the sum of the following terms:
     one-electron contribution =   -3715.37854967 Ry
     hartree contribution      =    1918.06143886 Ry
     xc contribution           =    -113.81558647 Ry
     ewald contribution        =    1614.24165551 Ry
     one-center paw contrib.   =    -147.90912811 Ry

     convergence has been achieved in   7 iterations

     negative rho (up, down):  3.767E-08 0.000E+00

     Forces acting on atoms (cartesian axes, Ry/au):

     atom    1 type  1   force =     0.00000000    0.00000000    0.00019057
     atom    2 type  1   force =     0.00000000   -0.00000000   -0.00015514
     atom    3 type  1   force =     0.00000000    0.00000000   -0.00019380
     atom    4 type  1   force =     0.00000000    0.00000000   -0.00020748
     atom    5 type  1   force =     0.00000000    0.00000000   -0.00018033
     atom    6 type  1   force =     0.00000000    0.00000000   -0.00008305
     atom    7 type  1   force =     0.00000000   -0.00000000    0.00009903
     atom    8 type  1   force =     0.00000000    0.00000000    0.00014255
     atom    9 type  1   force =     0.00000000    0.00000000    0.00017973
     atom   10 type  1   force =     0.00000000    0.00000000    0.00015043
     atom   11 type  1   force =     0.00000000   -0.00000000    0.00007215
     atom   12 type  1   force =     0.00000000   -0.00000000    0.00003978
     atom   13 type  1   force =     0.00000000    0.00000000   -0.00003978
     atom   14 type  1   force =     0.00000000   -0.00000000   -0.00007215
     atom   15 type  1   force =     0.00000000    0.00000000   -0.00015043
     atom   16 type  1   force =     0.00000000    0.00000000   -0.00017973
     atom   17 type  1   force =     0.00000000   -0.00000000   -0.00014255
     atom   18 type  1   force =     0.00000000    0.00000000   -0.00009903
     atom   19 type  1   force =    -0.00000000   -0.00000000    0.00008305
     atom   20 type  1   force =     0.00000000   -0.00000000    0.00018033
     atom   21 type  1   force =     0.00000000    0.00000000    0.00020748
     atom   22 type  1   force =     0.00000000   -0.00000000    0.00019380
     atom   23 type  1   force =     0.00000000    0.00000000    0.00015514
     atom   24 type  1   force =     0.00000000   -0.00000000   -0.00019057
     atom   25 type  2   force =     0.00000000    0.00000000   -0.00012703
     atom   26 type  2   force =     0.00000000    0.00000000    0.00012703

     Total force =     0.000759     Total SCF correction =     0.000013
     Energy error            =      1.2E-06 Ry
     Gradient error          =      2.1E-04 Ry/Bohr

     number of scf cycles    =   8
     number of bfgs steps    =   7

     energy             old  =    -444.8001687180 Ry
     energy             new  =    -444.8001698858 Ry

     CASE: energy            _new < energy            _old

     new trust radius        =       0.0006044675 bohr
     new conv_thr            =            1.0E-10 Ry


ATOMIC_POSITIONS (angstrom)
C                1.2632452000        0.7293349600       28.2778225741
C                2.5264904100        1.4586699200       27.7899156219
C                2.5264904100        1.4586699200       26.2358554486
C               -0.0000000000        0.0000000000       25.7211856807
C               -0.0000000000        0.0000000000       24.1733826265
C                1.2632452000        0.7293349600       23.6577091074
C                1.2632452000        0.7293349600       22.1099550721
C                2.5264904100        1.4586699200       21.5940368504
C                2.5264904100        1.4586699200       20.0463502156
C                0.0000000000        0.0000000000       19.5304860633
C               -0.0000000000       -0.0000000000       17.9830714799
C                1.2632452000        0.7293349600       17.4672991848
C                1.2632452000        0.7293349600       15.9199970852
C                2.5264904100        1.4586699200       15.4042247901
C                2.5264904100        1.4586699200       13.8568102067
C                0.0000000000        0.0000000000       13.3409460544
C               -0.0000000000        0.0000000000       11.7932594196
C                1.2632452000        0.7293349600       11.2773411979
C                1.2632452000        0.7293349600        9.7295871626
C                2.5264904100        1.4586699200        9.2139136435
C                2.5264904100        1.4586699200        7.6661105893
C               -0.0000000000       -0.0000000000        7.1514408214
C                0.0000000000        0.0000000000        5.5973806481
C                1.2632452000        0.7293349600        5.1094736959
H                1.2632452000        0.7293349600       29.3870713005
H                1.2632452000        0.7293349600        4.0002249695



     Writing config-only to output data dir /tmp/qe/slab.save/ :
     XML data file
     NEW-OLD atomic charge density approx. for the potential

     Check: negative core charge=   -0.000001

     negative rho (up, down):  3.820E-08 0.000E+00

     total cpu time spent up to now is      188.6 secs

     Self-consistent Calculation

     iteration #  1     ecut=    90.00 Ry     beta= 0.30
     Davidson diagonalization with overlap
     ethr =  1.00E-06,  avg # of iterations =  2.0

     Threshold (ethr) on eigenvalues was too large:
     Diagonalizing with lowered threshold

     Davidson diagonalization with overlap
     ethr =  4.82E-10,  avg # of iterations =  5.0

     negative rho (up, down):  3.830E-08 0.000E+00

     total cpu time spent up to now is      194.3 secs

     total energy              =    -444.80017061 Ry
     estimated scf accuracy    <       0.00000043 Ry

     iteration #  2     ecut=    90.00 Ry     beta= 0.30
     Davidson diagonalization with overlap
     ethr =  4.41E-10,  avg # of iterations =  2.0

     negative rho (up, down):  3.825E-08 0.000E+00

     total cpu time spent up to now is      196.6 secs

     total energy              =    -444.80017061 Ry
     estimated scf accuracy    <       0.00000014 Ry

     iteration #  3     ecut=    90.00 Ry     beta= 0.30
     Davidson diagonalization with overlap
     ethr =  1.41E-10,  avg # of iterations =  1.5

     negative rho (up, down):  3.833E-08 0.000E+00

     total cpu time spent up to now is      198.8 secs

     total energy              =    -444.80017061 Ry
     estimated scf accuracy    <       0.00000004 Ry

     iteration #  4     ecut=    90.00 Ry     beta= 0.30
     Davidson diagonalization with overlap
     ethr =  4.44E-11,  avg # of iterations =  2.0

     negative rho (up, down):  3.838E-08 0.000E+00

     total cpu time spent up to now is      201.3 secs

     total energy              =    -444.80017062 Ry
     estimated scf accuracy    <          3.0E-09 Ry

     iteration #  5     ecut=    90.00 Ry     beta= 0.30
     Davidson diagonalization with overlap
     ethr =  3.03E-12,  avg # of iterations =  2.4

     negative rho (up, down):  3.843E-08 0.000E+00

     total cpu time spent up to now is      203.9 secs

     total energy              =    -444.80017062 Ry
     estimated scf accuracy    <          1.0E-09 Ry

     iteration #  6     ecut=    90.00 Ry     beta= 0.30
     Davidson diagonalization with overlap
     ethr =  1.03E-12,  avg # of iterations =  2.0

     negative rho (up, down):  3.844E-08 0.000E+00

     total cpu time spent up to now is      206.4 secs

     total energy              =    -444.80017062 Ry
     estimated scf accuracy    <          1.5E-10 Ry

     iteration #  7     ecut=    90.00 Ry     beta= 0.30
     Davidson diagonalization with overlap
     ethr =  1.55E-13,  avg # of iterations =  2.3

     negative rho (up, down):  3.846E-08 0.000E+00

     total cpu time spent up to now is      208.8 secs

     End of self-consistent calculation

          k = 0.0000 0.0000 0.0000 ( 17885 PWs)   bands (ev):

   -12.2280 -12.0957 -11.8813 -11.5817 -11.1998 -10.7368 -10.1951  -9.5800
    -8.9003  -8.1737  -7.4419  -6.8109  -3.9638  -3.3242  -2.4082  -1.3385
    -0.1761   1.0501   2.3166   3.5979   4.8628   6.0744   6.3750   6.3750
     6.4596   6.4596   6.5943   6.5943   6.7802   6.7802   7.0128   7.0128
     7.1870   7.2882   7.2882   7.5998   7.5998   7.9367   7.9367   8.1477
     8.2815   8.2815   8.6086   8.6086   8.8536   8.8838   8.8838   9.0681
     9.0681  11.4507  12.0404  14.0677  14.8183  14.8183  14.8889  15.0803
    15.0803  15.4552  15.4552

          k = 0.0000 0.1283 0.0000 ( 17983 PWs)   bands (ev):

   -11.9256 -11.7937 -11.5799 -11.2813 -10.9007 -10.4394  -9.8999  -9.2876
    -8.6115  -7.8894  -7.1634  -6.5393  -3.6901  -3.0586  -2.1553  -1.1018
     0.0399   1.2393   2.4701   3.7012   4.8808   4.9245   5.0219   5.1802
     5.3934   5.6717   5.7214   5.8183   5.8467   5.9727   6.1019   6.1845
     6.3546   6.4477   6.6013   6.7560   6.9917   7.1006   7.1492   7.3581
     7.4678   7.6258   7.8125   7.8375   8.0544   8.1824   8.4680   8.5731
     8.6569  11.7391  12.2710  14.2923  14.4822  14.8405  15.2279  15.4189
    15.6648  15.6854  15.8964

          k = 0.0000 0.2566 0.0000 ( 17943 PWs)   bands (ev):

   -11.0245 -10.8938 -10.6821 -10.3866 -10.0102  -9.5546  -9.0224  -8.4193
    -7.7547  -7.0471  -6.3391  -5.7352  -2.9235  -2.3199  -1.4638  -0.4778
     0.5608   1.5226   1.9977   2.0985   2.1905   2.4097   2.7098   2.9844
     3.0855   3.4984   3.9393   4.0236   4.3911   4.5233   4.6305   4.8017
     4.8148   5.0307   5.0366   5.1753   5.3283   5.3981   5.6693   5.9745
     6.0486   6.4499   6.7653   6.8503   7.2197   7.3781   7.5220   7.7203
     7.7673  12.6056  12.9674  13.8350  14.1315  14.5847  14.9509  15.1873
    15.5704  15.8076  16.0766

          k = 0.0000 0.3849 0.0000 ( 17956 PWs)   bands (ev):

    -9.5477  -9.4197  -9.2127  -8.9242  -8.5575  -8.1148  -7.5996  -7.0182
    -6.3811  -5.7073  -5.0376  -4.4687  -2.2328  -1.8013  -1.4854  -1.3657
    -1.1084  -0.7382  -0.3156  -0.0631   0.1743   0.3679   0.8611   0.9103
     1.4911   1.6301   2.0828   2.3732   2.5546   3.0548   3.5179   3.6293
     3.6479   3.8074   4.0521   4.0755   4.3560   4.6733   4.7112   5.1060
     5.3792   5.5231   5.9384   6.0279   6.3204   6.5409   6.6320   6.8358
     6.8647  13.3785  13.5922  13.8973  14.0828  14.4438  14.6269  14.9039
    15.2766  15.6704  16.1039

          k = 0.0000 0.5132 0.0000 ( 17988 PWs)   bands (ev):

    -7.5762  -7.4588  -7.2714  -7.0152  -6.7004  -6.3417  -5.9625  -5.5860
    -5.2069  -4.7980  -4.3478  -3.8777  -3.7233  -3.5417  -3.2537  -3.1690
    -2.7991  -2.6492  -2.2806  -2.1846  -1.7048  -1.1057  -0.5264  -0.0596
     0.7687   1.1975   1.7762   2.3504   2.6009   2.7431   2.8913   2.9724
     3.0852   3.2658   3.3244   3.5141   3.8225   4.0748   4.1830   4.5836
     4.8168   5.0067   5.4277   5.4748   5.8146   5.9883   6.1300   6.3093
     6.3361  13.5561  13.8113  14.0833  14.3323  14.5129  14.6876  14.8198
    15.0887  15.3153  15.5428

          k = 0.1111 0.1925 0.0000 ( 17961 PWs)   bands (ev):

   -11.3238 -11.1927 -10.9803 -10.6837 -10.3058  -9.8482  -9.3134  -8.7070
    -8.0384  -7.3257  -6.6116  -6.0010  -3.1663  -2.5523  -1.6777  -0.6632
     0.4256   1.5486   2.6470   3.3826   3.3965   3.4452   3.4818   3.5866
     3.6963   3.9843   4.0283   4.4213   4.4733   4.8375   4.9286   5.0496
     5.1772   5.3090   5.3431   5.5899   5.6911   5.9994   6.1178   6.2897
     6.5386   6.5675   6.6481   6.7923   7.0000   7.2004   7.4918   7.9957
     8.3971  12.3406  12.7763  14.8341  14.9775  15.0426  15.2614  15.3226
    15.5656  15.8816  16.2212

          k = 0.1111 0.3208 0.0000 ( 17910 PWs)   bands (ev):

   -10.1339 -10.0046  -9.7954  -9.5036  -9.1324  -8.6835  -8.1600  -7.5678
    -6.9169  -6.2260  -5.5373  -4.9524  -2.3077  -1.7504  -0.9945  -0.2363
     0.2274   0.5530   0.7783   0.9600   1.1076   1.2716   1.6178   1.7731
     2.0243   2.2974   2.5132   2.7837   2.9612   3.2898   3.3980   3.4741
     3.5886   3.8530   4.1448   4.3194   4.4098   4.4823   4.6866   4.7558
     5.1268   5.1997   5.5574   5.8385   5.9277   6.2310   6.7141   7.2185
     7.5447  13.4869  13.7434  14.4076  14.8089  15.2419  15.8005  16.0683
    16.1352  16.2972  16.4978

          k = 0.1111 0.4491 0.0000 ( 17954 PWs)   bands (ev):

    -8.3985  -8.2739  -8.0730  -7.7937  -7.4404  -7.0165  -6.5275  -5.9825
    -5.3957  -4.7883  -4.1938  -3.6722  -2.6520  -2.5902  -2.4800  -2.3689
    -2.2277  -1.8601  -1.4116  -0.9078  -0.3711   0.1262   0.2901   0.5842
     0.7897   1.0754   1.3127   1.9406   2.2260   2.3604   2.5625   2.6645
     2.8164   2.8350   3.1231   3.2480   3.5398   3.5443   3.9374   4.0372
     4.4791   4.6044   4.9471   5.2302   5.3264   5.5708   5.8171   6.2702
     6.5582  14.1110  14.4101  14.7727  15.1680  15.4934  15.8259  16.0671
    16.2596  16.3772  16.6489

          k = 0.1111-0.5774 0.0000 ( 17982 PWs)   bands (ev):

    -6.3623  -6.3610  -6.3318  -6.2967  -6.1979  -6.0412  -5.8232  -5.5424
    -5.1991  -4.7957  -4.3403  -3.9262  -3.7928  -3.6628  -3.3208  -3.2432
    -2.7408  -2.7020  -2.1733  -2.0989  -1.6050  -1.5336  -1.1375  -1.1053
     1.5693   1.6521   1.8457   1.8706   2.0051   2.0106   2.2657   2.3908
     2.5266   2.6835   2.8209   2.9136   2.9699   3.3988   3.4144   3.9264
     4.0270   4.4720   4.6153   4.9749   5.1312   5.3582   5.6241   5.8473
     5.9375  14.2185  14.5905  15.0536  15.4206  15.5122  15.7139  15.7932
    16.0580  16.3387  16.4248

          k = 0.2222 0.3849 0.0000 ( 17927 PWs)   bands (ev):

    -8.6806  -8.5546  -8.3511  -8.0678  -7.7085  -7.2756  -6.7732  -6.2081
    -5.5911  -4.9405  -4.2931  -3.7342  -2.1582  -1.7991  -1.4462  -1.1942
    -1.0002  -0.7991  -0.5607  -0.2772   0.0473   0.3837   0.4996   0.7027
     0.7525   1.0096   1.1756   1.2931   1.7125   1.7253   2.0748   2.2769
     2.5345   2.5530   2.8650   2.9502   3.1479   3.4031   3.4372   3.7072
     3.8089   3.8742   4.2150   4.4711   4.8274   5.3606   5.8976   6.3357
     6.6163  14.7562  14.8457  15.3634  15.4605  15.7918  15.9692  16.3698
    16.7256  17.1194  17.2114

          k = 0.2222-0.6415 0.0000 ( 17997 PWs)   bands (ev):

    -6.7566  -6.6427  -6.4616  -6.2146  -5.9125  -5.5699  -5.2104  -4.8596
    -4.5174  -4.1600  -3.7782  -3.2955  -3.1813  -2.9723  -2.7471  -2.5185
    -2.3759  -2.1711  -1.9895  -1.8711  -1.5582  -1.1818  -0.8056  -0.4850
     0.3390   0.4796   0.5461   0.7229   0.9720   1.1566   1.2558   1.5421
     1.6522   1.8646   2.1419   2.3667   2.6974   2.8943   3.2082   3.3184
     3.4377   3.6315   3.7299   4.1939   4.5869   4.7885   4.9374   5.2715
     5.5180  14.8270  15.1873  15.6663  15.9387  16.1531  16.4026  16.7573
    16.7689  16.9835  17.3074

          k = 0.3333-0.5774 0.0000 ( 18015 PWs)   bands (ev):

    -4.8668  -4.8668  -4.8663  -4.8238  -4.8238  -4.8205  -4.7781  -4.7781
    -4.7760  -4.7222  -4.7222  -3.4847  -3.4842  -2.4652  -2.4652  -2.4387
    -2.2620  -2.2620  -2.1882  -1.9888  -1.9888  -1.9092  -1.7336  -1.7336
    -0.1036  -0.0696  -0.0696   0.2033   0.3008   0.3008   0.6634   0.7758
     0.7758   1.1222   1.1802   1.1802   3.2497   3.3727   3.3727   3.4572
     3.7152   3.7152   3.8456   4.0938   4.0938   4.1963   4.3689   4.3689
     4.4046  15.5679  15.5679  15.6533  15.8963  15.8963  16.1222  16.4843
    16.4843  16.7668  17.2663

     the Fermi energy is    10.6038 ev

!    total energy              =    -444.80017062 Ry
     estimated scf accuracy    <          3.8E-11 Ry
     smearing contrib. (-TS)   =      -0.00000000 Ry
     internal energy E=F+TS    =    -444.80017062 Ry

     The total energy is F=E-TS. E is the sum of the following terms:
     one-electron contribution =   -3715.62916677 Ry
     hartree contribution      =    1918.18661488 Ry
     xc contribution           =    -113.81595727 Ry
     ewald contribution        =    1614.36747610 Ry
     one-center paw contrib.   =    -147.90913756 Ry

     convergence has been achieved in   7 iterations

     negative rho (up, down):  3.846E-08 0.000E+00

     Forces acting on atoms (cartesian axes, Ry/au):

     atom    1 type  1   force =     0.00000000    0.00000000    0.00013148
     atom    2 type  1   force =     0.00000000    0.00000000   -0.00005830
     atom    3 type  1   force =     0.00000000    0.00000000   -0.00001829
     atom    4 type  1   force =     0.00000000   -0.00000000   -0.00012519
     atom    5 type  1   force =     0.00000000   -0.00000000   -0.00015480
     atom    6 type  1   force =     0.00000000    0.00000000   -0.00018404
     atom    7 type  1   force =    -0.00000000    0.00000000   -0.00003454
     atom    8 type  1   force =     0.00000000   -0.00000000    0.00003751
     atom    9 type  1   force =     0.00000000    0.00000000    0.00012752
     atom   10 type  1   force =     0.00000000    0.00000000    0.00014441
     atom   11 type  1   force =     0.00000000   -0.00000000    0.00009001
     atom   12 type  1   force =     0.00000000    0.00000000    0.00004941
     atom   13 type  1   force =     0.00000000   -0.00000000   -0.00004941
     atom   14 type  1   force =     0.00000000    0.00000000   -0.00009001
     atom   15 type  1   force =    -0.00000000   -0.00000000   -0.00014441
     atom   16 type  1   force =    -0.00000000   -0.00000000   -0.00012752
     atom   17 type  1   force =    -0.00000000    0.00000000   -0.00003751
     atom   18 type  1   force =     0.00000000   -0.00000000    0.00003454
     atom   19 type  1   force =    -0.00000000   -0.00000000    0.00018404
     atom   20 type  1   force =    -0.00000000    0.00000000    0.00015480
     atom   21 type  1   force =     0.00000000    0.00000000    0.00012519
     atom   22 type  1   force =    -0.00000000   -0.00000000    0.00001829
     atom   23 type  1   force =     0.00000000   -0.00000000    0.00005830
     atom   24 type  1   force =     0.00000000   -0.00000000   -0.00013148
     atom   25 type  2   force =     0.00000000   -0.00000000   -0.00016914
     atom   26 type  2   force =     0.00000000    0.00000000    0.00016914

     Total force =     0.000589     Total SCF correction =     0.000004
     Energy error            =      7.3E-07 Ry
     Gradient error          =      1.8E-04 Ry/Bohr

     number of scf cycles    =   9
     number of bfgs steps    =   8

     energy             old  =    -444.8001698858 Ry
     energy             new  =    -444.8001706169 Ry

     CASE: energy            _new < energy            _old

     new trust radius        =       0.0004258115 bohr
     new conv_thr            =            1.0E-10 Ry


ATOMIC_POSITIONS (angstrom)
C                1.2632452000        0.7293349600       28.2776966710
C                2.5264904100        1.4586699200       27.7897211482
C                2.5264904100        1.4586699200       26.2356445186
C               -0.0000000000        0.0000000000       25.7209603510
C                0.0000000000       -0.0000000000       24.1732749139
C                1.2632452000        0.7293349600       23.6576537861
C                1.2632452000        0.7293349600       22.1100896905
C                2.5264904100        1.4586699200       21.5942280816
C                2.5264904100        1.4586699200       20.0465690621
C                0.0000000000        0.0000000000       19.5306922024
C               -0.0000000000       -0.0000000000       17.9831796613
C                1.2632452000        0.7293349600       17.4673573978
C                1.2632452000        0.7293349600       15.9199388722
C                2.5264904100        1.4586699200       15.4041166087
C                2.5264904100        1.4586699200       13.8566040676
C                0.0000000000       -0.0000000000       13.3407272079
C               -0.0000000000        0.0000000000       11.7930681884
C                1.2632452000        0.7293349600       11.2772065795
C                1.2632452000        0.7293349600        9.7296424839
C                2.5264904100        1.4586699200        9.2140213561
C                2.5264904100        1.4586699200        7.6663359190
C               -0.0000000000       -0.0000000000        7.1516517514
C                0.0000000000        0.0000000000        5.5975751218
C                1.2632452000        0.7293349600        5.1095995990
H                1.2632452000        0.7293349600       29.3868963169
H                1.2632452000        0.7293349600        4.0003999531



     Writing config-only to output data dir /tmp/qe/slab.save/ :
     XML data file
     NEW-OLD atomic charge density approx. for the potential

     Check: negative core charge=   -0.000001

     negative rho (up, down):  3.876E-08 0.000E+00

     total cpu time spent up to now is      209.9 secs

     Self-consistent Calculation

     iteration #  1     ecut=    90.00 Ry     beta= 0.30
     Davidson diagonalization with overlap
     ethr =  1.00E-06,  avg # of iterations =  2.0

     Threshold (ethr) on eigenvalues was too large:
     Diagonalizing with lowered threshold

     Davidson diagonalization with overlap
     ethr =  3.00E-10,  avg # of iterations =  5.1

     negative rho (up, down):  3.884E-08 0.000E+00

     total cpu time spent up to now is      215.5 secs

     total energy              =    -444.80017102 Ry
     estimated scf accuracy    <       0.00000024 Ry

     iteration #  2     ecut=    90.00 Ry     beta= 0.30
     Davidson diagonalization with overlap
     ethr =  2.44E-10,  avg # of iterations =  2.0

     negative rho (up, down):  3.881E-08 0.000E+00

     total cpu time spent up to now is      217.8 secs

     total energy              =    -444.80017102 Ry
     estimated scf accuracy    <       0.00000008 Ry

     iteration #  3     ecut=    90.00 Ry     beta= 0.30
     Davidson diagonalization with overlap
     ethr =  7.89E-11,  avg # of iterations =  1.6

     negative rho (up, down):  3.885E-08 0.000E+00

     total cpu time spent up to now is      220.1 secs

     total energy              =    -444.80017102 Ry
     estimated scf accuracy    <       0.00000002 Ry

     iteration #  4     ecut=    90.00 Ry     beta= 0.30
     Davidson diagonalization with overlap
     ethr =  2.36E-11,  avg # of iterations =  2.0

     negative rho (up, down):  3.887E-08 0.000E+00

     total cpu time spent up to now is      222.5 secs

     total energy              =    -444.80017102 Ry
     estimated scf accuracy    <          1.9E-09 Ry

     iteration #  5     ecut=    90.00 Ry     beta= 0.30
     Davidson diagonalization with overlap
     ethr =  1.91E-12,  avg # of iterations =  2.4

     negative rho (up, down):  3.889E-08 0.000E+00

     total cpu time spent up to now is      225.2 secs

     total energy              =    -444.80017102 Ry
     estimated scf accuracy    <          5.8E-10 Ry

     iteration #  6     ecut=    90.00 Ry     beta= 0.30
     Davidson diagonalization with overlap
     ethr =  5.93E-13,  avg # of iterations =  2.1

     negative rho (up, down):  3.891E-08 0.000E+00

     total cpu time spent up to now is      227.6 secs

     End of self-consistent calculation

          k = 0.0000 0.0000 0.0000 ( 17885 PWs)   bands (ev):

   -12.2279 -12.0964 -11.8812 -11.5815 -11.1998 -10.7368 -10.1951  -9.5800
    -8.9004  -8.1737  -7.4416  -6.8109  -3.9638  -3.3246  -2.4078  -1.3384
    -0.1762   1.0500   2.3166   3.5979   4.8628   6.0745   6.3751   6.3751
     6.4590   6.4590   6.5944   6.5944   6.7804   6.7804   7.0129   7.0129
     7.1870   7.2883   7.2883   7.5999   7.5999   7.9368   7.9368   8.1476
     8.2816   8.2816   8.6088   8.6088   8.8537   8.8839   8.8839   9.0682
     9.0682  11.4506  12.0403  14.0678  14.8184  14.8184  14.8891  15.0799
    15.0799  15.4553  15.4553

          k = 0.0000 0.1283 0.0000 ( 17983 PWs)   bands (ev):

   -11.9255 -11.7944 -11.5799 -11.2811 -10.9007 -10.4394  -9.8999  -9.2876
    -8.6115  -7.8894  -7.1631  -6.5393  -3.6901  -3.0591  -2.1550  -1.1018
     0.0398   1.2392   2.4701   3.7011   4.8808   4.9246   5.0213   5.1802
     5.3936   5.6718   5.7215   5.8177   5.8468   5.9728   6.1020   6.1847
     6.3547   6.4477   6.6013   6.7561   6.9917   7.1007   7.1492   7.3583
     7.4679   7.6258   7.8126   7.8377   8.0543   8.1826   8.4680   8.5731
     8.6570  11.7391  12.2709  14.2923  14.4823  14.8406  15.2281  15.4189
    15.6648  15.6850  15.8964

          k = 0.0000 0.2566 0.0000 ( 17943 PWs)   bands (ev):

   -11.0243 -10.8945 -10.6821 -10.3864 -10.0102  -9.5546  -9.0224  -8.4193
    -7.7548  -7.0472  -6.3388  -5.7351  -2.9235  -2.3204  -1.4635  -0.4778
     0.5606   1.5225   1.9972   2.0989   2.1901   2.4099   2.7098   2.9844
     3.0855   3.4985   3.9394   4.0235   4.3912   4.5234   4.6299   4.8018
     4.8150   5.0307   5.0369   5.1754   5.3284   5.3982   5.6694   5.9745
     6.0487   6.4500   6.7653   6.8504   7.2199   7.3779   7.5221   7.7204
     7.7674  12.6056  12.9674  13.8351  14.1315  14.5848  14.9511  15.1873
    15.5704  15.8078  16.0767

          k = 0.0000 0.3849 0.0000 ( 17956 PWs)   bands (ev):

    -9.5476  -9.4204  -9.2127  -8.9240  -8.5575  -8.1148  -7.5995  -7.0182
    -6.3812  -5.7073  -5.0373  -4.4686  -2.2328  -1.8018  -1.4853  -1.3658
    -1.1085  -0.7382  -0.3156  -0.0630   0.1741   0.3679   0.8612   0.9103
     1.4912   1.6301   2.0829   2.3732   2.5547   3.0548   3.5180   3.6286
     3.6479   3.8075   4.0523   4.0754   4.3560   4.6731   4.7113   5.1062
     5.3792   5.5233   5.9386   6.0278   6.3206   6.5407   6.6321   6.8360
     6.8648  13.3786  13.5923  13.8975  14.0828  14.4437  14.6271  14.9039
    15.2767  15.6706  16.1039

          k = 0.0000 0.5132 0.0000 ( 17988 PWs)   bands (ev):

    -7.5761  -7.4595  -7.2714  -7.0150  -6.7004  -6.3417  -5.9625  -5.5860
    -5.2070  -4.7982  -4.3477  -3.8776  -3.7232  -3.5421  -3.2537  -3.1690
    -2.7990  -2.6491  -2.2805  -2.1845  -1.7048  -1.1057  -0.5262  -0.0595
     0.7687   1.1971   1.7764   2.3504   2.6009   2.7428   2.8913   2.9725
     3.0846   3.2660   3.3243   3.5143   3.8225   4.0746   4.1830   4.5838
     4.8168   5.0068   5.4278   5.4748   5.8148   5.9881   6.1301   6.3093
     6.3362  13.5562  13.8111  14.0835  14.3325  14.5127  14.6879  14.8197
    15.0890  15.3150  15.5431

          k = 0.1111 0.1925 0.0000 ( 17961 PWs)   bands (ev):

   -11.3237 -11.1934 -10.9802 -10.6835 -10.3058  -9.8482  -9.3134  -8.7070
    -8.0385  -7.3258  -6.6113  -6.0009  -3.1663  -2.5528  -1.6774  -0.6632
     0.4255   1.5485   2.6469   3.3830   3.3961   3.4449   3.4815   3.5867
     3.6963   3.9843   4.0284   4.4213   4.4734   4.8376   4.9288   5.0494
     5.1771   5.3091   5.3432   5.5900   5.6913   5.9994   6.1180   6.2898
     6.5387   6.5675   6.6483   6.7923   7.0001   7.2006   7.4919   7.9956
     8.3971  12.3406  12.7763  14.8340  14.9776  15.0427  15.2617  15.3225
    15.5657  15.8816  16.2212

          k = 0.1111 0.3208 0.0000 ( 17910 PWs)   bands (ev):

   -10.1338 -10.0053  -9.7954  -9.5034  -9.1324  -8.6835  -8.1599  -7.5678
    -6.9170  -6.2261  -5.5370  -4.9523  -2.3078  -1.7510  -0.9942  -0.2362
     0.2272   0.5526   0.7784   0.9601   1.1074   1.2717   1.6179   1.7729
     2.0245   2.2972   2.5134   2.7836   2.9613   3.2899   3.3980   3.4740
     3.5882   3.8532   4.1450   4.3194   4.4098   4.4823   4.6866   4.7559
     5.1269   5.1997   5.5575   5.8386   5.9278   6.2310   6.7141   7.2184
     7.5447  13.4869  13.7434  14.4077  14.8090  15.2420  15.8006  16.0685
    16.1352  16.2973  16.4979

          k = 0.1111 0.4491 0.0000 ( 17954 PWs)   bands (ev):

    -8.3984  -8.2746  -8.0729  -7.7935  -7.4404  -7.0165  -6.5274  -5.9825
    -5.3958  -4.7884  -4.1936  -3.6722  -2.6520  -2.5903  -2.4803  -2.3690
    -2.2276  -1.8600  -1.4116  -0.9078  -0.3712   0.1262   0.2901   0.5840
     0.7896   1.0755   1.3129   1.9406   2.2261   2.3599   2.5627   2.6644
     2.8166   2.8349   3.1231   3.2479   3.5398   3.5444   3.9373   4.0373
     4.4791   4.6043   4.9472   5.2301   5.3265   5.5709   5.8171   6.2701
     6.5582  14.1112  14.4103  14.7727  15.1681  15.4935  15.8260  16.0671
    16.2596  16.3771  16.6493

          k = 0.1111-0.5774 0.0000 ( 17982 PWs)   bands (ev):

    -6.3627  -6.3605  -6.3325  -6.2971  -6.1979  -6.0412  -5.8231  -5.5424
    -5.1991  -4.7957  -4.3402  -3.9262  -3.7926  -3.6631  -3.3209  -3.2431
    -2.7407  -2.7021  -2.1733  -2.0988  -1.6048  -1.5335  -1.1374  -1.1052
     1.5691   1.6521   1.8453   1.8707   2.0048   2.0104   2.2659   2.3909
     2.5266   2.6835   2.8209   2.9135   2.9700   3.3988   3.4143   3.9265
     4.0270   4.4721   4.6153   4.9751   5.1312   5.3583   5.6241   5.8472
     5.9376  14.2186  14.5910  15.0533  15.4204  15.5126  15.7138  15.7930
    16.0580  16.3390  16.4249

          k = 0.2222 0.3849 0.0000 ( 17927 PWs)   bands (ev):

    -8.6805  -8.5553  -8.3511  -8.0677  -7.7085  -7.2756  -6.7731  -6.2080
    -5.5912  -4.9406  -4.2929  -3.7341  -2.1583  -1.7997  -1.4459  -1.1940
    -1.0003  -0.7992  -0.5608  -0.2773   0.0472   0.3838   0.4997   0.7026
     0.7525   1.0095   1.1757   1.2930   1.7128   1.7252   2.0747   2.2770
     2.5345   2.5530   2.8651   2.9501   3.1479   3.4032   3.4374   3.7072
     3.8090   3.8743   4.2150   4.4710   4.8272   5.3605   5.8976   6.3356
     6.6164  14.7563  14.8458  15.3635  15.4605  15.7923  15.9696  16.3697
    16.7258  17.1194  17.2116

          k = 0.2222-0.6415 0.0000 ( 17997 PWs)   bands (ev):

    -6.7565  -6.6435  -6.4616  -6.2145  -5.9125  -5.5699  -5.2104  -4.8596
    -4.5176  -4.1603  -3.7780  -3.2955  -3.1813  -2.9722  -2.7476  -2.5184
    -2.3760  -2.1709  -1.9894  -1.8710  -1.5582  -1.1818  -0.8056  -0.4849
     0.3390   0.4794   0.5459   0.7230   0.9722   1.1566   1.2558   1.5422
     1.6522   1.8647   2.1418   2.3667   2.6975   2.8945   3.2082   3.3185
     3.4376   3.6315   3.7298   4.1938   4.5868   4.7885   4.9374   5.2714
     5.5181  14.8272  15.1877  15.6661  15.9389  16.1533  16.4028  16.7573
    16.7691  16.9838  17.3079

          k = 0.3333-0.5774 0.0000 ( 18015 PWs)   bands (ev):

    -4.8665  -4.8665  -4.8663  -4.8243  -4.8243  -4.8221  -4.7780  -4.7780
    -4.7762  -4.7219  -4.7219  -3.4843  -3.4839  -2.4651  -2.4651  -2.4384
    -2.2623  -2.2623  -2.1885  -1.9887  -1.9887  -1.9091  -1.7335  -1.7335
    -0.1036  -0.0696  -0.0696   0.2031   0.3008   0.3008   0.6638   0.7759
     0.7759   1.1223   1.1802   1.1802   3.2494   3.3728   3.3728   3.4568
     3.7151   3.7151   3.8457   4.0939   4.0939   4.1959   4.3691   4.3691
     4.4045  15.5680  15.5680  15.6536  15.8964  15.8964  16.1230  16.4842
    16.4842  16.7668  17.2665

     the Fermi energy is    10.6042 ev

!    total energy              =    -444.80017102 Ry
     estimated scf accuracy    <          9.1E-11 Ry
     smearing contrib. (-TS)   =      -0.00000000 Ry
     internal energy E=F+TS    =    -444.80017102 Ry

     The total energy is F=E-TS. E is the sum of the following terms:
     one-electron contribution =   -3715.85504021 Ry
     hartree contribution      =    1918.29966959 Ry
     xc contribution           =    -113.81624686 Ry
     ewald contribution        =    1614.48059061 Ry
     one-center paw contrib.   =    -147.90914416 Ry

     convergence has been achieved in   6 iterations

     negative rho (up, down):  3.891E-08 0.000E+00

     Forces acting on atoms (cartesian axes, Ry/au):

     atom    1 type  1   force =     0.00000000   -0.00000000   -0.00000546
     atom    2 type  1   force =     0.00000000    0.00000000   -0.00000587
     atom    3 type  1   force =     0.00000000    0.00000000    0.00002141
     atom    4 type  1   force =     0.00000000   -0.00000000   -0.00001445
     atom    5 type  1   force =     0.00000000   -0.00000000   -0.00012160
     atom    6 type  1   force =     0.00000000   -0.00000000   -0.00013504
     atom    7 type  1   force =     0.00000000   -0.00000000   -0.00009872
     atom    8 type  1   force =     0.00000000    0.00000000   -0.00005992
     atom    9 type  1   force =     0.00000000    0.00000000    0.00005894
     atom   10 type  1   force =     0.00000000    0.00000000    0.00007509
     atom   11 type  1   force =     0.00000000    0.00000000    0.00006967
     atom   12 type  1   force =     0.00000000   -0.00000000    0.00004484
     atom   13 type  1   force =     0.00000000    0.00000000   -0.00004484
     atom   14 type  1   force =    -0.00000000   -0.00000000   -0.00006967
     atom   15 type  1   force =     0.00000000    0.00000000   -0.00007509
     atom   16 type  1   force =     0.00000000   -0.00000000   -0.00005894
     atom   17 type  1   force =     0.00000000   -0.00000000    0.00005992
     atom   18 type  1   force =     0.00000000   -0.00000000    0.00009872
     atom   19 type  1   force =     0.00000000    0.00000000    0.00013504
     atom   20 type  1   force =     0.00000000   -0.00000000    0.00012160
     atom   21 type  1   force =     0.00000000    0.00000000    0.00001445
     atom   22 type  1   force =     0.00000000    0.00000000   -0.00002141
     atom   23 type  1   force =     0.00000000   -0.00000000    0.00000587
     atom   24 type  1   force =     0.00000000    0.00000000    0.00000546
     atom   25 type  2   force =     0.00000000    0.00000000   -0.00012257
     atom   26 type  2   force =     0.00000000    0.00000000    0.00012257

     Total force =     0.000395     Total SCF correction =     0.000016
     Energy error            =      4.0E-07 Ry
     Gradient error          =      1.4E-04 Ry/Bohr

     number of scf cycles    =  10
     number of bfgs steps    =   9

     energy             old  =    -444.8001706169 Ry
     energy             new  =    -444.8001710193 Ry

     CASE: energy            _new < energy            _old

     new trust radius        =       0.0002814114 bohr
     new conv_thr            =            1.0E-10 Ry


ATOMIC_POSITIONS (angstrom)
C                1.2632452000        0.7293349600       28.2776133003
C                2.5264904100        1.4586699200       27.7896220838
C                2.5264904100        1.4586699200       26.2355387933
C               -0.0000000000       -0.0000000000       25.7208363358
C                0.0000000000       -0.0000000000       24.1731348070
C                1.2632452000        0.7293349600       23.6575413682
C                1.2632452000        0.7293349600       22.1100897373
C                2.5264904100        1.4586699200       21.5942786522
C                2.5264904100        1.4586699200       20.0467157989
C                0.0000000000        0.0000000000       19.5308411189
C                0.0000000000       -0.0000000000       17.9832795062
C                1.2632452000        0.7293349600       17.4674169632
C                1.2632452000        0.7293349600       15.9198793068
C                2.5264904100        1.4586699200       15.4040167638
C                2.5264904100        1.4586699200       13.8564551511
C                0.0000000000       -0.0000000000       13.3405804711
C               -0.0000000000        0.0000000000       11.7930176178
C                1.2632452000        0.7293349600       11.2772065327
C                1.2632452000        0.7293349600        9.7297549018
C                2.5264904100        1.4586699200        9.2141614630
C                2.5264904100        1.4586699200        7.6664599342
C               -0.0000000000       -0.0000000000        7.1517574767
C                0.0000000000       -0.0000000000        5.5976741862
C                1.2632452000        0.7293349600        5.1096829697
H                1.2632452000        0.7293349600       29.3867487762
H                1.2632452000        0.7293349600        4.0005474938



     Writing config-only to output data dir /tmp/qe/slab.save/ :
     XML data file
     NEW-OLD atomic charge density approx. for the potential

     Check: negative core charge=   -0.000001

     negative rho (up, down):  3.913E-08 0.000E+00

     total cpu time spent up to now is      228.7 secs

     Self-consistent Calculation

     iteration #  1     ecut=    90.00 Ry     beta= 0.30
     Davidson diagonalization with overlap
     ethr =  1.00E-06,  avg # of iterations =  2.0

     Threshold (ethr) on eigenvalues was too large:
     Diagonalizing with lowered threshold

     Davidson diagonalization with overlap
     ethr =  1.40E-10,  avg # of iterations =  5.0

     negative rho (up, down):  3.918E-08 0.000E+00

     total cpu time spent up to now is      234.3 secs

     total energy              =    -444.80017122 Ry
     estimated scf accuracy    <       0.00000011 Ry

     iteration #  2     ecut=    90.00 Ry     beta= 0.30
     Davidson diagonalization with overlap
     ethr =  1.16E-10,  avg # of iterations =  2.0

     negative rho (up, down):  3.913E-08 0.000E+00

     total cpu time spent up to now is      236.6 secs

     total energy              =    -444.80017122 Ry
     estimated scf accuracy    <       0.00000003 Ry

     iteration #  3     ecut=    90.00 Ry     beta= 0.30
     Davidson diagonalization with overlap
     ethr =  3.48E-11,  avg # of iterations =  1.8

     negative rho (up, down):  3.912E-08 0.000E+00

     total cpu time spent up to now is      238.8 secs

     total energy              =    -444.80017122 Ry
     estimated scf accuracy    <       0.00000001 Ry

     iteration #  4     ecut=    90.00 Ry     beta= 0.30
     Davidson diagonalization with overlap
     ethr =  1.10E-11,  avg # of iterations =  2.0

     negative rho (up, down):  3.912E-08 0.000E+00

     total cpu time spent up to now is      241.3 secs

     total energy              =    -444.80017122 Ry
     estimated scf accuracy    <          1.2E-09 Ry

     iteration #  5     ecut=    90.00 Ry     beta= 0.30
     Davidson diagonalization with overlap
     ethr =  1.19E-12,  avg # of iterations =  2.2

     negative rho (up, down):  3.914E-08 0.000E+00

     total cpu time spent up to now is      243.8 secs

     total energy              =    -444.80017122 Ry
     estimated scf accuracy    <          3.3E-10 Ry

     iteration #  6     ecut=    90.00 Ry     beta= 0.30
     Davidson diagonalization with overlap
     ethr =  3.37E-13,  avg # of iterations =  2.2

     negative rho (up, down):  3.917E-08 0.000E+00

     total cpu time spent up to now is      246.3 secs

     End of self-consistent calculation

          k = 0.0000 0.0000 0.0000 ( 17885 PWs)   bands (ev):

   -12.2278 -12.0968 -11.8810 -11.5815 -11.1998 -10.7368 -10.1951  -9.5799
    -8.9003  -8.1739  -7.4415  -6.8108  -3.9639  -3.3248  -2.4076  -1.3386
    -0.1763   1.0501   2.3167   3.5980   4.8628   6.0746   6.3751   6.3751
     6.4587   6.4587   6.5947   6.5947   6.7805   6.7805   7.0129   7.0129
     7.1871   7.2882   7.2882   7.5999   7.5999   7.9368   7.9368   8.1477
     8.2817   8.2817   8.6089   8.6089   8.8538   8.8839   8.8839   9.0683
     9.0683  11.4505  12.0403  14.0678  14.8184  14.8184  14.8893  15.0798
    15.0798  15.4555  15.4555

          k = 0.0000 0.1283 0.0000 ( 17983 PWs)   bands (ev):

   -11.9255 -11.7948 -11.5796 -11.2811 -10.9007 -10.4394  -9.8999  -9.2875
    -8.6115  -7.8896  -7.1630  -6.5392  -3.6902  -3.0593  -2.1547  -1.1020
     0.0397   1.2393   2.4701   3.7012   4.8808   4.9246   5.0210   5.1805
     5.3936   5.6717   5.7215   5.8173   5.8468   5.9730   6.1019   6.1848
     6.3548   6.4477   6.6014   6.7561   6.9918   7.1008   7.1493   7.3583
     7.4679   7.6259   7.8127   7.8377   8.0543   8.1827   8.4681   8.5732
     8.6571  11.7390  12.2709  14.2922  14.4824  14.8407  15.2282  15.4190
    15.6649  15.6848  15.8965

          k = 0.0000 0.2566 0.0000 ( 17943 PWs)   bands (ev):

   -11.0243 -10.8949 -10.6818 -10.3864 -10.0103  -9.5546  -9.0224  -8.4192
    -7.7548  -7.0473  -6.3387  -5.7350  -2.9236  -2.3206  -1.4632  -0.4780
     0.5605   1.5224   1.9970   2.0994   2.1898   2.4100   2.7098   2.9845
     3.0854   3.4985   3.9394   4.0235   4.3912   4.5235   4.6295   4.8021
     4.8150   5.0307   5.0369   5.1755   5.3283   5.3983   5.6694   5.9745
     6.0487   6.4500   6.7654   6.8505   7.2200   7.3778   7.5222   7.7204
     7.7674  12.6056  12.9674  13.8352  14.1316  14.5849  14.9512  15.1872
    15.5703  15.8078  16.0767

          k = 0.0000 0.3849 0.0000 ( 17956 PWs)   bands (ev):

    -9.5476  -9.4209  -9.2124  -8.9240  -8.5576  -8.1149  -7.5996  -7.0181
    -6.3811  -5.7074  -5.0372  -4.4686  -2.2329  -1.8021  -1.4851  -1.3658
    -1.1085  -0.7382  -0.3156  -0.0631   0.1740   0.3679   0.8612   0.9104
     1.4912   1.6300   2.0830   2.3732   2.5548   3.0549   3.5181   3.6283
     3.6479   3.8078   4.0523   4.0754   4.3560   4.6730   4.7113   5.1062
     5.3791   5.5233   5.9386   6.0279   6.3207   6.5406   6.6322   6.8360
     6.8648  13.3787  13.5924  13.8976  14.0828  14.4438  14.6271  14.9038
    15.2767  15.6706  16.1040

          k = 0.0000 0.5132 0.0000 ( 17988 PWs)   bands (ev):

    -7.5761  -7.4599  -7.2711  -7.0150  -6.7005  -6.3418  -5.9625  -5.5860
    -5.2070  -4.7983  -4.3477  -3.8776  -3.7232  -3.5424  -3.2537  -3.1689
    -2.7990  -2.6490  -2.2806  -2.1843  -1.7048  -1.1058  -0.5261  -0.0594
     0.7686   1.1970   1.7766   2.3502   2.6008   2.7428   2.8913   2.9725
     3.0842   3.2663   3.3242   3.5144   3.8225   4.0745   4.1830   4.5838
     4.8167   5.0069   5.4279   5.4749   5.8149   5.9881   6.1301   6.3094
     6.3363  13.5562  13.8110  14.0838  14.3324  14.5125  14.6882  14.8198
    15.0892  15.3149  15.5432

          k = 0.1111 0.1925 0.0000 ( 17961 PWs)   bands (ev):

   -11.3237 -11.1938 -10.9799 -10.6835 -10.3059  -9.8482  -9.3134  -8.7070
    -8.0384  -7.3259  -6.6111  -6.0008  -3.1664  -2.5530  -1.6771  -0.6634
     0.4254   1.5485   2.6469   3.3832   3.3958   3.4449   3.4814   3.5868
     3.6964   3.9843   4.0284   4.4213   4.4734   4.8375   4.9288   5.0492
     5.1769   5.3092   5.3434   5.5900   5.6914   5.9993   6.1180   6.2898
     6.5387   6.5675   6.6484   6.7923   7.0002   7.2006   7.4920   7.9956
     8.3972  12.3405  12.7763  14.8341  14.9776  15.0428  15.2618  15.3226
    15.5658  15.8817  16.2213

          k = 0.1111 0.3208 0.0000 ( 17910 PWs)   bands (ev):

   -10.1337 -10.0058  -9.7951  -9.5034  -9.1324  -8.6835  -8.1599  -7.5677
    -6.9170  -6.2262  -5.5369  -4.9522  -2.3079  -1.7512  -0.9939  -0.2364
     0.2270   0.5524   0.7787   0.9600   1.1073   1.2717   1.6180   1.7728
     2.0245   2.2971   2.5135   2.7835   2.9614   3.2900   3.3980   3.4741
     3.5880   3.8534   4.1450   4.3194   4.4099   4.4823   4.6866   4.7560
     5.1269   5.1997   5.5576   5.8386   5.9278   6.2311   6.7142   7.2183
     7.5448  13.4870  13.7435  14.4077  14.8091  15.2421  15.8006  16.0686
    16.1352  16.2973  16.4980

          k = 0.1111 0.4491 0.0000 ( 17954 PWs)   bands (ev):

    -8.3984  -8.2751  -8.0726  -7.7935  -7.4405  -7.0166  -6.5275  -5.9825
    -5.3958  -4.7886  -4.1935  -3.6721  -2.6519  -2.5905  -2.4804  -2.3691
    -2.2275  -1.8600  -1.4116  -0.9078  -0.3712   0.1261   0.2901   0.5839
     0.7896   1.0755   1.3131   1.9405   2.2261   2.3597   2.5630   2.6643
     2.8166   2.8348   3.1231   3.2479   3.5397   3.5445   3.9373   4.0373
     4.4792   4.6043   4.9473   5.2301   5.3265   5.5710   5.8171   6.2700
     6.5583  14.1113  14.4105  14.7728  15.1683  15.4936  15.8261  16.0669
    16.2598  16.3771  16.6495

          k = 0.1111-0.5774 0.0000 ( 17982 PWs)   bands (ev):

    -6.3631  -6.3600  -6.3330  -6.2971  -6.1978  -6.0411  -5.8231  -5.5424
    -5.1991  -4.7959  -4.3402  -3.9262  -3.7926  -3.6633  -3.3210  -3.2429
    -2.7407  -2.7021  -2.1733  -2.0988  -1.6047  -1.5334  -1.1374  -1.1052
     1.5690   1.6521   1.8450   1.8708   2.0046   2.0104   2.2660   2.3910
     2.5266   2.6837   2.8208   2.9134   2.9701   3.3988   3.4143   3.9265
     4.0269   4.4721   4.6153   4.9751   5.1312   5.3583   5.6241   5.8472
     5.9376  14.2187  14.5914  15.0531  15.4205  15.5128  15.7139  15.7928
    16.0580  16.3393  16.4249

          k = 0.2222 0.3849 0.0000 ( 17927 PWs)   bands (ev):

    -8.6805  -8.5558  -8.3508  -8.0676  -7.7086  -7.2757  -6.7732  -6.2080
    -5.5911  -4.9407  -4.2928  -3.7341  -2.1584  -1.8000  -1.4456  -1.1941
    -1.0005  -0.7994  -0.5609  -0.2773   0.0473   0.3838   0.4997   0.7025
     0.7526   1.0094   1.1757   1.2929   1.7130   1.7253   2.0746   2.2770
     2.5345   2.5530   2.8651   2.9501   3.1480   3.4032   3.4375   3.7072
     3.8090   3.8744   4.2151   4.4711   4.8272   5.3605   5.8976   6.3355
     6.6164  14.7564  14.8459  15.3636  15.4606  15.7926  15.9699  16.3697
    16.7257  17.1195  17.2118

          k = 0.2222-0.6415 0.0000 ( 17997 PWs)   bands (ev):

    -6.7565  -6.6439  -6.4613  -6.2145  -5.9126  -5.5700  -5.2105  -4.8596
    -4.5175  -4.1606  -3.7779  -3.2954  -3.1813  -2.9722  -2.7479  -2.5183
    -2.3759  -2.1708  -1.9893  -1.8710  -1.5582  -1.1818  -0.8056  -0.4849
     0.3390   0.4794   0.5457   0.7231   0.9723   1.1565   1.2559   1.5423
     1.6522   1.8647   2.1416   2.3666   2.6975   2.8947   3.2082   3.3185
     3.4376   3.6315   3.7297   4.1938   4.5868   4.7885   4.9374   5.2714
     5.5181  14.8273  15.1880  15.6661  15.9391  16.1534  16.4031  16.7574
    16.7693  16.9840  17.3082

          k = 0.3333-0.5774 0.0000 ( 18015 PWs)   bands (ev):

    -4.8665  -4.8665  -4.8662  -4.8246  -4.8246  -4.8230  -4.7777  -4.7777
    -4.7761  -4.7218  -4.7218  -3.4843  -3.4839  -2.4651  -2.4651  -2.4383
    -2.2625  -2.2625  -2.1887  -1.9886  -1.9886  -1.9090  -1.7334  -1.7334
    -0.1035  -0.0696  -0.0696   0.2030   0.3007   0.3007   0.6640   0.7760
     0.7760   1.1223   1.1803   1.1803   3.2492   3.3728   3.3728   3.4565
     3.7151   3.7151   3.8457   4.0940   4.0940   4.1957   4.3691   4.3691
     4.4045  15.5681  15.5681  15.6538  15.8966  15.8966  16.1236  16.4842
    16.4842  16.7668  17.2667

     the Fermi energy is    10.6045 ev

!    total energy              =    -444.80017122 Ry
     estimated scf accuracy    <          5.4E-11 Ry
     smearing contrib. (-TS)   =      -0.00000000 Ry
     internal energy E=F+TS    =    -444.80017122 Ry

     The total energy is F=E-TS. E is the sum of the following terms:
     one-electron contribution =   -3716.04172167 Ry
     hartree contribution      =    1918.39317427 Ry
     xc contribution           =    -113.81647595 Ry
     ewald contribution        =    1614.57400107 Ry
     one-center paw contrib.   =    -147.90914894 Ry

     convergence has been achieved in   6 iterations

     negative rho (up, down):  3.917E-08 0.000E+00

     Forces acting on atoms (cartesian axes, Ry/au):

     atom    1 type  1   force =     0.00000000    0.00000000   -0.00009137
     atom    2 type  1   force =     0.00000000    0.00000000   -0.00000574
     atom    3 type  1   force =     0.00000000   -0.00000000    0.00000619
     atom    4 type  1   force =     0.00000000   -0.00000000    0.00000207
     atom    5 type  1   force =    -0.00000000   -0.00000000   -0.00004474
     atom    6 type  1   force =     0.00000000   -0.00000000   -0.00007843
     atom    7 type  1   force =     0.00000000    0.00000000   -0.00009724
     atom    8 type  1   force =    -0.00000000   -0.00000000   -0.00008163
     atom    9 type  1   force =     0.00000000    0.00000000   -0.00002567
     atom   10 type  1   force =     0.00000000    0.00000000    0.00000778
     atom   11 type  1   force =     0.00000000    0.00000000    0.00002557
     atom   12 type  1   force =     0.00000000    0.00000000    0.00001615
     atom   13 type  1   force =    -0.00000000   -0.00000000   -0.00001615
     atom   14 type  1   force =    -0.00000000    0.00000000   -0.00002557
     atom   15 type  1   force =     0.00000000   -0.00000000   -0.00000778
     atom   16 type  1   force =     0.00000000   -0.00000000    0.00002567
     atom   17 type  1   force =     0.00000000    0.00000000    0.00008163
     atom   18 type  1   force =     0.00000000    0.00000000    0.00009724
     atom   19 type  1   force =     0.00000000    0.00000000    0.00007843
     atom   20 type  1   force =     0.00000000    0.00000000    0.00004474
     atom   21 type  1   force =     0.00000000    0.00000000   -0.00000207
     atom   22 type  1   force =     0.00000000    0.00000000   -0.00000619
     atom   23 type  1   force =     0.00000000   -0.00000000    0.00000574
     atom   24 type  1   force =     0.00000000    0.00000000    0.00009137
     atom   25 type  2   force =     0.00000000   -0.00000000   -0.00005187
     atom   26 type  2   force =     0.00000000   -0.00000000    0.00005187

     Total force =     0.000272     Total SCF correction =     0.000011
     Energy error            =      2.0E-07 Ry
     Gradient error          =      9.7E-05 Ry/Bohr

     bfgs converged in  11 scf cycles and  10 bfgs steps
     (criteria: energy <  1.0E-05 Ry, force <  1.0E-04 Ry/Bohr)

     End of BFGS Geometry Optimization

     Final energy             =    -444.8001712184 Ry

     File /tmp/qe/slab.bfgs deleted, as requested
Begin final coordinates

ATOMIC_POSITIONS (angstrom)
C                1.2632452000        0.7293349600       28.2776133003
C                2.5264904100        1.4586699200       27.7896220838
C                2.5264904100        1.4586699200       26.2355387933
C               -0.0000000000       -0.0000000000       25.7208363358
C                0.0000000000       -0.0000000000       24.1731348070
C                1.2632452000        0.7293349600       23.6575413682
C                1.2632452000        0.7293349600       22.1100897373
C                2.5264904100        1.4586699200       21.5942786522
C                2.5264904100        1.4586699200       20.0467157989
C                0.0000000000        0.0000000000       19.5308411189
C                0.0000000000       -0.0000000000       17.9832795062
C                1.2632452000        0.7293349600       17.4674169632
C                1.2632452000        0.7293349600       15.9198793068
C                2.5264904100        1.4586699200       15.4040167638
C                2.5264904100        1.4586699200       13.8564551511
C                0.0000000000       -0.0000000000       13.3405804711
C               -0.0000000000        0.0000000000       11.7930176178
C                1.2632452000        0.7293349600       11.2772065327
C                1.2632452000        0.7293349600        9.7297549018
C                2.5264904100        1.4586699200        9.2141614630
C                2.5264904100        1.4586699200        7.6664599342
C               -0.0000000000       -0.0000000000        7.1517574767
C                0.0000000000       -0.0000000000        5.5976741862
C                1.2632452000        0.7293349600        5.1096829697
H                1.2632452000        0.7293349600       29.3867487762
H                1.2632452000        0.7293349600        4.0005474938
End final coordinates



     Writing all to output data dir /tmp/qe/slab.save/ :
     XML data file, charge density, pseudopotentials, collected wavefunctions

     init_run     :      1.68s CPU      1.74s WALL (       1 calls)
     electrons    :    232.03s CPU    234.29s WALL (      11 calls)
     update_pot   :      2.07s CPU      2.09s WALL (      10 calls)
     forces       :      5.96s CPU      6.11s WALL (      11 calls)

     Called by init_run:
     wfcinit      :      1.27s CPU      1.31s WALL (       1 calls)
     potinit      :      0.21s CPU      0.22s WALL (       1 calls)
     hinit0       :      0.06s CPU      0.07s WALL (       1 calls)

     Called by electrons:
     c_bands      :    175.37s CPU    176.86s WALL (      91 calls)
     sum_band     :     36.57s CPU     36.90s WALL (      91 calls)
     v_of_rho     :      6.41s CPU      6.50s WALL (      94 calls)
     newd         :      3.71s CPU      3.75s WALL (      94 calls)
     PAW_pot      :     12.74s CPU     12.78s WALL (     104 calls)
     mix_rho      :      0.46s CPU      0.48s WALL (      91 calls)

     Called by c_bands:
     init_us_2    :      5.37s CPU      5.41s WALL (    2448 calls)
     cegterg      :    166.75s CPU    168.15s WALL (    1092 calls)

     Called by *egterg:
     cdiaghg      :     10.15s CPU     10.20s WALL (    3770 calls)
     h_psi        :    120.16s CPU    121.34s WALL (    3998 calls)
     s_psi        :      9.57s CPU      9.61s WALL (    3998 calls)
     g_psi        :      0.72s CPU      0.72s WALL (    2894 calls)

     Called by h_psi:
     h_psi:calbec :      9.60s CPU      9.66s WALL (    3998 calls)
     vloc_psi     :     99.68s CPU    100.75s WALL (    3998 calls)
     add_vuspsi   :      9.97s CPU     10.02s WALL (    3998 calls)

     General routines
     calbec       :     15.16s CPU     15.25s WALL (    5738 calls)
     fft          :      2.51s CPU      2.62s WALL (    1339 calls)
     ffts         :      0.09s CPU      0.10s WALL (     185 calls)
     fftw         :     88.63s CPU     89.46s WALL (  376788 calls)
     interpolate  :      0.24s CPU      0.25s WALL (      94 calls)

     Parallel routines

     PWSCF        :   4m 4.46s CPU   4m 7.07s WALL


   This run was terminated on:  15:49:46   2Aug2026            

=------------------------------------------------------------------------------=
   JOB DONE.
=------------------------------------------------------------------------------=
Note: The following floating-point exceptions are signalling: IEEE_UNDERFLOW_FLAG IEEE_DENORMAL
Note: The following floating-point exceptions are signalling: IEEE_UNDERFLOW_FLAG IEEE_DENORMAL
Note: The following floating-point exceptions are signalling: IEEE_UNDERFLOW_FLAG IEEE_DENORMAL
Note: The following floating-point exceptions are signalling: IEEE_UNDERFLOW_FLAG IEEE_DENORMAL
Note: The following floating-point exceptions are signalling: IEEE_UNDERFLOW_FLAG IEEE_DENORMAL
Note: The following floating-point exceptions are signalling: IEEE_UNDERFLOW_FLAG IEEE_DENORMAL
Note: The following floating-point exceptions are signalling: IEEE_UNDERFLOW_FLAG IEEE_DENORMAL
Note: The following floating-point exceptions are signalling: IEEE_UNDERFLOW_FLAG IEEE_DENORMAL
