
     Program PWSCF v.7.3.1 starts on  2Aug2026 at 16:10: 7 

     This program is part of the open-source Quantum ESPRESSO suite
     for quantum simulation of materials; please cite
         "P. Giannozzi et al., J. Phys.:Condens. Matter 21 395502 (2009);
         "P. Giannozzi et al., J. Phys.:Condens. Matter 29 465901 (2017);
         "P. Giannozzi et al., J. Chem. Phys. 152 154105 (2020);
          URL http://www.quantum-espresso.org", 
     in publications or presentations arising from this work. More details at
     http://www.quantum-espresso.org/quote

     Parallel version (MPI), running on     8 processors

     MPI processes distributed on     1 nodes
     183946 MiB available memory on the printing compute node when the environment starts

     Reading input from pw.in

     Current dimensions of program PWSCF are:
     Max number of different atomic species (ntypx) = 10
     Max number of k-points (npk) =  40000
     Max angular momentum in pseudopotentials (lmaxx) =  4
     file C.pbe-n-kjpaw_psl.1.0.0.UPF: wavefunction(s)  2S 2P renormalized
     Message from routine volume:
     axis vectors are left-handed
     Message from routine setup:
     using ibrav=0 with symmetry is DISCOURAGED, use correct ibrav instead

     R & G space division:  proc/nbgrp/npool/nimage =       8
     Subspace diagonalization in iterative solution of the eigenvalue problem:
     a serial algorithm will be used


     Parallelization info
     --------------------
     sticks:   dense  smooth     PW     G-vecs:    dense   smooth      PW
     Min         326     163     46                57226    20223    3082
     Max         327     164     47                57241    20232    3095
     Sum        2609    1305    373               457859   161833   24711

     Using Slab Decomposition



     bravais-lattice index     =            0
     lattice parameter (alat)  =       4.7744  a.u.
     unit-cell volume          =    1403.1378 (a.u.)^3
     number of atoms/cell      =           20
     number of atomic types    =            2
     number of electrons       =        68.00
     number of Kohn-Sham states=           41
     kinetic-energy cutoff     =      90.0000  Ry
     charge density cutoff     =     720.0000  Ry
     scf convergence threshold =      1.0E-08
     mixing beta               =       0.3000
     number of iterations used =            8  plain     mixing
     Exchange-correlation= PBE
                           (   1   4   3   4   0   0   0)

     celldm(1)=   4.774375  celldm(2)=   0.000000  celldm(3)=   0.000000
     celldm(4)=   0.000000  celldm(5)=   0.000000  celldm(6)=   0.000000

     crystal axes: (cart. coord. in units of alat)
               a(1) = (   1.000000   0.000000   0.000000 )  
               a(2) = (   0.000000  -2.000000   0.000000 )  
               a(3) = (   0.000000   0.000000   6.446452 )  

     reciprocal axes: (cart. coord. in units 2 pi/alat)
               b(1) = (  1.000000 -0.000000 -0.000000 )  
               b(2) = ( -0.000000 -0.500000 -0.000000 )  
               b(3) = ( -0.000000 -0.000000  0.155124 )  


     PseudoPot. # 1 for C  read from file:
     ./C.pbe-n-kjpaw_psl.1.0.0.UPF
     MD5 check sum: 5d2aebdfa2cae82b50a7e79e9516da0f
     Pseudo is Projector augmented-wave + core cor, Zval =  4.0
     Generated using "atomic" code by A. Dal Corso  v.5.1
     Shape of augmentation charge: PSQ
     Using radial grid of 1073 points,  4 beta functions with: 
                l(1) =   0
                l(2) =   0
                l(3) =   1
                l(4) =   1
     Q(r) pseudized with 0 coefficients 


     PseudoPot. # 2 for H  read from file:
     ./H_ONCV_PBE-1.0.oncvpsp.upf
     MD5 check sum: 1790becc920ee074925cf490c71280fe
     Pseudo is Norm-conserving, Zval =  1.0
     Generated using ONCVPSP code by D. R. Hamann
     Using radial grid of 1166 points,  2 beta functions with: 
                l(1) =   0
                l(2) =   0

     atomic species   valence    mass     pseudopotential
     C                 4.00    12.01100     C ( 1.00)
     H                 1.00     1.00800     H ( 1.00)

      4 Sym. Ops., with inversion, found ( 2 have fractional translation)



   Cartesian axes

     site n.     atom                  positions (alat units)
         1        C      tau(   1) = (   0.0000000  -0.3194681   4.4355423  )
         2        C      tau(   2) = (   0.5000000  -0.4648388   4.1160058  )
         3        C      tau(   3) = (   0.5000000  -0.0083766   3.7167050  )
         4        C      tau(   4) = (   0.0000000  -0.0074794   3.3784168  )
         5        C      tau(   5) = (  -0.0000000  -0.5054657   3.0233355  )
         6        C      tau(   6) = (   0.5000000  -0.5051071   2.6554433  )
         7        C      tau(   7) = (   0.5000000   0.0366892   2.3398950  )
         8        C      tau(   8) = (   0.0000000   0.1772793   2.0176133  )
         9        C      tau(   9) = (   0.0000000  -1.6772793   4.4288387  )
        10        C      tau(  10) = (   0.5000000  -1.5366892   4.1065570  )
        11        C      tau(  11) = (   0.5000000  -0.9948929   3.7910088  )
        12        C      tau(  12) = (  -0.0000000  -0.9945343   3.4231165  )
        13        C      tau(  13) = (   0.0000000  -1.4925206   3.0680352  )
        14        C      tau(  14) = (   0.5000000  -1.4916234   2.7297470  )
        15        C      tau(  15) = (   0.5000000  -1.0351612   2.3304462  )
        16        C      tau(  16) = (   0.0000000  -1.1805319   2.0109097  )
        17        H      tau(  17) = (  -0.0000000  -0.4850854   4.8381781  )
        18        H      tau(  18) = (   0.0000000  -1.5032620   4.8279534  )
        19        H      tau(  19) = (   0.0000000   0.0032620   1.6184987  )
        20        H      tau(  20) = (  -0.0000000  -1.0149146   1.6082739  )

     number of k points=    15  Marzari-Vanderbilt smearing, width (Ry)=  0.0100
                       cart. coord. in units 2pi/alat
        k(    1) = (   0.0000000  -0.0000000   0.0000000), wk =   0.0444444
        k(    2) = (   0.0000000  -0.1000000   0.0000000), wk =   0.0888889
        k(    3) = (   0.0000000  -0.2000000   0.0000000), wk =   0.0888889
        k(    4) = (   0.1111111  -0.0000000   0.0000000), wk =   0.0888889
        k(    5) = (   0.1111111  -0.1000000   0.0000000), wk =   0.1777778
        k(    6) = (   0.1111111  -0.2000000   0.0000000), wk =   0.1777778
        k(    7) = (   0.2222222  -0.0000000   0.0000000), wk =   0.0888889
        k(    8) = (   0.2222222  -0.1000000   0.0000000), wk =   0.1777778
        k(    9) = (   0.2222222  -0.2000000   0.0000000), wk =   0.1777778
        k(   10) = (   0.3333333  -0.0000000   0.0000000), wk =   0.0888889
        k(   11) = (   0.3333333  -0.1000000   0.0000000), wk =   0.1777778
        k(   12) = (   0.3333333  -0.2000000   0.0000000), wk =   0.1777778
        k(   13) = (   0.4444444  -0.0000000   0.0000000), wk =   0.0888889
        k(   14) = (   0.4444444  -0.1000000   0.0000000), wk =   0.1777778
        k(   15) = (   0.4444444  -0.2000000   0.0000000), wk =   0.1777778

     Dense  grid:   457859 G-vectors     FFT dimensions: (  45,  96, 270)

     Smooth grid:   161833 G-vectors     FFT dimensions: (  30,  60, 192)

     Estimated max dynamical RAM per process >     145.30 MB

     Estimated total dynamical RAM >       1.14 GB

     Initial potential from superposition of free atoms

     starting charge      67.9993, renormalised to      68.0000
     Starting wfcs are   68 randomized atomic wfcs
     Checking if some PAW data can be deallocated... 

     total cpu time spent up to now is        1.9 secs

     Self-consistent Calculation

     iteration #  1     ecut=    90.00 Ry     beta= 0.30
     Davidson diagonalization with overlap
     ethr =  1.00E-02,  avg # of iterations =  2.6

     negative rho (up, down):  9.098E-08 0.000E+00

     total cpu time spent up to now is        4.6 secs

     total energy              =    -299.69068954 Ry
     estimated scf accuracy    <       1.44278023 Ry

     iteration #  2     ecut=    90.00 Ry     beta= 0.30
     Davidson diagonalization with overlap
     ethr =  2.12E-03,  avg # of iterations =  3.9

     negative rho (up, down):  1.759E-06 0.000E+00

     total cpu time spent up to now is        6.9 secs

     total energy              =    -299.58586680 Ry
     estimated scf accuracy    <       0.44903417 Ry

     iteration #  3     ecut=    90.00 Ry     beta= 0.30
     Davidson diagonalization with overlap
     ethr =  6.60E-04,  avg # of iterations =  6.2

     negative rho (up, down):  2.414E-06 0.000E+00

     total cpu time spent up to now is        9.6 secs

     total energy              =    -299.60150191 Ry
     estimated scf accuracy    <       0.06433000 Ry

     iteration #  4     ecut=    90.00 Ry     beta= 0.30
     Davidson diagonalization with overlap
     ethr =  9.46E-05,  avg # of iterations =  4.9

     negative rho (up, down):  3.769E-06 0.000E+00

     total cpu time spent up to now is       12.1 secs

     total energy              =    -299.60619402 Ry
     estimated scf accuracy    <       0.00574469 Ry

     iteration #  5     ecut=    90.00 Ry     beta= 0.30
     Davidson diagonalization with overlap
     c_bands:  1 eigenvalues not converged
     ethr =  8.45E-06,  avg # of iterations =  8.3

     negative rho (up, down):  3.732E-06 0.000E+00

     total cpu time spent up to now is       15.2 secs

     total energy              =    -299.60700952 Ry
     estimated scf accuracy    <       0.00069758 Ry

     iteration #  6     ecut=    90.00 Ry     beta= 0.30
     Davidson diagonalization with overlap
     ethr =  1.03E-06,  avg # of iterations =  4.8

     negative rho (up, down):  4.025E-06 0.000E+00

     total cpu time spent up to now is       17.9 secs

     total energy              =    -299.60714150 Ry
     estimated scf accuracy    <       0.00012290 Ry

     iteration #  7     ecut=    90.00 Ry     beta= 0.30
     Davidson diagonalization with overlap
     ethr =  1.81E-07,  avg # of iterations =  2.5

     negative rho (up, down):  4.098E-06 0.000E+00

     total cpu time spent up to now is       20.1 secs

     total energy              =    -299.60715205 Ry
     estimated scf accuracy    <       0.00001916 Ry

     iteration #  8     ecut=    90.00 Ry     beta= 0.30
     Davidson diagonalization with overlap
     ethr =  2.82E-08,  avg # of iterations =  2.9

     negative rho (up, down):  4.138E-06 0.000E+00

     total cpu time spent up to now is       22.6 secs

     total energy              =    -299.60715467 Ry
     estimated scf accuracy    <       0.00000681 Ry

     iteration #  9     ecut=    90.00 Ry     beta= 0.30
     Davidson diagonalization with overlap
     ethr =  1.00E-08,  avg # of iterations =  2.0

     negative rho (up, down):  4.145E-06 0.000E+00

     total cpu time spent up to now is       24.9 secs

     total energy              =    -299.60715594 Ry
     estimated scf accuracy    <       0.00000081 Ry

     iteration # 10     ecut=    90.00 Ry     beta= 0.30
     Davidson diagonalization with overlap
     ethr =  1.19E-09,  avg # of iterations =  2.9

     negative rho (up, down):  4.179E-06 0.000E+00

     total cpu time spent up to now is       27.4 secs

     total energy              =    -299.60715613 Ry
     estimated scf accuracy    <       0.00000031 Ry

     iteration # 11     ecut=    90.00 Ry     beta= 0.30
     Davidson diagonalization with overlap
     ethr =  4.58E-10,  avg # of iterations =  2.0

     negative rho (up, down):  4.199E-06 0.000E+00

     total cpu time spent up to now is       29.6 secs

     total energy              =    -299.60715617 Ry
     estimated scf accuracy    <       0.00000004 Ry

     iteration # 12     ecut=    90.00 Ry     beta= 0.30
     Davidson diagonalization with overlap
     ethr =  5.54E-11,  avg # of iterations =  3.4

     negative rho (up, down):  4.212E-06 0.000E+00

     total cpu time spent up to now is       32.4 secs

     total energy              =    -299.60715618 Ry
     estimated scf accuracy    <       0.00000003 Ry

     iteration # 13     ecut=    90.00 Ry     beta= 0.30
     Davidson diagonalization with overlap
     ethr =  4.70E-11,  avg # of iterations =  2.0

     negative rho (up, down):  4.255E-06 0.000E+00

     total cpu time spent up to now is       34.5 secs

     End of self-consistent calculation

          k = 0.0000-0.0000 0.0000 ( 20243 PWs)   bands (ev):

   -16.8671 -15.7802 -13.8307 -12.3091 -12.2180 -11.2947 -11.1099 -10.8383
    -8.1144  -7.7595  -7.6955  -5.4379  -5.4209  -5.0854  -2.7176  -2.7155
    -2.0280  -1.8052  -1.4698  -0.7910  -0.2970   0.0635   0.4713   0.9240
     0.9323   1.3391   1.3988   1.4276   1.5636   2.0369   2.0371   2.7036
     3.0285   3.1943   6.5690   7.0606   8.5100   8.5669   9.0144   9.3394
     9.6058

          k = 0.0000-0.1000 0.0000 ( 20237 PWs)   bands (ev):

   -16.7053 -15.6722 -13.9658 -13.5162 -12.3087 -11.0183 -10.6162 -10.4577
    -8.0361  -7.6087  -7.1508  -5.5262  -5.3634  -4.8583  -2.7870  -2.6400
    -2.2265  -2.0394  -1.6789  -0.7209  -0.6729  -0.0179   0.3342   0.5035
     0.6184   0.9082   1.4189   1.4472   1.6472   2.1238   2.3876   2.5007
     2.8410   3.1155   6.7896   7.2700   8.7667   9.2443   9.3450   9.5863
     9.6747

          k = 0.0000-0.2000 0.0000 ( 20203 PWs)   bands (ev):

   -16.2785 -15.5543 -14.7031 -13.8665 -12.7815 -11.4592 -10.1591  -9.5751
    -7.5969  -6.9070  -6.4874  -5.6978  -5.0679  -4.5065  -3.7553  -3.1963
    -2.7496  -1.9268  -1.3672  -1.1773  -0.6833  -0.4151   0.0106   0.0901
     0.6311   0.6816   1.2935   1.4841   1.5567   2.0941   2.1187   2.4614
     2.8345   3.2232   7.4145   7.8304   8.4341   8.7516   9.2944   9.5334
     9.5756

          k = 0.1111-0.0000 0.0000 ( 20229 PWs)   bands (ev):

   -16.6408 -15.5565 -13.6137 -12.0952 -12.0051 -11.0870 -10.9049 -10.6372
    -8.0036  -7.5696  -7.5187  -5.2971  -5.2710  -5.0166  -3.1630  -2.6762
    -2.5734  -2.0121  -1.8955  -1.3023  -0.3313  -0.2770   0.0780   0.3334
     0.5961   0.6333   0.7539   0.9997   1.0388   1.3932   1.4719   2.2354
     2.6919   2.9329   6.7855   7.2791   9.1039   9.1516   9.6072   9.8093
     9.8872

          k = 0.1111-0.1000 0.0000 ( 20220 PWs)   bands (ev):

   -16.4793 -15.4487 -13.7464 -13.3000 -12.0988 -10.8173 -10.4088 -10.2572
    -7.9161  -7.4340  -6.9767  -5.4249  -5.1863  -4.7795  -3.0546  -2.6930
    -2.5044  -2.0846  -2.0299  -1.7703  -0.6466  -0.4819  -0.3495   0.0371
     0.3370   0.5205   0.5959   1.1658   1.4020   1.4554   1.5641   1.9431
     2.6960   2.7700   7.0050   7.4878   9.1462   9.7345   9.7729  10.0412
    10.0999

          k = 0.1111-0.2000 0.0000 ( 20224 PWs)   bands (ev):

   -16.0535 -15.3308 -14.4812 -13.6490 -12.5706 -11.2566  -9.9638  -9.3753
    -7.4850  -6.7725  -6.3264  -5.5394  -4.9271  -4.3472  -3.6089  -3.1442
    -2.7394  -2.5636  -2.0270  -1.6475  -1.0893  -1.0598  -0.5821  -0.3082
     0.0804   0.2329   0.6840   0.9831   1.3541   1.6391   1.9436   2.0196
     2.4907   2.5258   7.6316   8.0402   8.6430   8.9213   9.3025   9.6964
    10.2871

          k = 0.2222-0.0000 0.0000 ( 20218 PWs)   bands (ev):

   -15.9654 -14.8899 -12.9710 -11.4586 -11.3715 -10.4740 -10.2950 -10.0477
    -7.9802  -7.0507  -7.0294  -5.5474  -4.9805  -4.9311  -4.8947  -3.6581
    -3.3124  -2.5463  -2.5366  -1.6064  -1.5635  -1.0047  -0.9220  -0.8250
    -0.7328  -0.7294  -0.0905   0.2270   0.5124   0.6459   1.0991   1.5463
     1.8510   2.6670   7.4247   7.7958   9.8387   9.8705  10.1761  10.3337
    10.5384

          k = 0.2222-0.1000 0.0000 ( 20228 PWs)   bands (ev):

   -15.8049 -14.7826 -13.0944 -12.6579 -11.4776 -10.2285  -9.7906  -9.6701
    -7.8553  -6.9886  -6.5169  -5.5473  -4.9308  -4.8205  -4.7066  -3.6581
    -3.2927  -2.7029  -2.5688  -1.8511  -1.7110  -1.4433  -1.2329  -0.9316
    -0.5129  -0.4737  -0.3157   0.1987   0.3835   0.6955   1.0457   1.1741
     1.9254   2.3944   7.6210   8.0012   9.4953   9.9835  10.0368  10.2455
    10.7727

          k = 0.2222-0.2000 0.0000 ( 20207 PWs)   bands (ev):

   -15.3818 -14.6645 -13.8203 -13.0032 -11.9473 -10.6637  -9.4041  -8.7875
    -7.4364  -6.6065  -5.9561  -5.2888  -4.7176  -4.5155  -4.1180  -3.7912
    -3.4619  -3.3255  -2.8061  -2.4798  -2.3609  -1.8201  -1.3761  -1.3384
    -0.4924  -0.3485  -0.1976   0.1611   0.3746   0.5343   1.0744   1.3386
     1.8044   1.9163   8.1430   8.5532   8.8719   9.1730   9.3258   9.8522
    10.2359

          k = 0.3333-0.0000 0.0000 ( 20238 PWs)   bands (ev):

   -14.8536 -13.7998 -11.9563 -10.4193 -10.3438  -9.5537  -9.3184  -9.1826
    -9.1803  -7.4793  -6.5500  -6.3893  -6.0058  -5.2156  -5.1389  -4.7844
    -3.9606  -3.4870  -3.4850  -2.7641  -2.7600  -2.5743  -1.4879  -1.4534
    -1.1482  -0.6414  -0.6075  -0.2673  -0.1790   0.2076   0.7326   0.9529
     1.2984   2.4057   8.4648   8.6177  10.0692  10.3759  10.4635  10.4784
    11.0292

          k = 0.3333-0.1000 0.0000 ( 20253 PWs)   bands (ev):

   -14.6948 -13.6928 -12.0422 -11.6243 -10.4928  -9.3996  -9.0663  -8.8060
    -8.7682  -7.4112  -6.7263  -6.2104  -5.7155  -5.3522  -4.8858  -4.3544
    -4.0801  -3.9055  -3.4474  -2.7766  -2.7399  -2.0827  -1.4941  -1.2363
    -1.0720  -0.9659  -0.6519  -0.4348  -0.2591   0.1662   0.3097   0.7718
     1.2110   1.7727   8.6136   8.8038   9.5246   9.8745  10.3888  10.8766
    10.9550

          k = 0.3333-0.2000 0.0000 ( 20230 PWs)   bands (ev):

   -14.2760 -13.5711 -12.7387 -11.9606 -10.9651  -9.7914  -8.8542  -8.6907
    -7.7404  -7.3935  -6.7828  -6.1214  -5.3909  -4.8091  -4.4139  -4.3671
    -4.0410  -3.5709  -3.1292  -3.0070  -2.8047  -2.2994  -2.0588  -1.6387
    -1.2024  -0.8317  -0.5974  -0.4628  -0.2304   0.0409   0.1909   0.6093
     0.8227   0.9625   8.6479   8.8388   9.3091   9.7880   9.8219  10.3133
    10.7999

          k = 0.4444-0.0000 0.0000 ( 20308 PWs)   bands (ev):

   -13.3415 -12.3865 -11.6183 -10.2567 -10.2324  -8.9814  -8.9283  -8.1130
    -8.0668  -7.8824  -7.5952  -7.2327  -7.0858  -6.2776  -6.2556  -5.4840
    -4.2637  -3.7854  -3.7643  -2.7246  -2.7214  -2.3943  -2.2142  -2.0194
    -1.8686  -1.0729  -1.0437  -0.7515  -0.5730   0.2546   0.4507   0.9910
     1.5467   1.8259   9.5673   9.7667   9.8860  10.0016  10.1779  10.4984
    11.4181

          k = 0.4444-0.1000 0.0000 ( 20257 PWs)   bands (ev):

   -13.1851 -12.2740 -11.4712 -10.4788 -10.2000 -10.0186  -9.2304  -8.8153
    -7.7766  -7.4134  -7.3506  -7.0627  -6.8721  -5.9132  -5.7290  -5.3906
    -4.2456  -3.9126  -3.7300  -2.7638  -2.6540  -2.1022  -1.8851  -1.8376
    -1.7470  -1.1110  -1.0137  -0.6175  -0.5258   0.0982   0.2275   0.4290
     0.9030   1.0734   9.1626   9.8472   9.9939  10.0914  10.3625  11.0259
    11.2077

          k = 0.4444-0.2000 0.0000 ( 20225 PWs)   bands (ev):

   -12.7723 -12.1172 -11.3197 -11.0716 -10.4198 -10.0900  -9.7666  -9.6540
    -7.7935  -7.6080  -7.1443  -6.7141  -6.3256  -6.0162  -4.9537  -4.6433
    -3.9464  -3.4812  -3.1904  -2.8673  -2.5781  -2.0604  -1.8553  -1.5759
    -1.2586  -1.0011  -0.9501  -0.8803  -0.6922  -0.4593  -0.2600  -0.1711
     0.0480   0.0801   9.1129   9.4706   9.9303  10.1033  10.5587  10.6414
    10.9056

     the Fermi energy is     5.0271 ev

!    total energy              =    -299.60715618 Ry
     estimated scf accuracy    <          1.3E-09 Ry
     smearing contrib. (-TS)   =      -0.00000000 Ry
     internal energy E=F+TS    =    -299.60715618 Ry

     The total energy is F=E-TS. E is the sum of the following terms:
     one-electron contribution =   -1768.82285050 Ry
     hartree contribution      =     913.90820090 Ry
     xc contribution           =     -77.52647243 Ry
     ewald contribution        =     731.44443110 Ry
     one-center paw contrib.   =     -98.61046525 Ry

     convergence has been achieved in  13 iterations

     negative rho (up, down):  4.255E-06 0.000E+00

     Forces acting on atoms (cartesian axes, Ry/au):

     atom    1 type  1   force =     0.00000000   -0.00000853   -0.00000726
     atom    2 type  1   force =     0.00000000   -0.00000882   -0.00001662
     atom    3 type  1   force =     0.00000000    0.00000152   -0.00000059
     atom    4 type  1   force =     0.00000000    0.00000702   -0.00000455
     atom    5 type  1   force =     0.00000000    0.00000947   -0.00001524
     atom    6 type  1   force =     0.00000000    0.00002374   -0.00000232
     atom    7 type  1   force =     0.00000000   -0.00002978    0.00001793
     atom    8 type  1   force =     0.00000000   -0.00005901    0.00000800
     atom    9 type  1   force =     0.00000000    0.00005901   -0.00000800
     atom   10 type  1   force =     0.00000000    0.00002978   -0.00001793
     atom   11 type  1   force =     0.00000000   -0.00002374    0.00000232
     atom   12 type  1   force =     0.00000000   -0.00000947    0.00001524
     atom   13 type  1   force =     0.00000000   -0.00000702    0.00000455
     atom   14 type  1   force =     0.00000000   -0.00000152    0.00000059
     atom   15 type  1   force =     0.00000000    0.00000882    0.00001662
     atom   16 type  1   force =     0.00000000    0.00000853    0.00000726
     atom   17 type  2   force =     0.00000000   -0.00000121   -0.00001189
     atom   18 type  2   force =     0.00000000   -0.00001593    0.00002627
     atom   19 type  2   force =     0.00000000    0.00001593   -0.00002627
     atom   20 type  2   force =     0.00000000    0.00000121    0.00001189

     Total force =     0.000121     Total SCF correction =     0.000060
     SCF correction compared to forces is large: reduce conv_thr to get better values


     Computing stress (Cartesian axis) and pressure


     negative rho (up, down):  4.255E-06 0.000E+00
          total   stress  (Ry/bohr**3)                   (kbar)     P=      -16.39
   0.00008410   0.00000000   0.00000000           12.37        0.00        0.00
   0.00000000  -0.00041720   0.00000024            0.00      -61.37        0.04
   0.00000000   0.00000024  -0.00000114            0.00        0.04       -0.17


     Writing all to output data dir /tmp/qe/slab.save/ :
     XML data file, charge density, pseudopotentials, collected wavefunctions

     init_run     :      1.46s CPU      1.76s WALL (       1 calls)
     electrons    :     32.21s CPU     32.62s WALL (       1 calls)
     forces       :      0.48s CPU      0.50s WALL (       1 calls)
     stress       :      5.94s CPU      5.96s WALL (       1 calls)

     Called by init_run:
     wfcinit      :      1.08s CPU      1.24s WALL (       1 calls)
     potinit      :      0.18s CPU      0.21s WALL (       1 calls)
     hinit0       :      0.06s CPU      0.13s WALL (       1 calls)

     Called by electrons:
     c_bands      :     24.50s CPU     24.79s WALL (      13 calls)
     sum_band     :      4.84s CPU      4.92s WALL (      13 calls)
     v_of_rho     :      1.02s CPU      1.06s WALL (      14 calls)
     newd         :      0.57s CPU      0.60s WALL (      14 calls)
     PAW_pot      :      1.29s CPU      1.30s WALL (      14 calls)
     mix_rho      :      0.10s CPU      0.11s WALL (      13 calls)

     Called by c_bands:
     init_us_2    :      0.78s CPU      0.79s WALL (     435 calls)
     cegterg      :     23.31s CPU     23.58s WALL (     195 calls)

     Called by *egterg:
     cdiaghg      :      1.32s CPU      1.46s WALL (     922 calls)
     h_psi        :     17.88s CPU     18.13s WALL (     937 calls)
     s_psi        :      1.25s CPU      1.26s WALL (     937 calls)
     g_psi        :      0.12s CPU      0.12s WALL (     727 calls)

     Called by h_psi:
     h_psi:calbec :      1.23s CPU      1.25s WALL (     937 calls)
     vloc_psi     :     15.14s CPU     15.34s WALL (     937 calls)
     add_vuspsi   :      1.38s CPU      1.39s WALL (     937 calls)

     General routines
     calbec       :      1.78s CPU      1.80s WALL (    1207 calls)
     fft          :      0.53s CPU      0.63s WALL (     205 calls)
     ffts         :      0.02s CPU      0.02s WALL (      27 calls)
     fftw         :     12.88s CPU     13.03s WALL (   52843 calls)
     interpolate  :      0.04s CPU      0.05s WALL (      14 calls)

     Parallel routines

     PWSCF        :     40.27s CPU     41.24s WALL


   This run was terminated on:  16:10:49   2Aug2026            

=------------------------------------------------------------------------------=
   JOB DONE.
=------------------------------------------------------------------------------=
Note: The following floating-point exceptions are signalling: IEEE_UNDERFLOW_FLAG IEEE_DENORMAL
Note: The following floating-point exceptions are signalling: IEEE_UNDERFLOW_FLAG IEEE_DENORMAL
Note: The following floating-point exceptions are signalling: IEEE_UNDERFLOW_FLAG IEEE_DENORMAL
Note: The following floating-point exceptions are signalling: IEEE_UNDERFLOW_FLAG IEEE_DENORMAL
Note: The following floating-point exceptions are signalling: IEEE_UNDERFLOW_FLAG IEEE_DENORMAL
Note: The following floating-point exceptions are signalling: IEEE_UNDERFLOW_FLAG IEEE_DENORMAL
Note: The following floating-point exceptions are signalling: IEEE_UNDERFLOW_FLAG IEEE_DENORMAL
Note: The following floating-point exceptions are signalling: IEEE_UNDERFLOW_FLAG IEEE_DENORMAL
