
     Program PWSCF v.7.5 starts on  7Jul2026 at 14:43:56 

     This program is part of the open-source Quantum ESPRESSO suite
     for quantum simulation of materials; please cite
         "P. Giannozzi et al., J. Phys.:Condens. Matter 21 395502 (2009);
         "P. Giannozzi et al., J. Phys.:Condens. Matter 29 465901 (2017);
         "P. Giannozzi et al., J. Chem. Phys. 152 154105 (2020);
          URL http://www.quantum-espresso.org", 
     in publications or presentations arising from this work. More details at
     http://www.quantum-espresso.org/quote

     Serial version
     0 MiB available memory on the printing compute node when the environment starts

     Waiting for input...
     Reading input from standard input

     Current dimensions of program PWSCF are:
     Max number of different atomic species (ntypx) = 10
     Max number of k-points (npk) =  40000
     Max angular momentum in pseudopotentials (lmaxx) =  4
     file C.pbe-n-kjpaw_psl.1.0.0.UPF: wavefunction(s)  2S 2P renormalized
     Message from routine volume:
     axis vectors are left-handed
     Found identity + (  0.5000  0.0000  0.0000) symmetry
     This is a supercell, fractional translations are disabled
     Message from routine setup:
     using ibrav=0 with symmetry is DISCOURAGED, use correct ibrav instead


     G-vector sticks info
     --------------------
     sticks:   dense  smooth     PW     G-vecs:    dense   smooth      PW
     Sum        3469    1745    481               441467   156395   22487

     Using Slab Decomposition



     bravais-lattice index     =            0
     lattice parameter (alat)  =       9.5505  a.u.
     unit-cell volume          =    2487.0153 (a.u.)^3
     number of atoms/cell      =           32
     number of atomic types    =            2
     number of electrons       =       104.00
     number of Kohn-Sham states=           62
     kinetic-energy cutoff     =      60.0000  Ry
     charge density cutoff     =     480.0000  Ry
     scf convergence threshold =      1.0E-08
     mixing beta               =       0.3000
     number of iterations used =            8  plain     mixing
     Exchange-correlation= PBE
                           (   1   4   3   4   0   0   0)

     celldm(1)=   9.550471  celldm(2)=   0.000000  celldm(3)=   0.000000
     celldm(4)=   0.000000  celldm(5)=   0.000000  celldm(6)=   0.000000

     crystal axes: (cart. coord. in units of alat)
               a(1) = (   1.000000   0.000000   0.000000 )  
               a(2) = (   0.000000  -0.995000   0.000000 )  
               a(3) = (   0.000000   0.000000   2.869333 )  

     reciprocal axes: (cart. coord. in units 2 pi/alat)
               b(1) = (  1.000000 -0.000000 -0.000000 )  
               b(2) = ( -0.000000 -1.005025 -0.000000 )  
               b(3) = ( -0.000000 -0.000000  0.348513 )  


     PseudoPot. # 1 for C  read from file:
     ./C.pbe-n-kjpaw_psl.1.0.0.UPF
     MD5 check sum: 5d2aebdfa2cae82b50a7e79e9516da0f
     Pseudo is Projector augmented-wave + core cor, Zval =  4.0
     Generated using "atomic" code by A. Dal Corso  v.5.1
     Shape of augmentation charge: PSQ
     Using radial grid of 1073 points,  4 beta functions with: 
                l(1) =   0
                l(2) =   0
                l(3) =   1
                l(4) =   1
     Q(r) pseudized with 0 coefficients 


     PseudoPot. # 2 for H  read from file:
     ./H_ONCV_PBE-1.0.oncvpsp.upf
     MD5 check sum: 1790becc920ee074925cf490c71280fe
     Pseudo is Norm-conserving, Zval =  1.0
     Generated using ONCVPSP code by D. R. Hamann
     Using radial grid of 1166 points,  2 beta functions with: 
                l(1) =   0
                l(2) =   0

     atomic species   valence    mass     pseudopotential
     C                 4.00    12.01100     C ( 1.00)
     H                 1.00     1.00800     H ( 1.00)

      4 Sym. Ops. (no inversion) found



   Cartesian axes

     site n.     atom                  positions (alat units)
         1        C      tau(   1) = (   0.0000000  -0.1574177   1.8592812  )
         2        C      tau(   2) = (   0.2500000  -0.2287653   1.6998931  )
         3        C      tau(   3) = (   0.2500000   0.0000000   1.4936626  )
         4        C      tau(   4) = (   0.0000000   0.0000000   1.3178300  )
         5        C      tau(   5) = (   0.0000000  -0.2687347   1.1694404  )
         6        C      tau(   6) = (   0.2500000  -0.3400823   1.0100523  )
         7        C      tau(   7) = (   0.0000000  -0.8375823   1.8592812  )
         8        C      tau(   8) = (   0.2500000  -0.7662347   1.6998931  )
         9        C      tau(   9) = (   0.2500000  -0.4975000   1.5515034  )
        10        C      tau(  10) = (   0.0000000  -0.4975000   1.3756708  )
        11        C      tau(  11) = (   0.0000000  -0.7262653   1.1694404  )
        12        C      tau(  12) = (   0.2500000  -0.6549177   1.0100523  )
        13        H      tau(  13) = (   0.0000000  -0.2436835   2.0590044  )
        14        H      tau(  14) = (   0.0000000  -0.7513165   2.0590044  )
        15        H      tau(  15) = (   0.2500000  -0.2538165   0.8103291  )
        16        H      tau(  16) = (   0.2500000  -0.7411835   0.8103291  )
        17        C      tau(  17) = (   0.5000000  -0.1574177   1.8592812  )
        18        C      tau(  18) = (   0.7500000  -0.2287653   1.6998931  )
        19        C      tau(  19) = (   0.7500000   0.0000000   1.4936626  )
        20        C      tau(  20) = (   0.5000000   0.0000000   1.3178300  )
        21        C      tau(  21) = (   0.5000000  -0.2687347   1.1694404  )
        22        C      tau(  22) = (   0.7500000  -0.3400823   1.0100523  )
        23        C      tau(  23) = (   0.5000000  -0.8375823   1.8592812  )
        24        C      tau(  24) = (   0.7500000  -0.7662347   1.6998931  )
        25        C      tau(  25) = (   0.7500000  -0.4975000   1.5515034  )
        26        C      tau(  26) = (   0.5000000  -0.4975000   1.3756708  )
        27        C      tau(  27) = (   0.5000000  -0.7262653   1.1694404  )
        28        C      tau(  28) = (   0.7500000  -0.6549177   1.0100523  )
        29        H      tau(  29) = (   0.5000000  -0.2436835   2.0590044  )
        30        H      tau(  30) = (   0.5000000  -0.7513165   2.0590044  )
        31        H      tau(  31) = (   0.7500000  -0.2538165   0.8103291  )
        32        H      tau(  32) = (   0.7500000  -0.7411835   0.8103291  )

     number of k points=     9  Marzari-Vanderbilt smearing, width (Ry)=  0.0100
                       cart. coord. in units 2pi/alat
        k(    1) = (   0.0000000  -0.0000000   0.0000000), wk =   0.0800000
        k(    2) = (   0.0000000  -0.2010050   0.0000000), wk =   0.1600000
        k(    3) = (   0.0000000  -0.4020101   0.0000000), wk =   0.1600000
        k(    4) = (   0.2000000  -0.0000000   0.0000000), wk =   0.1600000
        k(    5) = (   0.2000000  -0.2010050   0.0000000), wk =   0.3200000
        k(    6) = (   0.2000000  -0.4020101   0.0000000), wk =   0.3200000
        k(    7) = (   0.4000000  -0.0000000   0.0000000), wk =   0.1600000
        k(    8) = (   0.4000000  -0.2010050   0.0000000), wk =   0.3200000
        k(    9) = (   0.4000000  -0.4020101   0.0000000), wk =   0.3200000

     Dense  grid:   441467 G-vectors     FFT dimensions: (  72,  72, 192)

     Smooth grid:   156395 G-vectors     FFT dimensions: (  48,  48, 135)

     Estimated max dynamical RAM per process >       1.25 GB

     Check: negative core charge=   -0.000002

     Initial potential from superposition of free atoms

     starting charge     103.9989, renormalised to     104.0000

     negative rho (up, down):  4.017E-06 0.000E+00
     Starting wfcs are  104 randomized atomic wfcs

     total cpu time spent up to now is        4.7 secs

     Self-consistent Calculation

     iteration #  1     ecut=    60.00 Ry     beta= 0.30
     Davidson diagonalization with overlap
     ethr =  1.00E-02,  avg # of iterations =  3.0

     negative rho (up, down):  1.322E-05 0.000E+00

     total cpu time spent up to now is       14.8 secs

     total energy              =    -451.90768985 Ry
     estimated scf accuracy    <       2.48432680 Ry

     iteration #  2     ecut=    60.00 Ry     beta= 0.30
     Davidson diagonalization with overlap
     ethr =  2.39E-03,  avg # of iterations =  4.7

     negative rho (up, down):  4.565E-05 0.000E+00

     total cpu time spent up to now is       23.9 secs

     total energy              =    -451.75404668 Ry
     estimated scf accuracy    <       0.72468599 Ry

     iteration #  3     ecut=    60.00 Ry     beta= 0.30
     Davidson diagonalization with overlap
     ethr =  6.97E-04,  avg # of iterations =  8.1

     negative rho (up, down):  6.597E-05 0.000E+00

     total cpu time spent up to now is       35.5 secs

     total energy              =    -451.77866742 Ry
     estimated scf accuracy    <       0.10825469 Ry

     iteration #  4     ecut=    60.00 Ry     beta= 0.30
     Davidson diagonalization with overlap
     ethr =  1.04E-04,  avg # of iterations =  3.8

     negative rho (up, down):  8.319E-05 0.000E+00

     total cpu time spent up to now is       44.4 secs

     total energy              =    -451.78727103 Ry
     estimated scf accuracy    <       0.01033760 Ry

     iteration #  5     ecut=    60.00 Ry     beta= 0.30
     Davidson diagonalization with overlap
     ethr =  9.94E-06,  avg # of iterations =  9.6

     negative rho (up, down):  6.899E-05 0.000E+00

     total cpu time spent up to now is       57.4 secs

     total energy              =    -451.78891432 Ry
     estimated scf accuracy    <       0.00260498 Ry

     iteration #  6     ecut=    60.00 Ry     beta= 0.30
     Davidson diagonalization with overlap
     ethr =  2.50E-06,  avg # of iterations =  7.7

     negative rho (up, down):  6.961E-05 0.000E+00

     total cpu time spent up to now is       68.7 secs

     total energy              =    -451.78933154 Ry
     estimated scf accuracy    <       0.00030050 Ry

     iteration #  7     ecut=    60.00 Ry     beta= 0.30
     Davidson diagonalization with overlap
     ethr =  2.89E-07,  avg # of iterations =  2.7

     negative rho (up, down):  6.836E-05 0.000E+00

     total cpu time spent up to now is       77.2 secs

     total energy              =    -451.78937176 Ry
     estimated scf accuracy    <       0.00003354 Ry

     iteration #  8     ecut=    60.00 Ry     beta= 0.30
     Davidson diagonalization with overlap
     ethr =  3.22E-08,  avg # of iterations =  3.1

     negative rho (up, down):  6.771E-05 0.000E+00

     total cpu time spent up to now is       85.9 secs

     total energy              =    -451.78937615 Ry
     estimated scf accuracy    <       0.00001626 Ry

     iteration #  9     ecut=    60.00 Ry     beta= 0.30
     Davidson diagonalization with overlap
     ethr =  1.56E-08,  avg # of iterations =  2.1

     negative rho (up, down):  6.762E-05 0.000E+00

     total cpu time spent up to now is       94.2 secs

     total energy              =    -451.78937973 Ry
     estimated scf accuracy    <       0.00000167 Ry

     iteration # 10     ecut=    60.00 Ry     beta= 0.30
     Davidson diagonalization with overlap
     ethr =  1.61E-09,  avg # of iterations =  3.7

     negative rho (up, down):  6.753E-05 0.000E+00

     total cpu time spent up to now is      103.8 secs

     total energy              =    -451.78937975 Ry
     estimated scf accuracy    <       0.00000108 Ry

     iteration # 11     ecut=    60.00 Ry     beta= 0.30
     Davidson diagonalization with overlap
     ethr =  1.04E-09,  avg # of iterations =  3.0

     negative rho (up, down):  6.764E-05 0.000E+00

     total cpu time spent up to now is      112.9 secs

     total energy              =    -451.78938005 Ry
     estimated scf accuracy    <       0.00000007 Ry

     iteration # 12     ecut=    60.00 Ry     beta= 0.30
     Davidson diagonalization with overlap
     ethr =  7.11E-11,  avg # of iterations =  2.0

     negative rho (up, down):  6.775E-05 0.000E+00

     total cpu time spent up to now is      120.5 secs

     total energy              =    -451.78938005 Ry
     estimated scf accuracy    <       0.00000002 Ry

     iteration # 13     ecut=    60.00 Ry     beta= 0.30
     Davidson diagonalization with overlap
     ethr =  2.33E-11,  avg # of iterations =  4.7

     negative rho (up, down):  6.784E-05 0.000E+00

     total cpu time spent up to now is      131.6 secs

     total energy              =    -451.78938005 Ry
     estimated scf accuracy    <       0.00000007 Ry

     iteration # 14     ecut=    60.00 Ry     beta= 0.30
     Davidson diagonalization with overlap
     ethr =  2.33E-11,  avg # of iterations =  3.4

     negative rho (up, down):  6.814E-05 0.000E+00

     total cpu time spent up to now is      141.0 secs

     End of self-consistent calculation

          k = 0.0000-0.0000 0.0000 ( 19579 PWs)   bands (ev):

   -17.7514 -16.0555 -13.4024 -13.4024 -13.1267 -12.9624 -12.8225 -11.7840
   -11.5743 -11.5743  -9.2683  -9.2683  -9.0555  -8.8076  -8.8076  -8.7006
    -8.1380  -8.1380  -7.8209  -7.7179  -7.7179  -5.4091  -5.3472  -5.1672
    -4.8087  -4.8087  -3.9127  -3.9127  -3.4527  -3.4527  -2.6888  -2.2083
    -2.2083  -2.1212  -2.0775  -2.0775  -1.9005  -1.7183  -1.6518  -1.1987
    -1.1457  -1.1457   0.2685   0.4410   0.4856   0.4856   0.5664   0.8909
     0.9107   1.0416   1.3737   1.7030   5.4578   5.9141   7.5861   7.8175
     7.8215   8.4367   8.7680   9.0326   9.0326   9.1843

          k = 0.0000-0.2010 0.0000 ( 19537 PWs)   bands (ev):

   -17.5847 -16.0681 -14.2398 -13.3569 -13.2440 -13.2440 -11.6828 -11.5886
   -11.5886 -11.4943 -10.3175 -10.3175  -9.1524  -8.5387  -8.5387  -8.1576
    -7.7536  -7.5836  -7.5836  -7.4189  -7.4189  -5.9040  -5.0229  -4.9225
    -4.9225  -4.7549  -3.8281  -3.8281  -3.2584  -3.2584  -3.1483  -2.5474
    -2.2652  -2.2652  -1.8987  -1.8624  -1.8624  -1.8020  -1.3084  -1.2150
    -1.1563  -1.1563  -0.3501  -0.2376  -0.2376  -0.1984   0.4051   0.6274
     1.2550   1.3732   1.3795   1.6701   5.6940   6.1203   7.8377   8.1638
     8.3718   8.6087   8.6720   8.9054   8.9593   8.9593

          k = 0.0000-0.4020 0.0000 ( 19494 PWs)   bands (ev):

   -17.1057 -16.4409 -14.5980 -14.0987 -12.8077 -12.8077 -11.9694 -11.9694
   -11.3321 -10.9416 -10.8392 -10.8392  -8.9804  -8.9804  -8.6127  -7.7741
    -7.2357  -7.1028  -7.1028  -6.7493  -6.7493  -6.2583  -4.9545  -4.5945
    -4.5945  -4.4390  -3.9686  -3.6696  -3.6696  -3.2166  -3.2166  -3.0920
    -2.1442  -2.0002  -2.0002  -1.8917  -1.8917  -1.6466  -1.5762  -1.3756
    -1.3756  -1.2457  -1.2457  -1.0865  -0.4913  -0.3152   0.0823   0.1161
     0.8985   1.2638   1.8007   1.8822   6.3527   6.7027   7.4114   7.6490
     8.2832   8.6248   8.6644   8.6645   8.9521   9.0072

          k = 0.2000-0.0000 0.0000 ( 19533 PWs)   bands (ev):

   -17.5683 -15.8763 -14.8815 -13.3216 -12.9574 -12.7921 -12.6489 -11.6212
   -11.3567 -10.6943 -10.4482 -10.1247  -9.2833  -9.1219  -8.9704  -8.5470
    -7.6711  -7.5061  -6.9364  -6.8262  -6.6836  -5.3935  -5.3648  -5.2747
    -5.1895  -5.0349  -4.1246  -3.7750  -3.7051  -3.3195  -2.6816  -2.4914
    -2.4176  -2.2095  -2.0045  -1.6785  -1.6738  -1.6256  -1.6045  -1.5600
    -1.1776  -0.7753  -0.4725  -0.0790  -0.0185   0.0181   0.2759   0.5986
     0.8341   0.9041   0.9403   1.5330   5.6275   6.1070   7.9601   8.0554
     8.1362   8.2142   8.4467   8.9163   9.1654   9.2812

          k = 0.2000-0.2010 0.0000 ( 19498 PWs)   bands (ev):

   -17.4019 -15.8884 -14.7190 -14.0659 -13.3047 -13.1861 -11.6663 -11.5195
   -11.3284 -11.0748 -10.8819  -9.9488  -9.0523  -8.9032  -8.6203  -8.0160
    -7.9195  -7.6118  -7.2516  -6.2434  -6.1029  -5.8273  -5.6058  -5.0441
    -4.9648  -4.6526  -4.3309  -3.6459  -3.5474  -3.0409  -3.0002  -2.6464
    -2.3692  -2.3067  -2.2981  -1.8939  -1.7200  -1.7075  -1.4757  -1.2705
    -1.1411  -0.9913  -0.8752  -0.4769  -0.4691  -0.1290   0.2024   0.3356
     0.6243   0.7367   1.2878   1.4191   5.8618   6.3168   8.0882   8.1913
     8.3064   8.6662   8.7534   8.8723   8.9488   9.0440

          k = 0.2000-0.4020 0.0000 ( 19512 PWs)   bands (ev):

   -16.9236 -16.2599 -14.4239 -14.2522 -13.9260 -13.6114 -12.0033 -11.5100
   -11.1709 -10.7830 -10.7827 -10.3768  -8.5087  -8.4901  -8.3844  -7.8826
    -7.6779  -7.4813  -7.0897  -6.1133  -5.7444  -5.3813  -5.3631  -4.8563
    -4.6543  -4.3587  -4.1780  -3.9663  -3.9066  -3.2259  -3.0847  -2.9542
    -2.6931  -2.6407  -2.4196  -1.8918  -1.8302  -1.7017  -1.5485  -1.2591
    -1.2575  -1.0777  -0.9078  -0.8695  -0.7962  -0.7643  -0.5035   0.0022
     0.9435   1.0498   1.0947   1.4038   6.5189   6.8995   7.5745   7.8202
     8.0493   8.2348   8.3767   8.9273   8.9976   9.2615

          k = 0.4000-0.0000 0.0000 ( 19514 PWs)   bands (ev):

   -17.0213 -16.1187 -15.3417 -14.4662 -12.4532 -12.2882 -12.1316 -11.6306
   -11.4874 -11.2811 -11.1359 -10.3411  -9.6279  -8.8846  -8.1247  -7.8482
    -7.2469  -6.9428  -6.6852  -6.4348  -5.6139  -5.5824  -5.5697  -5.1671
    -4.6126  -4.5349  -4.4095  -3.9387  -3.8518  -3.7618  -3.2613  -2.6790
    -2.5193  -2.4756  -1.7414  -1.7167  -1.5125  -1.4975  -1.4971  -1.4904
    -1.2901  -1.1997  -1.1884  -0.8604  -0.4491  -0.3660  -0.3498   0.1368
     0.2123   0.7625   1.0323   1.0663   6.1379   6.5437   7.0170   7.1891
     8.5045   8.7543   9.2373   9.2897   9.3386   9.4321

          k = 0.4000-0.2010 0.0000 ( 19518 PWs)   bands (ev):

   -16.8557 -15.9543 -15.3523 -14.4722 -13.5480 -12.7030 -12.6789 -11.8600
   -11.0372 -10.8333 -10.2844 -10.0231  -9.5229  -8.9009  -7.7645  -7.6548
    -7.2393  -6.9218  -6.6452  -6.1078  -5.8097  -5.7038  -5.4229  -5.0333
    -4.7886  -4.6107  -4.2118  -4.0062  -3.6744  -3.5897  -2.9497  -2.9173
    -2.7116  -2.6799  -2.4785  -2.0857  -1.7250  -1.6513  -1.5479  -1.2759
    -1.2643  -1.1780  -0.7462  -0.7315  -0.6789  -0.4334  -0.3335  -0.2870
    -0.0423   0.6746   0.7049   1.1090   6.3454   6.7695   7.1758   7.4093
     8.4183   8.7999   8.9017   8.9696   8.9752   9.3061

          k = 0.4000-0.4020 0.0000 ( 19544 PWs)   bands (ev):

   -16.3796 -15.7193 -15.4820 -14.8279 -13.9063 -13.4126 -13.0648 -12.5783
   -10.7002 -10.3207 -10.0229  -9.7365  -8.7578  -8.3321  -8.1225  -7.5357
    -6.7083  -6.4798  -6.2447  -5.7330  -5.6726  -5.3540  -5.3240  -5.0243
    -4.7933  -4.7872  -4.3912  -4.1412  -3.9173  -3.9002  -3.4836  -3.2276
    -2.9151  -2.7520  -2.6766  -2.4661  -2.1545  -1.9898  -1.4678  -1.4403
    -1.2512  -1.1855  -0.9822  -0.8047  -0.6693  -0.5125  -0.1308  -0.0012
     0.0007   0.1742   0.6307   0.9686   6.9360   7.3711   7.4663   7.6961
     7.8353   8.1222   8.2054   8.3103   8.5404   8.8183

     the Fermi energy is     3.3165 ev

!    total energy              =    -451.78938006 Ry
     estimated scf accuracy    <          1.9E-09 Ry
     smearing contrib. (-TS)   =       0.00000000 Ry
     internal energy E=F+TS    =    -451.78938006 Ry

     The total energy is F=E-TS. E is the sum of the following terms:
     one-electron contribution =   -2331.28802708 Ry
     hartree contribution      =    1206.61641568 Ry
     xc contribution           =    -117.78157473 Ry
     ewald contribution        =     938.58287152 Ry
     one-center paw contrib.   =    -147.91906543 Ry

     convergence has been achieved in  14 iterations

     negative rho (up, down):  6.814E-05 0.000E+00

     Forces acting on atoms (cartesian axes, Ry/au):

     atom    1 type  1   force =     0.00000000   -0.00267390    0.00004260
     atom    2 type  1   force =    -0.00000001   -0.00278021    0.00031215
     atom    3 type  1   force =     0.00000001   -0.00000000    0.00067297
     atom    4 type  1   force =     0.00000000   -0.00000000    0.00133449
     atom    5 type  1   force =     0.00000000    0.00278023   -0.00031199
     atom    6 type  1   force =    -0.00000000    0.00267399   -0.00004296
     atom    7 type  1   force =     0.00000000    0.00267390    0.00004260
     atom    8 type  1   force =    -0.00000001    0.00278021    0.00031215
     atom    9 type  1   force =     0.00000003    0.00000000   -0.00133456
     atom   10 type  1   force =     0.00000000    0.00000000   -0.00067292
     atom   11 type  1   force =     0.00000000   -0.00278023   -0.00031199
     atom   12 type  1   force =    -0.00000000   -0.00267399   -0.00004296
     atom   13 type  2   force =     0.00000000   -0.00112012    0.00055557
     atom   14 type  2   force =     0.00000000    0.00112012    0.00055557
     atom   15 type  2   force =     0.00000000    0.00112001   -0.00055539
     atom   16 type  2   force =     0.00000000   -0.00112001   -0.00055539
     atom   17 type  1   force =     0.00000000   -0.00267388    0.00004262
     atom   18 type  1   force =     0.00000001   -0.00278021    0.00031215
     atom   19 type  1   force =    -0.00000001    0.00000000    0.00067297
     atom   20 type  1   force =     0.00000000   -0.00000000    0.00133447
     atom   21 type  1   force =     0.00000000    0.00278027   -0.00031199
     atom   22 type  1   force =     0.00000000    0.00267399   -0.00004296
     atom   23 type  1   force =     0.00000000    0.00267388    0.00004262
     atom   24 type  1   force =     0.00000001    0.00278021    0.00031215
     atom   25 type  1   force =    -0.00000003    0.00000000   -0.00133456
     atom   26 type  1   force =     0.00000000    0.00000000   -0.00067285
     atom   27 type  1   force =     0.00000000   -0.00278027   -0.00031199
     atom   28 type  1   force =     0.00000000   -0.00267399   -0.00004296
     atom   29 type  2   force =     0.00000000   -0.00112010    0.00055556
     atom   30 type  2   force =     0.00000000    0.00112010    0.00055556
     atom   31 type  2   force =    -0.00000000    0.00112001   -0.00055539
     atom   32 type  2   force =    -0.00000000   -0.00112001   -0.00055539

     Total force =     0.011886     Total SCF correction =     0.000114


     Computing stress (Cartesian axis) and pressure


     negative rho (up, down):  6.814E-05 0.000E+00
          total   stress  (Ry/bohr**3)                   (kbar)     P=       -7.89
   0.00004574   0.00000000   0.00000000            6.73        0.00        0.00
   0.00000000  -0.00020383   0.00000000            0.00      -29.99        0.00
   0.00000000   0.00000000  -0.00000283            0.00        0.00       -0.42


     Writing all to output data dir ./tmp/slab.save/ :
     XML data file, charge density, pseudopotentials, collected wavefunctions

     init_run     :      4.39s CPU      4.66s WALL (       1 calls)
     electrons    :    122.95s CPU    136.32s WALL (       1 calls)
     forces       :      1.45s CPU      1.65s WALL (       1 calls)
     stress       :      3.58s CPU      4.14s WALL (       1 calls)

     Called by init_run:
     wfcinit      :      3.64s CPU      3.85s WALL (       1 calls)
     potinit      :      0.46s CPU      0.47s WALL (       1 calls)
     hinit0       :      0.15s CPU      0.15s WALL (       1 calls)

     Called by electrons:
     c_bands      :    101.38s CPU    112.71s WALL (      14 calls)
     sum_band     :     13.91s CPU     14.88s WALL (      14 calls)
     v_of_rho     :      2.17s CPU      2.32s WALL (      15 calls)
     newd         :      1.32s CPU      1.83s WALL (      15 calls)
     PAW_pot      :      4.20s CPU      4.58s WALL (      15 calls)
     mix_rho      :      0.28s CPU      0.33s WALL (      14 calls)

     Called by c_bands:
     init_us_2    :      1.11s CPU      1.22s WALL (     279 calls)
     cegterg      :     98.93s CPU    110.17s WALL (     126 calls)

     Called by *egterg:
     cdiaghg      :      1.77s CPU      1.83s WALL (     679 calls)
     h_psi        :     71.01s CPU     75.64s WALL (     688 calls)
     s_psi        :      8.22s CPU      9.89s WALL (     688 calls)
     g_psi        :      0.30s CPU      0.30s WALL (     553 calls)

     Called by h_psi:
     h_psi:calbec :      7.36s CPU      9.29s WALL (     688 calls)
     vloc_psi     :     54.49s CPU     55.01s WALL (     688 calls)
                                        0.00s GPU  (     688 calls)
     add_vuspsi   :      8.91s CPU     10.88s WALL (     688 calls)

     General routines
     calbec       :     11.45s CPU     14.32s WALL (     967 calls)
     fft          :      1.39s CPU      1.39s WALL (     218 calls)
     ffts         :      0.07s CPU      0.07s WALL (      29 calls)
     fftw         :     58.20s CPU     58.44s WALL (   51934 calls)
     interpolate  :      0.15s CPU      0.16s WALL (      15 calls)


     PWSCF        :   2m12.43s CPU   2m26.87s WALL


   This run was terminated on:  14:46:23   7Jul2026            

=------------------------------------------------------------------------------=
   JOB DONE.
=------------------------------------------------------------------------------=
Note: The following floating-point exceptions are signalling: IEEE_INVALID_FLAG IEEE_DIVIDE_BY_ZERO IEEE_OVERFLOW_FLAG IEEE_UNDERFLOW_FLAG
