
     Program PWSCF v.7.5 starts on 23Jun2026 at 15:51:53 

     This program is part of the open-source Quantum ESPRESSO suite
     for quantum simulation of materials; please cite
         "P. Giannozzi et al., J. Phys.:Condens. Matter 21 395502 (2009);
         "P. Giannozzi et al., J. Phys.:Condens. Matter 29 465901 (2017);
         "P. Giannozzi et al., J. Chem. Phys. 152 154105 (2020);
          URL http://www.quantum-espresso.org", 
     in publications or presentations arising from this work. More details at
     http://www.quantum-espresso.org/quote

     Serial version
     0 MiB available memory on the printing compute node when the environment starts

     Waiting for input...
     Reading input from standard input

     Current dimensions of program PWSCF are:
     Max number of different atomic species (ntypx) = 10
     Max number of k-points (npk) =  40000
     Max angular momentum in pseudopotentials (lmaxx) =  4
     file C.pbe-n-kjpaw_psl.1.0.0.UPF: wavefunction(s)  2S 2P renormalized
     Message from routine volume:
     axis vectors are left-handed
     Message from routine setup:
     using ibrav=0 with symmetry is DISCOURAGED, use correct ibrav instead


     G-vector sticks info
     --------------------
     sticks:   dense  smooth     PW     G-vecs:    dense   smooth      PW
     Sum        1657     829    243               371997   131591   20663

     Using Slab Decomposition



     bravais-lattice index     =            0
     lattice parameter (alat)  =       4.7752  a.u.
     unit-cell volume          =    1360.0853 (a.u.)^3
     number of atoms/cell      =           14
     number of atomic types    =            2
     number of electrons       =        50.00
     number of Kohn-Sham states=           30
     kinetic-energy cutoff     =      80.0000  Ry
     charge density cutoff     =     640.0000  Ry
     scf convergence threshold =      1.0E-08
     mixing beta               =       0.3000
     number of iterations used =            8  plain     mixing
     Exchange-correlation= PBE
                           (   1   4   3   4   0   0   0)

     celldm(1)=   4.775235  celldm(2)=   0.000000  celldm(3)=   0.000000
     celldm(4)=   0.000000  celldm(5)=   0.000000  celldm(6)=   0.000000

     crystal axes: (cart. coord. in units of alat)
               a(1) = (   1.000000   0.000000   0.000000 )  
               a(2) = (   0.000000  -1.421285   0.000000 )  
               a(3) = (   0.000000   0.000000   8.788216 )  

     reciprocal axes: (cart. coord. in units 2 pi/alat)
               b(1) = (  1.000000 -0.000000 -0.000000 )  
               b(2) = ( -0.000000 -0.703589 -0.000000 )  
               b(3) = ( -0.000000 -0.000000  0.113789 )  


     PseudoPot. # 1 for C  read from file:
     ./C.pbe-n-kjpaw_psl.1.0.0.UPF
     MD5 check sum: 5d2aebdfa2cae82b50a7e79e9516da0f
     Pseudo is Projector augmented-wave + core cor, Zval =  4.0
     Generated using "atomic" code by A. Dal Corso  v.5.1
     Shape of augmentation charge: PSQ
     Using radial grid of 1073 points,  4 beta functions with: 
                l(1) =   0
                l(2) =   0
                l(3) =   1
                l(4) =   1
     Q(r) pseudized with 0 coefficients 


     PseudoPot. # 2 for H  read from file:
     ./H_ONCV_PBE-1.0.oncvpsp.upf
     MD5 check sum: 1790becc920ee074925cf490c71280fe
     Pseudo is Norm-conserving, Zval =  1.0
     Generated using ONCVPSP code by D. R. Hamann
     Using radial grid of 1166 points,  2 beta functions with: 
                l(1) =   0
                l(2) =   0

     atomic species   valence    mass     pseudopotential
     C                 4.00    12.01100     C ( 1.00)
     H                 1.00     1.00800     H ( 1.00)

      4 Sym. Ops. (no inversion) found ( 2 have fractional translation)



   Cartesian axes

     site n.     atom                  positions (alat units)
         1        C      tau(   1) = (   0.0000000  -0.3629440   5.4554133  )
         2        C      tau(   2) = (   0.5000000  -0.7030195   5.4554133  )
         3        C      tau(   3) = (   0.0000000   0.0012716   4.9666635  )
         4        C      tau(   4) = (   0.5000000  -1.0672350   4.9666635  )
         5        C      tau(   5) = (   0.0000000  -0.3557102   4.4654712  )
         6        C      tau(   6) = (   0.5000000  -0.7102533   4.4654712  )
         7        C      tau(   7) = (   0.0000000   0.0025213   3.9666200  )
         8        C      tau(   8) = (   0.5000000  -1.0684848   3.9666200  )
         9        C      tau(   9) = (   0.0000000  -0.3553212   3.4680099  )
        10        C      tau(  10) = (   0.5000000  -0.7106423   3.4680099  )
        11        C      tau(  11) = (   0.0000000   0.0000000   2.9680099  )
        12        C      tau(  12) = (   0.5000000  -1.0659635   2.9680099  )
        13        H      tau(  13) = (   0.0000000  -0.1247787   5.8198994  )
        14        H      tau(  14) = (   0.5000000  -0.9411848   5.8198994  )

     number of k points=    20  Marzari-Vanderbilt smearing, width (Ry)=  0.0100
                       cart. coord. in units 2pi/alat
        k(    1) = (   0.0000000  -0.0000000   0.0000000), wk =   0.0317460
        k(    2) = (   0.0000000  -0.1005127   0.0000000), wk =   0.0634921
        k(    3) = (   0.0000000  -0.2010254   0.0000000), wk =   0.0634921
        k(    4) = (   0.0000000  -0.3015381   0.0000000), wk =   0.0634921
        k(    5) = (   0.1111111  -0.0000000   0.0000000), wk =   0.0634921
        k(    6) = (   0.1111111  -0.1005127   0.0000000), wk =   0.1269841
        k(    7) = (   0.1111111  -0.2010254   0.0000000), wk =   0.1269841
        k(    8) = (   0.1111111  -0.3015381   0.0000000), wk =   0.1269841
        k(    9) = (   0.2222222  -0.0000000   0.0000000), wk =   0.0634921
        k(   10) = (   0.2222222  -0.1005127   0.0000000), wk =   0.1269841
        k(   11) = (   0.2222222  -0.2010254   0.0000000), wk =   0.1269841
        k(   12) = (   0.2222222  -0.3015381   0.0000000), wk =   0.1269841
        k(   13) = (   0.3333333  -0.0000000   0.0000000), wk =   0.0634921
        k(   14) = (   0.3333333  -0.1005127   0.0000000), wk =   0.1269841
        k(   15) = (   0.3333333  -0.2010254   0.0000000), wk =   0.1269841
        k(   16) = (   0.3333333  -0.3015381   0.0000000), wk =   0.1269841
        k(   17) = (   0.4444444  -0.0000000   0.0000000), wk =   0.0634921
        k(   18) = (   0.4444444  -0.1005127   0.0000000), wk =   0.1269841
        k(   19) = (   0.4444444  -0.2010254   0.0000000), wk =   0.1269841
        k(   20) = (   0.4444444  -0.3015381   0.0000000), wk =   0.1269841

     Dense  grid:   371997 G-vectors     FFT dimensions: (  40,  60, 360)

     Smooth grid:   131591 G-vectors     FFT dimensions: (  30,  40, 240)

     Estimated max dynamical RAM per process >     847.66 MB

     Initial potential from superposition of free atoms

     starting charge      49.9995, renormalised to      50.0000

     negative rho (up, down):  6.062E-05 0.000E+00
     Starting wfcs are   50 randomized atomic wfcs

     total cpu time spent up to now is        4.3 secs

     Self-consistent Calculation

     iteration #  1     ecut=    80.00 Ry     beta= 0.30
     Davidson diagonalization with overlap
     ethr =  1.00E-02,  avg # of iterations =  2.5

     negative rho (up, down):  5.823E-05 0.000E+00

     total cpu time spent up to now is       12.9 secs

     total energy              =    -223.36296429 Ry
     estimated scf accuracy    <       0.89440827 Ry

     iteration #  2     ecut=    80.00 Ry     beta= 0.30
     Davidson diagonalization with overlap
     ethr =  1.79E-03,  avg # of iterations =  4.0

     negative rho (up, down):  6.828E-05 0.000E+00

     total cpu time spent up to now is       21.2 secs

     total energy              =    -223.27954660 Ry
     estimated scf accuracy    <       0.30869064 Ry

     iteration #  3     ecut=    80.00 Ry     beta= 0.30
     Davidson diagonalization with overlap
     ethr =  6.17E-04,  avg # of iterations =  6.2

     negative rho (up, down):  7.098E-05 0.000E+00

     total cpu time spent up to now is       29.4 secs

     total energy              =    -223.29447103 Ry
     estimated scf accuracy    <       0.04299412 Ry

     iteration #  4     ecut=    80.00 Ry     beta= 0.30
     Davidson diagonalization with overlap
     ethr =  8.60E-05,  avg # of iterations =  7.8

     negative rho (up, down):  7.253E-05 0.000E+00

     total cpu time spent up to now is       38.7 secs

     total energy              =    -223.29666084 Ry
     estimated scf accuracy    <       0.00809998 Ry

     iteration #  5     ecut=    80.00 Ry     beta= 0.30
     Davidson diagonalization with overlap
     c_bands:  1 eigenvalues not converged
     ethr =  1.62E-05,  avg # of iterations =  7.3

     negative rho (up, down):  7.306E-05 0.000E+00

     total cpu time spent up to now is       48.2 secs

     total energy              =    -223.29780080 Ry
     estimated scf accuracy    <       0.00088336 Ry

     iteration #  6     ecut=    80.00 Ry     beta= 0.30
     Davidson diagonalization with overlap
     ethr =  1.77E-06,  avg # of iterations =  8.6

     negative rho (up, down):  7.259E-05 0.000E+00

     total cpu time spent up to now is       59.4 secs

     total energy              =    -223.29787317 Ry
     estimated scf accuracy    <       0.00020592 Ry

     iteration #  7     ecut=    80.00 Ry     beta= 0.30
     Davidson diagonalization with overlap
     ethr =  4.12E-07,  avg # of iterations =  2.1

     negative rho (up, down):  7.247E-05 0.000E+00

     total cpu time spent up to now is       67.4 secs

     total energy              =    -223.29790638 Ry
     estimated scf accuracy    <       0.00002971 Ry

     iteration #  8     ecut=    80.00 Ry     beta= 0.30
     Davidson diagonalization with overlap
     ethr =  5.94E-08,  avg # of iterations =  2.5

     negative rho (up, down):  7.201E-05 0.000E+00

     total cpu time spent up to now is       75.7 secs

     total energy              =    -223.29790965 Ry
     estimated scf accuracy    <       0.00000767 Ry

     iteration #  9     ecut=    80.00 Ry     beta= 0.30
     Davidson diagonalization with overlap
     ethr =  1.53E-08,  avg # of iterations =  2.0

     negative rho (up, down):  7.179E-05 0.000E+00

     total cpu time spent up to now is       83.8 secs

     total energy              =    -223.29791152 Ry
     estimated scf accuracy    <       0.00000077 Ry

     iteration # 10     ecut=    80.00 Ry     beta= 0.30
     Davidson diagonalization with overlap
     ethr =  1.53E-09,  avg # of iterations =  2.9

     negative rho (up, down):  7.170E-05 0.000E+00

     total cpu time spent up to now is       92.6 secs

     total energy              =    -223.29791167 Ry
     estimated scf accuracy    <       0.00000015 Ry

     iteration # 11     ecut=    80.00 Ry     beta= 0.30
     Davidson diagonalization with overlap
     ethr =  3.00E-10,  avg # of iterations =  3.0

     negative rho (up, down):  7.163E-05 0.000E+00

     total cpu time spent up to now is      101.9 secs

     total energy              =    -223.29791170 Ry
     estimated scf accuracy    <       0.00000007 Ry

     iteration # 12     ecut=    80.00 Ry     beta= 0.30
     Davidson diagonalization with overlap
     ethr =  1.37E-10,  avg # of iterations =  2.0

     negative rho (up, down):  7.160E-05 0.000E+00

     total cpu time spent up to now is      109.8 secs

     End of self-consistent calculation

          k = 0.0000-0.0000 0.0000 ( 16457 PWs)   bands (ev):

   -19.4545 -18.1350 -16.1890 -13.8668 -11.7459 -11.0164 -10.9079  -9.7143
    -7.8612  -7.8596  -6.7758  -5.9566  -5.5151  -4.6638  -4.4218  -3.3928
    -2.9625  -2.8074  -1.9885  -0.6727  -0.5311  -0.0059   0.7054   1.3876
     1.5252   3.8566   3.9929   5.9521   6.6251   6.7916

          k = 0.0000-0.1005 0.0000 ( 16437 PWs)   bands (ev):

   -19.2703 -17.9564 -16.0281 -13.8099 -13.1292 -12.2415 -10.0409  -9.2104
    -8.7158  -7.0585  -6.6760  -5.8464  -4.9212  -4.4684  -4.2488  -3.2478
    -3.1199  -2.4047  -1.9076  -0.6133  -0.5958  -0.2133   0.3697   0.9090
     1.6099   3.5532   4.0671   6.1597   6.6430   7.0210

          k = 0.0000-0.2010 0.0000 ( 16423 PWs)   bands (ev):

   -18.7201 -17.4259 -15.5730 -14.9633 -14.0691 -13.3245 -10.5818  -9.7293
    -8.2305  -7.2107  -5.8303  -5.0841  -4.2220  -3.7617  -3.7375  -2.8274
    -2.5862  -2.1453  -1.6952  -0.8403  -0.8353  -0.6058  -0.3326   0.1114
     1.5672   2.8065   4.6656   6.5887   7.0645   7.5073

          k = 0.0000-0.3015 0.0000 ( 16418 PWs)   bands (ev):

   -17.8129 -16.6562 -16.4524 -15.3917 -14.8359 -13.7636 -10.8822 -10.1922
    -8.3037  -7.4387  -5.4216  -4.4554  -3.4052  -2.9142  -2.6192  -2.1965
    -2.1567  -1.8101  -1.6436  -1.5038  -1.3551  -1.3412  -0.9576  -0.3916
     1.6216   2.2146   5.5601   6.7182   7.0918   7.8714

          k = 0.1111-0.0000 0.0000 ( 16447 PWs)   bands (ev):

   -19.2287 -17.9119 -15.9700 -13.6543 -11.5431 -10.8392 -10.8156  -9.6558
    -7.8169  -7.6658  -6.5942  -5.7845  -5.4956  -5.4428  -4.5303  -4.3736
    -2.9353  -2.9115  -2.8172  -1.4611  -0.8533  -0.2935  -0.0888   0.3371
     1.1520   4.0356   4.0594   6.2073   6.9450   7.3557

          k = 0.1111-0.1005 0.0000 ( 16422 PWs)   bands (ev):

   -19.0450 -17.7339 -15.8101 -13.6000 -12.9459 -12.0515  -9.8964  -9.0901
    -8.6466  -6.9711  -6.5766  -5.7819  -5.1797  -4.9094  -4.3691  -4.1306
    -3.1022  -2.7899  -2.4693  -1.5381  -1.0607  -0.6341  -0.3106   0.0329
     1.4551   3.6415   4.2938   6.4512   7.2626   7.5928

          k = 0.1111-0.2010 0.0000 ( 16397 PWs)   bands (ev):

   -18.4965 -17.2056 -15.3583 -14.7600 -13.8691 -13.1206 -10.3992  -9.5443
    -8.0839  -7.1533  -6.0022  -5.0949  -4.6868  -4.3438  -3.7482  -3.2514
    -2.9530  -2.4013  -2.1592  -2.1066  -1.8626  -1.2541  -0.5597  -0.0467
     1.5512   2.9553   4.9243   7.1002   7.7840   7.9406

          k = 0.1111-0.3015 0.0000 ( 16441 PWs)   bands (ev):

   -17.5926 -16.4405 -16.2378 -15.1822 -14.6285 -13.5581 -10.6849  -9.9981
    -8.1332  -7.2729  -5.4612  -4.5561  -4.3126  -3.6803  -3.4009  -2.7809
    -2.7524  -2.5139  -2.2169  -1.9718  -1.8379  -1.2194  -0.9944  -0.7508
     1.7546   2.3017   5.8636   7.1634   7.8707   8.3982

          k = 0.2222-0.0000 0.0000 ( 16440 PWs)   bands (ev):

   -18.5546 -17.2461 -15.3169 -13.0202 -10.9368 -10.9328 -10.2151  -9.7653
    -7.9553  -7.1505  -7.1003  -6.0801  -6.0465  -5.6756  -5.2985  -4.5839
    -4.1886  -3.2146  -3.0464  -2.9075  -2.2451  -1.7510  -1.7155  -0.3853
     0.5776   3.8327   4.7105   6.5248   6.9841   7.2154

          k = 0.2222-0.1005 0.0000 ( 16423 PWs)   bands (ev):

   -18.3726 -17.0703 -15.1602 -12.9753 -12.4600 -11.5186  -9.6698  -9.1510
    -8.6096  -7.2103  -6.6987  -6.2422  -5.7992  -5.3879  -4.8749  -4.1919
    -3.9766  -3.4761  -3.2117  -3.1286  -2.7631  -2.0487  -0.9624  -0.7147
     0.9244   3.5271   4.9658   7.0988   7.3336   7.4583

          k = 0.2222-0.2010 0.0000 ( 16418 PWs)   bands (ev):

   -17.8300 -16.5491 -14.7189 -14.1726 -13.2828 -12.5195  -9.9142  -9.0728
    -8.2637  -7.6094  -6.7172  -6.0009  -5.3035  -4.8411  -4.5330  -4.3248
    -3.8389  -3.4915  -3.3570  -3.1302  -2.6711  -2.1096  -1.1703  -0.5774
     1.3954   2.9369   5.6206   7.9424   8.2888   8.4712

          k = 0.2222-0.3015 0.0000 ( 16412 PWs)   bands (ev):

   -16.9377 -15.8013 -15.6024 -14.5630 -14.0119 -12.9480 -10.1301  -9.4483
    -7.7759  -7.2199  -6.7776  -6.0126  -5.8633  -5.0104  -4.7671  -4.3160
    -3.8892  -3.6144  -2.5716  -2.2707  -2.2090  -2.0257  -1.2281  -1.0678
     1.8128   2.3715   6.5206   7.9041   9.0444   9.1726

          k = 0.3333-0.0000 0.0000 ( 16438 PWs)   bands (ev):

   -17.4442 -16.1502 -14.2423 -12.1337 -11.9760 -10.9348  -9.9336  -9.2215
    -9.1221  -7.5254  -6.9174  -6.4898  -6.2395  -5.3502  -5.1824  -4.7881
    -4.6350  -4.1716  -3.9993  -3.8895  -3.3508  -3.1871  -2.9400  -1.0236
     0.5847   3.2117   5.6726   6.4385   6.6888   8.3285

          k = 0.3333-0.1005 0.0000 ( 16454 PWs)   bands (ev):

   -17.2661 -15.9791 -14.0918 -12.3696 -11.9592 -11.1660 -10.2246  -9.7198
    -9.1388  -7.4377  -7.0051  -6.5160  -6.0947  -5.5886  -5.1665  -5.0125
    -4.6913  -4.3867  -4.0794  -3.7483  -3.0916  -3.0057  -2.2812  -1.2198
     0.8120   3.0647   5.9852   6.8712   7.0952   7.9537

          k = 0.3333-0.2010 0.0000 ( 16446 PWs)   bands (ev):

   -16.7367 -15.4737 -13.6754 -13.3690 -12.4183 -11.5894 -10.2888  -9.7053
    -9.1335  -7.9513  -7.1380  -7.0813  -6.8090  -6.2351  -5.3076  -5.2076
    -4.2297  -3.8600  -3.6955  -3.4291  -2.8611  -2.7190  -1.6933  -1.4286
     1.3224   2.7175   6.6138   7.8277   8.0791   8.7336

          k = 0.3333-0.3015 0.0000 ( 16401 PWs)   bands (ev):

   -15.8741 -14.7809 -14.5861 -13.5845 -13.0115 -11.9662  -9.6194  -9.4927
    -8.8529  -8.5266  -8.3718  -7.4798  -6.6916  -6.4758  -5.9218  -5.5627
    -3.8998  -3.6913  -3.4245  -3.0657  -2.3253  -2.1709  -1.8424  -1.3957
     1.7991   2.3694   7.2689   8.7042   8.9438   9.2936

          k = 0.4444-0.0000 0.0000 ( 16472 PWs)   bands (ev):

   -15.9262 -14.6540 -14.0745 -12.8332 -12.7756 -10.9901 -10.5473  -8.7943
    -8.5476  -7.8482  -6.8105  -6.5801  -6.1240  -5.7390  -5.2729  -5.0801
    -4.8649  -4.7716  -4.5460  -4.4568  -4.0878  -3.5403  -2.8950  -1.9487
     1.2309   2.2380   6.2715   6.8515   7.2180   7.5028

          k = 0.4444-0.1005 0.0000 ( 16479 PWs)   bands (ev):

   -15.7580 -14.4942 -13.9474 -12.7201 -12.6363 -10.9124 -10.4749  -9.3494
    -8.7902  -8.7258  -7.6516  -7.0580  -6.3790  -5.7277  -5.1720  -5.0947
    -4.6880  -4.4868  -4.2377  -3.9896  -3.7051  -3.4674  -2.7419  -1.9731
     1.3664   2.2540   6.7730   6.9080   7.3564   7.6811

          k = 0.4444-0.2010 0.0000 ( 16444 PWs)   bands (ev):

   -15.2667 -14.0313 -13.6641 -12.4856 -12.2455 -10.7994 -10.7617 -10.3330
    -9.5615  -9.2212  -8.9319  -8.0796  -6.7858  -6.2228  -5.6315  -4.9633
    -4.7800  -4.1409  -3.8395  -3.3324  -3.2042  -2.6313  -2.3267  -2.0298
     1.6764   2.2616   7.3986   7.7074   8.1917   8.4972

          k = 0.4444-0.3015 0.0000 ( 16423 PWs)   bands (ev):

   -14.5138 -13.7648 -13.3211 -12.6156 -11.7326 -11.2912 -10.9072 -10.5745
   -10.3189  -9.7031  -9.4852  -8.6922  -6.9947  -6.6114  -5.7728  -5.2471
    -4.8916  -4.3486  -3.5791  -3.1561  -2.5886  -2.3380  -1.9255  -1.7992
     1.9505   2.2166   7.8891   8.5001   9.4055   9.6721

     the Fermi energy is     2.0202 ev

!    total energy              =    -223.29791171 Ry
     estimated scf accuracy    <          6.4E-09 Ry
     smearing contrib. (-TS)   =       0.00046753 Ry
     internal energy E=F+TS    =    -223.29837924 Ry

     The total energy is F=E-TS. E is the sum of the following terms:
     one-electron contribution =   -2767.45245771 Ry
     hartree contribution      =    1400.80040799 Ry
     xc contribution           =     -57.19057674 Ry
     ewald contribution        =    1274.50502810 Ry
     one-center paw contrib.   =     -73.96078087 Ry

     convergence has been achieved in  12 iterations

     negative rho (up, down):  7.160E-05 0.000E+00

     Forces acting on atoms (cartesian axes, Ry/au):

     atom    1 type  1   force =     0.00000000   -0.00112431    0.00000751
     atom    2 type  1   force =     0.00000000    0.00112431    0.00000751
     atom    3 type  1   force =     0.00000000    0.00026651    0.00017589
     atom    4 type  1   force =     0.00000000   -0.00026651    0.00017589
     atom    5 type  1   force =     0.00000000   -0.00027783   -0.00012891
     atom    6 type  1   force =     0.00000000    0.00027783   -0.00012891
     atom    7 type  1   force =     0.00000000    0.00070283   -0.00036850
     atom    8 type  1   force =     0.00000000   -0.00070283   -0.00036850
     atom    9 type  1   force =     0.00000000   -0.04739705   -0.04914489
     atom   10 type  1   force =    -0.00000000    0.04739705   -0.04914489
     atom   11 type  1   force =     0.00000000    0.17576543    0.05039017
     atom   12 type  1   force =     0.00000000   -0.17576543    0.05039017
     atom   13 type  2   force =     0.00000000   -0.00190573   -0.00093127
     atom   14 type  2   force =     0.00000000    0.00190573   -0.00093127

     Total force =     0.003630     Total SCF correction =     0.000134


     Computing stress (Cartesian axis) and pressure


     negative rho (up, down):  7.160E-05 0.000E+00
          total   stress  (Ry/bohr**3)                   (kbar)     P=      -21.08
  -0.00016492   0.00000000   0.00000000          -24.26        0.00        0.00
   0.00000000  -0.00006854   0.00000000            0.00      -10.08        0.00
   0.00000000   0.00000000  -0.00019639            0.00        0.00      -28.89


     Writing all to output data dir ./tmp/slab.save/ :
     XML data file, charge density, pseudopotentials, collected wavefunctions

     init_run     :      3.94s CPU      4.23s WALL (       1 calls)
     electrons    :     95.57s CPU    105.54s WALL (       1 calls)
     forces       :      1.08s CPU      1.27s WALL (       1 calls)
     stress       :      3.44s CPU      4.11s WALL (       1 calls)

     Called by init_run:
     wfcinit      :      3.34s CPU      3.57s WALL (       1 calls)
     potinit      :      0.31s CPU      0.35s WALL (       1 calls)
     hinit0       :      0.14s CPU      0.15s WALL (       1 calls)

     Called by electrons:
     c_bands      :     78.55s CPU     87.28s WALL (      12 calls)
     sum_band     :     12.26s CPU     12.99s WALL (      12 calls)
     v_of_rho     :      1.79s CPU      1.92s WALL (      13 calls)
     newd         :      0.95s CPU      1.25s WALL (      13 calls)
     PAW_pot      :      1.95s CPU      2.05s WALL (      13 calls)
     mix_rho      :      0.24s CPU      0.28s WALL (      12 calls)

     Called by c_bands:
     init_us_2    :      1.14s CPU      1.20s WALL (     540 calls)
     cegterg      :     76.31s CPU     85.01s WALL (     240 calls)

     Called by *egterg:
     cdiaghg      :      0.76s CPU      0.78s WALL (    1260 calls)
     h_psi        :     59.61s CPU     63.24s WALL (    1280 calls)
     s_psi        :      5.55s CPU      6.70s WALL (    1280 calls)
     g_psi        :      0.24s CPU      0.25s WALL (    1020 calls)

     Called by h_psi:
     h_psi:calbec :      5.10s CPU      6.57s WALL (    1280 calls)
     vloc_psi     :     47.91s CPU     48.41s WALL (    1280 calls)
                                        0.00s GPU  (    1280 calls)
     add_vuspsi   :      6.39s CPU      7.91s WALL (    1280 calls)

     General routines
     calbec       :      8.62s CPU     11.03s WALL (    1860 calls)
     fft          :      1.35s CPU      1.36s WALL (     192 calls)
     ffts         :      0.05s CPU      0.05s WALL (      25 calls)
     fftw         :     51.29s CPU     51.66s WALL (   46984 calls)
     interpolate  :      0.13s CPU      0.14s WALL (      13 calls)


     PWSCF        :   1m44.08s CPU   1m55.29s WALL


   This run was terminated on:  15:53:48  23Jun2026            

=------------------------------------------------------------------------------=
   JOB DONE.
=------------------------------------------------------------------------------=
Note: The following floating-point exceptions are signalling: IEEE_INVALID_FLAG IEEE_DIVIDE_BY_ZERO IEEE_OVERFLOW_FLAG IEEE_UNDERFLOW_FLAG
