
     Program PWSCF v.7.3.1 starts on  2Aug2026 at 16:10:17 

     This program is part of the open-source Quantum ESPRESSO suite
     for quantum simulation of materials; please cite
         "P. Giannozzi et al., J. Phys.:Condens. Matter 21 395502 (2009);
         "P. Giannozzi et al., J. Phys.:Condens. Matter 29 465901 (2017);
         "P. Giannozzi et al., J. Chem. Phys. 152 154105 (2020);
          URL http://www.quantum-espresso.org", 
     in publications or presentations arising from this work. More details at
     http://www.quantum-espresso.org/quote

     Parallel version (MPI), running on     8 processors

     MPI processes distributed on     1 nodes
     184068 MiB available memory on the printing compute node when the environment starts

     Reading input from pw.in

     Current dimensions of program PWSCF are:
     Max number of different atomic species (ntypx) = 10
     Max number of k-points (npk) =  40000
     Max angular momentum in pseudopotentials (lmaxx) =  4
     file C.pbe-n-kjpaw_psl.1.0.0.UPF: wavefunction(s)  2S 2P renormalized
     Message from routine volume:
     axis vectors are left-handed
     Message from routine setup:
     using ibrav=0 with symmetry is DISCOURAGED, use correct ibrav instead

     R & G space division:  proc/nbgrp/npool/nimage =       8
     Subspace diagonalization in iterative solution of the eigenvalue problem:
     a serial algorithm will be used


     Parallelization info
     --------------------
     sticks:   dense  smooth     PW     G-vecs:    dense   smooth      PW
     Min         326     163     46                82340    29103    4430
     Max         327     164     47                82363    29118    4449
     Sum        2609    1305    373               658771   232903   35527

     Using Slab Decomposition



     bravais-lattice index     =            0
     lattice parameter (alat)  =       4.7744  a.u.
     unit-cell volume          =    2018.7745 (a.u.)^3
     number of atoms/cell      =           36
     number of atomic types    =            2
     number of electrons       =       132.00
     number of Kohn-Sham states=           79
     kinetic-energy cutoff     =      90.0000  Ry
     charge density cutoff     =     720.0000  Ry
     scf convergence threshold =      1.0E-08
     mixing beta               =       0.3000
     number of iterations used =            8  plain     mixing
     Exchange-correlation= PBE
                           (   1   4   3   4   0   0   0)

     celldm(1)=   4.774375  celldm(2)=   0.000000  celldm(3)=   0.000000
     celldm(4)=   0.000000  celldm(5)=   0.000000  celldm(6)=   0.000000

     crystal axes: (cart. coord. in units of alat)
               a(1) = (   1.000000   0.000000   0.000000 )  
               a(2) = (   0.000000  -2.000000   0.000000 )  
               a(3) = (   0.000000   0.000000   9.274879 )  

     reciprocal axes: (cart. coord. in units 2 pi/alat)
               b(1) = (  1.000000 -0.000000 -0.000000 )  
               b(2) = ( -0.000000 -0.500000 -0.000000 )  
               b(3) = ( -0.000000 -0.000000  0.107818 )  


     PseudoPot. # 1 for C  read from file:
     ./C.pbe-n-kjpaw_psl.1.0.0.UPF
     MD5 check sum: 5d2aebdfa2cae82b50a7e79e9516da0f
     Pseudo is Projector augmented-wave + core cor, Zval =  4.0
     Generated using "atomic" code by A. Dal Corso  v.5.1
     Shape of augmentation charge: PSQ
     Using radial grid of 1073 points,  4 beta functions with: 
                l(1) =   0
                l(2) =   0
                l(3) =   1
                l(4) =   1
     Q(r) pseudized with 0 coefficients 


     PseudoPot. # 2 for H  read from file:
     ./H_ONCV_PBE-1.0.oncvpsp.upf
     MD5 check sum: 1790becc920ee074925cf490c71280fe
     Pseudo is Norm-conserving, Zval =  1.0
     Generated using ONCVPSP code by D. R. Hamann
     Using radial grid of 1166 points,  2 beta functions with: 
                l(1) =   0
                l(2) =   0

     atomic species   valence    mass     pseudopotential
     C                 4.00    12.01100     C ( 1.00)
     H                 1.00     1.00800     H ( 1.00)

      4 Sym. Ops., with inversion, found ( 2 have fractional translation)



   Cartesian axes

     site n.     atom                  positions (alat units)
         1        C      tau(   1) = (   0.0000000  -0.6787881   7.2607308  )
         2        C      tau(   2) = (   0.5000000  -0.5357996   6.9397706  )
         3        C      tau(   3) = (   0.5000000  -0.0000204   6.6192040  )
         4        C      tau(   4) = (   0.0000000  -0.0000102   6.2510343  )
         5        C      tau(   5) = (  -0.0000000  -0.4937515   5.8746137  )
         6        C      tau(   6) = (   0.5000000  -0.4937960   5.5210584  )
         7        C      tau(   7) = (   0.5000000   0.0006002   5.1646074  )
         8        C      tau(   8) = (  -0.0000000   0.0005004   4.8122183  )
         9        C      tau(   9) = (  -0.0000000  -0.5005004   4.4626608  )
        10        C      tau(  10) = (   0.5000000  -0.5006002   4.1102718  )
        11        C      tau(  11) = (   0.5000000  -0.0062040   3.7538208  )
        12        C      tau(  12) = (  -0.0000000  -0.0062485   3.4002654  )
        13        C      tau(  13) = (   0.0000000  -0.4999898   3.0238448  )
        14        C      tau(  14) = (   0.5000000  -0.4999796   2.6556751  )
        15        C      tau(  15) = (   0.5000000   0.0357996   2.3351085  )
        16        C      tau(  16) = (   0.0000000   0.1787881   2.0141483  )
        17        C      tau(  17) = (   0.0000000  -1.3211846   7.2607024  )
        18        C      tau(  18) = (   0.5000000  -1.4641226   6.9396901  )
        19        C      tau(  19) = (   0.5000000  -0.9998802   6.5454353  )
        20        C      tau(  20) = (  -0.0000000  -0.9998936   6.2072579  )
        21        C      tau(  21) = (  -0.0000000  -1.5061883   5.8750596  )
        22        C      tau(  22) = (   0.5000000  -1.5061446   5.5217013  )
        23        C      tau(  23) = (   0.5000000  -1.0005626   5.1708700  )
        24        C      tau(  24) = (   0.0000000  -1.0004776   4.8162484  )
        25        C      tau(  25) = (   0.0000000  -1.4995224   4.4586307  )
        26        C      tau(  26) = (   0.5000000  -1.4994374   4.1040091  )
        27        C      tau(  27) = (   0.5000000  -0.9938554   3.7531778  )
        28        C      tau(  28) = (  -0.0000000  -0.9938117   3.3998195  )
        29        C      tau(  29) = (  -0.0000000  -1.5001064   3.0676213  )
        30        C      tau(  30) = (   0.5000000  -1.5001198   2.7294439  )
        31        C      tau(  31) = (   0.5000000  -1.0358774   2.3351891  )
        32        C      tau(  32) = (   0.0000000  -1.1788154   2.0141767  )
        33        H      tau(  33) = (   0.0000000  -0.5090905   7.6616835  )
        34        H      tau(  34) = (   0.0000000  -1.4909699   7.6616181  )
        35        H      tau(  35) = (   0.0000000   0.0090905   1.6131956  )
        36        H      tau(  36) = (   0.0000000  -1.0090301   1.6132611  )

     number of k points=    15  Marzari-Vanderbilt smearing, width (Ry)=  0.0100
                       cart. coord. in units 2pi/alat
        k(    1) = (   0.0000000  -0.0000000   0.0000000), wk =   0.0444444
        k(    2) = (   0.0000000  -0.1000000   0.0000000), wk =   0.0888889
        k(    3) = (   0.0000000  -0.2000000   0.0000000), wk =   0.0888889
        k(    4) = (   0.1111111  -0.0000000   0.0000000), wk =   0.0888889
        k(    5) = (   0.1111111  -0.1000000   0.0000000), wk =   0.1777778
        k(    6) = (   0.1111111  -0.2000000   0.0000000), wk =   0.1777778
        k(    7) = (   0.2222222  -0.0000000   0.0000000), wk =   0.0888889
        k(    8) = (   0.2222222  -0.1000000   0.0000000), wk =   0.1777778
        k(    9) = (   0.2222222  -0.2000000   0.0000000), wk =   0.1777778
        k(   10) = (   0.3333333  -0.0000000   0.0000000), wk =   0.0888889
        k(   11) = (   0.3333333  -0.1000000   0.0000000), wk =   0.1777778
        k(   12) = (   0.3333333  -0.2000000   0.0000000), wk =   0.1777778
        k(   13) = (   0.4444444  -0.0000000   0.0000000), wk =   0.0888889
        k(   14) = (   0.4444444  -0.1000000   0.0000000), wk =   0.1777778
        k(   15) = (   0.4444444  -0.2000000   0.0000000), wk =   0.1777778

     Dense  grid:   658771 G-vectors     FFT dimensions: (  45,  96, 384)

     Smooth grid:   232903 G-vectors     FFT dimensions: (  30,  60, 270)

     Estimated max dynamical RAM per process >     309.47 MB

     Estimated total dynamical RAM >       2.42 GB

     Check: negative core charge=   -0.000001

     Initial potential from superposition of free atoms

     starting charge     131.9986, renormalised to     132.0000

     negative rho (up, down):  1.144E-08 0.000E+00
     Starting wfcs are  132 randomized atomic wfcs
     Checking if some PAW data can be deallocated... 

     total cpu time spent up to now is        4.1 secs

     Self-consistent Calculation

     iteration #  1     ecut=    90.00 Ry     beta= 0.30
     Davidson diagonalization with overlap
     ethr =  1.00E-02,  avg # of iterations =  2.7

     negative rho (up, down):  1.603E-07 0.000E+00

     total cpu time spent up to now is       12.2 secs

     total energy              =    -594.75407786 Ry
     estimated scf accuracy    <       2.31657327 Ry

     iteration #  2     ecut=    90.00 Ry     beta= 0.30
     Davidson diagonalization with overlap
     ethr =  1.75E-03,  avg # of iterations =  4.5

     negative rho (up, down):  3.232E-06 0.000E+00

     total cpu time spent up to now is       18.8 secs

     total energy              =    -594.50272742 Ry
     estimated scf accuracy    <       0.82479211 Ry

     iteration #  3     ecut=    90.00 Ry     beta= 0.30
     Davidson diagonalization with overlap
     ethr =  6.25E-04,  avg # of iterations =  7.1

     negative rho (up, down):  3.658E-06 0.000E+00

     total cpu time spent up to now is       26.3 secs

     total energy              =    -594.54235551 Ry
     estimated scf accuracy    <       0.08176853 Ry

     iteration #  4     ecut=    90.00 Ry     beta= 0.30
     Davidson diagonalization with overlap
     c_bands:  1 eigenvalues not converged
     ethr =  6.19E-05,  avg # of iterations = 10.7

     negative rho (up, down):  4.222E-06 0.000E+00

     total cpu time spent up to now is       35.9 secs

     total energy              =    -594.55088233 Ry
     estimated scf accuracy    <       0.00911932 Ry

     iteration #  5     ecut=    90.00 Ry     beta= 0.30
     Davidson diagonalization with overlap
     c_bands:  1 eigenvalues not converged
     ethr =  6.91E-06,  avg # of iterations = 10.1

     negative rho (up, down):  5.113E-06 0.000E+00

     total cpu time spent up to now is       45.5 secs

     total energy              =    -594.55210242 Ry
     estimated scf accuracy    <       0.00165735 Ry

     iteration #  6     ecut=    90.00 Ry     beta= 0.30
     Davidson diagonalization with overlap
     ethr =  1.26E-06,  avg # of iterations =  7.1

     negative rho (up, down):  5.482E-06 0.000E+00

     total cpu time spent up to now is       53.1 secs

     total energy              =    -594.55219742 Ry
     estimated scf accuracy    <       0.00046336 Ry

     iteration #  7     ecut=    90.00 Ry     beta= 0.30
     Davidson diagonalization with overlap
     ethr =  3.51E-07,  avg # of iterations =  2.1

     negative rho (up, down):  5.779E-06 0.000E+00

     total cpu time spent up to now is       59.9 secs

     total energy              =    -594.55225997 Ry
     estimated scf accuracy    <       0.00005004 Ry

     iteration #  8     ecut=    90.00 Ry     beta= 0.30
     Davidson diagonalization with overlap
     ethr =  3.79E-08,  avg # of iterations =  2.4

     negative rho (up, down):  5.735E-06 0.000E+00

     total cpu time spent up to now is       66.8 secs

     total energy              =    -594.55226844 Ry
     estimated scf accuracy    <       0.00001625 Ry

     iteration #  9     ecut=    90.00 Ry     beta= 0.30
     Davidson diagonalization with overlap
     ethr =  1.23E-08,  avg # of iterations =  2.1

     negative rho (up, down):  5.771E-06 0.000E+00

     total cpu time spent up to now is       73.6 secs

     total energy              =    -594.55227186 Ry
     estimated scf accuracy    <       0.00000098 Ry

     iteration # 10     ecut=    90.00 Ry     beta= 0.30
     Davidson diagonalization with overlap
     ethr =  7.45E-10,  avg # of iterations =  3.5

     negative rho (up, down):  5.782E-06 0.000E+00

     total cpu time spent up to now is       81.2 secs

     total energy              =    -594.55227214 Ry
     estimated scf accuracy    <       0.00000033 Ry

     iteration # 11     ecut=    90.00 Ry     beta= 0.30
     Davidson diagonalization with overlap
     ethr =  2.51E-10,  avg # of iterations =  3.1

     negative rho (up, down):  5.803E-06 0.000E+00

     total cpu time spent up to now is       88.6 secs

     total energy              =    -594.55227218 Ry
     estimated scf accuracy    <       0.00000018 Ry

     iteration # 12     ecut=    90.00 Ry     beta= 0.30
     Davidson diagonalization with overlap
     ethr =  1.33E-10,  avg # of iterations =  2.2

     negative rho (up, down):  5.820E-06 0.000E+00

     total cpu time spent up to now is       95.0 secs

     total energy              =    -594.55227220 Ry
     estimated scf accuracy    <       0.00000001 Ry

     iteration # 13     ecut=    90.00 Ry     beta= 0.30
     Davidson diagonalization with overlap
     ethr =  1.03E-11,  avg # of iterations =  3.7

     negative rho (up, down):  5.869E-06 0.000E+00

     total cpu time spent up to now is      102.4 secs

     End of self-consistent calculation

          k = 0.0000-0.0000 0.0000 ( 29115 PWs)   bands (ev):

   -14.3430 -14.0119 -13.4543 -12.6558 -11.6099 -10.3466  -9.8734  -9.8699
    -9.5248  -9.4975  -9.1133  -9.0034  -8.7017  -8.3516  -8.3456  -7.1859
    -5.8803  -5.8562  -5.4940  -4.8024  -4.7939  -3.7922  -3.5122  -3.5121
    -2.1241  -2.1048  -2.0175  -0.4328  -0.4177  -0.2383   0.7739   0.8396
     1.0695   1.1356   1.1368   1.2729   1.4831   1.5986   1.9208   2.3541
     2.5176   2.6411   2.9381   3.1370   3.2995   3.6449   3.8386   3.9931
     3.9954   4.0804   4.0828   4.0871   4.1602   4.1673   4.2134   4.3853
     4.4081   4.6140   4.8011   4.8011   5.3644   5.5472   5.8147   6.4453
     6.5338   6.6425   9.3300   9.8262  11.1526  11.1921  11.3732  11.4210
    11.6333  11.8122  12.1555  12.2231  12.3322  12.4472  12.5344

          k = 0.0000-0.1000 0.0000 ( 29123 PWs)   bands (ev):

   -14.1635 -13.8440 -13.3027 -12.5268 -11.5446 -11.3843 -10.9606 -10.4670
   -10.1073  -9.4985  -8.8349  -8.4068  -8.1798  -7.8920  -7.8602  -6.9999
    -5.6150  -5.4496  -5.2900  -4.5683  -4.4585  -3.7723  -3.3487  -3.1546
    -2.2585  -1.9932  -1.6117  -0.6053  -0.4102  -0.1546   0.0547   0.4725
     0.8885   0.9205   1.1967   1.1997   1.3245   1.4980   1.7074   2.2510
     2.4219   2.4345   2.7361   2.9183   3.0337   3.2891   3.3678   3.5335
     3.6883   3.6937   3.9872   4.0720   4.1260   4.3296   4.3419   4.4884
     4.5238   4.8084   5.0254   5.1361   5.2085   5.2552   5.6364   6.1097
     6.1975   6.4773   9.5501  10.0391  11.6019  11.7855  11.7875  12.0358
    12.1185  12.2836  12.3739  12.5687  12.6118  12.8208  12.8989

          k = 0.0000-0.2000 0.0000 ( 29111 PWs)   bands (ev):

   -13.6411 -13.3938 -12.9744 -12.6247 -12.3225 -11.9771 -11.5268 -11.0709
   -10.5300  -9.8948  -9.2669  -8.5345  -7.9073  -7.3132  -6.7282  -6.5237
    -4.9511  -4.5856  -4.4945  -4.1334  -3.7616  -3.4536  -2.9842  -2.6839
    -2.2684  -1.9312  -1.5383  -1.3610  -1.1485  -0.8417  -0.3845  -0.0423
     0.2142   0.5390   1.1030   1.3107   1.3324   1.5257   1.7391   1.9028
     2.1635   2.1940   2.4968   2.6595   2.7727   2.7849   3.1258   3.2302
     3.3192   3.4531   3.7905   4.0037   4.0779   4.2061   4.4468   4.4925
     4.6080   4.7543   4.9580   5.0170   5.3789   5.4115   5.4236   5.6845
     5.8416   6.2640  10.1785  10.6028  11.2020  11.5119  12.0816  12.2388
    12.3327  12.4315  12.6221  12.9921  13.1207  13.2407  13.4119

          k = 0.1111-0.0000 0.0000 ( 29115 PWs)   bands (ev):

   -14.1163 -13.7859 -13.2298 -12.4338 -11.3919 -10.1345  -9.6575  -9.6541
    -9.3117  -9.2849  -8.9059  -8.7966  -8.5010  -8.1471  -8.1415  -6.9961
    -5.6855  -5.6570  -5.4030  -4.6194  -4.6133  -3.7083  -3.3565  -3.3563
    -2.0993  -1.9971  -1.9805  -0.7156  -0.3800  -0.3139  -0.2133   0.2558
     0.2667   1.0248   1.0996   1.1121   1.2691   1.3901   1.4421   2.0490
     2.3741   2.4106   2.5369   2.6215   2.9407   3.0990   3.1034   3.1108
     3.1438   3.2880   3.2925   3.5471   3.6858   3.7152   3.7875   3.9439
     3.9666   4.0745   4.0999   4.3740   5.1303   5.1482   5.3758   6.0294
     6.1531   6.3669   9.5588  10.0305  11.8531  11.8541  11.9264  12.0111
    12.3333  12.4712  12.6635  12.8674  12.9949  13.1269  13.1493

          k = 0.1111-0.1000 0.0000 ( 29110 PWs)   bands (ev):

   -13.9371 -13.6184 -13.0785 -12.3050 -11.3260 -11.1644 -10.7425 -10.2523
    -9.8962  -9.2906  -8.6327  -8.2083  -7.9732  -7.6892  -7.6557  -6.8100
    -5.4484  -5.2598  -5.1687  -4.3989  -4.2827  -3.6769  -3.2169  -2.9994
    -2.1833  -1.9654  -1.4746  -0.7488  -0.4229  -0.1953  -0.0232   0.1001
     0.3046   0.3469   0.6344   0.9472   1.1178   1.2816   1.4170   1.6288
     2.0094   2.1462   2.1725   2.2015   2.5372   2.7031   2.8437   3.0045
     3.0448   3.1466   3.3528   3.5967   3.7500   3.9058   3.9708   4.0404
     4.1214   4.1978   4.2987   4.3620   4.5598   5.2338   5.2784   5.3358
     6.0834   6.2163   9.7778  10.2391  11.9707  12.4024  12.4336  12.7432
    12.7939  12.8238  12.8975  12.9480  13.0838  13.3244  13.3683

          k = 0.1111-0.2000 0.0000 ( 29070 PWs)   bands (ev):

   -13.4157 -13.1692 -12.7508 -12.4016 -12.1005 -11.7562 -11.3078 -10.8546
   -10.3168  -9.6857  -9.0622  -8.3352  -7.7133  -7.1210  -6.5338  -6.3289
    -4.8545  -4.4366  -4.3458  -4.0021  -3.6159  -3.3047  -2.8258  -2.5449
    -2.0898  -1.7892  -1.3798  -1.2522  -1.0298  -0.7424  -0.4062  -0.0880
     0.1583   0.2536   0.3072   0.6114   0.8993   0.9376   1.1784   1.2793
     1.4323   1.6571   1.8410   2.0273   2.2243   2.3760   2.4909   2.8101
     2.8296   3.1095   3.2436   3.2902   3.6721   3.7116   3.9675   4.0661
     4.3123   4.5065   4.6334   4.6662   4.7789   4.8343   5.0605   5.2463
     5.5670   5.6074  10.4026  10.7948  11.4088  11.6783  12.0945  12.3105
    12.8927  13.0299  13.2814  13.5939  13.7157  13.7666  13.9008

          k = 0.2222-0.0000 0.0000 ( 29062 PWs)   bands (ev):

   -13.4395 -13.1116 -12.5604 -11.7730 -10.7461  -9.5125  -9.0135  -9.0107
    -8.6775  -8.6521  -8.2944  -8.1823  -7.9235  -7.5385  -7.5342  -6.4846
    -5.4804  -5.0924  -5.0902  -4.1255  -4.1247  -3.9059  -3.0940  -2.9871
    -2.9553  -2.3013  -2.1009  -1.8483  -1.8453  -1.5285  -1.1232  -0.4145
    -0.1246  -0.0813   0.1025   0.5853   0.5935   0.9759   0.9845   1.1344
     1.1709   1.2039   1.4481   1.5629   1.7124   1.7164   1.9326   2.0571
     2.0602   2.3868   2.4474   2.5281   2.6059   2.7092   2.9413   3.2161
     3.3119   3.3521   3.6581   4.0576   4.4030   4.4488   5.0896   5.1360
     5.3403   6.0729  10.1989  10.5477  12.5132  12.5715  12.7463  12.8799
    13.0775  13.2281  13.3129  13.4176  13.4989  13.5201  13.5796

          k = 0.2222-0.1000 0.0000 ( 29068 PWs)   bands (ev):

   -13.2613 -12.9451 -12.4101 -11.6450 -10.6773 -10.5091 -10.0930  -9.6168
    -9.2735  -8.6769  -8.0425  -7.6342  -7.3608  -7.0892  -7.0479  -6.2948
    -5.3404  -4.7940  -4.7083  -3.9937  -3.9134  -3.7249  -3.1017  -2.8498
    -2.5801  -2.1449  -1.9576  -1.8675  -1.4614  -1.1620  -1.0136  -0.6671
    -0.4271  -0.3522   0.0820   0.2244   0.3219   0.6513   0.7122   0.8995
     0.9211   1.1494   1.3122   1.5439   1.6104   1.6864   1.8700   1.9753
     2.0419   2.2468   2.4495   2.5559   2.6638   2.8567   2.9042   3.0791
     3.2241   3.3404   3.5459   3.7168   4.2236   4.2579   4.5104   5.0981
     5.4095   5.4845  10.4044  10.7382  12.3335  12.5213  12.7782  12.7898
    12.8273  13.0193  13.4756  13.7209  13.7416  13.8645  13.9351

          k = 0.2222-0.2000 0.0000 ( 29057 PWs)   bands (ev):

   -12.7431 -12.4987 -12.0841 -11.7363 -11.4389 -11.0984 -10.6566 -10.2129
    -9.6860  -9.0700  -8.4634  -7.7575  -7.1614  -6.5754  -5.9812  -5.7666
    -4.8667  -4.2666  -4.0687  -3.7662  -3.3932  -3.0113  -2.6739  -2.3021
    -1.9287  -1.7257  -1.6195  -1.5524  -1.3627  -1.2748  -1.2266  -0.9166
    -0.7114  -0.6996  -0.6118  -0.2701  -0.2134   0.0541   0.1581   0.3385
     0.5492   0.7264   0.8895   1.1031   1.2360   1.4659   1.6948   1.9316
     2.1193   2.3209   2.4561   2.5261   2.7930   2.8997   3.0492   3.1473
     3.2129   3.4911   3.6064   3.7867   3.9683   4.1292   4.3178   4.4872
     4.8470   4.8680  10.9556  11.2297  11.6134  11.7915  11.9269  12.1647
    12.4433  12.9778  13.1449  13.4428  13.9193  14.1751  14.6167

          k = 0.3333-0.0000 0.0000 ( 29126 PWs)   bands (ev):

   -12.3245 -12.0024 -11.4629 -10.6985  -9.7175  -8.5846  -7.9560  -7.9546
    -7.6549  -7.6213  -7.4897  -7.1941  -7.1620  -6.5556  -6.5514  -6.5038
    -6.4596  -5.0169  -4.7756  -4.4917  -4.3463  -4.2511  -3.7324  -3.6224
    -3.4810  -3.1523  -3.1415  -2.4102  -2.3936  -2.3926  -2.3410  -1.4433
    -1.0425  -0.9238  -0.8500  -0.8134  -0.8102  -0.4236  -0.4225   0.1012
     0.1238   0.1836   0.4061   0.9808   0.9884   1.1959   1.2348   1.3938
     1.4037   1.5930   2.1651   2.1741   2.3069   2.4423   2.4563   2.6290
     2.8269   3.3292   3.3326   3.3805   3.9287   4.2712   4.2962   4.5498
     5.0997   5.4646  11.2080  11.3985  12.3337  12.3429  12.8172  12.8416
    13.1547  13.1713  13.4365  13.6673  13.7437  13.7540  13.8112

          k = 0.3333-0.1000 0.0000 ( 29127 PWs)   bands (ev):

   -12.1482 -11.8377 -11.3143 -10.5710  -9.6377  -9.4342  -9.0319  -8.6147
    -8.3044  -7.7278  -7.2952  -6.9159  -6.4908  -6.3191  -6.2887  -6.0465
    -6.0272  -4.8875  -4.6475  -4.5075  -4.4344  -4.2219  -3.9231  -3.5585
    -3.2810  -2.8848  -2.4213  -2.3145  -2.2682  -1.8705  -1.8315  -1.7129
    -1.4344  -1.4065  -1.0686  -1.0095  -0.7409  -0.3547  -0.2638   0.0978
     0.3802   0.5116   0.5583   1.0977   1.1428   1.3408   1.4599   1.5521
     1.6444   1.7016   1.7569   1.8042   2.1387   2.2132   2.3323   2.4291
     2.7056   2.8387   2.8903   3.4677   3.5235   3.5567   4.2039   4.4529
     4.5096   4.6984  11.3658  11.5176  11.7607  12.4484  12.7178  12.9780
    13.1008  13.2374  13.4757  13.8256  13.8446  14.0304  14.2094

          k = 0.3333-0.2000 0.0000 ( 29086 PWs)   bands (ev):

   -11.6354 -11.3957 -10.9896 -10.6433 -10.3561 -10.0242  -9.5989  -9.1807
    -8.6833  -8.1179  -7.5763  -6.9751  -6.6230  -6.1838  -5.9767  -5.8031
    -4.8862  -4.8188  -4.5390  -4.3560  -4.2932  -3.9729  -3.6360  -3.2318
    -2.8236  -2.3628  -2.1928  -2.0370  -1.9042  -1.8520  -1.5365  -1.3718
    -1.2598  -1.0910  -0.8987  -0.6683  -0.5603  -0.4193  -0.2012  -0.0827
     0.0938   0.1630   0.4370   0.5176   0.7337   0.8600   1.1261   1.4049
     1.5818   1.6602   2.0175   2.0477   2.1633   2.2977   2.3230   2.5215
     2.5472   2.7405   2.8429   2.8894   3.0467   3.2376   3.4848   3.5178
     3.8226   3.8273  11.3480  11.6099  11.7568  11.9493  12.4032  12.7378
    12.8090  13.1403  13.5058  13.6375  13.9153  14.0243  14.2272

          k = 0.4444-0.0000 0.0000 ( 29188 PWs)   bands (ev):

   -10.8014 -10.4967  -9.9995  -9.3494  -8.9650  -8.7432  -8.7428  -7.5313
    -7.4106  -6.5133  -6.5130  -6.2247  -6.2169  -5.9669  -5.8676  -5.7724
    -5.6406  -5.2635  -5.2618  -4.9774  -4.7868  -4.7721  -4.6910  -4.5811
    -4.5739  -4.3739  -4.3644  -3.5065  -3.5063  -3.4590  -3.1792  -1.8507
    -1.5282  -1.5114  -1.3642  -0.9382  -0.9268  -0.4942  -0.3663  -0.2686
    -0.1842  -0.1384   0.2192   0.2575   0.2832   0.4959   0.5501   0.8366
     0.8430   1.2973   1.4723   1.7209   1.7211   2.0619   2.1560   2.8582
     2.8766   3.4611   3.6755   3.8330   3.8370   3.9450   4.2091   4.4115
     4.5345   4.5562  11.9861  11.9910  12.2952  12.2976  12.5396  12.6042
    13.1415  13.1460  13.3242  13.3289  14.0895  14.1468  14.4481

          k = 0.4444-0.1000 0.0000 ( 29143 PWs)   bands (ev):

   -10.6280 -10.3347  -9.8525  -9.2169  -8.7992  -8.6005  -8.5822  -7.9822
    -7.6723  -7.4759  -7.3267  -6.9876  -6.5090  -6.2320  -6.1435  -6.0699
    -5.6081  -5.4963  -4.8706  -4.7006  -4.6511  -4.6105  -4.4934  -4.3649
    -4.0588  -3.5960  -3.4350  -3.2570  -3.0931  -2.9873  -2.9492  -1.8936
    -1.7962  -1.6653  -1.3223  -1.0826  -1.0000  -0.5010  -0.3364  -0.1221
     0.2024   0.3429   0.4148   0.4524   0.5999   0.7377   0.8082   1.0575
     1.1222   1.3792   1.4314   1.6758   1.7291   2.1889   2.1999   2.5898
     2.6960   2.7405   3.0841   3.2736   3.3159   3.6523   3.6922   3.6932
     3.8054   3.8461  11.5906  12.1822  12.3494  12.5458  12.6564  12.9051
    13.0408  13.1499  13.5250  13.8755  13.9928  14.1126  14.4215

          k = 0.4444-0.2000 0.0000 ( 29091 PWs)   bands (ev):

   -10.1238  -9.8991  -9.5202  -9.1654  -8.9300  -8.6231  -8.3659  -8.2239
    -8.1218  -8.0279  -7.6084  -7.4121  -7.1833  -7.1311  -7.0502  -6.9835
    -5.2595  -5.2156  -4.8972  -4.7134  -4.5647  -4.2370  -4.1951  -3.8713
    -3.6726  -3.4877  -3.1848  -3.0296  -2.5739  -2.1793  -1.7893  -1.5184
    -1.1575  -1.0157  -0.9296  -0.6749  -0.4761  -0.2962  -0.0325   0.0374
     0.2049   0.3168   0.4741   0.7411   0.8978   1.0048   1.1990   1.3136
     1.5046   1.5833   1.6108   1.6786   1.7624   1.7891   1.8463   1.9150
     1.9914   2.1879   2.2314   2.2596   2.4925   2.5724   2.6893   2.7096
     3.0062   3.0124  11.8552  12.0232  12.4249  12.6385  12.8302  12.9360
    13.1497  13.2240  13.4598  13.5241  13.8113  13.8752  13.9261

     the Fermi energy is     8.0571 ev

!    total energy              =    -594.55227220 Ry
     estimated scf accuracy    <          2.8E-09 Ry
     smearing contrib. (-TS)   =       0.00000000 Ry
     internal energy E=F+TS    =    -594.55227220 Ry

     The total energy is F=E-TS. E is the sum of the following terms:
     one-electron contribution =   -4704.32280790 Ry
     hartree contribution      =    2422.94988330 Ry
     xc contribution           =    -152.46795892 Ry
     ewald contribution        =    2036.50430136 Ry
     one-center paw contrib.   =    -197.21569004 Ry

     convergence has been achieved in  13 iterations

     negative rho (up, down):  5.869E-06 0.000E+00

     Forces acting on atoms (cartesian axes, Ry/au):

     atom    1 type  1   force =     0.00000000   -0.00003727    0.00006158
     atom    2 type  1   force =     0.00000000   -0.00003120    0.00000802
     atom    3 type  1   force =     0.00000000    0.00002348   -0.00000834
     atom    4 type  1   force =     0.00000000    0.00001545   -0.00002142
     atom    5 type  1   force =     0.00000000    0.00001162    0.00006647
     atom    6 type  1   force =     0.00000000    0.00001416    0.00005935
     atom    7 type  1   force =     0.00000000   -0.00004232    0.00000407
     atom    8 type  1   force =     0.00000000   -0.00003219   -0.00004931
     atom    9 type  1   force =     0.00000000    0.00003219    0.00004931
     atom   10 type  1   force =     0.00000000    0.00004232   -0.00000407
     atom   11 type  1   force =     0.00000000   -0.00001416   -0.00005935
     atom   12 type  1   force =     0.00000000   -0.00001162   -0.00006647
     atom   13 type  1   force =     0.00000000   -0.00001545    0.00002142
     atom   14 type  1   force =     0.00000000   -0.00002348    0.00000834
     atom   15 type  1   force =     0.00000000    0.00003120   -0.00000802
     atom   16 type  1   force =     0.00000000    0.00003727   -0.00006158
     atom   17 type  1   force =     0.00000000    0.00004924   -0.00006588
     atom   18 type  1   force =     0.00000000    0.00002585    0.00002437
     atom   19 type  1   force =     0.00000000   -0.00002392    0.00001657
     atom   20 type  1   force =     0.00000000   -0.00002327    0.00001339
     atom   21 type  1   force =     0.00000000   -0.00001179   -0.00007068
     atom   22 type  1   force =     0.00000000   -0.00002447   -0.00008368
     atom   23 type  1   force =     0.00000000    0.00002784    0.00003239
     atom   24 type  1   force =     0.00000000    0.00002828   -0.00003192
     atom   25 type  1   force =     0.00000000   -0.00002828    0.00003192
     atom   26 type  1   force =     0.00000000   -0.00002784   -0.00003239
     atom   27 type  1   force =     0.00000000    0.00002447    0.00008368
     atom   28 type  1   force =     0.00000000    0.00001179    0.00007068
     atom   29 type  1   force =     0.00000000    0.00002327   -0.00001339
     atom   30 type  1   force =     0.00000000    0.00002392   -0.00001657
     atom   31 type  1   force =     0.00000000   -0.00002585   -0.00002437
     atom   32 type  1   force =     0.00000000   -0.00004924    0.00006588
     atom   33 type  2   force =     0.00000000    0.00000237   -0.00000882
     atom   34 type  2   force =     0.00000000    0.00001242   -0.00001177
     atom   35 type  2   force =     0.00000000   -0.00000237    0.00000882
     atom   36 type  2   force =     0.00000000   -0.00001242    0.00001177

     Total force =     0.000308     Total SCF correction =     0.000130
     SCF correction compared to forces is large: reduce conv_thr to get better values


     Computing stress (Cartesian axis) and pressure


     negative rho (up, down):  5.869E-06 0.000E+00
          total   stress  (Ry/bohr**3)                   (kbar)     P=      -11.50
   0.00005804   0.00000000   0.00000000            8.54        0.00        0.00
   0.00000000  -0.00029166   0.00000017            0.00      -42.90        0.03
   0.00000000   0.00000017  -0.00000101            0.00        0.03       -0.15


     Writing all to output data dir /tmp/qe/slab.save/ :
     XML data file, charge density, pseudopotentials, collected wavefunctions

     init_run     :      3.87s CPU      4.06s WALL (       1 calls)
     electrons    :     96.13s CPU     98.31s WALL (       1 calls)
     forces       :      1.42s CPU      1.47s WALL (       1 calls)
     stress       :     29.45s CPU     29.74s WALL (       1 calls)

     Called by init_run:
     wfcinit      :      3.31s CPU      3.43s WALL (       1 calls)
     potinit      :      0.27s CPU      0.30s WALL (       1 calls)
     hinit0       :      0.08s CPU      0.09s WALL (       1 calls)

     Called by electrons:
     c_bands      :     78.76s CPU     80.20s WALL (      13 calls)
     sum_band     :     12.91s CPU     13.22s WALL (      13 calls)
     v_of_rho     :      1.46s CPU      1.60s WALL (      14 calls)
     newd         :      0.93s CPU      1.17s WALL (      14 calls)
     PAW_pot      :      2.14s CPU      2.16s WALL (      14 calls)
     mix_rho      :      0.14s CPU      0.15s WALL (      13 calls)

     Called by c_bands:
     init_us_2    :      2.02s CPU      2.04s WALL (     435 calls)
     cegterg      :     75.50s CPU     76.88s WALL (     195 calls)

     Called by *egterg:
     cdiaghg      :      5.64s CPU      5.67s WALL (    1116 calls)
     h_psi        :     51.82s CPU     52.67s WALL (    1131 calls)
     s_psi        :      5.69s CPU      5.73s WALL (    1131 calls)
     g_psi        :      0.32s CPU      0.32s WALL (     921 calls)

     Called by h_psi:
     h_psi:calbec :      5.28s CPU      5.32s WALL (    1131 calls)
     vloc_psi     :     40.43s CPU     40.85s WALL (    1131 calls)
     add_vuspsi   :      5.79s CPU      5.82s WALL (    1131 calls)

     General routines
     calbec       :      7.99s CPU      8.05s WALL (    1401 calls)
     fft          :      0.71s CPU      0.79s WALL (     205 calls)
     ffts         :      0.03s CPU      0.03s WALL (      27 calls)
     fftw         :     34.17s CPU     34.49s WALL (  100329 calls)
     interpolate  :      0.05s CPU      0.06s WALL (      14 calls)

     Parallel routines

     PWSCF        :   2m11.20s CPU   2m15.24s WALL


   This run was terminated on:  16:12:32   2Aug2026            

=------------------------------------------------------------------------------=
   JOB DONE.
=------------------------------------------------------------------------------=
Note: The following floating-point exceptions are signalling: IEEE_UNDERFLOW_FLAG IEEE_DENORMAL
Note: The following floating-point exceptions are signalling: IEEE_UNDERFLOW_FLAG IEEE_DENORMAL
Note: The following floating-point exceptions are signalling: IEEE_UNDERFLOW_FLAG IEEE_DENORMAL
Note: The following floating-point exceptions are signalling: IEEE_UNDERFLOW_FLAG IEEE_DENORMAL
Note: The following floating-point exceptions are signalling: IEEE_UNDERFLOW_FLAG IEEE_DENORMAL
Note: The following floating-point exceptions are signalling: IEEE_UNDERFLOW_FLAG IEEE_DENORMAL
Note: The following floating-point exceptions are signalling: IEEE_UNDERFLOW_FLAG IEEE_DENORMAL
Note: The following floating-point exceptions are signalling: IEEE_UNDERFLOW_FLAG IEEE_DENORMAL
