
     Program PWSCF v.7.5 starts on 23Jun2026 at 15:23:21 

     This program is part of the open-source Quantum ESPRESSO suite
     for quantum simulation of materials; please cite
         "P. Giannozzi et al., J. Phys.:Condens. Matter 21 395502 (2009);
         "P. Giannozzi et al., J. Phys.:Condens. Matter 29 465901 (2017);
         "P. Giannozzi et al., J. Chem. Phys. 152 154105 (2020);
          URL http://www.quantum-espresso.org", 
     in publications or presentations arising from this work. More details at
     http://www.quantum-espresso.org/quote

     Serial version
     0 MiB available memory on the printing compute node when the environment starts

     Waiting for input...
     Reading input from standard input

     Current dimensions of program PWSCF are:
     Max number of different atomic species (ntypx) = 10
     Max number of k-points (npk) =  40000
     Max angular momentum in pseudopotentials (lmaxx) =  4
     file C.pbe-n-kjpaw_psl.1.0.0.UPF: wavefunction(s)  2S 2P renormalized
     Message from routine volume:
     axis vectors are left-handed
     Message from routine setup:
     using ibrav=0 with symmetry is DISCOURAGED, use correct ibrav instead


     G-vector sticks info
     --------------------
     sticks:   dense  smooth     PW     G-vecs:    dense   smooth      PW
     Sum        1657     829    243               372009   131635   20663

     Using Slab Decomposition



     bravais-lattice index     =            0
     lattice parameter (alat)  =       4.7991  a.u.
     unit-cell volume          =    1360.0853 (a.u.)^3
     number of atoms/cell      =           14
     number of atomic types    =            2
     number of electrons       =        50.00
     number of Kohn-Sham states=           30
     kinetic-energy cutoff     =      80.0000  Ry
     charge density cutoff     =     640.0000  Ry
     scf convergence threshold =      1.0E-08
     mixing beta               =       0.3000
     number of iterations used =            8  plain     mixing
     Exchange-correlation= PBE
                           (   1   4   3   4   0   0   0)

     celldm(1)=   4.799112  celldm(2)=   0.000000  celldm(3)=   0.000000
     celldm(4)=   0.000000  celldm(5)=   0.000000  celldm(6)=   0.000000

     crystal axes: (cart. coord. in units of alat)
               a(1) = (   1.000000   0.000000   0.000000 )  
               a(2) = (   0.000000  -1.407178   0.000000 )  
               a(3) = (   0.000000   0.000000   8.744494 )  

     reciprocal axes: (cart. coord. in units 2 pi/alat)
               b(1) = (  1.000000 -0.000000 -0.000000 )  
               b(2) = ( -0.000000 -0.710642 -0.000000 )  
               b(3) = ( -0.000000 -0.000000  0.114358 )  


     PseudoPot. # 1 for C  read from file:
     ./C.pbe-n-kjpaw_psl.1.0.0.UPF
     MD5 check sum: 5d2aebdfa2cae82b50a7e79e9516da0f
     Pseudo is Projector augmented-wave + core cor, Zval =  4.0
     Generated using "atomic" code by A. Dal Corso  v.5.1
     Shape of augmentation charge: PSQ
     Using radial grid of 1073 points,  4 beta functions with: 
                l(1) =   0
                l(2) =   0
                l(3) =   1
                l(4) =   1
     Q(r) pseudized with 0 coefficients 


     PseudoPot. # 2 for H  read from file:
     ./H_ONCV_PBE-1.0.oncvpsp.upf
     MD5 check sum: 1790becc920ee074925cf490c71280fe
     Pseudo is Norm-conserving, Zval =  1.0
     Generated using ONCVPSP code by D. R. Hamann
     Using radial grid of 1166 points,  2 beta functions with: 
                l(1) =   0
                l(2) =   0

     atomic species   valence    mass     pseudopotential
     C                 4.00    12.01100     C ( 1.00)
     H                 1.00     1.00800     H ( 1.00)

      4 Sym. Ops. (no inversion) found ( 2 have fractional translation)



   Cartesian axes

     site n.     atom                  positions (alat units)
         1        C      tau(   1) = (   0.0000000  -0.3593416   5.4282720  )
         2        C      tau(   2) = (   0.5000000  -0.6960417   5.4282720  )
         3        C      tau(   3) = (   0.0000000   0.0012589   4.9419538  )
         4        C      tau(   4) = (   0.5000000  -1.0566422   4.9419538  )
         5        C      tau(   5) = (   0.0000000  -0.3521796   4.4432550  )
         6        C      tau(   6) = (   0.5000000  -0.7032037   4.4432550  )
         7        C      tau(   7) = (   0.0000000   0.0024963   3.9468856  )
         8        C      tau(   8) = (   0.5000000  -1.0578795   3.9468856  )
         9        C      tau(   9) = (   0.0000000  -0.3517944   3.4507561  )
        10        C      tau(  10) = (   0.5000000  -0.7035888   3.4507561  )
        11        C      tau(  11) = (   0.0000000   0.0000000   2.9532436  )
        12        C      tau(  12) = (   0.5000000  -1.0553833   2.9532436  )
        13        H      tau(  13) = (   0.0000000  -0.1235402   5.7909446  )
        14        H      tau(  14) = (   0.5000000  -0.9318430   5.7909446  )

     number of k points=    20  Marzari-Vanderbilt smearing, width (Ry)=  0.0100
                       cart. coord. in units 2pi/alat
        k(    1) = (   0.0000000  -0.0000000   0.0000000), wk =   0.0317460
        k(    2) = (   0.0000000  -0.1015203   0.0000000), wk =   0.0634921
        k(    3) = (   0.0000000  -0.2030407   0.0000000), wk =   0.0634921
        k(    4) = (   0.0000000  -0.3045610   0.0000000), wk =   0.0634921
        k(    5) = (   0.1111111  -0.0000000   0.0000000), wk =   0.0634921
        k(    6) = (   0.1111111  -0.1015203   0.0000000), wk =   0.1269841
        k(    7) = (   0.1111111  -0.2030407   0.0000000), wk =   0.1269841
        k(    8) = (   0.1111111  -0.3045610   0.0000000), wk =   0.1269841
        k(    9) = (   0.2222222  -0.0000000   0.0000000), wk =   0.0634921
        k(   10) = (   0.2222222  -0.1015203   0.0000000), wk =   0.1269841
        k(   11) = (   0.2222222  -0.2030407   0.0000000), wk =   0.1269841
        k(   12) = (   0.2222222  -0.3045610   0.0000000), wk =   0.1269841
        k(   13) = (   0.3333333  -0.0000000   0.0000000), wk =   0.0634921
        k(   14) = (   0.3333333  -0.1015203   0.0000000), wk =   0.1269841
        k(   15) = (   0.3333333  -0.2030407   0.0000000), wk =   0.1269841
        k(   16) = (   0.3333333  -0.3045610   0.0000000), wk =   0.1269841
        k(   17) = (   0.4444444  -0.0000000   0.0000000), wk =   0.0634921
        k(   18) = (   0.4444444  -0.1015203   0.0000000), wk =   0.1269841
        k(   19) = (   0.4444444  -0.2030407   0.0000000), wk =   0.1269841
        k(   20) = (   0.4444444  -0.3045610   0.0000000), wk =   0.1269841

     Dense  grid:   372009 G-vectors     FFT dimensions: (  40,  60, 360)

     Smooth grid:   131635 G-vectors     FFT dimensions: (  30,  40, 240)

     Estimated max dynamical RAM per process >     847.68 MB

     Initial potential from superposition of free atoms

     starting charge      49.9995, renormalised to      50.0000

     negative rho (up, down):  5.980E-05 0.000E+00
     Starting wfcs are   50 randomized atomic wfcs

     total cpu time spent up to now is        4.2 secs

     Self-consistent Calculation

     iteration #  1     ecut=    80.00 Ry     beta= 0.30
     Davidson diagonalization with overlap
     ethr =  1.00E-02,  avg # of iterations =  2.5

     negative rho (up, down):  5.728E-05 0.000E+00

     total cpu time spent up to now is       12.4 secs

     total energy              =    -223.36141735 Ry
     estimated scf accuracy    <       0.89267465 Ry

     iteration #  2     ecut=    80.00 Ry     beta= 0.30
     Davidson diagonalization with overlap
     ethr =  1.79E-03,  avg # of iterations =  4.0

     negative rho (up, down):  6.759E-05 0.000E+00

     total cpu time spent up to now is       19.1 secs

     total energy              =    -223.27850102 Ry
     estimated scf accuracy    <       0.30827104 Ry

     iteration #  3     ecut=    80.00 Ry     beta= 0.30
     Davidson diagonalization with overlap
     ethr =  6.17E-04,  avg # of iterations =  6.0

     negative rho (up, down):  7.036E-05 0.000E+00

     total cpu time spent up to now is       26.9 secs

     total energy              =    -223.29313219 Ry
     estimated scf accuracy    <       0.04286209 Ry

     iteration #  4     ecut=    80.00 Ry     beta= 0.30
     Davidson diagonalization with overlap
     ethr =  8.57E-05,  avg # of iterations =  9.8

     negative rho (up, down):  7.185E-05 0.000E+00

     total cpu time spent up to now is       36.2 secs

     total energy              =    -223.29532255 Ry
     estimated scf accuracy    <       0.00795738 Ry

     iteration #  5     ecut=    80.00 Ry     beta= 0.30
     Davidson diagonalization with overlap
     c_bands:  1 eigenvalues not converged
     ethr =  1.59E-05,  avg # of iterations =  6.5

     negative rho (up, down):  7.220E-05 0.000E+00

     total cpu time spent up to now is       44.7 secs

     total energy              =    -223.29644150 Ry
     estimated scf accuracy    <       0.00087366 Ry

     iteration #  6     ecut=    80.00 Ry     beta= 0.30
     Davidson diagonalization with overlap
     c_bands:  1 eigenvalues not converged
     ethr =  1.75E-06,  avg # of iterations =  7.2

     negative rho (up, down):  7.148E-05 0.000E+00

     total cpu time spent up to now is       54.1 secs

     total energy              =    -223.29651577 Ry
     estimated scf accuracy    <       0.00020655 Ry

     iteration #  7     ecut=    80.00 Ry     beta= 0.30
     Davidson diagonalization with overlap
     ethr =  4.13E-07,  avg # of iterations =  3.6

     negative rho (up, down):  7.140E-05 0.000E+00

     total cpu time spent up to now is       61.6 secs

     total energy              =    -223.29654979 Ry
     estimated scf accuracy    <       0.00003387 Ry

     iteration #  8     ecut=    80.00 Ry     beta= 0.30
     Davidson diagonalization with overlap
     ethr =  6.77E-08,  avg # of iterations =  2.5

     negative rho (up, down):  7.088E-05 0.000E+00

     total cpu time spent up to now is       68.8 secs

     total energy              =    -223.29655405 Ry
     estimated scf accuracy    <       0.00000926 Ry

     iteration #  9     ecut=    80.00 Ry     beta= 0.30
     Davidson diagonalization with overlap
     ethr =  1.85E-08,  avg # of iterations =  2.0

     negative rho (up, down):  7.063E-05 0.000E+00

     total cpu time spent up to now is       76.0 secs

     total energy              =    -223.29655630 Ry
     estimated scf accuracy    <       0.00000079 Ry

     iteration # 10     ecut=    80.00 Ry     beta= 0.30
     Davidson diagonalization with overlap
     ethr =  1.59E-09,  avg # of iterations =  2.9

     negative rho (up, down):  7.052E-05 0.000E+00

     total cpu time spent up to now is      106.0 secs

     total energy              =    -223.29655644 Ry
     estimated scf accuracy    <       0.00000016 Ry

     iteration # 11     ecut=    80.00 Ry     beta= 0.30
     Davidson diagonalization with overlap
     ethr =  3.15E-10,  avg # of iterations =  2.9

     negative rho (up, down):  7.044E-05 0.000E+00

     total cpu time spent up to now is      163.5 secs

     total energy              =    -223.29655648 Ry
     estimated scf accuracy    <       0.00000008 Ry

     iteration # 12     ecut=    80.00 Ry     beta= 0.30
     Davidson diagonalization with overlap
     ethr =  1.50E-10,  avg # of iterations =  2.0

     negative rho (up, down):  7.038E-05 0.000E+00

     total cpu time spent up to now is      204.0 secs

     End of self-consistent calculation

          k = 0.0000-0.0000 0.0000 ( 16457 PWs)   bands (ev):

   -19.4518 -18.1351 -16.1867 -13.8529 -11.6895 -10.9283 -10.8598  -9.6741
    -7.8274  -7.8229  -6.7423  -5.9290  -5.4922  -4.6293  -4.5384  -3.5049
    -2.9107  -2.7983  -2.0903  -0.6139  -0.6082  -0.0162   0.6457   1.3339
     1.5771   3.8638   3.9870   5.9568   6.4187   6.7966

          k = 0.0000-0.1015 0.0000 ( 16439 PWs)   bands (ev):

   -19.2658 -17.9545 -16.0235 -13.7899 -13.0662 -12.1963 -10.0188  -9.1743
    -8.6567  -7.0127  -6.6509  -5.8224  -4.8715  -4.4452  -4.3632  -3.3575
    -3.1057  -2.3468  -2.0071  -0.6768  -0.6169  -0.1517   0.3112   0.8397
     1.6445   3.5548   4.0735   6.1451   6.4891   7.0234

          k = 0.0000-0.2030 0.0000 ( 16413 PWs)   bands (ev):

   -18.7100 -17.4182 -15.5605 -14.9175 -14.0260 -13.3035 -10.5686  -9.7195
    -8.2097  -7.1762  -5.7733  -5.0647  -4.1722  -3.8452  -3.7375  -2.9302
    -2.5391  -2.1238  -1.7879  -0.9170  -0.8080  -0.6709  -0.2710   0.0156
     1.5819   2.8167   4.6726   6.4927   7.0355   7.4690

          k = 0.0000-0.3046 0.0000 ( 16404 PWs)   bands (ev):

   -17.7935 -16.6321 -16.4273 -15.3624 -14.8094 -13.7443 -10.8783 -10.1823
    -8.2932  -7.4238  -5.3947  -4.4369  -3.3484  -3.0108  -2.6008  -2.2872
    -2.1176  -1.8929  -1.5834  -1.5819  -1.4403  -1.2972  -0.9098  -0.5030
     1.6131   2.2450   5.5636   6.6944   7.0051   7.8408

          k = 0.1111-0.0000 0.0000 ( 16419 PWs)   bands (ev):

   -19.2284 -17.9143 -15.9700 -13.6425 -11.4887 -10.8028 -10.7299  -9.6272
    -7.7956  -7.6301  -6.5624  -5.7602  -5.5343  -5.4825  -4.4983  -4.4621
    -3.0129  -2.8638  -2.8186  -1.5253  -0.7957  -0.3360  -0.1042   0.2921
     1.1850   4.0237   4.0633   6.2102   6.9554   7.3767

          k = 0.1111-0.1015 0.0000 ( 16410 PWs)   bands (ev):

   -19.0428 -17.7344 -15.8078 -13.5820 -12.8874 -12.0097  -9.8790  -9.0578
    -8.6032  -6.9351  -6.5631  -5.7776  -5.2541  -4.8720  -4.3558  -4.2004
    -3.1023  -2.8496  -2.4248  -1.5997  -1.0644  -0.6465  -0.3540   0.0363
     1.4791   3.6353   4.2983   6.4531   7.2670   7.5262

          k = 0.1111-0.2030 0.0000 ( 16408 PWs)   bands (ev):

   -18.4888 -17.2002 -15.3480 -14.7173 -13.8286 -13.1022 -10.3896  -9.5375
    -8.0668  -7.1273  -5.9991  -5.0951  -4.7188  -4.3612  -3.7458  -3.2529
    -2.9788  -2.4116  -2.1686  -2.1106  -1.9192  -1.3000  -0.5843  -0.0033
     1.5641   2.9579   4.9320   7.0926   7.7001   7.9425

          k = 0.1111-0.3046 0.0000 ( 16401 PWs)   bands (ev):

   -17.5757 -16.4188 -16.2153 -15.1553 -14.6043 -13.5413 -10.6838  -9.9911
    -8.1257  -7.2613  -5.4516  -4.5890  -4.3188  -3.7410  -3.4517  -2.8111
    -2.7619  -2.5719  -2.2099  -1.9973  -1.8078  -1.2320  -0.9493  -0.7411
     1.7525   2.3193   5.8761   7.1677   7.7927   8.3686

          k = 0.2222-0.0000 0.0000 ( 16444 PWs)   bands (ev):

   -18.5613 -17.2553 -15.3236 -13.0147 -10.9461 -10.8882 -10.1365  -9.7838
    -7.9779  -7.1693  -7.0719  -6.0668  -6.0526  -5.7023  -5.2832  -4.6011
    -4.1637  -3.2368  -3.0695  -2.8716  -2.2407  -1.7715  -1.6744  -0.4175
     0.5831   3.8070   4.7103   6.5639   7.0076   7.2360

          k = 0.2222-0.1015 0.0000 ( 16435 PWs)   bands (ev):

   -18.3775 -17.0776 -15.1645 -12.9634 -12.4214 -11.4905  -9.6741  -9.1537
    -8.6205  -7.2279  -6.6981  -6.2506  -5.7939  -5.3996  -4.8480  -4.2014
    -3.9530  -3.5012  -3.2187  -3.1178  -2.7638  -2.0540  -0.9293  -0.7420
     0.9318   3.5043   4.9654   7.1290   7.3600   7.4903

          k = 0.2222-0.2030 0.0000 ( 16415 PWs)   bands (ev):

   -17.8293 -16.5507 -14.7153 -14.1406 -13.2512 -12.5096  -9.9176  -9.0786
    -8.3004  -7.6226  -6.7539  -6.0162  -5.3334  -4.8594  -4.5535  -4.2889
    -3.8522  -3.5262  -3.3102  -3.1227  -2.6606  -2.1063  -1.1843  -0.5327
     1.4040   2.9189   5.6236   7.9451   8.3384   8.5191

          k = 0.2222-0.3046 0.0000 ( 16402 PWs)   bands (ev):

   -16.9282 -15.7870 -15.5881 -14.5440 -13.9950 -12.9390 -10.1381  -9.4508
    -7.7850  -7.2607  -6.7903  -6.0566  -5.9124  -5.0474  -4.8035  -4.3303
    -3.9359  -3.6220  -2.5480  -2.2521  -2.1848  -2.0025  -1.2132  -1.0042
     1.8201   2.3584   6.5323   7.9184   9.0336   9.1841

          k = 0.3333-0.0000 0.0000 ( 16456 PWs)   bands (ev):

   -17.4624 -16.1708 -14.2600 -12.1946 -11.9810 -10.9976  -9.8951  -9.1838
    -9.1544  -7.4776  -6.9730  -6.4479  -6.2209  -5.3267  -5.1463  -4.8101
    -4.6289  -4.1478  -3.9806  -3.8660  -3.3137  -3.1805  -2.9483  -1.0671
     0.5707   3.1727   5.6849   6.4904   6.7283   8.3307

          k = 0.3333-0.1015 0.0000 ( 16471 PWs)   bands (ev):

   -17.2826 -15.9978 -14.1072 -12.4050 -11.9590 -11.2030 -10.1981  -9.7153
    -9.1915  -7.4407  -7.0405  -6.4881  -6.0575  -5.5842  -5.1565  -4.9976
    -4.6686  -4.3710  -4.0406  -3.7597  -3.1102  -2.9775  -2.2393  -1.2622
     0.8011   3.0273   5.9887   6.9305   7.1469   7.9885

          k = 0.3333-0.2030 0.0000 ( 16466 PWs)   bands (ev):

   -16.7480 -15.4870 -13.6829 -13.3665 -12.4094 -11.5964 -10.3140  -9.7342
    -9.1723  -7.9702  -7.1577  -7.0928  -6.8226  -6.2565  -5.3058  -5.2018
    -4.2249  -3.8335  -3.6598  -3.4070  -2.8727  -2.6914  -1.7035  -1.4008
     1.3176   2.6825   6.6145   7.8900   8.1431   8.7836

          k = 0.3333-0.3046 0.0000 ( 16406 PWs)   bands (ev):

   -15.8774 -14.7794 -14.5876 -13.5807 -13.0072 -11.9714  -9.6521  -9.5198
    -8.8764  -8.5535  -8.4039  -7.5093  -6.7108  -6.4939  -5.9346  -5.5804
    -3.9079  -3.6937  -3.4235  -3.0751  -2.2623  -2.1448  -1.8592  -1.3356
     1.7992   2.3337   7.2797   8.7144   9.0012   9.3699

          k = 0.4444-0.0000 0.0000 ( 16472 PWs)   bands (ev):

   -15.9601 -14.6900 -14.1265 -12.8870 -12.8085 -11.0409 -10.5670  -8.8329
    -8.5235  -7.7969  -6.8060  -6.5278  -6.0917  -5.6922  -5.2586  -5.0373
    -4.8262  -4.7436  -4.5014  -4.4361  -4.0981  -3.5573  -2.9274  -1.9933
     1.2010   2.1976   6.3247   6.9137   7.2691   7.5120

          k = 0.4444-0.1015 0.0000 ( 16492 PWs)   bands (ev):

   -15.7904 -14.5285 -13.9975 -12.7716 -12.6674 -10.9598 -10.4916  -9.3060
    -8.8241  -8.7082  -7.6258  -7.0582  -6.3736  -5.7059  -5.1198  -5.0958
    -4.6729  -4.4413  -4.2052  -3.9679  -3.6818  -3.4567  -2.7677  -2.0142
     1.3384   2.2149   6.8242   6.9621   7.4072   7.7379

          k = 0.4444-0.2030 0.0000 ( 16452 PWs)   bands (ev):

   -15.2945 -14.0610 -13.7071 -12.5290 -12.2709 -10.8350 -10.7375 -10.3373
    -9.5622  -9.2118  -8.9477  -8.0963  -6.7860  -6.2321  -5.6450  -4.9801
    -4.7701  -4.1145  -3.8480  -3.2951  -3.1474  -2.6242  -2.2979  -2.0560
     1.6525   2.2246   7.4290   7.7640   8.2532   8.5647

          k = 0.4444-0.3046 0.0000 ( 16444 PWs)   bands (ev):

   -14.5365 -13.7914 -13.3457 -12.6435 -11.7478 -11.2895 -10.9385 -10.5761
   -10.3192  -9.7081  -9.5023  -8.7279  -7.0045  -6.6179  -5.8017  -5.2727
    -4.8942  -4.3453  -3.5887  -3.1310  -2.6050  -2.3104  -1.9161  -1.7329
     1.9298   2.1795   7.9085   8.5292   9.4716   9.7207

     the Fermi energy is     1.9936 ev

!    total energy              =    -223.29655649 Ry
     estimated scf accuracy    <          6.1E-09 Ry
     smearing contrib. (-TS)   =       0.00052111 Ry
     internal energy E=F+TS    =    -223.29707761 Ry

     The total energy is F=E-TS. E is the sum of the following terms:
     one-electron contribution =   -2767.38558458 Ry
     hartree contribution      =    1400.76252742 Ry
     xc contribution           =     -57.18737591 Ry
     ewald contribution        =    1274.47416850 Ry
     one-center paw contrib.   =     -73.96081303 Ry

     convergence has been achieved in  12 iterations

     negative rho (up, down):  7.038E-05 0.000E+00

     Forces acting on atoms (cartesian axes, Ry/au):

     atom    1 type  1   force =     0.00000000   -0.00127852   -0.00012241
     atom    2 type  1   force =     0.00000000    0.00127852   -0.00012241
     atom    3 type  1   force =     0.00000000    0.00056682   -0.00006603
     atom    4 type  1   force =     0.00000000   -0.00056682   -0.00006603
     atom    5 type  1   force =    -0.00000000   -0.00055303    0.00000688
     atom    6 type  1   force =     0.00000000    0.00055303    0.00000688
     atom    7 type  1   force =    -0.00000000    0.00075370    0.00010914
     atom    8 type  1   force =     0.00000000   -0.00075370    0.00010914
     atom    9 type  1   force =     0.00000000   -0.04645458   -0.04743276
     atom   10 type  1   force =     0.00000000    0.04645458   -0.04743276
     atom   11 type  1   force =     0.00000000    0.16989547    0.04748446
     atom   12 type  1   force =     0.00000000   -0.16989547    0.04748446
     atom   13 type  2   force =     0.00000000   -0.00000420    0.00002072
     atom   14 type  2   force =     0.00000000    0.00000420    0.00002072

     Total force =     0.002392     Total SCF correction =     0.000127


     Computing stress (Cartesian axis) and pressure


     negative rho (up, down):  7.038E-05 0.000E+00
          total   stress  (Ry/bohr**3)                   (kbar)     P=      -21.40
  -0.00028324   0.00000000   0.00000000          -41.67        0.00        0.00
   0.00000000   0.00001909   0.00000000            0.00        2.81        0.00
   0.00000000   0.00000000  -0.00017219            0.00        0.00      -25.33


     Writing all to output data dir ./tmp/slab.save/ :
     XML data file, charge density, pseudopotentials, collected wavefunctions

     init_run     :      3.86s CPU      4.12s WALL (       1 calls)
     electrons    :     93.66s CPU    199.82s WALL (       1 calls)
     forces       :      1.30s CPU      1.52s WALL (       1 calls)
     stress       :      3.60s CPU      4.06s WALL (       1 calls)

     Called by init_run:
     wfcinit      :      3.28s CPU      3.50s WALL (       1 calls)
     potinit      :      0.30s CPU      0.31s WALL (       1 calls)
     hinit0       :      0.15s CPU      0.15s WALL (       1 calls)

     Called by electrons:
     c_bands      :     77.83s CPU    160.41s WALL (      12 calls)
     sum_band     :     11.34s CPU     34.39s WALL (      12 calls)
     v_of_rho     :      1.67s CPU      1.79s WALL (      13 calls)
     newd         :      0.90s CPU      1.15s WALL (      13 calls)
     PAW_pot      :      1.88s CPU      2.02s WALL (      13 calls)
     mix_rho      :      0.21s CPU      0.25s WALL (      12 calls)

     Called by c_bands:
     init_us_2    :      1.12s CPU      1.22s WALL (     540 calls)
     cegterg      :     75.57s CPU    158.07s WALL (     240 calls)

     Called by *egterg:
     cdiaghg      :      0.76s CPU      0.77s WALL (    1278 calls)
     h_psi        :     59.50s CPU     92.83s WALL (    1298 calls)
     s_psi        :      5.30s CPU      6.21s WALL (    1298 calls)
     g_psi        :      0.25s CPU      0.25s WALL (    1038 calls)

     Called by h_psi:
     h_psi:calbec :      5.14s CPU      6.44s WALL (    1298 calls)
     vloc_psi     :     47.96s CPU     78.60s WALL (    1298 calls)
                                        0.00s GPU  (    1298 calls)
     add_vuspsi   :      6.18s CPU      7.43s WALL (    1298 calls)

     General routines
     calbec       :      8.72s CPU     10.79s WALL (    1878 calls)
     fft          :      1.27s CPU      1.27s WALL (     192 calls)
     ffts         :      0.04s CPU      0.04s WALL (      25 calls)
     fftw         :     50.71s CPU     73.29s WALL (   47072 calls)
     interpolate  :      0.12s CPU      0.14s WALL (      13 calls)


     PWSCF        :   1m42.48s CPU   3m29.65s WALL


   This run was terminated on:  15:26:50  23Jun2026            

=------------------------------------------------------------------------------=
   JOB DONE.
=------------------------------------------------------------------------------=
Note: The following floating-point exceptions are signalling: IEEE_INVALID_FLAG IEEE_DIVIDE_BY_ZERO IEEE_OVERFLOW_FLAG IEEE_UNDERFLOW_FLAG
