
     Program PWSCF v.7.3.1 starts on  1Aug2026 at 12:48: 4 

     This program is part of the open-source Quantum ESPRESSO suite
     for quantum simulation of materials; please cite
         "P. Giannozzi et al., J. Phys.:Condens. Matter 21 395502 (2009);
         "P. Giannozzi et al., J. Phys.:Condens. Matter 29 465901 (2017);
         "P. Giannozzi et al., J. Chem. Phys. 152 154105 (2020);
          URL http://www.quantum-espresso.org", 
     in publications or presentations arising from this work. More details at
     http://www.quantum-espresso.org/quote

     Parallel version (MPI), running on     8 processors

     MPI processes distributed on     1 nodes
     187289 MiB available memory on the printing compute node when the environment starts

     Reading input from pw.in

     Current dimensions of program PWSCF are:
     Max number of different atomic species (ntypx) = 10
     Max number of k-points (npk) =  40000
     Max angular momentum in pseudopotentials (lmaxx) =  4
     file C.pbe-n-kjpaw_psl.1.0.0.UPF: wavefunction(s)  2S 2P renormalized
     Message from routine volume:
     axis vectors are left-handed
     Found identity + (  0.5000  0.0000  0.0000) symmetry
     This is a supercell, fractional translations are disabled
     Message from routine setup:
     using ibrav=0 with symmetry is DISCOURAGED, use correct ibrav instead

     R & G space division:  proc/nbgrp/npool/nimage =       8
     Subspace diagonalization in iterative solution of the eigenvalue problem:
     a serial algorithm will be used


     Parallelization info
     --------------------
     sticks:   dense  smooth     PW     G-vecs:    dense   smooth      PW
     Min         651     325     87               214403    75789   10603
     Max         652     326     88               214432    75810   10626
     Sum        5209    2601    697              1715277   606365   84877

     Using Slab Decomposition



     bravais-lattice index     =            0
     lattice parameter (alat)  =       9.5505  a.u.
     unit-cell volume          =    5257.3488 (a.u.)^3
     number of atoms/cell      =           32
     number of atomic types    =            2
     number of electrons       =       104.00
     number of Kohn-Sham states=           62
     kinetic-energy cutoff     =      90.0000  Ry
     charge density cutoff     =     720.0000  Ry
     scf convergence threshold =      1.0E-08
     mixing beta               =       0.3000
     number of iterations used =            8  plain     mixing
     Exchange-correlation= PBE
                           (   1   4   3   4   0   0   0)

     celldm(1)=   9.550471  celldm(2)=   0.000000  celldm(3)=   0.000000
     celldm(4)=   0.000000  celldm(5)=   0.000000  celldm(6)=   0.000000

     crystal axes: (cart. coord. in units of alat)
               a(1) = (   1.000000   0.000000   0.000000 )  
               a(2) = (   0.000000  -1.000000   0.000000 )  
               a(3) = (   0.000000   0.000000   6.035211 )  

     reciprocal axes: (cart. coord. in units 2 pi/alat)
               b(1) = (  1.000000 -0.000000 -0.000000 )  
               b(2) = ( -0.000000 -1.000000 -0.000000 )  
               b(3) = ( -0.000000 -0.000000  0.165694 )  


     PseudoPot. # 1 for C  read from file:
     ./C.pbe-n-kjpaw_psl.1.0.0.UPF
     MD5 check sum: 5d2aebdfa2cae82b50a7e79e9516da0f
     Pseudo is Projector augmented-wave + core cor, Zval =  4.0
     Generated using "atomic" code by A. Dal Corso  v.5.1
     Shape of augmentation charge: PSQ
     Using radial grid of 1073 points,  4 beta functions with: 
                l(1) =   0
                l(2) =   0
                l(3) =   1
                l(4) =   1
     Q(r) pseudized with 0 coefficients 


     PseudoPot. # 2 for H  read from file:
     ./H_ONCV_PBE-1.0.oncvpsp.upf
     MD5 check sum: 1790becc920ee074925cf490c71280fe
     Pseudo is Norm-conserving, Zval =  1.0
     Generated using ONCVPSP code by D. R. Hamann
     Using radial grid of 1166 points,  2 beta functions with: 
                l(1) =   0
                l(2) =   0

     atomic species   valence    mass     pseudopotential
     C                 4.00    12.01100     C ( 1.00)
     H                 1.00     1.00800     H ( 1.00)

      4 Sym. Ops. (no inversion) found



   Cartesian axes

     site n.     atom                  positions (alat units)
         1        C      tau(   1) = (   0.0000000  -0.1582087   1.8592812  )
         2        C      tau(   2) = (   0.2500000  -0.2299149   1.6998931  )
         3        C      tau(   3) = (   0.2500000   0.0000000   1.4936626  )
         4        C      tau(   4) = (   0.0000000   0.0000000   1.3178300  )
         5        C      tau(   5) = (   0.0000000  -0.2700851   1.1694404  )
         6        C      tau(   6) = (   0.2500000  -0.3417913   1.0100523  )
         7        C      tau(   7) = (   0.0000000  -0.8417913   1.8592812  )
         8        C      tau(   8) = (   0.2500000  -0.7700851   1.6998931  )
         9        C      tau(   9) = (   0.2500000  -0.5000000   1.5515034  )
        10        C      tau(  10) = (   0.0000000  -0.5000000   1.3756708  )
        11        C      tau(  11) = (   0.0000000  -0.7299149   1.1694404  )
        12        C      tau(  12) = (   0.2500000  -0.6582087   1.0100523  )
        13        H      tau(  13) = (   0.0000000  -0.2449080   2.0590044  )
        14        H      tau(  14) = (   0.0000000  -0.7550920   2.0590044  )
        15        H      tau(  15) = (   0.2500000  -0.2550919   0.8103291  )
        16        H      tau(  16) = (   0.2500000  -0.7449081   0.8103291  )
        17        C      tau(  17) = (   0.5000000  -0.1582087   1.8592812  )
        18        C      tau(  18) = (   0.7500000  -0.2299149   1.6998931  )
        19        C      tau(  19) = (   0.7500000   0.0000000   1.4936626  )
        20        C      tau(  20) = (   0.5000000   0.0000000   1.3178300  )
        21        C      tau(  21) = (   0.5000000  -0.2700851   1.1694404  )
        22        C      tau(  22) = (   0.7500000  -0.3417913   1.0100523  )
        23        C      tau(  23) = (   0.5000000  -0.8417913   1.8592812  )
        24        C      tau(  24) = (   0.7500000  -0.7700851   1.6998931  )
        25        C      tau(  25) = (   0.7500000  -0.5000000   1.5515034  )
        26        C      tau(  26) = (   0.5000000  -0.5000000   1.3756708  )
        27        C      tau(  27) = (   0.5000000  -0.7299149   1.1694404  )
        28        C      tau(  28) = (   0.7500000  -0.6582087   1.0100523  )
        29        H      tau(  29) = (   0.5000000  -0.2449080   2.0590044  )
        30        H      tau(  30) = (   0.5000000  -0.7550920   2.0590044  )
        31        H      tau(  31) = (   0.7500000  -0.2550919   0.8103291  )
        32        H      tau(  32) = (   0.7500000  -0.7449081   0.8103291  )

     number of k points=     9  Marzari-Vanderbilt smearing, width (Ry)=  0.0100
                       cart. coord. in units 2pi/alat
        k(    1) = (   0.0000000  -0.0000000   0.0000000), wk =   0.0800000
        k(    2) = (   0.0000000  -0.2000000   0.0000000), wk =   0.1600000
        k(    3) = (   0.0000000  -0.4000000   0.0000000), wk =   0.1600000
        k(    4) = (   0.2000000  -0.2000000   0.0000000), wk =   0.3200000
        k(    5) = (   0.2000000  -0.4000000   0.0000000), wk =   0.3200000
        k(    6) = (   0.4000000  -0.4000000   0.0000000), wk =   0.3200000
        k(    7) = (  -0.2000000   0.0000000   0.0000000), wk =   0.1600000
        k(    8) = (  -0.4000000   0.0000000   0.0000000), wk =   0.1600000
        k(    9) = (  -0.4000000   0.2000000   0.0000000), wk =   0.3200000

     Dense  grid:  1715277 G-vectors     FFT dimensions: (  81,  81, 500)

     Smooth grid:   606365 G-vectors     FFT dimensions: (  60,  60, 360)

     Estimated max dynamical RAM per process >     615.31 MB

     Estimated total dynamical RAM >       4.81 GB

     Initial potential from superposition of free atoms

     starting charge     103.9989, renormalised to     104.0000

     negative rho (up, down):  1.969E-04 0.000E+00
     Starting wfcs are  104 randomized atomic wfcs
     Checking if some PAW data can be deallocated... 

     total cpu time spent up to now is        5.0 secs

     Self-consistent Calculation

     iteration #  1     ecut=    90.00 Ry     beta= 0.30
     Davidson diagonalization with overlap
     ethr =  1.00E-02,  avg # of iterations =  3.0

     negative rho (up, down):  2.093E-04 0.000E+00

     total cpu time spent up to now is       14.0 secs

     total energy              =    -451.92150678 Ry
     estimated scf accuracy    <       2.41879835 Ry

     iteration #  2     ecut=    90.00 Ry     beta= 0.30
     Davidson diagonalization with overlap
     ethr =  2.33E-03,  avg # of iterations =  4.0

     negative rho (up, down):  2.499E-04 0.000E+00

     total cpu time spent up to now is       21.4 secs

     total energy              =    -451.75216196 Ry
     estimated scf accuracy    <       0.72940038 Ry

     iteration #  3     ecut=    90.00 Ry     beta= 0.30
     Davidson diagonalization with overlap
     ethr =  7.01E-04,  avg # of iterations = 13.7

     negative rho (up, down):  2.674E-04 0.000E+00

     total cpu time spent up to now is       33.2 secs

     total energy              =    -451.78306669 Ry
     estimated scf accuracy    <       0.10725456 Ry

     iteration #  4     ecut=    90.00 Ry     beta= 0.30
     Davidson diagonalization with overlap
     ethr =  1.03E-04,  avg # of iterations =  6.3

     negative rho (up, down):  2.878E-04 0.000E+00

     total cpu time spent up to now is       41.7 secs

     total energy              =    -451.79288449 Ry
     estimated scf accuracy    <       0.01304311 Ry

     iteration #  5     ecut=    90.00 Ry     beta= 0.30
     Davidson diagonalization with overlap
     c_bands:  2 eigenvalues not converged
     ethr =  1.25E-05,  avg # of iterations = 11.4

     negative rho (up, down):  2.787E-04 0.000E+00

     total cpu time spent up to now is       52.8 secs

     total energy              =    -451.79544605 Ry
     estimated scf accuracy    <       0.00380731 Ry

     iteration #  6     ecut=    90.00 Ry     beta= 0.30
     Davidson diagonalization with overlap
     ethr =  3.66E-06,  avg # of iterations =  7.4

     negative rho (up, down):  2.866E-04 0.000E+00

     total cpu time spent up to now is       61.4 secs

     total energy              =    -451.79570388 Ry
     estimated scf accuracy    <       0.00047954 Ry

     iteration #  7     ecut=    90.00 Ry     beta= 0.30
     Davidson diagonalization with overlap
     ethr =  4.61E-07,  avg # of iterations =  6.4

     negative rho (up, down):  2.864E-04 0.000E+00

     total cpu time spent up to now is       70.6 secs

     total energy              =    -451.79579030 Ry
     estimated scf accuracy    <       0.00018091 Ry

     iteration #  8     ecut=    90.00 Ry     beta= 0.30
     Davidson diagonalization with overlap
     ethr =  1.74E-07,  avg # of iterations =  2.7

     negative rho (up, down):  2.875E-04 0.000E+00

     total cpu time spent up to now is       78.4 secs

     total energy              =    -451.79583403 Ry
     estimated scf accuracy    <       0.00001526 Ry

     iteration #  9     ecut=    90.00 Ry     beta= 0.30
     Davidson diagonalization with overlap
     ethr =  1.47E-08,  avg # of iterations =  3.8

     negative rho (up, down):  2.884E-04 0.000E+00

     total cpu time spent up to now is       87.2 secs

     total energy              =    -451.79583663 Ry
     estimated scf accuracy    <       0.00000800 Ry

     iteration # 10     ecut=    90.00 Ry     beta= 0.30
     Davidson diagonalization with overlap
     ethr =  7.70E-09,  avg # of iterations =  2.9

     negative rho (up, down):  2.889E-04 0.000E+00

     total cpu time spent up to now is       95.2 secs

     total energy              =    -451.79583850 Ry
     estimated scf accuracy    <       0.00000136 Ry

     iteration # 11     ecut=    90.00 Ry     beta= 0.30
     Davidson diagonalization with overlap
     ethr =  1.31E-09,  avg # of iterations =  2.1

     negative rho (up, down):  2.894E-04 0.000E+00

     total cpu time spent up to now is      102.5 secs

     total energy              =    -451.79583855 Ry
     estimated scf accuracy    <       0.00000024 Ry

     iteration # 12     ecut=    90.00 Ry     beta= 0.30
     Davidson diagonalization with overlap
     ethr =  2.27E-10,  avg # of iterations =  3.8

     negative rho (up, down):  2.897E-04 0.000E+00

     total cpu time spent up to now is      110.8 secs

     total energy              =    -451.79583863 Ry
     estimated scf accuracy    <       0.00000002 Ry

     iteration # 13     ecut=    90.00 Ry     beta= 0.30
     Davidson diagonalization with overlap
     ethr =  2.15E-11,  avg # of iterations =  2.0

     negative rho (up, down):  2.906E-04 0.000E+00

     total cpu time spent up to now is      118.4 secs

     End of self-consistent calculation

          k = 0.0000-0.0000 0.0000 ( 75855 PWs)   bands (ev):

   -21.0974 -19.4035 -16.7454 -16.7453 -16.5262 -16.3189 -16.2201 -15.1986
   -14.9229 -14.9228 -12.6545 -12.6545 -12.3985 -12.1972 -12.1971 -12.0627
   -11.5097 -11.5097 -11.2089 -11.1335 -11.1335  -8.7785  -8.7375  -8.5417
    -8.1727  -8.1727  -7.2751  -7.2751  -6.8427  -6.8427  -6.0469  -5.5785
    -5.5754  -5.5754  -5.4824  -5.4824  -5.2711  -5.1304  -5.0184  -4.5618
    -4.5349  -4.5349  -3.1385  -2.9561  -2.9561  -2.9272  -2.8218  -2.5527
    -2.4988  -2.3689  -2.0175  -1.6811   2.2384   2.2561   2.8999   3.2028
     3.6711   4.0690   4.1066   4.5618   4.7942   5.0411

          k = 0.0000-0.2000 0.0000 ( 75907 PWs)   bands (ev):

   -20.9324 -19.4196 -17.6168 -16.7215 -16.5887 -16.5887 -15.0773 -14.9403
   -14.9403 -14.9162 -13.6860 -13.6860 -12.4957 -11.9208 -11.9207 -11.5350
   -11.1327 -10.9877 -10.9877 -10.8253 -10.8253  -9.2829  -8.4092  -8.2829
    -8.2829  -8.1402  -7.1959  -7.1959  -6.6398  -6.6398  -6.5797  -5.9076
    -5.6661  -5.6661  -5.2848  -5.2399  -5.2398  -5.2104  -4.6932  -4.5824
    -4.5567  -4.5566  -3.7393  -3.6663  -3.6663  -3.5906  -2.9749  -2.7674
    -2.1369  -2.0388  -2.0173  -1.7358   2.4498   2.4904   3.1355   3.4351
     3.8999   4.3330   4.6282   4.8908   4.9255   5.2621

          k = 0.0000-0.4000 0.0000 ( 75709 PWs)   bands (ev):

   -20.4583 -19.7979 -17.9599 -17.4620 -16.1570 -16.1570 -15.3262 -15.3262
   -14.7199 -14.3489 -14.1918 -14.1918 -12.3623 -12.3623 -11.9782 -11.1521
   -10.6243 -10.4983 -10.4983 -10.1625 -10.1625  -9.6671  -8.3618  -7.9677
    -7.9677  -7.8360  -7.3487  -7.0517  -7.0516  -6.5895  -6.5895  -6.4952
    -5.5103  -5.3997  -5.3997  -5.2951  -5.2951  -5.0461  -4.9488  -4.7736
    -4.7736  -4.6437  -4.6437  -4.4800  -3.8564  -3.6942  -3.3017  -3.2563
    -2.4891  -2.1189  -1.6200  -1.5331   3.0665   3.1330   3.8333   4.0576
     4.0804   4.2018   4.5983   4.8911   4.9827   5.0283

          k = 0.2000-0.2000 0.0000 ( 75846 PWs)   bands (ev):

   -20.7496 -19.2399 -18.0657 -17.4428 -16.6538 -16.5506 -15.0344 -14.9138
   -14.7502 -14.4285 -14.2384 -13.3152 -12.3947 -12.3215 -12.0122 -11.3930
   -11.2993 -10.9910 -10.6289  -9.6270  -9.5027  -9.2049  -8.9644  -8.4312
    -8.3497  -8.0358  -7.7121  -7.0189  -6.9094  -6.4697  -6.3813  -6.0374
    -5.7375  -5.7015  -5.6733  -5.2779  -5.1156  -5.1105  -4.8761  -4.6583
    -4.5301  -4.3796  -4.2775  -3.8819  -3.8549  -3.5308  -3.2251  -3.0485
    -2.7923  -2.6648  -2.1028  -1.9846   2.6514   2.6521   3.3657   3.6705
     4.1177   4.6474   4.7743   4.8779   4.9689   5.3470

          k = 0.2000-0.4000 0.0000 ( 75710 PWs)   bands (ev):

   -20.2761 -19.6169 -17.7858 -17.6036 -17.2892 -16.9671 -15.3608 -14.8695
   -14.5585 -14.1898 -14.1336 -13.7293 -11.8880 -11.8734 -11.7894 -11.2566
   -11.0550 -10.8693 -10.4786  -9.5215  -9.1265  -8.7644  -8.7583  -8.2617
    -8.0504  -7.7522  -7.5637  -7.3603  -7.2878  -6.6085  -6.4577  -6.3404
    -6.0757  -6.0109  -5.8178  -5.2790  -5.2263  -5.1033  -4.9498  -4.6469
    -4.6343  -4.4756  -4.3051  -4.2492  -4.2046  -4.1589  -3.8686  -3.3679
    -2.4499  -2.3557  -2.3252  -1.9963   3.2685   3.2894   4.0619   4.2425
     4.2632   4.4048   4.6403   4.7767   4.8292   5.0312

          k = 0.4000-0.4000 0.0000 ( 75780 PWs)   bands (ev):

   -19.7320 -19.0761 -18.8341 -18.1844 -17.2679 -16.7755 -16.4255 -15.9404
   -14.0865 -13.7249 -13.4011 -13.1169 -12.1401 -11.6949 -11.4970 -10.9093
   -10.0980  -9.8658  -9.6166  -9.1374  -9.0463  -8.7363  -8.6927  -8.3918
    -8.1898  -8.1776  -7.7624  -7.5230  -7.3368  -7.2968  -6.8829  -6.6255
    -6.2926  -6.1429  -6.0551  -5.8663  -5.5464  -5.3897  -4.8639  -4.8386
    -4.6320  -4.5663  -4.3808  -4.1953  -4.0563  -3.9102  -3.5224  -3.3986
    -3.3984  -3.2278  -2.7622  -2.4286   3.6525   3.7887   4.0961   4.2772
     4.4853   4.6446   4.7138   4.7283   4.9307   5.0386

          k =-0.2000 0.0000 0.0000 ( 75907 PWs)   bands (ev):

   -20.9143 -19.2242 -18.2265 -16.6670 -16.3568 -16.1485 -16.0465 -15.0355
   -14.7037 -14.0429 -13.8438 -13.5198 -12.6914 -12.4855 -12.3127 -11.9087
   -11.0590 -10.8843 -10.3335 -10.1882 -10.0836  -8.7530  -8.7331  -8.6641
    -8.5747  -8.4086  -7.5272  -7.1383  -7.0634  -6.6886  -6.0781  -5.8505
    -5.7805  -5.6098  -5.4601  -5.0901  -5.0780  -4.9911  -4.9711  -4.9355
    -4.5614  -4.1685  -3.8799  -3.5236  -3.4225  -3.3469  -3.1356  -2.7974
    -2.5606  -2.5342  -2.5026  -1.8497   2.4199   2.4380   3.1306   3.4385
     3.8898   4.4180   4.5804   4.6295   4.8107   5.0952

          k =-0.4000 0.0000 0.0000 ( 75709 PWs)   bands (ev):

   -20.3672 -19.4643 -18.6895 -17.8136 -15.8521 -15.6444 -15.5289 -15.0280
   -14.8426 -14.6778 -14.5496 -13.7532 -12.9701 -12.2247 -11.4856 -11.2077
   -10.6341 -10.2985 -10.0728  -9.7929  -8.9740  -8.9700  -8.9286  -8.5538
    -8.0093  -7.9094  -7.7776  -7.3051  -7.2214  -7.1389  -6.6758  -6.0895
    -5.9164  -5.8398  -5.1784  -5.1291  -4.9363  -4.9103  -4.9039  -4.8567
    -4.7007  -4.5867  -4.5683  -4.2269  -3.8182  -3.7879  -3.7465  -3.2587
    -3.1805  -2.6125  -2.4083  -2.3720   2.9057   2.9454   3.6900   3.7449
     3.8250   4.1135   4.5411   4.9898   5.0846   5.1807

          k =-0.4000 0.2000 0.0000 ( 75710 PWs)   bands (ev):

   -20.2033 -19.3016 -18.7036 -17.8231 -16.9247 -16.0789 -16.0432 -15.2233
   -14.4307 -14.2546 -13.6746 -13.4426 -12.8653 -12.2406 -11.1342 -11.0303
   -10.6185 -10.2943 -10.0097  -9.4766  -9.1793  -9.0845  -8.7840  -8.4119
    -8.1597  -8.0030  -7.5955  -7.3784  -7.0533  -6.9825  -6.3509  -6.3335
    -6.1181  -6.0512  -5.8876  -5.5112  -5.1276  -5.0484  -4.9407  -4.6804
    -4.6345  -4.5547  -4.1450  -4.1402  -4.0918  -3.8359  -3.7202  -3.6689
    -3.4278  -2.7438  -2.6806  -2.3006   3.1029   3.1700   3.8839   3.9114
     4.0570   4.3482   4.7276   5.2606   5.3167   5.3364

     the Fermi energy is    -0.5838 ev

!    total energy              =    -451.79583862 Ry
     estimated scf accuracy    <          6.3E-09 Ry
     smearing contrib. (-TS)   =       0.00000000 Ry
     internal energy E=F+TS    =    -451.79583862 Ry

     The total energy is F=E-TS. E is the sum of the following terms:
     one-electron contribution =   -9232.51054381 Ry
     hartree contribution      =    4644.22822109 Ry
     xc contribution           =    -117.68301897 Ry
     ewald contribution        =    4402.08794387 Ry
     one-center paw contrib.   =    -147.91844080 Ry

     convergence has been achieved in  13 iterations

     negative rho (up, down):  2.906E-04 0.000E+00

     Forces acting on atoms (cartesian axes, Ry/au):

     atom    1 type  1   force =     0.00000000    0.00010649    0.00004052
     atom    2 type  1   force =    -0.00000384    0.00003093   -0.00005071
     atom    3 type  1   force =    -0.00000365    0.00000000    0.00005534
     atom    4 type  1   force =     0.00000000   -0.00000000    0.00000970
     atom    5 type  1   force =     0.00000000   -0.00003374    0.00005845
     atom    6 type  1   force =    -0.00000391   -0.00010947   -0.00003529
     atom    7 type  1   force =     0.00000000   -0.00010649    0.00004052
     atom    8 type  1   force =    -0.00000384   -0.00003093   -0.00005071
     atom    9 type  1   force =    -0.00000387    0.00000000   -0.00002258
     atom   10 type  1   force =     0.00000000    0.00000000   -0.00005358
     atom   11 type  1   force =     0.00000000    0.00003374    0.00005845
     atom   12 type  1   force =    -0.00000391    0.00010947   -0.00003529
     atom   13 type  2   force =     0.00000000    0.00004411   -0.00006600
     atom   14 type  2   force =     0.00000000   -0.00004411   -0.00006600
     atom   15 type  2   force =    -0.00000003   -0.00004446    0.00005895
     atom   16 type  2   force =    -0.00000003    0.00004446    0.00005895
     atom   17 type  1   force =     0.00000000    0.00010624    0.00003931
     atom   18 type  1   force =     0.00000384    0.00003093   -0.00005071
     atom   19 type  1   force =     0.00000365   -0.00000000    0.00005534
     atom   20 type  1   force =     0.00000000   -0.00000000    0.00001113
     atom   21 type  1   force =     0.00000000   -0.00003405    0.00005734
     atom   22 type  1   force =     0.00000391   -0.00010947   -0.00003529
     atom   23 type  1   force =     0.00000000   -0.00010624    0.00003931
     atom   24 type  1   force =     0.00000384   -0.00003093   -0.00005071
     atom   25 type  1   force =     0.00000387    0.00000000   -0.00002258
     atom   26 type  1   force =     0.00000000    0.00000000   -0.00005202
     atom   27 type  1   force =     0.00000000    0.00003405    0.00005734
     atom   28 type  1   force =     0.00000391    0.00010947   -0.00003529
     atom   29 type  2   force =     0.00000000    0.00004401   -0.00006589
     atom   30 type  2   force =     0.00000000   -0.00004401   -0.00006589
     atom   31 type  2   force =     0.00000003   -0.00004446    0.00005895
     atom   32 type  2   force =     0.00000003    0.00004446    0.00005895

     Total force =     0.000444     Total SCF correction =     0.000133
     SCF correction compared to forces is large: reduce conv_thr to get better values


     Computing stress (Cartesian axis) and pressure


     negative rho (up, down):  2.906E-04 0.000E+00
          total   stress  (Ry/bohr**3)                   (kbar)     P=       -6.44
   0.00002669   0.00000000   0.00000000            3.93        0.00        0.00
   0.00000000  -0.00015709   0.00000000            0.00      -23.11        0.00
   0.00000000   0.00000000  -0.00000092            0.00        0.00       -0.14


     Writing all to output data dir /tmp/qe/slab.save/ :
     XML data file, charge density, pseudopotentials, collected wavefunctions

     init_run     :      4.69s CPU      4.92s WALL (       1 calls)
     electrons    :    110.38s CPU    113.52s WALL (       1 calls)
     forces       :      2.15s CPU      2.27s WALL (       1 calls)
     stress       :     29.60s CPU     29.97s WALL (       1 calls)

     Called by init_run:
     wfcinit      :      3.55s CPU      3.67s WALL (       1 calls)
     potinit      :      0.40s CPU      0.43s WALL (       1 calls)
     hinit0       :      0.12s CPU      0.14s WALL (       1 calls)

     Called by electrons:
     c_bands      :     86.14s CPU     87.87s WALL (      13 calls)
     sum_band     :     16.63s CPU     17.29s WALL (      13 calls)
     v_of_rho     :      3.36s CPU      3.58s WALL (      14 calls)
     newd         :      2.31s CPU      2.81s WALL (      14 calls)
     PAW_pot      :      1.73s CPU      1.74s WALL (      14 calls)
     mix_rho      :      0.45s CPU      0.48s WALL (      13 calls)

     Called by c_bands:
     init_us_2    :      2.66s CPU      2.69s WALL (     261 calls)
     cegterg      :     82.14s CPU     83.80s WALL (     117 calls)

     Called by *egterg:
     cdiaghg      :      2.31s CPU      2.35s WALL (     743 calls)
     h_psi        :     58.34s CPU     59.41s WALL (     752 calls)
     s_psi        :      6.74s CPU      6.76s WALL (     752 calls)
     g_psi        :      0.41s CPU      0.41s WALL (     626 calls)

     Called by h_psi:
     h_psi:calbec :      5.80s CPU      5.87s WALL (     752 calls)
     vloc_psi     :     45.43s CPU     45.97s WALL (     752 calls)
     add_vuspsi   :      6.70s CPU      6.74s WALL (     752 calls)

     General routines
     calbec       :      8.22s CPU      8.30s WALL (     914 calls)
     fft          :      2.02s CPU      2.17s WALL (     205 calls)
     ffts         :      0.06s CPU      0.06s WALL (      27 calls)
     fftw         :     34.49s CPU     34.91s WALL (   48626 calls)
     interpolate  :      0.16s CPU      0.17s WALL (      14 calls)

     Parallel routines

     PWSCF        :   2m27.23s CPU   2m31.44s WALL


   This run was terminated on:  12:50:36   1Aug2026            

=------------------------------------------------------------------------------=
   JOB DONE.
=------------------------------------------------------------------------------=
Note: The following floating-point exceptions are signalling: IEEE_UNDERFLOW_FLAG IEEE_DENORMAL
Note: The following floating-point exceptions are signalling: IEEE_UNDERFLOW_FLAG IEEE_DENORMAL
Note: The following floating-point exceptions are signalling: IEEE_UNDERFLOW_FLAG IEEE_DENORMAL
Note: The following floating-point exceptions are signalling: IEEE_UNDERFLOW_FLAG IEEE_DENORMAL
Note: The following floating-point exceptions are signalling: IEEE_UNDERFLOW_FLAG IEEE_DENORMAL
Note: The following floating-point exceptions are signalling: IEEE_UNDERFLOW_FLAG IEEE_DENORMAL
Note: The following floating-point exceptions are signalling: IEEE_UNDERFLOW_FLAG IEEE_DENORMAL
Note: The following floating-point exceptions are signalling: IEEE_UNDERFLOW_FLAG IEEE_DENORMAL
