
     Program PWSCF v.7.5 starts on 23Jun2026 at 15:26:50 

     This program is part of the open-source Quantum ESPRESSO suite
     for quantum simulation of materials; please cite
         "P. Giannozzi et al., J. Phys.:Condens. Matter 21 395502 (2009);
         "P. Giannozzi et al., J. Phys.:Condens. Matter 29 465901 (2017);
         "P. Giannozzi et al., J. Chem. Phys. 152 154105 (2020);
          URL http://www.quantum-espresso.org", 
     in publications or presentations arising from this work. More details at
     http://www.quantum-espresso.org/quote

     Serial version
     0 MiB available memory on the printing compute node when the environment starts

     Waiting for input...
     Reading input from standard input

     Current dimensions of program PWSCF are:
     Max number of different atomic species (ntypx) = 10
     Max number of k-points (npk) =  40000
     Max angular momentum in pseudopotentials (lmaxx) =  4
     file C.pbe-n-kjpaw_psl.1.0.0.UPF: wavefunction(s)  2S 2P renormalized
     Message from routine volume:
     axis vectors are left-handed
     Message from routine setup:
     using ibrav=0 with symmetry is DISCOURAGED, use correct ibrav instead


     G-vector sticks info
     --------------------
     sticks:   dense  smooth     PW     G-vecs:    dense   smooth      PW
     Sum        1669     833    243               373985   132263   20755

     Using Slab Decomposition



     bravais-lattice index     =            0
     lattice parameter (alat)  =       4.8230  a.u.
     unit-cell volume          =    1366.8519 (a.u.)^3
     number of atoms/cell      =           14
     number of atomic types    =            2
     number of electrons       =        50.00
     number of Kohn-Sham states=           30
     kinetic-energy cutoff     =      80.0000  Ry
     charge density cutoff     =     640.0000  Ry
     scf convergence threshold =      1.0E-08
     mixing beta               =       0.3000
     number of iterations used =            8  plain     mixing
     Exchange-correlation= PBE
                           (   1   4   3   4   0   0   0)

     celldm(1)=   4.822988  celldm(2)=   0.000000  celldm(3)=   0.000000
     celldm(4)=   0.000000  celldm(5)=   0.000000  celldm(6)=   0.000000

     crystal axes: (cart. coord. in units of alat)
               a(1) = (   1.000000   0.000000   0.000000 )  
               a(2) = (   0.000000  -1.400211   0.000000 )  
               a(3) = (   0.000000   0.000000   8.701204 )  

     reciprocal axes: (cart. coord. in units 2 pi/alat)
               b(1) = (  1.000000 -0.000000 -0.000000 )  
               b(2) = ( -0.000000 -0.714178 -0.000000 )  
               b(3) = ( -0.000000 -0.000000  0.114927 )  


     PseudoPot. # 1 for C  read from file:
     ./C.pbe-n-kjpaw_psl.1.0.0.UPF
     MD5 check sum: 5d2aebdfa2cae82b50a7e79e9516da0f
     Pseudo is Projector augmented-wave + core cor, Zval =  4.0
     Generated using "atomic" code by A. Dal Corso  v.5.1
     Shape of augmentation charge: PSQ
     Using radial grid of 1073 points,  4 beta functions with: 
                l(1) =   0
                l(2) =   0
                l(3) =   1
                l(4) =   1
     Q(r) pseudized with 0 coefficients 


     PseudoPot. # 2 for H  read from file:
     ./H_ONCV_PBE-1.0.oncvpsp.upf
     MD5 check sum: 1790becc920ee074925cf490c71280fe
     Pseudo is Norm-conserving, Zval =  1.0
     Generated using ONCVPSP code by D. R. Hamann
     Using radial grid of 1166 points,  2 beta functions with: 
                l(1) =   0
                l(2) =   0

     atomic species   valence    mass     pseudopotential
     C                 4.00    12.01100     C ( 1.00)
     H                 1.00     1.00800     H ( 1.00)

      4 Sym. Ops. (no inversion) found ( 2 have fractional translation)



   Cartesian axes

     site n.     atom                  positions (alat units)
         1        C      tau(   1) = (   0.0000000  -0.3575627   5.4013994  )
         2        C      tau(   2) = (   0.5000000  -0.6925959   5.4013994  )
         3        C      tau(   3) = (   0.0000000   0.0012527   4.9174886  )
         4        C      tau(   4) = (   0.5000000  -1.0514113   4.9174886  )
         5        C      tau(   5) = (   0.0000000  -0.3504361   4.4212586  )
         6        C      tau(   6) = (   0.5000000  -0.6997225   4.4212586  )
         7        C      tau(   7) = (   0.0000000   0.0024839   3.9273466  )
         8        C      tau(   8) = (   0.5000000  -1.0526425   3.9273466  )
         9        C      tau(   9) = (   0.0000000  -0.3500529   3.4336731  )
        10        C      tau(  10) = (   0.5000000  -0.7001057   3.4336731  )
        11        C      tau(  11) = (   0.0000000   0.0000000   2.9386236  )
        12        C      tau(  12) = (   0.5000000  -1.0501586   2.9386236  )
        13        H      tau(  13) = (   0.0000000  -0.1229286   5.7622766  )
        14        H      tau(  14) = (   0.5000000  -0.9272300   5.7622766  )

     number of k points=    20  Marzari-Vanderbilt smearing, width (Ry)=  0.0100
                       cart. coord. in units 2pi/alat
        k(    1) = (   0.0000000  -0.0000000   0.0000000), wk =   0.0317460
        k(    2) = (   0.0000000  -0.1020254   0.0000000), wk =   0.0634921
        k(    3) = (   0.0000000  -0.2040508   0.0000000), wk =   0.0634921
        k(    4) = (   0.0000000  -0.3060762   0.0000000), wk =   0.0634921
        k(    5) = (   0.1111111  -0.0000000   0.0000000), wk =   0.0634921
        k(    6) = (   0.1111111  -0.1020254   0.0000000), wk =   0.1269841
        k(    7) = (   0.1111111  -0.2040508   0.0000000), wk =   0.1269841
        k(    8) = (   0.1111111  -0.3060762   0.0000000), wk =   0.1269841
        k(    9) = (   0.2222222  -0.0000000   0.0000000), wk =   0.0634921
        k(   10) = (   0.2222222  -0.1020254   0.0000000), wk =   0.1269841
        k(   11) = (   0.2222222  -0.2040508   0.0000000), wk =   0.1269841
        k(   12) = (   0.2222222  -0.3060762   0.0000000), wk =   0.1269841
        k(   13) = (   0.3333333  -0.0000000   0.0000000), wk =   0.0634921
        k(   14) = (   0.3333333  -0.1020254   0.0000000), wk =   0.1269841
        k(   15) = (   0.3333333  -0.2040508   0.0000000), wk =   0.1269841
        k(   16) = (   0.3333333  -0.3060762   0.0000000), wk =   0.1269841
        k(   17) = (   0.4444444  -0.0000000   0.0000000), wk =   0.0634921
        k(   18) = (   0.4444444  -0.1020254   0.0000000), wk =   0.1269841
        k(   19) = (   0.4444444  -0.2040508   0.0000000), wk =   0.1269841
        k(   20) = (   0.4444444  -0.3060762   0.0000000), wk =   0.1269841

     Dense  grid:   373985 G-vectors     FFT dimensions: (  40,  60, 360)

     Smooth grid:   132263 G-vectors     FFT dimensions: (  30,  40, 240)

     Estimated max dynamical RAM per process >     851.80 MB

     Initial potential from superposition of free atoms

     starting charge      49.9995, renormalised to      50.0000

     negative rho (up, down):  6.035E-05 0.000E+00
     Starting wfcs are   50 randomized atomic wfcs

     total cpu time spent up to now is        9.7 secs

     Self-consistent Calculation

     iteration #  1     ecut=    80.00 Ry     beta= 0.30
     Davidson diagonalization with overlap
     ethr =  1.00E-02,  avg # of iterations =  2.5

     negative rho (up, down):  5.783E-05 0.000E+00

     total cpu time spent up to now is      116.4 secs

     total energy              =    -223.35826380 Ry
     estimated scf accuracy    <       0.88156432 Ry

     iteration #  2     ecut=    80.00 Ry     beta= 0.30
     Davidson diagonalization with overlap
     ethr =  1.76E-03,  avg # of iterations =  3.9

     negative rho (up, down):  6.842E-05 0.000E+00

     total cpu time spent up to now is      146.6 secs

     total energy              =    -223.27641725 Ry
     estimated scf accuracy    <       0.30494638 Ry

     iteration #  3     ecut=    80.00 Ry     beta= 0.30
     Davidson diagonalization with overlap
     ethr =  6.10E-04,  avg # of iterations =  6.4

     negative rho (up, down):  7.128E-05 0.000E+00

     total cpu time spent up to now is      155.0 secs

     total energy              =    -223.29083655 Ry
     estimated scf accuracy    <       0.04207668 Ry

     iteration #  4     ecut=    80.00 Ry     beta= 0.30
     Davidson diagonalization with overlap
     ethr =  8.42E-05,  avg # of iterations =  8.8

     negative rho (up, down):  7.251E-05 0.000E+00

     total cpu time spent up to now is      164.9 secs

     total energy              =    -223.29301268 Ry
     estimated scf accuracy    <       0.00773336 Ry

     iteration #  5     ecut=    80.00 Ry     beta= 0.30
     Davidson diagonalization with overlap
     ethr =  1.55E-05,  avg # of iterations =  5.5

     negative rho (up, down):  7.285E-05 0.000E+00

     total cpu time spent up to now is      173.4 secs

     total energy              =    -223.29410491 Ry
     estimated scf accuracy    <       0.00085535 Ry

     iteration #  6     ecut=    80.00 Ry     beta= 0.30
     Davidson diagonalization with overlap
     ethr =  1.71E-06,  avg # of iterations =  7.0

     negative rho (up, down):  7.217E-05 0.000E+00

     total cpu time spent up to now is      183.0 secs

     total energy              =    -223.29417729 Ry
     estimated scf accuracy    <       0.00019984 Ry

     iteration #  7     ecut=    80.00 Ry     beta= 0.30
     Davidson diagonalization with overlap
     ethr =  4.00E-07,  avg # of iterations =  2.2

     negative rho (up, down):  7.204E-05 0.000E+00

     total cpu time spent up to now is      190.3 secs

     total energy              =    -223.29420978 Ry
     estimated scf accuracy    <       0.00003022 Ry

     iteration #  8     ecut=    80.00 Ry     beta= 0.30
     Davidson diagonalization with overlap
     ethr =  6.04E-08,  avg # of iterations =  2.4

     negative rho (up, down):  7.146E-05 0.000E+00

     total cpu time spent up to now is      197.8 secs

     total energy              =    -223.29421319 Ry
     estimated scf accuracy    <       0.00000822 Ry

     iteration #  9     ecut=    80.00 Ry     beta= 0.30
     Davidson diagonalization with overlap
     ethr =  1.64E-08,  avg # of iterations =  2.0

     negative rho (up, down):  7.121E-05 0.000E+00

     total cpu time spent up to now is      205.5 secs

     total energy              =    -223.29421522 Ry
     estimated scf accuracy    <       0.00000076 Ry

     iteration # 10     ecut=    80.00 Ry     beta= 0.30
     Davidson diagonalization with overlap
     ethr =  1.52E-09,  avg # of iterations =  2.9

     negative rho (up, down):  7.110E-05 0.000E+00

     total cpu time spent up to now is      212.9 secs

     total energy              =    -223.29421536 Ry
     estimated scf accuracy    <       0.00000015 Ry

     iteration # 11     ecut=    80.00 Ry     beta= 0.30
     Davidson diagonalization with overlap
     ethr =  2.95E-10,  avg # of iterations =  3.0

     negative rho (up, down):  7.102E-05 0.000E+00

     total cpu time spent up to now is      221.2 secs

     total energy              =    -223.29421539 Ry
     estimated scf accuracy    <       0.00000007 Ry

     iteration # 12     ecut=    80.00 Ry     beta= 0.30
     Davidson diagonalization with overlap
     ethr =  1.42E-10,  avg # of iterations =  2.0

     negative rho (up, down):  7.097E-05 0.000E+00

     total cpu time spent up to now is      228.0 secs

     End of self-consistent calculation

          k = 0.0000-0.0000 0.0000 ( 16517 PWs)   bands (ev):

   -19.4281 -18.1124 -16.1638 -13.8270 -11.6528 -10.8852 -10.8722  -9.6897
    -7.8469  -7.8042  -6.7242  -5.9112  -5.5169  -4.6205  -4.6132  -3.5837
    -2.8966  -2.8305  -2.1640  -0.6798  -0.6020  -0.0598   0.5868   1.2768
     1.5678   3.8487   3.9427   5.9361   6.2361   6.7737

          k = 0.0000-0.1020 0.0000 ( 16499 PWs)   bands (ev):

   -19.2420 -17.9318 -16.0004 -13.7632 -13.0442 -12.1716 -10.0154  -9.1709
    -8.6503  -7.0072  -6.6496  -5.8183  -4.8689  -4.4449  -4.4440  -3.4358
    -3.1209  -2.3464  -2.0801  -0.7424  -0.6462  -0.1640   0.2504   0.7754
     1.6236   3.5179   4.0565   6.0933   6.3595   6.9961

          k = 0.0000-0.2041 0.0000 ( 16469 PWs)   bands (ev):

   -18.6864 -17.3954 -15.5368 -14.8952 -13.9992 -13.2813 -10.5632  -9.7084
    -8.2048  -7.1655  -5.7708  -5.0637  -4.1800  -3.9255  -3.7416  -3.0066
    -2.5530  -2.1367  -1.8586  -0.9822  -0.8358  -0.7381  -0.2968  -0.0578
     1.5560   2.7825   4.6521   6.3863   6.9892   7.3994

          k = 0.0000-0.3061 0.0000 ( 16486 PWs)   bands (ev):

   -17.7700 -16.6092 -16.4043 -15.3394 -14.7836 -13.7215 -10.8703 -10.1717
    -8.2843  -7.4139  -5.3889  -4.4304  -3.3593  -3.0886  -2.6119  -2.3600
    -2.1417  -1.9669  -1.6487  -1.6064  -1.5096  -1.3310  -0.9429  -0.5808
     1.5849   2.2126   5.5345   6.6409   6.9100   7.7789

          k = 0.1111-0.0000 0.0000 ( 16505 PWs)   bands (ev):

   -19.2070 -17.8938 -15.9493 -13.6186 -11.4537 -10.8240 -10.6884  -9.6511
    -7.8230  -7.6140  -6.5467  -5.7451  -5.5955  -5.5139  -4.5210  -4.4849
    -3.0684  -2.8560  -2.8534  -1.5764  -0.7975  -0.3836  -0.1491   0.2406
     1.1677   3.9735   4.0453   6.1858   6.9209   7.3327

          k = 0.1111-0.1020 0.0000 ( 16481 PWs)   bands (ev):

   -19.0214 -17.7139 -15.7869 -13.5574 -12.8696 -11.9882  -9.8809  -9.0596
    -8.6065  -6.9366  -6.5700  -5.7846  -5.3060  -4.8776  -4.3600  -4.2498
    -3.1270  -2.8957  -2.4307  -1.6509  -1.1074  -0.6798  -0.4052   0.0092
     1.4571   3.5917   4.2793   6.4276   7.2369   7.4390

          k = 0.1111-0.2041 0.0000 ( 16505 PWs)   bands (ev):

   -18.4675 -17.1797 -15.3266 -14.6981 -13.8044 -13.0824 -10.3881  -9.5299
    -8.0664  -7.1290  -6.0224  -5.1080  -4.7620  -4.3831  -3.7664  -3.2772
    -3.0171  -2.4448  -2.2154  -2.1381  -1.9709  -1.3489  -0.6253  -0.0237
     1.5396   2.9199   4.9110   7.0543   7.6074   7.9059

          k = 0.1111-0.3061 0.0000 ( 16457 PWs)   bands (ev):

   -17.5546 -16.3984 -16.1949 -15.1348 -14.5807 -13.5208 -10.6791  -9.9837
    -8.1204  -7.2549  -5.4688  -4.6251  -4.3352  -3.7980  -3.5098  -2.8692
    -2.7739  -2.6277  -2.2257  -2.0457  -1.8354  -1.2743  -0.9678  -0.7741
     1.7220   2.2868   5.8511   7.1303   7.7012   8.3006

          k = 0.2222-0.0000 0.0000 ( 16556 PWs)   bands (ev):

   -18.5469 -17.2418 -15.3095 -12.9971 -10.9967 -10.8586 -10.1001  -9.8352
    -8.0304  -7.1798  -7.0633  -6.0784  -6.0438  -5.7554  -5.2762  -4.6129
    -4.1580  -3.2673  -3.1089  -2.8721  -2.2603  -1.8027  -1.6935  -0.4691
     0.5614   3.7488   4.6842   6.5217   6.9766   7.1893

          k = 0.2222-0.1020 0.0000 ( 16530 PWs)   bands (ev):

   -18.3631 -17.0642 -15.1503 -12.9453 -12.4212 -11.4822  -9.6952  -9.1769
    -8.6504  -7.2454  -6.7087  -6.2715  -5.8008  -5.4139  -4.8476  -4.2177
    -3.9580  -3.5301  -3.2491  -3.1415  -2.7875  -2.0735  -0.9457  -0.7851
     0.9083   3.4508   4.9389   7.0899   7.3249   7.4397

          k = 0.2222-0.2041 0.0000 ( 16492 PWs)   bands (ev):

   -17.8152 -16.5373 -14.7007 -14.1318 -13.2357 -12.4975  -9.9299  -9.0854
    -8.3411  -7.6446  -6.7817  -6.0251  -5.3671  -4.8867  -4.5869  -4.2896
    -3.8759  -3.5627  -3.3137  -3.1330  -2.6886  -2.1229  -1.2190  -0.5435
     1.3804   2.8726   5.5956   7.9109   8.2908   8.4722

          k = 0.2222-0.3061 0.0000 ( 16488 PWs)   bands (ev):

   -16.9147 -15.7742 -15.5756 -14.5314 -13.9783 -12.9257 -10.1442  -9.4537
    -7.8004  -7.3014  -6.8046  -6.1023  -5.9544  -5.0838  -4.8369  -4.3411
    -3.9751  -3.6301  -2.5632  -2.2812  -2.2039  -2.0131  -1.2366  -1.0071
     1.7914   2.3191   6.5020   7.8847   8.9825   9.1198

          k = 0.3333-0.0000 0.0000 ( 16580 PWs)   bands (ev):

   -17.4598 -16.1689 -14.2572 -12.2528 -11.9739 -11.0558  -9.8744  -9.2407
    -9.1264  -7.4625  -7.0247  -6.4347  -6.2233  -5.3270  -5.1384  -4.8405
    -4.6337  -4.1551  -3.9897  -3.8707  -3.3290  -3.1985  -2.9770  -1.1175
     0.5438   3.1125   5.6482   6.4531   6.6965   8.2851

          k = 0.3333-0.1020 0.0000 ( 16557 PWs)   bands (ev):

   -17.2801 -15.9960 -14.1044 -12.4525 -11.9538 -11.2441 -10.1838  -9.7129
    -9.2399  -7.4494  -7.0765  -6.4773  -6.0480  -5.6062  -5.1729  -5.0040
    -4.6649  -4.3787  -4.0451  -3.7853  -3.1397  -2.9796  -2.2475  -1.3101
     0.7742   2.9696   5.9509   6.8952   7.1108   7.9441

          k = 0.3333-0.2041 0.0000 ( 16543 PWs)   bands (ev):

   -16.7462 -15.4857 -13.6804 -13.3835 -12.4165 -11.5987 -10.3278  -9.7642
    -9.2009  -7.9926  -7.1784  -7.1162  -6.8254  -6.2825  -5.3063  -5.2051
    -4.2428  -3.8499  -3.6645  -3.4185  -2.8922  -2.6956  -1.7351  -1.4082
     1.2904   2.6298   6.5752   7.8518   8.1078   8.7432

          k = 0.3333-0.3061 0.0000 ( 16479 PWs)   bands (ev):

   -15.8772 -14.7816 -14.5895 -13.5834 -13.0029 -11.9716  -9.6788  -9.5465
    -8.9000  -8.5808  -8.4310  -7.5347  -6.7234  -6.5043  -5.9466  -5.5914
    -3.9248  -3.7175  -3.4456  -3.0896  -2.2623  -2.1530  -1.8851  -1.3303
     1.7705   2.2852   7.2412   8.6717   8.9584   9.3332

          k = 0.4444-0.0000 0.0000 ( 16558 PWs)   bands (ev):

   -15.9742 -14.7046 -14.1622 -12.9230 -12.8218 -11.0751 -10.5750  -8.8609
    -8.5154  -7.7805  -6.8148  -6.5228  -6.0898  -5.6874  -5.2709  -5.0461
    -4.8254  -4.7490  -4.5063  -4.4492  -4.1173  -3.5861  -2.9529  -2.0341
     1.1628   2.1458   6.2894   6.8828   7.2299   7.4666

          k = 0.4444-0.1020 0.0000 ( 16570 PWs)   bands (ev):

   -15.8049 -14.5435 -14.0343 -12.8083 -12.6810 -10.9939 -10.4989  -9.2909
    -8.8509  -8.6997  -7.6286  -7.0676  -6.3828  -5.7065  -5.1213  -5.1106
    -4.6858  -4.4395  -4.2099  -3.9782  -3.6913  -3.4725  -2.7915  -2.0531
     1.3003   2.1637   6.7857   6.9260   7.3723   7.7011

          k = 0.4444-0.2041 0.0000 ( 16536 PWs)   bands (ev):

   -15.3109 -14.0778 -13.7472 -12.5680 -12.2853 -10.8663 -10.7210 -10.3399
    -9.5557  -9.2170  -8.9666  -8.1104  -6.7915  -6.2418  -5.6697  -5.0077
    -4.7734  -4.1165  -3.8671  -3.2986  -3.1398  -2.6407  -2.3018  -2.0855
     1.6146   2.1751   7.3863   7.7254   8.2171   8.5294

          k = 0.4444-0.3061 0.0000 ( 16526 PWs)   bands (ev):

   -14.5582 -13.8260 -13.3674 -12.6766 -11.7627 -11.2782 -10.9672 -10.5761
   -10.3144  -9.7129  -9.5108  -8.7522  -7.0112  -6.6260  -5.8299  -5.3022
    -4.9016  -4.3563  -3.6048  -3.1339  -2.6274  -2.3181  -1.9258  -1.7205
     1.8922   2.1317   7.8696   8.4889   9.4380   9.6745

     the Fermi energy is     1.9549 ev

!    total energy              =    -223.29421541 Ry
     estimated scf accuracy    <          6.0E-09 Ry
     smearing contrib. (-TS)   =       0.00052112 Ry
     internal energy E=F+TS    =    -223.29473653 Ry

     The total energy is F=E-TS. E is the sum of the following terms:
     one-electron contribution =   -2753.72660670 Ry
     hartree contribution      =    1393.87453402 Ry
     xc contribution           =     -57.13596095 Ry
     ewald contribution        =    1267.65299953 Ry
     one-center paw contrib.   =     -73.95970243 Ry

     convergence has been achieved in  12 iterations

     negative rho (up, down):  7.097E-05 0.000E+00

     Forces acting on atoms (cartesian axes, Ry/au):

     atom    1 type  1   force =    -0.00000000   -0.00243561   -0.00024078
     atom    2 type  1   force =     0.00000000    0.00243561   -0.00024078
     atom    3 type  1   force =    -0.00000000    0.00103481   -0.00007756
     atom    4 type  1   force =     0.00000000   -0.00103481   -0.00007756
     atom    5 type  1   force =     0.00000000   -0.00098277    0.00001021
     atom    6 type  1   force =    -0.00000000    0.00098277    0.00001021
     atom    7 type  1   force =     0.00000000    0.00139431    0.00015032
     atom    8 type  1   force =    -0.00000000   -0.00139431    0.00015032
     atom    9 type  1   force =     0.00000000   -0.04645870   -0.04716277
     atom   10 type  1   force =     0.00000000    0.04645870   -0.04716277
     atom   11 type  1   force =     0.00000000    0.16889007    0.04733423
     atom   12 type  1   force =    -0.00000000   -0.16889007    0.04733423
     atom   13 type  2   force =     0.00000000   -0.00003763   -0.00001365
     atom   14 type  2   force =    -0.00000000    0.00003763   -0.00001365

     Total force =     0.004472     Total SCF correction =     0.000131


     Computing stress (Cartesian axis) and pressure


     negative rho (up, down):  7.097E-05 0.000E+00
          total   stress  (Ry/bohr**3)                   (kbar)     P=      -28.44
  -0.00041111   0.00000000   0.00000000          -60.48        0.00        0.00
   0.00000000   0.00000412   0.00000000            0.00        0.61        0.00
   0.00000000   0.00000000  -0.00017297            0.00        0.00      -25.45


     Writing all to output data dir ./tmp/slab.save/ :
     XML data file, charge density, pseudopotentials, collected wavefunctions

     init_run     :      5.66s CPU      9.62s WALL (       1 calls)
     electrons    :     91.73s CPU    218.33s WALL (       1 calls)
     forces       :      0.95s CPU      1.08s WALL (       1 calls)
     stress       :      2.80s CPU      3.24s WALL (       1 calls)

     Called by init_run:
     wfcinit      :      4.92s CPU      8.82s WALL (       1 calls)
     potinit      :      0.38s CPU      0.41s WALL (       1 calls)
     hinit0       :      0.19s CPU      0.19s WALL (       1 calls)

     Called by electrons:
     c_bands      :     75.61s CPU    153.20s WALL (      12 calls)
     sum_band     :     11.59s CPU     60.02s WALL (      12 calls)
     v_of_rho     :      1.72s CPU      1.85s WALL (      13 calls)
     newd         :      0.93s CPU      1.22s WALL (      13 calls)
     PAW_pot      :      1.92s CPU      2.06s WALL (      13 calls)
     mix_rho      :      0.23s CPU      0.27s WALL (      12 calls)

     Called by c_bands:
     init_us_2    :      1.10s CPU      1.14s WALL (     540 calls)
     cegterg      :     73.42s CPU    150.98s WALL (     240 calls)

     Called by *egterg:
     cdiaghg      :      0.72s CPU      0.74s WALL (    1214 calls)
     h_psi        :     58.77s CPU    135.43s WALL (    1234 calls)
     s_psi        :      5.40s CPU      6.45s WALL (    1234 calls)
     g_psi        :      0.24s CPU      0.24s WALL (     974 calls)

     Called by h_psi:
     h_psi:calbec :      5.03s CPU      6.42s WALL (    1234 calls)
     vloc_psi     :     47.46s CPU    121.23s WALL (    1234 calls)
                                        0.00s GPU  (    1234 calls)
     add_vuspsi   :      6.07s CPU      7.42s WALL (    1234 calls)

     General routines
     calbec       :      8.09s CPU     10.19s WALL (    1814 calls)
     fft          :      1.29s CPU      1.30s WALL (     192 calls)
     ffts         :      0.05s CPU      0.05s WALL (      25 calls)
     fftw         :     50.40s CPU    171.64s WALL (   46990 calls)
     interpolate  :      0.13s CPU      0.14s WALL (      13 calls)


     PWSCF        :   1m41.20s CPU   3m52.36s WALL


   This run was terminated on:  15:30:43  23Jun2026            

=------------------------------------------------------------------------------=
   JOB DONE.
=------------------------------------------------------------------------------=
Note: The following floating-point exceptions are signalling: IEEE_INVALID_FLAG IEEE_DIVIDE_BY_ZERO IEEE_OVERFLOW_FLAG IEEE_UNDERFLOW_FLAG
