
     Program PWSCF v.7.5 starts on  7Jul2026 at 13:37:48 

     This program is part of the open-source Quantum ESPRESSO suite
     for quantum simulation of materials; please cite
         "P. Giannozzi et al., J. Phys.:Condens. Matter 21 395502 (2009);
         "P. Giannozzi et al., J. Phys.:Condens. Matter 29 465901 (2017);
         "P. Giannozzi et al., J. Chem. Phys. 152 154105 (2020);
          URL http://www.quantum-espresso.org", 
     in publications or presentations arising from this work. More details at
     http://www.quantum-espresso.org/quote

     Serial version
     0 MiB available memory on the printing compute node when the environment starts

     Waiting for input...
     Reading input from standard input

     Current dimensions of program PWSCF are:
     Max number of different atomic species (ntypx) = 10
     Max number of k-points (npk) =  40000
     Max angular momentum in pseudopotentials (lmaxx) =  4
     file C.pbe-n-kjpaw_psl.1.0.0.UPF: wavefunction(s)  2S 2P renormalized
     Message from routine setup:
     using ibrav=0 with symmetry is DISCOURAGED, use correct ibrav instead


     G-vector sticks info
     --------------------
     sticks:   dense  smooth     PW     G-vecs:    dense   smooth      PW
     Sum         769     379    121               100227    35413    6197

     Using Slab Decomposition



     bravais-lattice index     =            0
     lattice parameter (alat)  =       4.8230  a.u.
     unit-cell volume          =     564.2575 (a.u.)^3
     number of atoms/cell      =            8
     number of atomic types    =            2
     number of electrons       =        26.00
     number of Kohn-Sham states=           17
     kinetic-energy cutoff     =      60.0000  Ry
     charge density cutoff     =     480.0000  Ry
     scf convergence threshold =      1.0E-08
     mixing beta               =       0.3000
     number of iterations used =            8  plain     mixing
     Exchange-correlation= PBE
                           (   1   4   3   4   0   0   0)

     celldm(1)=   4.822988  celldm(2)=   0.000000  celldm(3)=   0.000000
     celldm(4)=   0.000000  celldm(5)=   0.000000  celldm(6)=   0.000000

     crystal axes: (cart. coord. in units of alat)
               a(1) = (   1.000000   0.000000   0.000000 )  
               a(2) = (   0.500000   0.866025   0.000000 )  
               a(3) = (   0.000000   0.000000   5.807620 )  

     reciprocal axes: (cart. coord. in units 2 pi/alat)
               b(1) = (  1.000000 -0.577350  0.000000 )  
               b(2) = (  0.000000  1.154701  0.000000 )  
               b(3) = (  0.000000  0.000000  0.172188 )  


     PseudoPot. # 1 for C  read from file:
     ./C.pbe-n-kjpaw_psl.1.0.0.UPF
     MD5 check sum: 5d2aebdfa2cae82b50a7e79e9516da0f
     Pseudo is Projector augmented-wave + core cor, Zval =  4.0
     Generated using "atomic" code by A. Dal Corso  v.5.1
     Shape of augmentation charge: PSQ
     Using radial grid of 1073 points,  4 beta functions with: 
                l(1) =   0
                l(2) =   0
                l(3) =   1
                l(4) =   1
     Q(r) pseudized with 0 coefficients 


     PseudoPot. # 2 for H  read from file:
     ./H_ONCV_PBE-1.0.oncvpsp.upf
     MD5 check sum: 1790becc920ee074925cf490c71280fe
     Pseudo is Norm-conserving, Zval =  1.0
     Generated using ONCVPSP code by D. R. Hamann
     Using radial grid of 1166 points,  2 beta functions with: 
                l(1) =   0
                l(2) =   0

     atomic species   valence    mass     pseudopotential
     C                 4.00    12.01100     C ( 1.00)
     H                 1.00     1.00800     H ( 1.00)

     12 Sym. Ops., with inversion, found ( 6 have fractional translation)



   Cartesian axes

     site n.     atom                  positions (alat units)
         1        C      tau(   1) = (   0.5000000   0.2886751   3.8045508  )
         2        C      tau(   2) = (   1.0000000   0.5773503   3.6134055  )
         3        C      tau(   3) = (   1.0000000   0.5773503   3.0044549  )
         4        C      tau(   4) = (   0.0000000   0.0000000   2.8031649  )
         5        C      tau(   5) = (   0.0000000   0.0000000   2.1942144  )
         6        C      tau(   6) = (   0.5000000   0.2886751   2.0030690  )
         7        H      tau(   7) = (   0.5000000   0.2886751   4.2390526  )
         8        H      tau(   8) = (   0.5000000   0.2886751   1.5685672  )

     number of k points=    12  Marzari-Vanderbilt smearing, width (Ry)=  0.0100
                       cart. coord. in units 2pi/alat
        k(    1) = (   0.0000000   0.0000000   0.0000000), wk =   0.0246914
        k(    2) = (   0.0000000   0.1283001   0.0000000), wk =   0.1481481
        k(    3) = (   0.0000000   0.2566001   0.0000000), wk =   0.1481481
        k(    4) = (   0.0000000   0.3849002   0.0000000), wk =   0.1481481
        k(    5) = (   0.0000000   0.5132002   0.0000000), wk =   0.1481481
        k(    6) = (   0.1111111   0.1924501   0.0000000), wk =   0.1481481
        k(    7) = (   0.1111111   0.3207501   0.0000000), wk =   0.2962963
        k(    8) = (   0.1111111   0.4490502   0.0000000), wk =   0.2962963
        k(    9) = (   0.1111111  -0.5773503   0.0000000), wk =   0.1481481
        k(   10) = (   0.2222222   0.3849002   0.0000000), wk =   0.1481481
        k(   11) = (   0.2222222  -0.6415003   0.0000000), wk =   0.2962963
        k(   12) = (   0.3333333  -0.5773503   0.0000000), wk =   0.0493827

     Dense  grid:   100227 G-vectors     FFT dimensions: (  36,  36, 200)

     Smooth grid:    35413 G-vectors     FFT dimensions: (  24,  24, 144)

     Estimated max dynamical RAM per process >     172.49 MB

     Check: negative core charge=   -0.000002

     Initial potential from superposition of free atoms

     starting charge      25.9997, renormalised to      26.0000

     negative rho (up, down):  3.352E-07 0.000E+00
     Starting wfcs are   26 randomized atomic wfcs

     total cpu time spent up to now is        0.6 secs

     Self-consistent Calculation

     iteration #  1     ecut=    60.00 Ry     beta= 0.30
     Davidson diagonalization with overlap
     ethr =  1.00E-02,  avg # of iterations =  2.8

     negative rho (up, down):  1.427E-06 0.000E+00

     total cpu time spent up to now is        1.4 secs

     total energy              =    -113.01355092 Ry
     estimated scf accuracy    <       0.58365672 Ry

     iteration #  2     ecut=    60.00 Ry     beta= 0.30
     Davidson diagonalization with overlap
     ethr =  2.24E-03,  avg # of iterations =  3.5

     negative rho (up, down):  4.773E-06 0.000E+00

     total cpu time spent up to now is        2.1 secs

     total energy              =    -112.97535430 Ry
     estimated scf accuracy    <       0.17844229 Ry

     iteration #  3     ecut=    60.00 Ry     beta= 0.30
     Davidson diagonalization with overlap
     ethr =  6.86E-04,  avg # of iterations =  4.3

     negative rho (up, down):  4.403E-06 0.000E+00

     total cpu time spent up to now is        2.8 secs

     total energy              =    -112.98144813 Ry
     estimated scf accuracy    <       0.02477897 Ry

     iteration #  4     ecut=    60.00 Ry     beta= 0.30
     Davidson diagonalization with overlap
     ethr =  9.53E-05,  avg # of iterations =  4.2

     negative rho (up, down):  3.456E-06 0.000E+00

     total cpu time spent up to now is        3.5 secs

     total energy              =    -112.98244515 Ry
     estimated scf accuracy    <       0.00293138 Ry

     iteration #  5     ecut=    60.00 Ry     beta= 0.30
     Davidson diagonalization with overlap
     ethr =  1.13E-05,  avg # of iterations =  5.5

     negative rho (up, down):  2.416E-06 0.000E+00

     total cpu time spent up to now is        4.3 secs

     total energy              =    -112.98281549 Ry
     estimated scf accuracy    <       0.00029425 Ry

     iteration #  6     ecut=    60.00 Ry     beta= 0.30
     Davidson diagonalization with overlap
     ethr =  1.13E-06,  avg # of iterations =  3.8

     negative rho (up, down):  2.247E-06 0.000E+00

     total cpu time spent up to now is        5.0 secs

     total energy              =    -112.98285121 Ry
     estimated scf accuracy    <       0.00007784 Ry

     iteration #  7     ecut=    60.00 Ry     beta= 0.30
     Davidson diagonalization with overlap
     ethr =  2.99E-07,  avg # of iterations =  2.1

     negative rho (up, down):  2.066E-06 0.000E+00

     total cpu time spent up to now is        5.7 secs

     total energy              =    -112.98286590 Ry
     estimated scf accuracy    <       0.00003109 Ry

     iteration #  8     ecut=    60.00 Ry     beta= 0.30
     Davidson diagonalization with overlap
     ethr =  1.20E-07,  avg # of iterations =  1.8

     negative rho (up, down):  1.985E-06 0.000E+00

     total cpu time spent up to now is        6.3 secs

     total energy              =    -112.98286837 Ry
     estimated scf accuracy    <       0.00000314 Ry

     iteration #  9     ecut=    60.00 Ry     beta= 0.30
     Davidson diagonalization with overlap
     ethr =  1.21E-08,  avg # of iterations =  2.6

     negative rho (up, down):  1.973E-06 0.000E+00

     total cpu time spent up to now is        7.0 secs

     total energy              =    -112.98286908 Ry
     estimated scf accuracy    <       0.00000076 Ry

     iteration # 10     ecut=    60.00 Ry     beta= 0.30
     Davidson diagonalization with overlap
     ethr =  2.93E-09,  avg # of iterations =  1.9

     negative rho (up, down):  1.963E-06 0.000E+00

     total cpu time spent up to now is        7.7 secs

     total energy              =    -112.98286913 Ry
     estimated scf accuracy    <       0.00000010 Ry

     iteration # 11     ecut=    60.00 Ry     beta= 0.30
     Davidson diagonalization with overlap
     ethr =  3.73E-10,  avg # of iterations =  2.4

     negative rho (up, down):  1.953E-06 0.000E+00

     total cpu time spent up to now is        8.3 secs

     total energy              =    -112.98286914 Ry
     estimated scf accuracy    <       0.00000002 Ry

     iteration # 12     ecut=    60.00 Ry     beta= 0.30
     Davidson diagonalization with overlap
     ethr =  9.12E-11,  avg # of iterations =  3.2

     negative rho (up, down):  1.957E-06 0.000E+00

     total cpu time spent up to now is        9.1 secs

     total energy              =    -112.98286915 Ry
     estimated scf accuracy    <       0.00000002 Ry

     iteration # 13     ecut=    60.00 Ry     beta= 0.30
     Davidson diagonalization with overlap
     ethr =  5.91E-11,  avg # of iterations =  2.1

     negative rho (up, down):  1.972E-06 0.000E+00

     total cpu time spent up to now is        9.7 secs

     End of self-consistent calculation

          k = 0.0000 0.0000 0.0000 (  4359 PWs)   bands (ev):

   -16.8245 -15.3382 -13.0994  -8.3507  -5.2756  -1.4147   1.3000   1.3000
     2.0044   2.1658   2.1658   3.2673   3.2673   6.2660   6.5463   9.0608
    10.0252

          k = 0.0000 0.1283 0.0000 (  4387 PWs)   bands (ev):

   -16.5300 -15.0499 -12.8233  -8.0913  -5.0600  -1.3071  -0.0809   0.6967
     0.8361   1.6569   1.8737   2.1573   2.8453   6.5095   6.8612   9.0309
    10.1524

          k = 0.0000 0.2566 0.0000 (  4410 PWs)   bands (ev):

   -15.6531 -14.1928 -12.0053  -7.3773  -4.5172  -2.9936  -1.8743  -1.0086
    -0.4415  -0.4200   0.6117   1.6427   1.9033   7.2535   7.7110   9.1006
    10.0305

          k = 0.0000 0.3849 0.0000 (  4422 PWs)   bands (ev):

   -14.2200 -12.8026 -10.7010  -6.9619  -5.8532  -4.5511  -3.9679  -2.6689
    -1.4095  -0.9549  -0.3152   0.9452   1.0261   8.3082   8.7239   9.3952
    10.1200

          k = 0.0000 0.5132 0.0000 (  4444 PWs)   bands (ev):

   -12.3369 -11.1345  -9.7377  -8.2143  -8.0801  -6.2151  -3.9397  -2.6506
    -1.9373  -1.5610  -0.8276   0.4313   0.5329   8.6455   9.4574   9.9780
    10.6165

          k = 0.1111 0.1925 0.0000 (  4406 PWs)   bands (ev):

   -15.9442 -14.4770 -12.2759  -7.6001  -4.6697  -1.8308  -1.2297  -1.0490
    -0.2000   0.0638   1.1840   1.2166   2.1740   7.0426   7.4494   9.4727
    10.1931

          k = 0.1111 0.3208 0.0000 (  4419 PWs)   bands (ev):

   -14.7879 -13.3504 -11.2069  -6.8483  -4.6143  -4.0282  -3.1624  -2.4532
    -1.3232  -0.8798  -0.6645   0.2961   1.5526   8.1368   8.4346   9.9459
    10.7569

          k = 0.1111 0.4491 0.0000 (  4439 PWs)   bands (ev):

   -13.1109 -11.7496  -9.7834  -7.7097  -6.8073  -5.0003  -4.3748  -2.7629
    -2.4890  -1.7748  -1.0959  -0.2411   0.7012   9.1454   9.7541  10.4327
    11.1437

          k = 0.1111-0.5774 0.0000 (  4466 PWs)   bands (ev):

   -11.4030 -10.8511  -9.6123  -8.6529  -7.5507  -6.9495  -3.4524  -3.1279
    -2.6647  -1.7723  -1.7441  -0.2746   0.2128   9.4967  10.1511  11.1783
    11.2929

          k = 0.2222 0.3849 0.0000 (  4426 PWs)   bands (ev):

   -13.3806 -11.9939  -9.9467  -6.9816  -5.7335  -4.9236  -4.0206  -3.5011
    -2.8132  -1.9810  -1.7368  -0.7529   0.7860   9.3392   9.6373  10.9605
    11.5720

          k = 0.2222-0.6415 0.0000 (  4459 PWs)   bands (ev):

   -11.5495 -10.3954  -9.0183  -8.0879  -7.4540  -6.2130  -4.4962  -4.1324
    -3.1120  -2.6975  -1.8131  -1.0088  -0.1757  10.0051  10.6268  11.8310
    11.9406

          k = 0.3333-0.5774 0.0000 (  4452 PWs)   bands (ev):

   -10.0052 -10.0052  -8.8544  -8.5664  -7.0837  -7.0837  -4.9560  -4.6287
    -4.6287  -2.0127  -1.3878  -1.3878  -1.0846  10.6006  10.6006  11.2469
    12.9204

     the Fermi energy is     4.1353 ev

!    total energy              =    -112.98286915 Ry
     estimated scf accuracy    <          7.7E-10 Ry
     smearing contrib. (-TS)   =       0.00000000 Ry
     internal energy E=F+TS    =    -112.98286915 Ry

     The total energy is F=E-TS. E is the sum of the following terms:
     one-electron contribution =    -577.10987111 Ry
     hartree contribution      =     299.41215201 Ry
     xc contribution           =     -29.40655442 Ry
     ewald contribution        =     231.09681721 Ry
     one-center paw contrib.   =     -36.97541285 Ry

     convergence has been achieved in  13 iterations

     negative rho (up, down):  1.972E-06 0.000E+00

     Forces acting on atoms (cartesian axes, Ry/au):

     atom    1 type  1   force =     0.00000000    0.00000000   -0.00202659
     atom    2 type  1   force =    -0.00000000   -0.00000000    0.00140069
     atom    3 type  1   force =     0.00000000    0.00000000   -0.00082884
     atom    4 type  1   force =     0.00000000    0.00000000    0.00082884
     atom    5 type  1   force =     0.00000000    0.00000000   -0.00140069
     atom    6 type  1   force =     0.00000000    0.00000000    0.00202659
     atom    7 type  2   force =     0.00000000    0.00000000   -0.00070206
     atom    8 type  2   force =     0.00000000    0.00000000    0.00070206

     Total force =     0.003808     Total SCF correction =     0.000072


     Computing stress (Cartesian axis) and pressure


     negative rho (up, down):  1.972E-06 0.000E+00
          total   stress  (Ry/bohr**3)                   (kbar)     P=      -34.09
  -0.00032325   0.00000000   0.00000000          -47.55        0.00        0.00
   0.00000000  -0.00032325   0.00000000            0.00      -47.55        0.00
   0.00000000   0.00000000  -0.00004876            0.00        0.00       -7.17


     Writing all to output data dir ./tmp/slab.save/ :
     XML data file, charge density, pseudopotentials, collected wavefunctions

     init_run     :      0.52s CPU      0.55s WALL (       1 calls)
     electrons    :      8.82s CPU      9.17s WALL (       1 calls)
     forces       :      0.13s CPU      0.14s WALL (       1 calls)
     stress       :      0.36s CPU      0.41s WALL (       1 calls)

     Called by init_run:
     wfcinit      :      0.24s CPU      0.26s WALL (       1 calls)
     potinit      :      0.13s CPU      0.14s WALL (       1 calls)
     hinit0       :      0.11s CPU      0.11s WALL (       1 calls)

     Called by electrons:
     c_bands      :      5.86s CPU      6.04s WALL (      13 calls)
     sum_band     :      1.21s CPU      1.26s WALL (      13 calls)
     v_of_rho     :      0.50s CPU      0.53s WALL (      14 calls)
     newd         :      0.25s CPU      0.29s WALL (      14 calls)
     PAW_pot      :      1.04s CPU      1.08s WALL (      14 calls)
     mix_rho      :      0.06s CPU      0.06s WALL (      13 calls)

     Called by c_bands:
     init_us_2    :      0.12s CPU      0.13s WALL (     348 calls)
     cegterg      :      5.66s CPU      5.84s WALL (     156 calls)

     Called by *egterg:
     cdiaghg      :      0.10s CPU      0.11s WALL (     639 calls)
     h_psi        :      4.50s CPU      4.58s WALL (     651 calls)
     s_psi        :      0.29s CPU      0.29s WALL (     651 calls)
     g_psi        :      0.02s CPU      0.02s WALL (     483 calls)

     Called by h_psi:
     h_psi:calbec :      0.35s CPU      0.37s WALL (     651 calls)
     vloc_psi     :      3.82s CPU      3.85s WALL (     651 calls)
                                        0.00s GPU  (     651 calls)
     add_vuspsi   :      0.32s CPU      0.35s WALL (     651 calls)

     General routines
     calbec       :      0.54s CPU      0.62s WALL (    1011 calls)
     fft          :      0.28s CPU      0.28s WALL (     205 calls)
     ffts         :      0.01s CPU      0.01s WALL (      27 calls)
     fftw         :      4.05s CPU      4.07s WALL (   16914 calls)
     interpolate  :      0.03s CPU      0.03s WALL (      14 calls)


     PWSCF        :      9.86s CPU     10.31s WALL


   This run was terminated on:  13:37:58   7Jul2026            

=------------------------------------------------------------------------------=
   JOB DONE.
=------------------------------------------------------------------------------=
Note: The following floating-point exceptions are signalling: IEEE_INVALID_FLAG IEEE_DIVIDE_BY_ZERO IEEE_OVERFLOW_FLAG IEEE_UNDERFLOW_FLAG
