
     Program PWSCF v.7.5 starts on  7Jul2026 at 14:54:45 

     This program is part of the open-source Quantum ESPRESSO suite
     for quantum simulation of materials; please cite
         "P. Giannozzi et al., J. Phys.:Condens. Matter 21 395502 (2009);
         "P. Giannozzi et al., J. Phys.:Condens. Matter 29 465901 (2017);
         "P. Giannozzi et al., J. Chem. Phys. 152 154105 (2020);
          URL http://www.quantum-espresso.org", 
     in publications or presentations arising from this work. More details at
     http://www.quantum-espresso.org/quote

     Serial version
     0 MiB available memory on the printing compute node when the environment starts

     Waiting for input...
     Reading input from standard input

     Current dimensions of program PWSCF are:
     Max number of different atomic species (ntypx) = 10
     Max number of k-points (npk) =  40000
     Max angular momentum in pseudopotentials (lmaxx) =  4
     file C.pbe-n-kjpaw_psl.1.0.0.UPF: wavefunction(s)  2S 2P renormalized
     Message from routine volume:
     axis vectors are left-handed
     Found identity + (  0.5000  0.0000  0.0000) symmetry
     This is a supercell, fractional translations are disabled
     Message from routine setup:
     using ibrav=0 with symmetry is DISCOURAGED, use correct ibrav instead


     G-vector sticks info
     --------------------
     sticks:   dense  smooth     PW     G-vecs:    dense   smooth      PW
     Sum        3529    1761    485               448399   158563   22819

     Using Slab Decomposition



     bravais-lattice index     =            0
     lattice parameter (alat)  =       9.5505  a.u.
     unit-cell volume          =    2524.5080 (a.u.)^3
     number of atoms/cell      =           32
     number of atomic types    =            2
     number of electrons       =       104.00
     number of Kohn-Sham states=           62
     kinetic-energy cutoff     =      60.0000  Ry
     charge density cutoff     =     480.0000  Ry
     scf convergence threshold =      1.0E-08
     mixing beta               =       0.3000
     number of iterations used =            8  plain     mixing
     Exchange-correlation= PBE
                           (   1   4   3   4   0   0   0)

     celldm(1)=   9.550471  celldm(2)=   0.000000  celldm(3)=   0.000000
     celldm(4)=   0.000000  celldm(5)=   0.000000  celldm(6)=   0.000000

     crystal axes: (cart. coord. in units of alat)
               a(1) = (   1.000000   0.000000   0.000000 )  
               a(2) = (   0.000000  -1.010000   0.000000 )  
               a(3) = (   0.000000   0.000000   2.869333 )  

     reciprocal axes: (cart. coord. in units 2 pi/alat)
               b(1) = (  1.000000 -0.000000 -0.000000 )  
               b(2) = ( -0.000000 -0.990099 -0.000000 )  
               b(3) = ( -0.000000 -0.000000  0.348513 )  


     PseudoPot. # 1 for C  read from file:
     ./C.pbe-n-kjpaw_psl.1.0.0.UPF
     MD5 check sum: 5d2aebdfa2cae82b50a7e79e9516da0f
     Pseudo is Projector augmented-wave + core cor, Zval =  4.0
     Generated using "atomic" code by A. Dal Corso  v.5.1
     Shape of augmentation charge: PSQ
     Using radial grid of 1073 points,  4 beta functions with: 
                l(1) =   0
                l(2) =   0
                l(3) =   1
                l(4) =   1
     Q(r) pseudized with 0 coefficients 


     PseudoPot. # 2 for H  read from file:
     ./H_ONCV_PBE-1.0.oncvpsp.upf
     MD5 check sum: 1790becc920ee074925cf490c71280fe
     Pseudo is Norm-conserving, Zval =  1.0
     Generated using ONCVPSP code by D. R. Hamann
     Using radial grid of 1166 points,  2 beta functions with: 
                l(1) =   0
                l(2) =   0

     atomic species   valence    mass     pseudopotential
     C                 4.00    12.01100     C ( 1.00)
     H                 1.00     1.00800     H ( 1.00)

      4 Sym. Ops. (no inversion) found



   Cartesian axes

     site n.     atom                  positions (alat units)
         1        C      tau(   1) = (   0.0000000  -0.1597908   1.8592812  )
         2        C      tau(   2) = (   0.2500000  -0.2322140   1.6998931  )
         3        C      tau(   3) = (   0.2500000   0.0000000   1.4936626  )
         4        C      tau(   4) = (   0.0000000   0.0000000   1.3178300  )
         5        C      tau(   5) = (   0.0000000  -0.2727860   1.1694404  )
         6        C      tau(   6) = (   0.2500000  -0.3452092   1.0100523  )
         7        C      tau(   7) = (   0.0000000  -0.8502092   1.8592812  )
         8        C      tau(   8) = (   0.2500000  -0.7777860   1.6998931  )
         9        C      tau(   9) = (   0.2500000  -0.5050000   1.5515034  )
        10        C      tau(  10) = (   0.0000000  -0.5050000   1.3756708  )
        11        C      tau(  11) = (   0.0000000  -0.7372140   1.1694404  )
        12        C      tau(  12) = (   0.2500000  -0.6647908   1.0100523  )
        13        H      tau(  13) = (   0.0000000  -0.2473571   2.0590044  )
        14        H      tau(  14) = (   0.0000000  -0.7626429   2.0590044  )
        15        H      tau(  15) = (   0.2500000  -0.2576429   0.8103291  )
        16        H      tau(  16) = (   0.2500000  -0.7523571   0.8103291  )
        17        C      tau(  17) = (   0.5000000  -0.1597908   1.8592812  )
        18        C      tau(  18) = (   0.7500000  -0.2322140   1.6998931  )
        19        C      tau(  19) = (   0.7500000   0.0000000   1.4936626  )
        20        C      tau(  20) = (   0.5000000   0.0000000   1.3178300  )
        21        C      tau(  21) = (   0.5000000  -0.2727860   1.1694404  )
        22        C      tau(  22) = (   0.7500000  -0.3452092   1.0100523  )
        23        C      tau(  23) = (   0.5000000  -0.8502092   1.8592812  )
        24        C      tau(  24) = (   0.7500000  -0.7777860   1.6998931  )
        25        C      tau(  25) = (   0.7500000  -0.5050000   1.5515034  )
        26        C      tau(  26) = (   0.5000000  -0.5050000   1.3756708  )
        27        C      tau(  27) = (   0.5000000  -0.7372140   1.1694404  )
        28        C      tau(  28) = (   0.7500000  -0.6647908   1.0100523  )
        29        H      tau(  29) = (   0.5000000  -0.2473571   2.0590044  )
        30        H      tau(  30) = (   0.5000000  -0.7626429   2.0590044  )
        31        H      tau(  31) = (   0.7500000  -0.2576429   0.8103291  )
        32        H      tau(  32) = (   0.7500000  -0.7523571   0.8103291  )

     number of k points=     9  Marzari-Vanderbilt smearing, width (Ry)=  0.0100
                       cart. coord. in units 2pi/alat
        k(    1) = (   0.0000000  -0.0000000   0.0000000), wk =   0.0800000
        k(    2) = (   0.0000000  -0.1980198   0.0000000), wk =   0.1600000
        k(    3) = (   0.0000000  -0.3960396   0.0000000), wk =   0.1600000
        k(    4) = (   0.2000000  -0.0000000   0.0000000), wk =   0.1600000
        k(    5) = (   0.2000000  -0.1980198   0.0000000), wk =   0.3200000
        k(    6) = (   0.2000000  -0.3960396   0.0000000), wk =   0.3200000
        k(    7) = (   0.4000000  -0.0000000   0.0000000), wk =   0.1600000
        k(    8) = (   0.4000000  -0.1980198   0.0000000), wk =   0.3200000
        k(    9) = (   0.4000000  -0.3960396   0.0000000), wk =   0.3200000

     Dense  grid:   448399 G-vectors     FFT dimensions: (  72,  72, 192)

     Smooth grid:   158563 G-vectors     FFT dimensions: (  48,  48, 135)

     Estimated max dynamical RAM per process >       1.26 GB

     Check: negative core charge=   -0.000002

     Initial potential from superposition of free atoms

     starting charge     103.9989, renormalised to     104.0000

     negative rho (up, down):  4.554E-06 0.000E+00
     Starting wfcs are  104 randomized atomic wfcs

     total cpu time spent up to now is        4.8 secs

     Self-consistent Calculation

     iteration #  1     ecut=    60.00 Ry     beta= 0.30
     Davidson diagonalization with overlap
     ethr =  1.00E-02,  avg # of iterations =  3.0

     negative rho (up, down):  1.428E-05 0.000E+00

     total cpu time spent up to now is       15.0 secs

     total energy              =    -451.88975094 Ry
     estimated scf accuracy    <       2.41066973 Ry

     iteration #  2     ecut=    60.00 Ry     beta= 0.30
     Davidson diagonalization with overlap
     ethr =  2.32E-03,  avg # of iterations =  4.9

     negative rho (up, down):  4.837E-05 0.000E+00

     total cpu time spent up to now is       24.0 secs

     total energy              =    -451.73918585 Ry
     estimated scf accuracy    <       0.70619176 Ry

     iteration #  3     ecut=    60.00 Ry     beta= 0.30
     Davidson diagonalization with overlap
     ethr =  6.79E-04,  avg # of iterations =  7.6

     negative rho (up, down):  6.572E-05 0.000E+00

     total cpu time spent up to now is       35.4 secs

     total energy              =    -451.76385038 Ry
     estimated scf accuracy    <       0.10526741 Ry

     iteration #  4     ecut=    60.00 Ry     beta= 0.30
     Davidson diagonalization with overlap
     ethr =  1.01E-04,  avg # of iterations =  3.8

     negative rho (up, down):  8.419E-05 0.000E+00

     total cpu time spent up to now is       44.2 secs

     total energy              =    -451.77244637 Ry
     estimated scf accuracy    <       0.01015281 Ry

     iteration #  5     ecut=    60.00 Ry     beta= 0.30
     Davidson diagonalization with overlap
     ethr =  9.76E-06,  avg # of iterations =  9.0

     negative rho (up, down):  6.982E-05 0.000E+00

     total cpu time spent up to now is       57.3 secs

     total energy              =    -451.77412087 Ry
     estimated scf accuracy    <       0.00262628 Ry

     iteration #  6     ecut=    60.00 Ry     beta= 0.30
     Davidson diagonalization with overlap
     ethr =  2.53E-06,  avg # of iterations =  6.9

     negative rho (up, down):  7.043E-05 0.000E+00

     total cpu time spent up to now is       68.3 secs

     total energy              =    -451.77450425 Ry
     estimated scf accuracy    <       0.00029879 Ry

     iteration #  7     ecut=    60.00 Ry     beta= 0.30
     Davidson diagonalization with overlap
     ethr =  2.87E-07,  avg # of iterations =  3.0

     negative rho (up, down):  6.934E-05 0.000E+00

     total cpu time spent up to now is       77.1 secs

     total energy              =    -451.77454314 Ry
     estimated scf accuracy    <       0.00003638 Ry

     iteration #  8     ecut=    60.00 Ry     beta= 0.30
     Davidson diagonalization with overlap
     ethr =  3.50E-08,  avg # of iterations =  3.2

     negative rho (up, down):  6.868E-05 0.000E+00

     total cpu time spent up to now is       86.3 secs

     total energy              =    -451.77454842 Ry
     estimated scf accuracy    <       0.00001706 Ry

     iteration #  9     ecut=    60.00 Ry     beta= 0.30
     Davidson diagonalization with overlap
     ethr =  1.64E-08,  avg # of iterations =  2.0

     negative rho (up, down):  6.861E-05 0.000E+00

     total cpu time spent up to now is       94.6 secs

     total energy              =    -451.77455206 Ry
     estimated scf accuracy    <       0.00000163 Ry

     iteration # 10     ecut=    60.00 Ry     beta= 0.30
     Davidson diagonalization with overlap
     ethr =  1.56E-09,  avg # of iterations =  3.8

     negative rho (up, down):  6.850E-05 0.000E+00

     total cpu time spent up to now is      104.5 secs

     total energy              =    -451.77455201 Ry
     estimated scf accuracy    <       0.00000142 Ry

     iteration # 11     ecut=    60.00 Ry     beta= 0.30
     Davidson diagonalization with overlap
     ethr =  1.37E-09,  avg # of iterations =  2.8

     negative rho (up, down):  6.863E-05 0.000E+00

     total cpu time spent up to now is      113.2 secs

     total energy              =    -451.77455236 Ry
     estimated scf accuracy    <       0.00000004 Ry

     iteration # 12     ecut=    60.00 Ry     beta= 0.30
     Davidson diagonalization with overlap
     ethr =  3.40E-11,  avg # of iterations =  4.0

     negative rho (up, down):  6.876E-05 0.000E+00

     total cpu time spent up to now is      123.5 secs

     total energy              =    -451.77455237 Ry
     estimated scf accuracy    <       0.00000003 Ry

     iteration # 13     ecut=    60.00 Ry     beta= 0.30
     Davidson diagonalization with overlap
     ethr =  2.41E-11,  avg # of iterations =  4.1

     negative rho (up, down):  6.885E-05 0.000E+00

     total cpu time spent up to now is      134.4 secs

     total energy              =    -451.77455237 Ry
     estimated scf accuracy    <       0.00000003 Ry

     iteration # 14     ecut=    60.00 Ry     beta= 0.30
     Davidson diagonalization with overlap
     ethr =  2.41E-11,  avg # of iterations =  2.0

     negative rho (up, down):  6.917E-05 0.000E+00

     total cpu time spent up to now is      142.3 secs

     End of self-consistent calculation

          k = 0.0000-0.0000 0.0000 ( 19831 PWs)   bands (ev):

   -17.7058 -16.0158 -13.3476 -13.3476 -13.2393 -12.9482 -12.9295 -11.9415
   -11.5359 -11.5359  -9.3423  -9.3423  -9.0003  -8.8911  -8.8911  -8.6997
    -8.1671  -8.1671  -7.8968  -7.8773  -7.8773  -5.4326  -5.4309  -5.2029
    -4.8132  -4.8132  -3.9122  -3.9122  -3.5334  -3.5334  -2.6762  -2.4004
    -2.2218  -2.2218  -2.2014  -2.2014  -1.9265  -1.8650  -1.6670  -1.2267
    -1.2267  -1.2018   0.1362   0.2529   0.2529   0.4234   0.4919   0.6524
     0.7712   0.8993   1.2858   1.6335   5.3889   5.8483   7.2152   7.5905
     7.7170   8.3213   8.3310   8.9212   8.9213   9.1283

          k = 0.0000-0.1980 0.0000 ( 19784 PWs)   bands (ev):

   -17.5441 -16.0389 -14.2859 -13.3676 -13.1942 -13.1942 -11.7815 -11.6730
   -11.5598 -11.5598 -10.3385 -10.3385  -9.0981  -8.6004  -8.6004  -8.2013
    -7.8036  -7.7126  -7.7126  -7.5470  -7.5470  -5.9549  -5.0982  -4.9164
    -4.9164  -4.8224  -3.8448  -3.8448  -3.3488  -3.3134  -3.3134  -2.5411
    -2.3777  -2.3777  -1.9768  -1.9358  -1.9057  -1.9057  -1.3749  -1.2694
    -1.2694  -1.2309  -0.4314  -0.4314  -0.4255  -0.2864   0.3538   0.5300
     1.1695   1.2139   1.2864   1.5399   5.6177   6.0442   7.6737   8.0206
     8.0473   8.3752   8.4848   8.6822   8.8211   8.8211

          k = 0.0000-0.3960 0.0000 ( 19830 PWs)   bands (ev):

   -17.0792 -16.4277 -14.5997 -14.1046 -12.7716 -12.7716 -11.9553 -11.9553
   -11.4129 -11.0810 -10.8136 -10.8136  -9.0401  -9.0401  -8.6213  -7.8209
    -7.3130  -7.2046  -7.2046  -6.9032  -6.9032  -6.3957  -5.0887  -4.6253
    -4.6253  -4.5427  -4.0191  -3.7279  -3.7279  -3.2467  -3.2467  -3.2119
    -2.1554  -2.1101  -2.1101  -2.0099  -2.0099  -1.7563  -1.6071  -1.4818
    -1.4818  -1.3479  -1.3479  -1.1795  -0.4986  -0.3649   0.0175   0.0867
     0.8227   1.2032   1.6274   1.7241   6.2500   6.5837   7.2841   7.4726
     8.1288   8.5085   8.5086   8.5280   8.7315   8.8487

          k = 0.2000-0.0000 0.0000 ( 19793 PWs)   bands (ev):

   -17.5226 -15.8363 -14.8325 -13.2742 -13.0696 -12.7778 -12.7558 -11.7780
   -11.3141 -10.6574 -10.5487 -10.2244  -9.4217  -9.1264  -8.9132  -8.5453
    -7.7463  -7.5564  -7.0409  -6.8273  -6.7968  -5.3853  -5.3850  -5.3558
    -5.2549  -5.0683  -4.2425  -3.7787  -3.6931  -3.3386  -2.7826  -2.4830
    -2.4184  -2.3189  -2.2788  -1.8235  -1.7957  -1.6354  -1.6194  -1.5999
    -1.2418  -0.8683  -0.6058  -0.3199  -0.1421   0.0093   0.1306   0.5018
     0.6813   0.7040   0.7371   1.4688   5.5575   6.0397   7.5962   7.9948
     8.0613   8.0672   8.1577   8.4894   9.1210   9.1584

          k = 0.2000-0.1980 0.0000 ( 19818 PWs)   bands (ev):

   -17.3612 -15.8591 -14.6751 -14.1117 -13.2681 -13.1966 -11.6871 -11.6176
   -11.5066 -11.0502 -10.8691  -9.9638  -9.0711  -8.9955  -8.7103  -8.0584
    -7.9710  -7.6621  -7.2992  -6.3073  -6.2178  -5.8746  -5.5944  -5.1149
    -5.0358  -4.7140  -4.3878  -3.6790  -3.5461  -3.2356  -3.0553  -2.7291
    -2.4033  -2.3858  -2.3360  -1.9619  -1.8438  -1.8008  -1.5877  -1.3438
    -1.2198  -1.0686  -0.9941  -0.6145  -0.5226  -0.2437   0.0117   0.2698
     0.4660   0.6209   1.2017   1.2978   5.7847   6.2380   7.8669   8.1152
     8.2176   8.4756   8.5193   8.6168   8.7286   8.9147

          k = 0.2000-0.3960 0.0000 ( 19822 PWs)   bands (ev):

   -16.8969 -16.2466 -14.4254 -14.2222 -13.9317 -13.5942 -11.9920 -11.5048
   -11.2510 -10.9210 -10.7512 -10.3507  -8.5987  -8.5163  -8.5151  -7.9189
    -7.7222  -7.5575  -7.1677  -6.2489  -5.8074  -5.4838  -5.4211  -4.9851
    -4.7510  -4.4526  -4.2482  -4.0605  -3.9597  -3.2918  -3.1166  -3.0178
    -2.7533  -2.6645  -2.5239  -1.9624  -1.9290  -1.8154  -1.6631  -1.3326
    -1.3007  -1.1823  -1.0115  -0.9313  -0.9220  -0.8583  -0.5112  -0.0207
     0.8473   0.9187   0.9275   1.2948   6.4151   6.7781   7.4464   7.6446
     7.9051   8.0708   8.1889   8.6939   8.8388   9.1963

          k = 0.4000-0.0000 0.0000 ( 19794 PWs)   bands (ev):

   -16.9752 -16.0716 -15.3013 -14.4243 -12.5639 -12.2734 -12.2377 -11.7370
   -11.4697 -11.3855 -11.2906 -10.4913  -9.5704  -8.8213  -8.1206  -7.8409
    -7.3203  -6.9245  -6.7601  -6.4224  -5.6590  -5.6099  -5.5595  -5.2404
    -4.7166  -4.5701  -4.4280  -3.9520  -3.8730  -3.8052  -3.4156  -2.8204
    -2.6234  -2.4832  -1.9696  -1.8646  -1.6860  -1.6638  -1.6260  -1.4885
    -1.4322  -1.2717  -1.2400  -0.8749  -0.5349  -0.4705  -0.4529   0.0421
     0.1224   0.7223   0.8028   0.8437   6.0677   6.4760   6.9461   7.1255
     8.2043   8.5555   8.9074   8.9479   9.0122   9.3480

          k = 0.4000-0.1980 0.0000 ( 19806 PWs)   bands (ev):

   -16.8146 -15.9123 -15.3224 -14.4409 -13.5930 -12.7456 -12.6887 -11.8669
   -11.1331 -11.0101 -10.3707 -10.1950  -9.4661  -8.8364  -7.7868  -7.6928
    -7.2898  -6.9533  -6.6522  -6.1264  -5.8337  -5.7591  -5.4193  -5.0843
    -4.8157  -4.7017  -4.2743  -4.0366  -3.7245  -3.6821  -3.0804  -3.0651
    -2.8409  -2.7088  -2.6096  -2.2700  -1.8480  -1.7535  -1.6376  -1.4041
    -1.2871  -1.2202  -0.8668  -0.8519  -0.8293  -0.5496  -0.4012  -0.3452
    -0.1087   0.5105   0.6350   0.9708   6.2657   6.6911   7.0882   7.3375
     8.2019   8.6464   8.7194   8.7694   8.7901   9.0934

          k = 0.4000-0.3960 0.0000 ( 19834 PWs)   bands (ev):

   -16.3525 -15.7055 -15.4540 -14.8131 -13.9069 -13.4174 -13.0629 -12.5807
   -10.7765 -10.4517 -10.0763  -9.8020  -8.8114  -8.3325  -8.1585  -7.5699
    -6.7887  -6.5501  -6.2758  -5.8579  -5.7065  -5.4125  -5.3428  -5.0396
    -4.8928  -4.8735  -4.4175  -4.2009  -4.0859  -3.9963  -3.5955  -3.3320
    -2.9611  -2.8384  -2.7246  -2.5793  -2.2421  -2.0997  -1.5656  -1.5459
    -1.3085  -1.2379  -1.0943  -0.8890  -0.7402  -0.6155  -0.2168  -0.1059
    -0.0991   0.0583   0.5402   0.8665   6.8249   7.2614   7.3256   7.5769
     7.6880   7.9796   8.0600   8.1126   8.4045   8.6439

     the Fermi energy is     3.2649 ev

!    total energy              =    -451.77455237 Ry
     estimated scf accuracy    <          4.3E-09 Ry
     smearing contrib. (-TS)   =       0.00000000 Ry
     internal energy E=F+TS    =    -451.77455237 Ry

     The total energy is F=E-TS. E is the sum of the following terms:
     one-electron contribution =   -2297.86608139 Ry
     hartree contribution      =    1189.46390293 Ry
     xc contribution           =    -117.48229725 Ry
     ewald contribution        =     922.02217337 Ry
     one-center paw contrib.   =    -147.91225002 Ry

     convergence has been achieved in  14 iterations

     negative rho (up, down):  6.917E-05 0.000E+00

     Forces acting on atoms (cartesian axes, Ry/au):

     atom    1 type  1   force =     0.00000000    0.00477085   -0.00007054
     atom    2 type  1   force =    -0.00000001    0.00564090   -0.00043525
     atom    3 type  1   force =    -0.00000003    0.00000000   -0.00148696
     atom    4 type  1   force =     0.00000000    0.00000000   -0.00228439
     atom    5 type  1   force =     0.00000000   -0.00564082    0.00043539
     atom    6 type  1   force =     0.00000002   -0.00477073    0.00007019
     atom    7 type  1   force =     0.00000000   -0.00477085   -0.00007054
     atom    8 type  1   force =    -0.00000001   -0.00564090   -0.00043525
     atom    9 type  1   force =     0.00000001   -0.00000000    0.00228429
     atom   10 type  1   force =     0.00000000   -0.00000000    0.00148705
     atom   11 type  1   force =     0.00000000    0.00564082    0.00043539
     atom   12 type  1   force =     0.00000002    0.00477073    0.00007019
     atom   13 type  2   force =     0.00000000    0.00229135   -0.00118180
     atom   14 type  2   force =     0.00000000   -0.00229135   -0.00118180
     atom   15 type  2   force =     0.00000001   -0.00229145    0.00118201
     atom   16 type  2   force =     0.00000001    0.00229145    0.00118201
     atom   17 type  1   force =     0.00000000    0.00477085   -0.00007053
     atom   18 type  1   force =     0.00000001    0.00564090   -0.00043525
     atom   19 type  1   force =     0.00000003    0.00000000   -0.00148696
     atom   20 type  1   force =     0.00000000    0.00000000   -0.00228438
     atom   21 type  1   force =     0.00000000   -0.00564086    0.00043539
     atom   22 type  1   force =    -0.00000002   -0.00477073    0.00007019
     atom   23 type  1   force =     0.00000000   -0.00477085   -0.00007053
     atom   24 type  1   force =     0.00000001   -0.00564090   -0.00043525
     atom   25 type  1   force =    -0.00000001    0.00000000    0.00228429
     atom   26 type  1   force =     0.00000000   -0.00000000    0.00148703
     atom   27 type  1   force =     0.00000000    0.00564086    0.00043539
     atom   28 type  1   force =    -0.00000002    0.00477073    0.00007019
     atom   29 type  2   force =     0.00000000    0.00229134   -0.00118180
     atom   30 type  2   force =     0.00000000   -0.00229134   -0.00118180
     atom   31 type  2   force =    -0.00000001   -0.00229145    0.00118201
     atom   32 type  2   force =    -0.00000001    0.00229145    0.00118201

     Total force =     0.022827     Total SCF correction =     0.000190


     Computing stress (Cartesian axis) and pressure


     negative rho (up, down):  6.917E-05 0.000E+00
          total   stress  (Ry/bohr**3)                   (kbar)     P=      -30.26
   0.00003327   0.00000000   0.00000000            4.89        0.00        0.00
   0.00000000  -0.00061179   0.00000000            0.00      -90.00        0.00
   0.00000000   0.00000000  -0.00003865            0.00        0.00       -5.69


     Writing all to output data dir ./tmp/slab.save/ :
     XML data file, charge density, pseudopotentials, collected wavefunctions

     init_run     :      4.49s CPU      4.78s WALL (       1 calls)
     electrons    :    124.35s CPU    137.55s WALL (       1 calls)
     forces       :      1.51s CPU      1.74s WALL (       1 calls)
     stress       :      3.71s CPU      4.44s WALL (       1 calls)

     Called by init_run:
     wfcinit      :      3.73s CPU      3.96s WALL (       1 calls)
     potinit      :      0.46s CPU      0.48s WALL (       1 calls)
     hinit0       :      0.14s CPU      0.15s WALL (       1 calls)

     Called by electrons:
     c_bands      :    102.67s CPU    113.86s WALL (      14 calls)
     sum_band     :     14.01s CPU     14.97s WALL (      14 calls)
     v_of_rho     :      2.19s CPU      2.36s WALL (      15 calls)
     newd         :      1.32s CPU      1.77s WALL (      15 calls)
     PAW_pot      :      4.19s CPU      4.60s WALL (      15 calls)
     mix_rho      :      0.28s CPU      0.34s WALL (      14 calls)

     Called by c_bands:
     init_us_2    :      1.12s CPU      1.23s WALL (     279 calls)
     cegterg      :    100.19s CPU    111.31s WALL (     126 calls)

     Called by *egterg:
     cdiaghg      :      1.74s CPU      1.77s WALL (     666 calls)
     h_psi        :     71.69s CPU     76.24s WALL (     675 calls)
     s_psi        :      8.57s CPU     10.30s WALL (     675 calls)
     g_psi        :      0.30s CPU      0.30s WALL (     540 calls)

     Called by h_psi:
     h_psi:calbec :      7.67s CPU      9.63s WALL (     675 calls)
     vloc_psi     :     54.71s CPU     55.20s WALL (     675 calls)
                                        0.00s GPU  (     675 calls)
     add_vuspsi   :      9.05s CPU     10.96s WALL (     675 calls)

     General routines
     calbec       :     11.88s CPU     14.90s WALL (     954 calls)
     fft          :      1.39s CPU      1.40s WALL (     218 calls)
     ffts         :      0.07s CPU      0.07s WALL (      29 calls)
     fftw         :     58.43s CPU     58.64s WALL (   51994 calls)
     interpolate  :      0.15s CPU      0.17s WALL (      15 calls)


     PWSCF        :   2m14.11s CPU   2m28.61s WALL


   This run was terminated on:  14:57:14   7Jul2026            

=------------------------------------------------------------------------------=
   JOB DONE.
=------------------------------------------------------------------------------=
Note: The following floating-point exceptions are signalling: IEEE_INVALID_FLAG IEEE_DIVIDE_BY_ZERO IEEE_OVERFLOW_FLAG IEEE_UNDERFLOW_FLAG
