
     Program PWSCF v.7.3.1 starts on  1Aug2026 at 12:48: 4 

     This program is part of the open-source Quantum ESPRESSO suite
     for quantum simulation of materials; please cite
         "P. Giannozzi et al., J. Phys.:Condens. Matter 21 395502 (2009);
         "P. Giannozzi et al., J. Phys.:Condens. Matter 29 465901 (2017);
         "P. Giannozzi et al., J. Chem. Phys. 152 154105 (2020);
          URL http://www.quantum-espresso.org", 
     in publications or presentations arising from this work. More details at
     http://www.quantum-espresso.org/quote

     Parallel version (MPI), running on     8 processors

     MPI processes distributed on     1 nodes
     186657 MiB available memory on the printing compute node when the environment starts

     Reading input from pw.in

     Current dimensions of program PWSCF are:
     Max number of different atomic species (ntypx) = 10
     Max number of k-points (npk) =  40000
     Max angular momentum in pseudopotentials (lmaxx) =  4
     file C.pbe-n-kjpaw_psl.1.0.0.UPF: wavefunction(s)  2S 2P renormalized
     Message from routine volume:
     axis vectors are left-handed
     Message from routine setup:
     using ibrav=0 with symmetry is DISCOURAGED, use correct ibrav instead

     R & G space division:  proc/nbgrp/npool/nimage =       8
     Subspace diagonalization in iterative solution of the eigenvalue problem:
     a serial algorithm will be used


     Parallelization info
     --------------------
     sticks:   dense  smooth     PW     G-vecs:    dense   smooth      PW
     Min         230     115     32                69814    24679    3804
     Max         231     116     33                69849    24712    3839
     Sum        1845     921    263               558689   197513   30611

     Using Slab Decomposition



     bravais-lattice index     =            0
     lattice parameter (alat)  =       4.7752  a.u.
     unit-cell volume          =    1712.2550 (a.u.)^3
     number of atoms/cell      =           16
     number of atomic types    =            2
     number of electrons       =        52.00
     number of Kohn-Sham states=           31
     kinetic-energy cutoff     =      90.0000  Ry
     charge density cutoff     =     720.0000  Ry
     scf convergence threshold =      1.0E-08
     mixing beta               =       0.3000
     number of iterations used =            8  plain     mixing
     Exchange-correlation= PBE
                           (   1   4   3   4   0   0   0)

     celldm(1)=   4.775235  celldm(2)=   0.000000  celldm(3)=   0.000000
     celldm(4)=   0.000000  celldm(5)=   0.000000  celldm(6)=   0.000000

     crystal axes: (cart. coord. in units of alat)
               a(1) = (   1.000000   0.000000   0.000000 )  
               a(2) = (   0.000000  -1.414214   0.000000 )  
               a(3) = (   0.000000   0.000000  11.119086 )  

     reciprocal axes: (cart. coord. in units 2 pi/alat)
               b(1) = (  1.000000 -0.000000 -0.000000 )  
               b(2) = ( -0.000000 -0.707107 -0.000000 )  
               b(3) = ( -0.000000 -0.000000  0.089935 )  


     PseudoPot. # 1 for C  read from file:
     ./C.pbe-n-kjpaw_psl.1.0.0.UPF
     MD5 check sum: 5d2aebdfa2cae82b50a7e79e9516da0f
     Pseudo is Projector augmented-wave + core cor, Zval =  4.0
     Generated using "atomic" code by A. Dal Corso  v.5.1
     Shape of augmentation charge: PSQ
     Using radial grid of 1073 points,  4 beta functions with: 
                l(1) =   0
                l(2) =   0
                l(3) =   1
                l(4) =   1
     Q(r) pseudized with 0 coefficients 


     PseudoPot. # 2 for H  read from file:
     ./H_ONCV_PBE-1.0.oncvpsp.upf
     MD5 check sum: 1790becc920ee074925cf490c71280fe
     Pseudo is Norm-conserving, Zval =  1.0
     Generated using ONCVPSP code by D. R. Hamann
     Using radial grid of 1166 points,  2 beta functions with: 
                l(1) =   0
                l(2) =   0

     atomic species   valence    mass     pseudopotential
     C                 4.00    12.01100     C ( 1.00)
     H                 1.00     1.00800     H ( 1.00)

      4 Sym. Ops. (no inversion) found ( 2 have fractional translation)



   Cartesian axes

     site n.     atom                  positions (alat units)
         1        C      tau(   1) = (  -0.0000000  -0.3611404   4.4247609  )
         2        C      tau(   2) = (   0.5000000  -0.6995197   4.4247609  )
         3        C      tau(   3) = (   0.0000000   0.0011500   3.9360405  )
         4        C      tau(   4) = (   0.5000000  -1.0618102   3.9360405  )
         5        C      tau(   5) = (   0.0000000  -0.3533013   3.4350066  )
         6        C      tau(   6) = (   0.5000000  -0.7073588   3.4350066  )
         7        C      tau(   7) = (   0.0000000  -0.0002520   2.9352634  )
         8        C      tau(   8) = (   0.5000000  -1.0604081   2.9352634  )
         9        C      tau(   9) = (  -0.0000000  -0.3547034   2.4342296  )
        10        C      tau(  10) = (   0.5000000  -0.7059567   2.4342296  )
        11        C      tau(  11) = (  -0.0000000   0.0075871   1.9455091  )
        12        C      tau(  12) = (   0.5000000  -1.0682472   1.9455091  )
        13        H      tau(  13) = (   0.0000000  -0.1238861   4.7893624  )
        14        H      tau(  14) = (   0.5000000  -0.9367741   4.7893624  )
        15        H      tau(  15) = (   0.0000000  -0.2296673   1.5809076  )
        16        H      tau(  16) = (   0.5000000  -0.8309929   1.5809076  )

     number of k points=    20  Marzari-Vanderbilt smearing, width (Ry)=  0.0100
                       cart. coord. in units 2pi/alat
        k(    1) = (   0.0000000  -0.0000000   0.0000000), wk =   0.0317460
        k(    2) = (   0.0000000  -0.1010153   0.0000000), wk =   0.0634921
        k(    3) = (   0.0000000  -0.2020305   0.0000000), wk =   0.0634921
        k(    4) = (   0.0000000  -0.3030458   0.0000000), wk =   0.0634921
        k(    5) = (   0.1111111  -0.0000000   0.0000000), wk =   0.0634921
        k(    6) = (   0.1111111  -0.1010153   0.0000000), wk =   0.1269841
        k(    7) = (   0.1111111  -0.2020305   0.0000000), wk =   0.1269841
        k(    8) = (   0.1111111  -0.3030458   0.0000000), wk =   0.1269841
        k(    9) = (   0.2222222  -0.0000000   0.0000000), wk =   0.0634921
        k(   10) = (   0.2222222  -0.1010153   0.0000000), wk =   0.1269841
        k(   11) = (   0.2222222  -0.2020305   0.0000000), wk =   0.1269841
        k(   12) = (   0.2222222  -0.3030458   0.0000000), wk =   0.1269841
        k(   13) = (   0.3333333  -0.0000000   0.0000000), wk =   0.0634921
        k(   14) = (   0.3333333  -0.1010153   0.0000000), wk =   0.1269841
        k(   15) = (   0.3333333  -0.2020305   0.0000000), wk =   0.1269841
        k(   16) = (   0.3333333  -0.3030458   0.0000000), wk =   0.1269841
        k(   17) = (   0.4444444  -0.0000000   0.0000000), wk =   0.0634921
        k(   18) = (   0.4444444  -0.1010153   0.0000000), wk =   0.1269841
        k(   19) = (   0.4444444  -0.2020305   0.0000000), wk =   0.1269841
        k(   20) = (   0.4444444  -0.3030458   0.0000000), wk =   0.1269841

     Dense  grid:   558689 G-vectors     FFT dimensions: (  48,  60, 480)

     Smooth grid:   197513 G-vectors     FFT dimensions: (  30,  48, 324)

     Estimated max dynamical RAM per process >     162.09 MB

     Estimated total dynamical RAM >       1.27 GB

     Initial potential from superposition of free atoms

     starting charge      51.9995, renormalised to      52.0000

     negative rho (up, down):  6.315E-05 0.000E+00
     Starting wfcs are   52 randomized atomic wfcs
     Checking if some PAW data can be deallocated... 

     total cpu time spent up to now is        1.9 secs

     Self-consistent Calculation

     iteration #  1     ecut=    90.00 Ry     beta= 0.30
     Davidson diagonalization with overlap
     ethr =  1.00E-02,  avg # of iterations =  2.8

     negative rho (up, down):  6.501E-05 0.000E+00

     total cpu time spent up to now is        5.2 secs

     total energy              =    -226.01674555 Ry
     estimated scf accuracy    <       1.18376869 Ry

     iteration #  2     ecut=    90.00 Ry     beta= 0.30
     Davidson diagonalization with overlap
     ethr =  2.28E-03,  avg # of iterations =  3.9

     negative rho (up, down):  7.838E-05 0.000E+00

     total cpu time spent up to now is        7.9 secs

     total energy              =    -225.92462039 Ry
     estimated scf accuracy    <       0.37755692 Ry

     iteration #  3     ecut=    90.00 Ry     beta= 0.30
     Davidson diagonalization with overlap
     ethr =  7.26E-04,  avg # of iterations =  8.1

     negative rho (up, down):  8.731E-05 0.000E+00

     total cpu time spent up to now is       11.2 secs

     total energy              =    -225.93932396 Ry
     estimated scf accuracy    <       0.05125623 Ry

     iteration #  4     ecut=    90.00 Ry     beta= 0.30
     Davidson diagonalization with overlap
     ethr =  9.86E-05,  avg # of iterations =  5.8

     negative rho (up, down):  9.381E-05 0.000E+00

     total cpu time spent up to now is       14.2 secs

     total energy              =    -225.94250509 Ry
     estimated scf accuracy    <       0.00522556 Ry

     iteration #  5     ecut=    90.00 Ry     beta= 0.30
     Davidson diagonalization with overlap
     c_bands:  1 eigenvalues not converged
     ethr =  1.00E-05,  avg # of iterations =  9.0

     negative rho (up, down):  9.479E-05 0.000E+00

     total cpu time spent up to now is       17.8 secs

     total energy              =    -225.94314666 Ry
     estimated scf accuracy    <       0.00055800 Ry

     iteration #  6     ecut=    90.00 Ry     beta= 0.30
     Davidson diagonalization with overlap
     c_bands:  1 eigenvalues not converged
     ethr =  1.07E-06,  avg # of iterations =  5.7

     negative rho (up, down):  9.540E-05 0.000E+00

     total cpu time spent up to now is       21.1 secs

     total energy              =    -225.94326692 Ry
     estimated scf accuracy    <       0.00007438 Ry

     iteration #  7     ecut=    90.00 Ry     beta= 0.30
     Davidson diagonalization with overlap
     ethr =  1.43E-07,  avg # of iterations =  2.8

     negative rho (up, down):  9.601E-05 0.000E+00

     total cpu time spent up to now is       23.9 secs

     total energy              =    -225.94327323 Ry
     estimated scf accuracy    <       0.00001631 Ry

     iteration #  8     ecut=    90.00 Ry     beta= 0.30
     Davidson diagonalization with overlap
     ethr =  3.14E-08,  avg # of iterations =  2.1

     negative rho (up, down):  9.615E-05 0.000E+00

     total cpu time spent up to now is       26.8 secs

     total energy              =    -225.94327521 Ry
     estimated scf accuracy    <       0.00000340 Ry

     iteration #  9     ecut=    90.00 Ry     beta= 0.30
     Davidson diagonalization with overlap
     ethr =  6.54E-09,  avg # of iterations =  2.6

     negative rho (up, down):  9.643E-05 0.000E+00

     total cpu time spent up to now is       29.8 secs

     total energy              =    -225.94327610 Ry
     estimated scf accuracy    <       0.00000106 Ry

     iteration # 10     ecut=    90.00 Ry     beta= 0.30
     Davidson diagonalization with overlap
     ethr =  2.04E-09,  avg # of iterations =  2.0

     negative rho (up, down):  9.659E-05 0.000E+00

     total cpu time spent up to now is       32.5 secs

     total energy              =    -225.94327614 Ry
     estimated scf accuracy    <       0.00000020 Ry

     iteration # 11     ecut=    90.00 Ry     beta= 0.30
     Davidson diagonalization with overlap
     ethr =  3.75E-10,  avg # of iterations =  3.0

     negative rho (up, down):  9.677E-05 0.000E+00

     total cpu time spent up to now is       35.5 secs

     total energy              =    -225.94327620 Ry
     estimated scf accuracy    <       0.00000003 Ry

     iteration # 12     ecut=    90.00 Ry     beta= 0.30
     Davidson diagonalization with overlap
     ethr =  6.25E-11,  avg # of iterations =  3.3

     negative rho (up, down):  9.688E-05 0.000E+00

     total cpu time spent up to now is       38.6 secs

     total energy              =    -225.94327620 Ry
     estimated scf accuracy    <       0.00000001 Ry

     iteration # 13     ecut=    90.00 Ry     beta= 0.30
     Davidson diagonalization with overlap
     ethr =  2.52E-11,  avg # of iterations =  2.2

     negative rho (up, down):  9.721E-05 0.000E+00

     total cpu time spent up to now is       41.4 secs

     End of self-consistent calculation

          k = 0.0000-0.0000 0.0000 ( 24747 PWs)   bands (ev):

   -19.3732 -18.3021 -16.5501 -14.3550 -12.1719 -11.0661 -10.7478  -9.8140
    -8.2303  -7.8898  -7.4551  -6.3862  -6.1545  -5.5457  -4.3241  -4.1416
    -3.8320  -3.5198  -2.2293  -1.6826  -1.2901  -0.7316   0.5358   0.5486
     0.8739   1.3910   3.5477   3.7196   4.5089   4.9404   5.6830

          k = 0.0000-0.1010 0.0000 ( 24719 PWs)   bands (ev):

   -19.1871 -18.1218 -16.3870 -14.2699 -12.9483 -12.6856 -10.2622  -9.4281
    -8.9843  -7.4841  -7.0059  -6.4372  -5.3050  -5.2857  -4.4582  -4.1483
    -3.3699  -3.2095  -2.1411  -1.9105  -1.0825  -0.7790   0.2648   0.3153
     0.6816   0.8289   3.7876   3.9225   4.7452   5.1769   5.9094

          k = 0.0000-0.2020 0.0000 ( 24670 PWs)   bands (ev):

   -18.6314 -17.5865 -15.9215 -14.8623 -14.0727 -14.0075 -10.7696 -10.1757
    -8.8687  -7.8373  -6.4724  -5.1622  -5.1615  -4.1914  -3.6285  -3.5946
    -2.9940  -2.9331  -1.8997  -1.3876  -1.3828  -0.9382  -0.4514  -0.3662
    -0.1163   0.1706   4.4109   4.5627   5.4569   5.8494   6.5789

          k = 0.0000-0.3030 0.0000 ( 24672 PWs)   bands (ev):

   -17.7155 -16.7551 -16.3917 -15.6177 -14.9974 -14.3555 -11.1564 -10.5086
    -9.0977  -8.1430  -6.3952  -5.3685  -3.8194  -3.2610  -2.7902  -2.6541
    -2.2600  -2.2321  -1.6706  -1.6198  -1.4137  -1.2852  -1.2414  -1.1665
    -0.7865  -0.6962   5.3412   5.5784   6.4548   6.6640   6.8251

          k = 0.1111-0.0000 0.0000 ( 24687 PWs)   bands (ev):

   -19.1472 -18.0787 -16.3307 -14.1410 -11.9660 -10.8653 -10.6814  -9.7556
    -8.1867  -7.6971  -7.2472  -6.2330  -6.1347  -5.3471  -5.3447  -4.5038
    -4.0694  -3.8480  -3.1694  -1.7883  -1.6696  -1.3418  -0.4296   0.0567
     0.3100   0.7675   3.7939   3.9257   4.7889   5.2208   5.9157

          k = 0.1111-0.1010 0.0000 ( 24687 PWs)   bands (ev):

   -18.9616 -17.8990 -16.1686 -14.0580 -12.7659 -12.4914 -10.1097  -9.2946
    -8.9055  -7.3824  -6.8933  -6.4179  -5.2727  -5.1392  -5.0685  -4.4486
    -4.2424  -3.2543  -3.0106  -1.9502  -1.6906  -1.3563  -0.6854  -0.6671
     0.2733   0.7030   4.0328   4.1582   5.0294   5.4597   6.1691

          k = 0.1111-0.2020 0.0000 ( 24700 PWs)   bands (ev):

   -18.4076 -17.3658 -15.7060 -14.6585 -13.8672 -13.8090 -10.5865  -9.9838
    -8.7149  -7.7007  -6.4524  -5.5223  -5.1825  -4.5573  -4.0735  -3.6018
    -3.4965  -3.2712  -2.4159  -1.9722  -1.8477  -1.7793  -1.6169  -1.2993
    -0.1331   0.4848   4.6795   4.8155   5.7442   6.1552   6.8634

          k = 0.1111-0.3030 0.0000 ( 24657 PWs)   bands (ev):

   -17.4950 -16.5383 -16.1774 -15.4068 -14.7893 -14.1523 -10.9561 -10.3138
    -8.9194  -7.9711  -6.2898  -5.2648  -4.5235  -3.7998  -3.6875  -3.2346
    -2.8893  -2.8051  -2.4829  -2.2608  -2.2010  -1.7664  -1.4697  -1.1067
    -0.6410  -0.5241   5.6576   5.8385   6.8719   7.0044   7.1989

          k = 0.2222-0.0000 0.0000 ( 24682 PWs)   bands (ev):

   -18.4724 -17.4118 -15.6761 -13.5027 -11.3513 -10.7922 -10.2645  -9.8748
    -8.3253  -7.1389  -7.0371  -6.6402  -6.3072  -6.1643  -5.8067  -4.8121
    -4.7670  -4.0655  -3.9252  -3.3577  -2.3201  -2.2352  -1.8444  -1.6290
    -1.2883   0.3584   4.5006   4.6176   5.6414   6.0351   6.6609

          k = 0.2222-0.1010 0.0000 ( 24642 PWs)   bands (ev):

   -18.2886 -17.2342 -15.5171 -13.4265 -12.2866 -11.9354  -9.8259  -9.1687
    -9.0183  -7.3656  -6.9837  -6.8465  -5.8468  -5.7785  -5.2427  -4.6534
    -4.5081  -3.9923  -3.8475  -3.1256  -2.9674  -2.8169  -2.0217  -1.8158
    -0.4585  -0.0130   4.7472   4.8676   5.8843   6.2909   6.9382

          k = 0.2222-0.2020 0.0000 ( 24641 PWs)   bands (ev):

   -17.7403 -16.7080 -15.0644 -14.0691 -13.2568 -13.2320 -10.0983  -9.4798
    -8.3541  -8.1918  -6.7791  -6.7271  -5.9083  -5.2565  -4.6002  -4.3617
    -4.0322  -3.8791  -3.7718  -3.2681  -3.1640  -2.8386  -2.3413  -1.5799
    -0.7172  -0.0908   5.4099   5.5367   6.6021   7.0032   7.6542

          k = 0.2222-0.3030 0.0000 ( 24671 PWs)   bands (ev):

   -16.8393 -15.8941 -15.5446 -14.7827 -14.1726 -13.5489 -10.3916  -9.7639
    -8.4646  -7.5303  -7.1783  -6.1398  -5.8607  -5.6024  -4.9340  -4.7509
    -4.5656  -4.2666  -3.2076  -2.3806  -2.2489  -2.2460  -2.0358  -1.7467
    -1.0273  -0.6565   6.3686   6.4964   7.6805   7.8600   7.8795

          k = 0.3333-0.0000 0.0000 ( 24674 PWs)   bands (ev):

   -17.3607 -16.3138 -14.5994 -12.4532 -12.0281 -11.0736 -10.3376  -9.4847
    -9.2694  -7.4510  -7.3753  -6.5685  -6.2836  -5.6917  -5.3686  -5.3147
    -5.2200  -4.2234  -4.0988  -3.9304  -3.8487  -3.5421  -3.1862  -3.0702
    -2.2574  -0.4107   5.5565   5.7300   6.5251   6.7152   7.0798

          k = 0.3333-0.1010 0.0000 ( 24666 PWs)   bands (ev):

   -17.1807 -16.1409 -14.4466 -12.4136 -12.2119 -11.4383 -10.1614 -10.0176
    -9.5384  -7.7057  -7.4211  -6.5606  -6.4964  -5.7287  -5.3386  -5.1234
    -5.0744  -4.5971  -4.0979  -4.0450  -3.7725  -3.6319  -2.8955  -2.4654
    -2.0634  -0.5981   5.8591   5.9831   6.9807   7.1597   7.3172

          k = 0.3333-0.2020 0.0000 ( 24703 PWs)   bands (ev):

   -16.6455 -15.6301 -14.0140 -13.2645 -12.4188 -12.2714 -10.1823  -9.7416
    -9.6686  -8.3171  -7.5628  -7.1392  -6.9251  -6.6278  -5.8839  -5.5324
    -4.9165  -3.8817  -3.6830  -3.5900  -3.3688  -3.0123  -2.8825  -2.5611
    -1.1990  -1.0897   6.4880   6.6069   7.9298   8.0137   8.1949

          k = 0.3333-0.3030 0.0000 ( 24745 PWs)   bands (ev):

   -15.7738 -14.8512 -14.5462 -13.7889 -13.1821 -12.5759  -9.7397  -9.4515
    -9.1009  -8.9044  -8.3293  -7.9043  -7.1278  -6.7709  -6.2468  -6.1336
    -4.8207  -4.1570  -3.6289  -3.4746  -2.8191  -2.4637  -2.1571  -1.9337
    -1.6560  -1.0945   7.2584   7.2860   8.6659   8.6982   9.0215

          k = 0.4444-0.0000 0.0000 ( 24638 PWs)   bands (ev):

   -15.8402 -14.8141 -13.9833 -13.1308 -12.9869 -11.3455 -11.0217  -9.2783
    -8.9452  -7.8915  -7.2195  -6.4089  -6.1534  -5.7559  -5.2793  -4.9107
    -4.8753  -4.7570  -4.5109  -4.3953  -4.3819  -4.2879  -4.2540  -3.2685
    -2.7090  -1.4927   6.2885   6.8889   7.0244   7.3155   7.4675

          k = 0.4444-0.1010 0.0000 ( 24706 PWs)   bands (ev):

   -15.6700 -14.6522 -13.8532 -12.9940 -12.8654 -11.2840 -10.9136  -9.2577
    -9.2518  -9.1338  -7.5871  -7.4273  -6.5273  -5.8496  -5.3858  -5.1546
    -4.8400  -4.5730  -4.2593  -4.1575  -4.0669  -3.8131  -3.6065  -3.1244
    -2.5907  -1.5092   6.8938   6.9117   7.0125   7.5486   7.9695

          k = 0.4444-0.2020 0.0000 ( 24727 PWs)   bands (ev):

   -15.1722 -14.1828 -13.5596 -12.6741 -12.5365 -11.2305 -10.7284 -10.4498
   -10.0392  -9.3337  -8.9933  -8.5667  -6.7958  -6.7341  -5.7103  -5.5248
    -4.9960  -4.7524  -4.2168  -3.6005  -3.3653  -3.2853  -2.8368  -2.3926
    -2.1557  -1.5814   7.4493   7.5530   7.8746   8.0351   8.5929

          k = 0.4444-0.3030 0.0000 ( 24736 PWs)   bands (ev):

   -14.4092 -13.6669 -13.4443 -12.7650 -11.9829 -11.4489 -11.1960 -10.4984
   -10.3217 -10.0699  -9.6095  -9.4803  -7.1315  -6.7990  -6.1804  -5.8340
    -5.1724  -4.8925  -4.0872  -3.7474  -3.2014  -3.0959  -2.0481  -1.9230
    -1.7001  -1.6283   7.9809   7.9955   8.5953   8.7180   9.6539

     the Fermi energy is     2.0853 ev

!    total energy              =    -225.94327620 Ry
     estimated scf accuracy    <          6.8E-10 Ry
     smearing contrib. (-TS)   =       0.00000000 Ry
     internal energy E=F+TS    =    -225.94327620 Ry

     The total energy is F=E-TS. E is the sum of the following terms:
     one-electron contribution =   -4618.58848212 Ry
     hartree contribution      =    2326.81912336 Ry
     xc contribution           =     -59.13950481 Ry
     ewald contribution        =    2198.92262679 Ry
     one-center paw contrib.   =     -73.95703942 Ry

     convergence has been achieved in  13 iterations

     negative rho (up, down):  9.721E-05 0.000E+00

     Forces acting on atoms (cartesian axes, Ry/au):

     atom    1 type  1   force =     0.00000000    0.00002918    0.00006621
     atom    2 type  1   force =     0.00000000   -0.00002918    0.00006621
     atom    3 type  1   force =     0.00000000    0.00006289    0.00001147
     atom    4 type  1   force =     0.00000000   -0.00006289    0.00001147
     atom    5 type  1   force =     0.00000000   -0.00006480    0.00000395
     atom    6 type  1   force =     0.00000000    0.00006480    0.00000395
     atom    7 type  1   force =     0.00000000    0.00006477   -0.00000390
     atom    8 type  1   force =     0.00000000   -0.00006477   -0.00000390
     atom    9 type  1   force =     0.00000000   -0.00006290   -0.00001149
     atom   10 type  1   force =     0.00000000    0.00006290   -0.00001149
     atom   11 type  1   force =     0.00000000   -0.00002925   -0.00006618
     atom   12 type  1   force =     0.00000000    0.00002925   -0.00006618
     atom   13 type  2   force =     0.00000000   -0.00002684   -0.00009741
     atom   14 type  2   force =     0.00000000    0.00002684   -0.00009741
     atom   15 type  2   force =     0.00000000    0.00002684    0.00009736
     atom   16 type  2   force =     0.00000000   -0.00002684    0.00009736

     Total force =     0.000308     Total SCF correction =     0.000043
     SCF correction compared to forces is large: reduce conv_thr to get better values


     Computing stress (Cartesian axis) and pressure


     negative rho (up, down):  9.721E-05 0.000E+00
          total   stress  (Ry/bohr**3)                   (kbar)     P=       15.02
   0.00009904   0.00000000   0.00000000           14.57        0.00        0.00
   0.00000000   0.00020849   0.00000000            0.00       30.67        0.00
   0.00000000   0.00000000  -0.00000131            0.00        0.00       -0.19


     Writing all to output data dir /tmp/qe/slab.save/ :
     XML data file, charge density, pseudopotentials, collected wavefunctions

     init_run     :      1.72s CPU      1.83s WALL (       1 calls)
     electrons    :     38.91s CPU     39.51s WALL (       1 calls)
     forces       :      0.51s CPU      0.57s WALL (       1 calls)
     stress       :      5.76s CPU      5.83s WALL (       1 calls)

     Called by init_run:
     wfcinit      :      1.34s CPU      1.37s WALL (       1 calls)
     potinit      :      0.16s CPU      0.18s WALL (       1 calls)
     hinit0       :      0.06s CPU      0.08s WALL (       1 calls)

     Called by electrons:
     c_bands      :     30.06s CPU     30.34s WALL (      13 calls)
     sum_band     :      6.10s CPU      6.27s WALL (      13 calls)
     v_of_rho     :      1.21s CPU      1.25s WALL (      14 calls)
     newd         :      0.65s CPU      0.77s WALL (      14 calls)
     PAW_pot      :      0.87s CPU      0.87s WALL (      14 calls)
     mix_rho      :      0.11s CPU      0.12s WALL (      13 calls)

     Called by c_bands:
     init_us_2    :      1.04s CPU      1.06s WALL (     580 calls)
     cegterg      :     28.57s CPU     28.83s WALL (     260 calls)

     Called by *egterg:
     cdiaghg      :      1.18s CPU      1.19s WALL (    1326 calls)
     h_psi        :     22.71s CPU     22.95s WALL (    1346 calls)
     s_psi        :      1.42s CPU      1.43s WALL (    1346 calls)
     g_psi        :      0.15s CPU      0.15s WALL (    1066 calls)

     Called by h_psi:
     h_psi:calbec :      1.39s CPU      1.41s WALL (    1346 calls)
     vloc_psi     :     19.36s CPU     19.55s WALL (    1346 calls)
     add_vuspsi   :      1.79s CPU      1.80s WALL (    1346 calls)

     General routines
     calbec       :      1.91s CPU      1.94s WALL (    1706 calls)
     fft          :      0.53s CPU      0.60s WALL (     205 calls)
     ffts         :      0.02s CPU      0.02s WALL (      27 calls)
     fftw         :     16.44s CPU     16.59s WALL (   54032 calls)
     interpolate  :      0.04s CPU      0.05s WALL (      14 calls)

     Parallel routines

     PWSCF        :     47.10s CPU     48.07s WALL


   This run was terminated on:  12:48:52   1Aug2026            

=------------------------------------------------------------------------------=
   JOB DONE.
=------------------------------------------------------------------------------=
Note: The following floating-point exceptions are signalling: IEEE_UNDERFLOW_FLAG IEEE_DENORMAL
Note: The following floating-point exceptions are signalling: IEEE_UNDERFLOW_FLAG IEEE_DENORMAL
Note: The following floating-point exceptions are signalling: IEEE_UNDERFLOW_FLAG IEEE_DENORMAL
Note: The following floating-point exceptions are signalling: IEEE_UNDERFLOW_FLAG IEEE_DENORMAL
Note: The following floating-point exceptions are signalling: IEEE_UNDERFLOW_FLAG IEEE_DENORMAL
Note: The following floating-point exceptions are signalling: IEEE_UNDERFLOW_FLAG IEEE_DENORMAL
Note: The following floating-point exceptions are signalling: IEEE_UNDERFLOW_FLAG IEEE_DENORMAL
Note: The following floating-point exceptions are signalling: IEEE_UNDERFLOW_FLAG IEEE_DENORMAL
