
     Program PWSCF v.7.3.1 starts on  1Aug2026 at 13: 7:11 

     This program is part of the open-source Quantum ESPRESSO suite
     for quantum simulation of materials; please cite
         "P. Giannozzi et al., J. Phys.:Condens. Matter 21 395502 (2009);
         "P. Giannozzi et al., J. Phys.:Condens. Matter 29 465901 (2017);
         "P. Giannozzi et al., J. Chem. Phys. 152 154105 (2020);
          URL http://www.quantum-espresso.org", 
     in publications or presentations arising from this work. More details at
     http://www.quantum-espresso.org/quote

     Parallel version (MPI), running on     8 processors

     MPI processes distributed on     1 nodes
     187585 MiB available memory on the printing compute node when the environment starts

     Reading input from pw.in

     Current dimensions of program PWSCF are:
     Max number of different atomic species (ntypx) = 10
     Max number of k-points (npk) =  40000
     Max angular momentum in pseudopotentials (lmaxx) =  4
     file C.pbe-n-kjpaw_psl.1.0.0.UPF: wavefunction(s)  2S 2P renormalized
     Message from routine volume:
     axis vectors are left-handed
     Message from routine setup:
     using ibrav=0 with symmetry is DISCOURAGED, use correct ibrav instead

     R & G space division:  proc/nbgrp/npool/nimage =       8
     Subspace diagonalization in iterative solution of the eigenvalue problem:
     a serial algorithm will be used


     Parallelization info
     --------------------
     sticks:   dense  smooth     PW     G-vecs:    dense   smooth      PW
     Min         326     163     46                82368    29117    4434
     Max         327     164     47                82391    29133    4453
     Sum        2609    1305    373               658995   233023   35559

     Using Slab Decomposition



     bravais-lattice index     =            0
     lattice parameter (alat)  =       4.7752  a.u.
     unit-cell volume          =    2019.7186 (a.u.)^3
     number of atoms/cell      =           36
     number of atomic types    =            2
     number of electrons       =       132.00
     number of Kohn-Sham states=           79
     kinetic-energy cutoff     =      90.0000  Ry
     charge density cutoff     =     720.0000  Ry
     scf convergence threshold =      1.0E-08
     mixing beta               =       0.3000
     number of iterations used =            8  plain     mixing
     energy convergence thresh.=      1.0E-05
     force convergence thresh. =      1.0E-04
     Exchange-correlation= PBE
                           (   1   4   3   4   0   0   0)
     nstep                     =           50


     celldm(1)=   4.775235  celldm(2)=   0.000000  celldm(3)=   0.000000
     celldm(4)=   0.000000  celldm(5)=   0.000000  celldm(6)=   0.000000

     crystal axes: (cart. coord. in units of alat)
               a(1) = (   1.000000   0.000000   0.000000 )  
               a(2) = (   0.000000  -2.000000   0.000000 )  
               a(3) = (   0.000000   0.000000   9.274201 )  

     reciprocal axes: (cart. coord. in units 2 pi/alat)
               b(1) = (  1.000000 -0.000000 -0.000000 )  
               b(2) = ( -0.000000 -0.500000 -0.000000 )  
               b(3) = ( -0.000000 -0.000000  0.107826 )  


     PseudoPot. # 1 for C  read from file:
     ./C.pbe-n-kjpaw_psl.1.0.0.UPF
     MD5 check sum: 5d2aebdfa2cae82b50a7e79e9516da0f
     Pseudo is Projector augmented-wave + core cor, Zval =  4.0
     Generated using "atomic" code by A. Dal Corso  v.5.1
     Shape of augmentation charge: PSQ
     Using radial grid of 1073 points,  4 beta functions with: 
                l(1) =   0
                l(2) =   0
                l(3) =   1
                l(4) =   1
     Q(r) pseudized with 0 coefficients 


     PseudoPot. # 2 for H  read from file:
     ./H_ONCV_PBE-1.0.oncvpsp.upf
     MD5 check sum: 1790becc920ee074925cf490c71280fe
     Pseudo is Norm-conserving, Zval =  1.0
     Generated using ONCVPSP code by D. R. Hamann
     Using radial grid of 1166 points,  2 beta functions with: 
                l(1) =   0
                l(2) =   0

     atomic species   valence    mass     pseudopotential
     C                 4.00    12.01100     C ( 1.00)
     H                 1.00     1.00800     H ( 1.00)

      4 Sym. Ops., with inversion, found ( 2 have fractional translation)



   Cartesian axes

     site n.     atom                  positions (alat units)
         1        C      tau(   1) = (   0.0000000  -0.6834123   7.2887508  )
         2        C      tau(   2) = (   0.5000000  -0.5000000   6.9351974  )
         3        C      tau(   3) = (   0.5000000   0.0000000   6.5816441  )
         4        C      tau(   4) = (   0.0000000   0.0000000   6.2280907  )
         5        C      tau(   5) = (   0.0000000  -0.5000000   5.8745373  )
         6        C      tau(   6) = (   0.5000000  -0.5000000   5.5209839  )
         7        C      tau(   7) = (   0.5000000   0.0000000   5.1674305  )
         8        C      tau(   8) = (   0.0000000   0.0000000   4.8138771  )
         9        C      tau(   9) = (   0.0000000  -0.5000000   4.4603237  )
        10        C      tau(  10) = (   0.5000000  -0.5000000   4.1067703  )
        11        C      tau(  11) = (   0.5000000   0.0000000   3.7532169  )
        12        C      tau(  12) = (   0.0000000   0.0000000   3.3996635  )
        13        C      tau(  13) = (   0.0000000  -0.5000000   3.0461101  )
        14        C      tau(  14) = (   0.5000000  -0.5000000   2.6925568  )
        15        C      tau(  15) = (   0.5000000   0.0000000   2.3390034  )
        16        C      tau(  16) = (   0.0000000   0.1834123   1.9854500  )
        17        C      tau(  17) = (   0.0000000  -1.3165877   7.2887508  )
        18        C      tau(  18) = (   0.5000000  -1.5000000   6.9351974  )
        19        C      tau(  19) = (   0.5000000  -1.0000000   6.5816441  )
        20        C      tau(  20) = (   0.0000000  -1.0000000   6.2280907  )
        21        C      tau(  21) = (   0.0000000  -1.5000000   5.8745373  )
        22        C      tau(  22) = (   0.5000000  -1.5000000   5.5209839  )
        23        C      tau(  23) = (   0.5000000  -1.0000000   5.1674305  )
        24        C      tau(  24) = (   0.0000000  -1.0000000   4.8138771  )
        25        C      tau(  25) = (   0.0000000  -1.5000000   4.4603237  )
        26        C      tau(  26) = (   0.5000000  -1.5000000   4.1067703  )
        27        C      tau(  27) = (   0.5000000  -1.0000000   3.7532169  )
        28        C      tau(  28) = (   0.0000000  -1.0000000   3.3996635  )
        29        C      tau(  29) = (   0.0000000  -1.5000000   3.0461101  )
        30        C      tau(  30) = (   0.5000000  -1.5000000   2.6925568  )
        31        C      tau(  31) = (   0.5000000  -1.0000000   2.3390034  )
        32        C      tau(  32) = (   0.0000000  -1.1834123   1.9854500  )
        33        H      tau(  33) = (   0.0000000  -0.5283379   7.6912622  )
        34        H      tau(  34) = (   0.0000000  -1.4716622   7.6912622  )
        35        H      tau(  35) = (   0.0000000   0.0283379   1.5829386  )
        36        H      tau(  36) = (   0.0000000  -1.0283379   1.5829386  )

     number of k points=    15  Marzari-Vanderbilt smearing, width (Ry)=  0.0100
                       cart. coord. in units 2pi/alat
        k(    1) = (   0.0000000  -0.0000000   0.0000000), wk =   0.0444444
        k(    2) = (   0.0000000  -0.1000000   0.0000000), wk =   0.0888889
        k(    3) = (   0.0000000  -0.2000000   0.0000000), wk =   0.0888889
        k(    4) = (   0.1111111  -0.0000000   0.0000000), wk =   0.0888889
        k(    5) = (   0.1111111  -0.1000000   0.0000000), wk =   0.1777778
        k(    6) = (   0.1111111  -0.2000000   0.0000000), wk =   0.1777778
        k(    7) = (   0.2222222  -0.0000000   0.0000000), wk =   0.0888889
        k(    8) = (   0.2222222  -0.1000000   0.0000000), wk =   0.1777778
        k(    9) = (   0.2222222  -0.2000000   0.0000000), wk =   0.1777778
        k(   10) = (   0.3333333  -0.0000000   0.0000000), wk =   0.0888889
        k(   11) = (   0.3333333  -0.1000000   0.0000000), wk =   0.1777778
        k(   12) = (   0.3333333  -0.2000000   0.0000000), wk =   0.1777778
        k(   13) = (   0.4444444  -0.0000000   0.0000000), wk =   0.0888889
        k(   14) = (   0.4444444  -0.1000000   0.0000000), wk =   0.1777778
        k(   15) = (   0.4444444  -0.2000000   0.0000000), wk =   0.1777778

     Dense  grid:   658995 G-vectors     FFT dimensions: (  45,  96, 384)

     Smooth grid:   233023 G-vectors     FFT dimensions: (  30,  60, 270)

     Estimated max dynamical RAM per process >     309.59 MB

     Estimated total dynamical RAM >       2.42 GB

     Check: negative core charge=   -0.000001

     Initial potential from superposition of free atoms

     starting charge     131.9986, renormalised to     132.0000
     Starting wfcs are  132 randomized atomic wfcs
     Checking if some PAW data can be deallocated... 

     total cpu time spent up to now is        4.2 secs

     Self-consistent Calculation

     iteration #  1     ecut=    90.00 Ry     beta= 0.30
     Davidson diagonalization with overlap
     ethr =  1.00E-02,  avg # of iterations =  2.6

     negative rho (up, down):  1.700E-08 0.000E+00

     total cpu time spent up to now is       12.1 secs

     total energy              =    -594.63850182 Ry
     estimated scf accuracy    <       2.23129732 Ry

     iteration #  2     ecut=    90.00 Ry     beta= 0.30
     Davidson diagonalization with overlap
     ethr =  1.69E-03,  avg # of iterations =  4.7

     negative rho (up, down):  1.642E-06 0.000E+00

     total cpu time spent up to now is       18.8 secs

     total energy              =    -594.38538698 Ry
     estimated scf accuracy    <       0.80989441 Ry

     iteration #  3     ecut=    90.00 Ry     beta= 0.30
     Davidson diagonalization with overlap
     ethr =  6.14E-04,  avg # of iterations =  5.1

     negative rho (up, down):  1.559E-06 0.000E+00

     total cpu time spent up to now is       25.7 secs

     total energy              =    -594.42510753 Ry
     estimated scf accuracy    <       0.07707927 Ry

     iteration #  4     ecut=    90.00 Ry     beta= 0.30
     Davidson diagonalization with overlap
     c_bands:  1 eigenvalues not converged
     ethr =  5.84E-05,  avg # of iterations = 11.3

     negative rho (up, down):  1.470E-06 0.000E+00

     total cpu time spent up to now is       35.5 secs

     total energy              =    -594.43278864 Ry
     estimated scf accuracy    <       0.01087588 Ry

     iteration #  5     ecut=    90.00 Ry     beta= 0.30
     Davidson diagonalization with overlap
     c_bands:  2 eigenvalues not converged
     ethr =  8.24E-06,  avg # of iterations =  9.3

     negative rho (up, down):  1.971E-06 0.000E+00

     total cpu time spent up to now is       44.8 secs

     total energy              =    -594.43439986 Ry
     estimated scf accuracy    <       0.00188267 Ry

     iteration #  6     ecut=    90.00 Ry     beta= 0.30
     Davidson diagonalization with overlap
     ethr =  1.43E-06,  avg # of iterations =  7.6

     negative rho (up, down):  2.023E-06 0.000E+00

     total cpu time spent up to now is       53.3 secs

     total energy              =    -594.43453374 Ry
     estimated scf accuracy    <       0.00053412 Ry

     iteration #  7     ecut=    90.00 Ry     beta= 0.30
     Davidson diagonalization with overlap
     ethr =  4.05E-07,  avg # of iterations =  2.1

     negative rho (up, down):  2.103E-06 0.000E+00

     total cpu time spent up to now is       60.0 secs

     total energy              =    -594.43461176 Ry
     estimated scf accuracy    <       0.00003694 Ry

     iteration #  8     ecut=    90.00 Ry     beta= 0.30
     Davidson diagonalization with overlap
     ethr =  2.80E-08,  avg # of iterations =  2.8

     negative rho (up, down):  2.061E-06 0.000E+00

     total cpu time spent up to now is       67.1 secs

     total energy              =    -594.43461874 Ry
     estimated scf accuracy    <       0.00000854 Ry

     iteration #  9     ecut=    90.00 Ry     beta= 0.30
     Davidson diagonalization with overlap
     ethr =  6.47E-09,  avg # of iterations =  2.3

     negative rho (up, down):  2.056E-06 0.000E+00

     total cpu time spent up to now is       73.6 secs

     total energy              =    -594.43462005 Ry
     estimated scf accuracy    <       0.00000120 Ry

     iteration # 10     ecut=    90.00 Ry     beta= 0.30
     Davidson diagonalization with overlap
     ethr =  9.10E-10,  avg # of iterations =  3.4

     negative rho (up, down):  2.053E-06 0.000E+00

     total cpu time spent up to now is       81.3 secs

     total energy              =    -594.43462028 Ry
     estimated scf accuracy    <       0.00000049 Ry

     iteration # 11     ecut=    90.00 Ry     beta= 0.30
     Davidson diagonalization with overlap
     ethr =  3.70E-10,  avg # of iterations =  2.1

     negative rho (up, down):  2.059E-06 0.000E+00

     total cpu time spent up to now is       88.0 secs

     total energy              =    -594.43462038 Ry
     estimated scf accuracy    <       0.00000003 Ry

     iteration # 12     ecut=    90.00 Ry     beta= 0.30
     Davidson diagonalization with overlap
     ethr =  2.42E-11,  avg # of iterations =  3.0

     negative rho (up, down):  2.087E-06 0.000E+00

     total cpu time spent up to now is       95.1 secs

     End of self-consistent calculation

          k = 0.0000-0.0000 0.0000 ( 29123 PWs)   bands (ev):

   -14.3555 -13.9543 -13.3119 -12.4560 -11.4330 -10.3582  -9.9286  -9.8759
    -9.6245  -9.4715  -9.1833  -9.0072  -8.5250  -8.0375  -8.0329  -7.2709
    -6.0071  -5.8481  -5.5926  -4.7986  -4.7242  -3.9805  -3.4940  -3.4654
    -2.2319  -2.1412  -2.1334  -0.4339  -0.4075  -0.4073   0.7671   0.7815
     0.9911   1.0595   1.1965   1.2730   1.3198   1.8451   1.8618   2.3284
     2.5196   2.7381   2.8173   3.0186   3.3772   3.6325   3.6847   3.8563
     3.9047   3.9533   3.9822   4.0326   4.0357   4.0768   4.0969   4.3376
     4.5491   4.9157   5.3625   5.7276   5.8861   5.9547   5.9547   6.4163
     6.5856   6.6176   9.3364   9.8804  11.1554  11.1679  11.4134  11.4935
    11.7986  11.9351  12.2289  12.3663  12.4026  12.5594  12.6062

          k = 0.0000-0.1000 0.0000 ( 29153 PWs)   bands (ev):

   -14.1726 -13.7745 -13.1400 -12.3078 -11.5215 -11.3427 -11.0064 -10.4920
    -9.9837  -9.4454  -8.7746  -8.3330  -8.1787  -7.7387  -7.6854  -7.0391
    -5.7028  -5.4525  -5.3733  -4.5844  -4.4194  -3.9041  -3.3614  -3.1965
    -2.3161  -2.0699  -1.5573  -0.6827  -0.5387  -0.1437   0.0116   0.3591
     0.8180   0.9327   1.0503   1.2521   1.3412   1.3870   1.9950   2.0941
     2.2408   2.6540   2.7563   2.8468   2.9654   3.2096   3.3134   3.5417
     3.5634   3.8199   3.8475   3.9961   4.0930   4.1510   4.4804   4.4883
     4.7990   5.0074   5.0998   5.2536   5.7766   5.9943   6.0307   6.1518
     6.1875   6.5931   9.5571  10.0955  11.7288  11.7789  11.7803  12.0897
    12.2059  12.2282  12.4634  12.7864  12.8127  12.8137  12.8985

          k = 0.0000-0.2000 0.0000 ( 29117 PWs)   bands (ev):

   -13.6268 -13.2429 -12.7441 -12.6428 -12.3496 -11.9242 -11.5679 -10.9674
   -10.4607  -9.7705  -9.1681  -8.4485  -7.8359  -7.2475  -6.7310  -6.5086
    -4.9814  -4.6214  -4.5232  -4.1697  -3.9058  -3.5857  -3.0096  -2.7047
    -2.1396  -1.9292  -1.5899  -1.4252  -1.0689  -0.8884  -0.5626  -0.0534
     0.0952   0.4589   0.9137   1.2207   1.3753   1.6167   1.7613   2.0041
     2.0752   2.3755   2.4141   2.5058   2.5966   2.9330   3.0851   3.1729
     3.1827   3.6402   3.8202   3.9947   4.1150   4.2434   4.4169   4.5056
     4.6379   5.0509   5.0654   5.2790   5.3786   5.4641   5.8237   6.0691
     6.3389   6.4926  10.1755  10.6329  11.1552  11.4543  12.1058  12.3169
    12.3331  12.6022  12.7620  13.0678  13.2293  13.2942  13.3964

          k = 0.1111-0.0000 0.0000 ( 29137 PWs)   bands (ev):

   -14.1289 -13.7285 -13.0875 -12.2339 -11.2144 -10.1445  -9.7133  -9.6607
    -9.4131  -9.2604  -8.9762  -8.8027  -8.3247  -7.8295  -7.8252  -7.0836
    -5.8491  -5.6501  -5.4591  -4.6194  -4.5506  -3.8791  -3.3425  -3.3178
    -2.2555  -2.0403  -2.0375  -0.8327  -0.3246  -0.3138  -0.1939   0.2494
     0.5000   0.9283   1.0196   1.0662   1.2791   1.4015   1.6972   1.9576
     2.1866   2.3969   2.4317   2.7129   2.9672   2.9679   3.0434   3.0815
     3.1749   3.1950   3.2277   3.4131   3.5656   3.5893   3.7263   3.9186
     4.3062   4.4582   4.9812   5.0277   5.0763   5.3613   5.3942   5.9788
     6.1826   6.3359   9.5698  10.0887  11.8251  11.8725  12.0252  12.0630
    12.4021  12.4211  12.6038  12.7696  12.8733  13.0770  13.3552

          k = 0.1111-0.1000 0.0000 ( 29122 PWs)   bands (ev):

   -13.9463 -13.5491 -12.9159 -12.0858 -11.3011 -11.1236 -10.7893 -10.2779
    -9.7729  -9.2390  -8.5731  -8.1331  -7.9742  -7.5323  -7.4815  -6.8496
    -5.5600  -5.2689  -5.2207  -4.4178  -4.2462  -3.8032  -3.2387  -3.0430
    -2.2723  -2.0028  -1.4200  -0.8447  -0.5166  -0.1355  -0.0200   0.1070
     0.3152   0.4458   0.5718   0.9706   1.1675   1.3047   1.4126   1.5124
     2.0372   2.0714   2.1260   2.2752   2.5111   2.6353   2.7387   2.8706
     3.0907   3.2907   3.3500   3.5624   3.6693   3.8097   3.9098   4.0511
     4.2327   4.4519   4.5237   5.0114   5.1289   5.3047   5.3246   5.4823
     6.0882   6.1686   9.7868  10.2933  12.0128  12.3685  12.4235  12.7159
    12.7425  12.7825  12.8075  13.0131  13.0971  13.3357  13.3651

          k = 0.1111-0.2000 0.0000 ( 29082 PWs)   bands (ev):

   -13.4015 -13.0184 -12.5202 -12.4196 -12.1275 -11.7031 -11.3499 -10.7512
   -10.2484  -9.5620  -8.9645  -8.2503  -7.6423  -7.0549  -6.5362  -6.3119
    -4.8902  -4.4712  -4.3669  -4.0474  -3.7644  -3.4339  -2.8569  -2.5626
    -1.9707  -1.7888  -1.4391  -1.3012  -0.9503  -0.7848  -0.5563  -0.1175
     0.1214   0.2778   0.4744   0.5121   0.9106   1.0421   1.1620   1.3014
     1.3826   1.5396   1.9308   1.9581   2.1721   2.3798   2.5579   2.6560
     3.0221   3.0568   3.1666   3.5801   3.5885   3.6583   4.0286   4.1322
     4.3764   4.5315   4.7287   4.7664   5.1662   5.2622   5.2977   5.4771
     5.5436   5.6482  10.3967  10.8126  11.3513  11.6021  12.0723  12.3285
    12.7841  13.0487  13.1829  13.3479  13.7190  13.8197  13.8879

          k = 0.2222-0.0000 0.0000 ( 29090 PWs)   bands (ev):

   -13.4524 -13.0548 -12.4190 -11.5738 -10.5679  -9.5153  -9.0721  -9.0201
    -8.7855  -8.6344  -8.3629  -8.1977  -7.7516  -7.2127  -7.2093  -6.5783
    -5.6854  -5.0875  -5.0510  -4.1524  -4.0892  -3.9080  -3.1237  -2.9786
    -2.9612  -2.4027  -2.0406  -1.9083  -1.9081  -1.2633  -1.0915  -0.2706
    -0.1233  -0.0201   0.1896   0.5083   0.5429   0.8607   0.8654   1.0972
     1.0995   1.3687   1.5030   1.6544   1.6950   1.7427   1.8905   2.2781
     2.3695   2.4048   2.5108   2.6153   2.7510   2.8143   3.0003   3.0844
     3.3047   3.4302   3.7131   4.0080   4.4684   4.5812   5.0409   5.1767
     5.3257   6.0335  10.2197  10.6065  12.2016  12.2136  12.5428  12.7018
    12.8901  13.1915  13.3185  13.3838  13.4266  13.4687  13.5795

          k = 0.2222-0.1000 0.0000 ( 29080 PWs)   bands (ev):

   -13.2709 -12.8765 -12.2483 -11.4260 -10.6446 -10.4728 -10.1444  -9.6430
    -9.1527  -8.6332  -7.9864  -7.5565  -7.3706  -6.9248  -6.8809  -6.3293
    -5.4565  -4.8064  -4.7106  -4.0402  -3.8218  -3.7928  -3.0940  -2.9538
    -2.6256  -2.2263  -1.8925  -1.8165  -1.1662  -1.0945  -1.0019  -0.7260
    -0.4067  -0.2116   0.0429   0.1509   0.2931   0.6396   0.7524   0.8413
     1.0479   1.0599   1.4028   1.5049   1.5720   1.7301   1.9246   1.9828
     2.1764   2.3971   2.5185   2.5902   2.8340   2.9008   2.9953   3.1071
     3.2734   3.3984   3.4459   3.8168   4.2377   4.2800   4.7430   5.1014
     5.3321   5.4571  10.4151  10.7770  12.1183  12.2871  12.4692  12.5432
    12.8134  13.0514  13.2790  13.5796  13.6927  13.7163  13.8172

          k = 0.2222-0.2000 0.0000 ( 29067 PWs)   bands (ev):

   -12.7293 -12.3488 -11.8524 -11.7545 -11.4658 -11.0449 -10.7020 -10.1103
    -9.6221  -8.9495  -8.3730  -7.6798  -7.0962  -6.5131  -5.9805  -5.7400
    -4.8843  -4.2804  -4.0530  -3.8219  -3.5303  -3.1057  -2.7263  -2.2946
    -1.9280  -1.6265  -1.5136  -1.4107  -1.3068  -1.2750  -1.2238  -0.8442
    -0.7176  -0.6047  -0.5373  -0.3889  -0.2763   0.0146   0.1591   0.4628
     0.5556   0.7171   0.8309   1.1411   1.2807   1.5613   1.8045   1.9802
     2.1931   2.2800   2.4730   2.5492   2.8027   3.0252   3.0832   3.2551
     3.3900   3.5094   3.5496   3.8505   3.9204   4.1833   4.3613   4.5965
     4.8906   4.9386  10.9056  11.1813  11.4925  11.7164  11.7545  12.1682
    12.3988  12.9270  12.9897  13.0794  13.7368  13.9559  14.2911

          k = 0.3333-0.0000 0.0000 ( 29134 PWs)   bands (ev):

   -12.3382 -11.9475 -11.3252 -10.5047  -9.5443  -8.5606  -8.0288  -7.9773
    -7.7932  -7.6428  -7.4471  -7.2564  -7.1757  -6.4478  -6.4057  -6.2121
    -6.2116  -4.8961  -4.8205  -4.3900  -4.3784  -4.1204  -3.7327  -3.6896
    -3.4466  -3.2194  -3.2017  -2.3906  -2.3264  -2.3259  -2.2992  -1.2808
    -1.0772  -0.8969  -0.8830  -0.8609  -0.8168  -0.3662  -0.3403   0.1939
     0.2074   0.3123   0.5181   1.0606   1.0752   1.1914   1.1976   1.6768
     1.7139   1.7232   2.0650   2.0794   2.0816   2.3847   2.4145   2.7298
     2.7941   3.2772   3.3133   3.6064   3.9171   4.2305   4.3257   4.5319
     5.0637   5.4171  11.1529  11.3132  11.9925  12.0460  12.4012  12.4753
    12.6719  12.6817  13.3861  13.4346  13.4683  13.7393  13.9054

          k = 0.3333-0.1000 0.0000 ( 29139 PWs)   bands (ev):

   -12.1586 -11.7711 -11.1563 -10.3565  -9.5742  -9.4215  -9.0995  -8.6283
    -8.2087  -7.7223  -7.2586  -6.9351  -6.4988  -6.2479  -6.2068  -5.8538
    -5.8300  -4.7511  -4.6848  -4.5201  -4.4521  -4.1134  -3.9301  -3.5501
    -3.2410  -2.8619  -2.4343  -2.2035  -2.1717  -1.8885  -1.8348  -1.7816
    -1.4715  -1.2920  -1.0021  -0.9854  -0.7241  -0.3363  -0.2518   0.2326
     0.4561   0.5890   0.7539   1.1580   1.2215   1.4475   1.4548   1.5689
     1.6221   1.7465   1.8420   1.9230   2.0817   2.1324   2.1691   2.3715
     2.6911   2.8645   2.9591   3.4475   3.4935   3.8003   4.2720   4.3991
     4.4677   4.6536  11.1772  11.2755  11.7028  12.0230  12.2042  12.8195
    12.9443  13.0312  13.4896  13.6084  13.6148  13.8614  14.0367

          k = 0.3333-0.2000 0.0000 ( 29094 PWs)   bands (ev):

   -11.6227 -11.2487 -10.7543 -10.6653 -10.3804  -9.9724  -9.6518  -9.0811
    -8.6370  -8.0100  -7.5336  -6.9442  -6.6487  -6.1466  -5.7981  -5.6637
    -4.8344  -4.7708  -4.4744  -4.3641  -4.2982  -3.9122  -3.5824  -3.1547
    -2.7212  -2.3048  -2.1063  -2.0525  -1.8811  -1.8175  -1.5839  -1.4461
    -1.2109  -1.0245  -0.8690  -0.7377  -0.5612  -0.2883  -0.1360   0.0059
     0.0849   0.1568   0.4645   0.5555   0.8859   0.9046   1.1500   1.3832
     1.6128   1.6924   2.0587   2.1005   2.1518   2.2602   2.3485   2.4670
     2.5248   2.6551   2.7632   2.8500   3.2043   3.2225   3.4527   3.7660
     3.8127   3.9690  10.9912  11.1424  11.5946  11.9088  12.4300  12.5617
    12.8890  13.0812  13.2998  13.4202  13.7393  13.9849  14.0514

          k = 0.4444-0.0000 0.0000 ( 29202 PWs)   bands (ev):

   -10.8166 -10.4466  -9.8738  -9.1847  -8.9769  -8.7296  -8.6623  -7.2920
    -7.1903  -6.5508  -6.5506  -6.2809  -6.2612  -5.9777  -5.9181  -5.6692
    -5.6081  -4.9931  -4.9902  -4.9182  -4.9113  -4.7910  -4.7677  -4.6074
    -4.5797  -4.4480  -4.2762  -3.3558  -3.0528  -3.0527  -3.0090  -1.8362
    -1.5636  -1.5430  -1.4052  -0.9870  -0.9657  -0.6103  -0.4004  -0.3403
    -0.3338  -0.0909   0.2219   0.2747   0.3017   0.4295   0.5822   1.0455
     1.0488   1.4530   1.7822   1.8009   1.8031   2.0022   2.1758   2.9196
     2.9636   3.4093   3.6205   3.8157   3.8384   3.8985   4.1699   4.3732
     4.4891   4.5074  11.4478  11.4513  11.9553  11.9557  12.4600  12.4765
    12.8539  12.9057  13.1503  13.1787  13.8403  13.8949  14.2890

          k = 0.4444-0.1000 0.0000 ( 29157 PWs)   bands (ev):

   -10.6400 -10.2733  -9.7074  -9.0313  -8.8055  -8.5637  -8.5152  -8.0474
    -7.7530  -7.3814  -7.0864  -6.8250  -6.4547  -6.2854  -6.1280  -6.1188
    -5.5758  -5.4580  -4.9122  -4.6928  -4.5213  -4.4725  -4.3464  -4.1421
    -3.8763  -3.5254  -3.3580  -3.2710  -2.8666  -2.8022  -2.7747  -1.9407
    -1.8668  -1.6819  -1.3802  -1.1689  -1.0548  -0.5076  -0.4551  -0.0757
     0.1553   0.3203   0.4332   0.4899   0.6059   0.7344   0.7485   1.1878
     1.2202   1.4999   1.6733   1.7717   1.8721   2.1383   2.2400   2.6574
     2.6773   2.6954   3.1384   3.2249   3.3004   3.6247   3.6485   3.7051
     3.7927   3.8432  11.1555  11.3090  11.9706  12.3381  12.5189  12.8372
    13.0136  13.0602  13.2995  13.7539  13.7821  13.8139  14.1708

          k = 0.4444-0.2000 0.0000 ( 29103 PWs)   bands (ev):

   -10.1131  -9.7593  -9.2643  -9.2114  -8.9192  -8.5973  -8.3303  -8.2827
    -8.0622  -7.9930  -7.6514  -7.4454  -7.2300  -7.1914  -6.7914  -6.7250
    -5.1905  -5.1674  -4.7333  -4.5397  -4.4133  -4.1452  -3.9768  -3.7149
    -3.6148  -3.4377  -3.0857  -2.9225  -2.4750  -2.1247  -1.7965  -1.5361
    -1.1521  -1.0386  -0.9627  -0.6791  -0.6002  -0.3665  -0.0909   0.0129
     0.2216   0.3538   0.4514   0.7861   0.8483   1.0776   1.1496   1.2128
     1.4671   1.5030   1.5686   1.6557   1.7144   1.8806   1.9289   2.0140
     2.0701   2.2710   2.3020   2.3555   2.4450   2.5219   2.7280   2.8899
     3.0717   3.1558  11.1423  11.1583  12.1418  12.6367  12.8363  12.8464
    13.0996  13.1798  13.4005  13.5509  13.6530  13.8105  13.8538

     the Fermi energy is     7.8098 ev

!    total energy              =    -594.43462039 Ry
     estimated scf accuracy    <          7.6E-09 Ry
     smearing contrib. (-TS)   =       0.00000000 Ry
     internal energy E=F+TS    =    -594.43462039 Ry

     The total energy is F=E-TS. E is the sum of the following terms:
     one-electron contribution =   -4644.74293041 Ry
     hartree contribution      =    2393.15366116 Ry
     xc contribution           =    -152.19051414 Ry
     ewald contribution        =    2006.55599731 Ry
     one-center paw contrib.   =    -197.21083431 Ry

     convergence has been achieved in  12 iterations

     negative rho (up, down):  2.087E-06 0.000E+00

     Forces acting on atoms (cartesian axes, Ry/au):

     atom    1 type  1   force =     0.00000000    0.05649460   -0.08445748
     atom    2 type  1   force =     0.00000000   -0.15820906    0.08043264
     atom    3 type  1   force =     0.00000000   -0.00000406    0.08463606
     atom    4 type  1   force =     0.00000000    0.00000562    0.00577764
     atom    5 type  1   force =     0.00000000   -0.00369283    0.00015472
     atom    6 type  1   force =     0.00000000    0.00390395   -0.00006239
     atom    7 type  1   force =     0.00000000    0.00013108   -0.00127574
     atom    8 type  1   force =     0.00000000   -0.00015250   -0.00012644
     atom    9 type  1   force =     0.00000000    0.00015250    0.00012644
     atom   10 type  1   force =     0.00000000   -0.00013108    0.00127574
     atom   11 type  1   force =     0.00000000   -0.00390395    0.00006239
     atom   12 type  1   force =     0.00000000    0.00369283   -0.00015472
     atom   13 type  1   force =     0.00000000   -0.00000562   -0.00577764
     atom   14 type  1   force =     0.00000000    0.00000406   -0.08463606
     atom   15 type  1   force =     0.00000000    0.15820906   -0.08043264
     atom   16 type  1   force =     0.00000000   -0.05649460    0.08445748
     atom   17 type  1   force =     0.00000000   -0.05649485   -0.08445730
     atom   18 type  1   force =     0.00000000    0.15820883    0.08042968
     atom   19 type  1   force =     0.00000000    0.00000464   -0.08702240
     atom   20 type  1   force =     0.00000000   -0.00000576   -0.00939941
     atom   21 type  1   force =     0.00000000    0.00369293    0.00016538
     atom   22 type  1   force =     0.00000000   -0.00390452    0.00002782
     atom   23 type  1   force =     0.00000000   -0.00013070    0.00132931
     atom   24 type  1   force =     0.00000000    0.00015227    0.00013116
     atom   25 type  1   force =     0.00000000   -0.00015227   -0.00013116
     atom   26 type  1   force =     0.00000000    0.00013070   -0.00132931
     atom   27 type  1   force =     0.00000000    0.00390452   -0.00002782
     atom   28 type  1   force =     0.00000000   -0.00369293   -0.00016538
     atom   29 type  1   force =     0.00000000    0.00000576    0.00939941
     atom   30 type  1   force =     0.00000000   -0.00000464    0.08702240
     atom   31 type  1   force =     0.00000000   -0.15820883   -0.08042968
     atom   32 type  1   force =     0.00000000    0.05649485    0.08445730
     atom   33 type  2   force =     0.00000000    0.01112608    0.00647701
     atom   34 type  2   force =     0.00000000   -0.01112621    0.00647676
     atom   35 type  2   force =     0.00000000   -0.01112608   -0.00647701
     atom   36 type  2   force =     0.00000000    0.01112621   -0.00647676

     Total force =     0.444744     Total SCF correction =     0.000131

     BFGS Geometry Optimization
     Energy error            =      0.0E+00 Ry
     Gradient error          =      1.6E-01 Ry/Bohr

     number of scf cycles    =   1
     number of bfgs steps    =   0

     energy             new  =    -594.4346203878 Ry

     new trust radius        =       0.1774810268 bohr
     new conv_thr            =       0.0000000100 Ry


ATOMIC_POSITIONS (angstrom)
C                0.0000000000       -1.6970501274       18.3735851971
C                1.2634728900       -1.3471935175       17.5674310388
C                1.2634728900       -0.0000021487       16.6762451466
C                0.0000000000        0.0000029753       15.7411048165
C                0.0000000000       -1.2654270507       14.8447190430
C                1.2634728900       -1.2614070075       13.9511939034
C                1.2634728900        0.0000693642       13.0571415787
C                0.0000000000       -0.0000807020       12.1643395108
C                0.0000000000       -1.2633921880       11.2710630792
C                1.2634728900       -1.2635422542       10.3782610113
C                1.2634728900       -0.0020658825        9.4842086866
C                0.0000000000        0.0019541607        8.5906835470
C                0.0000000000       -1.2634758653        7.6942977735
C                1.2634728900       -1.2634707413        6.7591574434
C                1.2634728900        0.0837206275        5.8679715512
C                0.0000000000        0.4335772374        5.0618173929
C                0.0000000000       -3.3568415662       18.3735852904
C                1.2634728900       -3.7066981732       17.5674294742
C                1.2634728900       -2.5269433244       16.5854073993
C                0.0000000000       -2.5269488280       15.7330734665
C                0.0000000000       -3.7884644669       14.8447246865
C                1.2634728900       -3.7924848651       13.9512416401
C                1.2634728900       -2.5270149450       13.0585201121
C                0.0000000000       -2.5268652023       12.1644758285
C                0.0000000000       -3.7904992577       11.2709267615
C                1.2634728900       -3.7903495150       10.3768824779
C                1.2634728900       -2.5248795949        9.4841609499
C                0.0000000000       -2.5288999931        8.5906779035
C                0.0000000000       -3.7904156320        7.7023291235
C                1.2634728900       -3.7904211356        6.8499951907
C                1.2634728900       -2.6106662868        5.8679731158
C                0.0000000000       -2.9605228938        5.0618172996
H                0.0000000000       -1.3291934434       19.4388300657
H                0.0000000000       -3.7246981955       19.4388299348
H                0.0000000000        0.0657205534        3.9965725143
H                0.0000000000       -2.5926662645        3.9965726452



     Writing config-only to output data dir /tmp/qe/slab.save/ :
     XML data file
     NEW-OLD atomic charge density approx. for the potential

     Check: negative core charge=   -0.000001

     negative rho (up, down):  2.065E-06 0.000E+00

     total cpu time spent up to now is       97.3 secs

     Self-consistent Calculation

     iteration #  1     ecut=    90.00 Ry     beta= 0.30
     Davidson diagonalization with overlap
     c_bands:  1 eigenvalues not converged
     c_bands:  1 eigenvalues not converged
     c_bands:  1 eigenvalues not converged
     c_bands:  2 eigenvalues not converged
     c_bands:  3 eigenvalues not converged
     c_bands:  1 eigenvalues not converged
     c_bands:  1 eigenvalues not converged
     c_bands:  1 eigenvalues not converged
     c_bands:  1 eigenvalues not converged
     c_bands:  1 eigenvalues not converged
     ethr =  1.00E-06,  avg # of iterations = 19.7

     negative rho (up, down):  2.417E-06 0.000E+00

     total cpu time spent up to now is      119.7 secs

     total energy              =    -594.52755174 Ry
     estimated scf accuracy    <       0.01567051 Ry

     iteration #  2     ecut=    90.00 Ry     beta= 0.30
     Davidson diagonalization with overlap
     ethr =  1.19E-05,  avg # of iterations =  2.8

     negative rho (up, down):  2.827E-06 0.000E+00

     total cpu time spent up to now is      125.6 secs

     total energy              =    -594.52760992 Ry
     estimated scf accuracy    <       0.00460827 Ry

     iteration #  3     ecut=    90.00 Ry     beta= 0.30
     Davidson diagonalization with overlap
     ethr =  3.49E-06,  avg # of iterations =  3.3

     negative rho (up, down):  3.570E-06 0.000E+00

     total cpu time spent up to now is      131.9 secs

     total energy              =    -594.52789732 Ry
     estimated scf accuracy    <       0.00087320 Ry

     iteration #  4     ecut=    90.00 Ry     beta= 0.30
     Davidson diagonalization with overlap
     ethr =  6.62E-07,  avg # of iterations =  3.3

     negative rho (up, down):  3.602E-06 0.000E+00

     total cpu time spent up to now is      138.1 secs

     total energy              =    -594.52796641 Ry
     estimated scf accuracy    <       0.00008837 Ry

     iteration #  5     ecut=    90.00 Ry     beta= 0.30
     Davidson diagonalization with overlap
     ethr =  6.69E-08,  avg # of iterations =  2.1

     negative rho (up, down):  3.605E-06 0.000E+00

     total cpu time spent up to now is      144.5 secs

     total energy              =    -594.52798076 Ry
     estimated scf accuracy    <       0.00001623 Ry

     iteration #  6     ecut=    90.00 Ry     beta= 0.30
     Davidson diagonalization with overlap
     ethr =  1.23E-08,  avg # of iterations =  2.1

     negative rho (up, down):  3.642E-06 0.000E+00

     total cpu time spent up to now is      150.6 secs

     total energy              =    -594.52798233 Ry
     estimated scf accuracy    <       0.00000356 Ry

     iteration #  7     ecut=    90.00 Ry     beta= 0.30
     Davidson diagonalization with overlap
     ethr =  2.70E-09,  avg # of iterations =  2.3

     negative rho (up, down):  3.627E-06 0.000E+00

     total cpu time spent up to now is      157.2 secs

     total energy              =    -594.52798275 Ry
     estimated scf accuracy    <       0.00000040 Ry

     iteration #  8     ecut=    90.00 Ry     beta= 0.30
     Davidson diagonalization with overlap
     ethr =  3.05E-10,  avg # of iterations =  2.7

     negative rho (up, down):  3.618E-06 0.000E+00

     total cpu time spent up to now is      164.2 secs

     total energy              =    -594.52798282 Ry
     estimated scf accuracy    <       0.00000004 Ry

     iteration #  9     ecut=    90.00 Ry     beta= 0.30
     Davidson diagonalization with overlap
     ethr =  2.98E-11,  avg # of iterations =  3.2

     negative rho (up, down):  3.624E-06 0.000E+00

     total cpu time spent up to now is      171.7 secs

     total energy              =    -594.52798283 Ry
     estimated scf accuracy    <       0.00000001 Ry

     iteration # 10     ecut=    90.00 Ry     beta= 0.30
     Davidson diagonalization with overlap
     ethr =  8.59E-12,  avg # of iterations =  2.5

     negative rho (up, down):  3.678E-06 0.000E+00

     total cpu time spent up to now is      178.2 secs

     End of self-consistent calculation

          k = 0.0000-0.0000 0.0000 ( 29123 PWs)   bands (ev):

   -14.3713 -13.9986 -13.4265 -12.6539 -11.6395 -10.3738  -9.9063  -9.9007
    -9.5032  -9.4809  -9.0567  -8.9531  -8.7141  -8.3167  -8.3144  -7.1746
    -5.8915  -5.8716  -5.4793  -4.7692  -4.7633  -3.8016  -3.4621  -3.4607
    -2.1177  -2.0494  -2.0243  -0.4361  -0.3939  -0.3055   0.7404   0.7986
     1.0638   1.1272   1.1323   1.3082   1.3846   1.5872   2.0459   2.3136
     2.5689   2.6390   2.9941   3.0669   3.2432   3.6596   3.8061   3.9449
     3.9450   4.0451   4.0452   4.1680   4.1773   4.1804   4.2292   4.3498
     4.3674   4.4685   4.6856   4.6856   5.3790   5.5140   5.6924   6.4019
     6.4940   6.5684   9.3232   9.8364  11.1243  11.1641  11.4326  11.4566
    11.6524  11.9200  12.2202  12.2306  12.2654  12.3486  12.5626

          k = 0.0000-0.1000 0.0000 ( 29153 PWs)   bands (ev):

   -14.1911 -13.8303 -13.2785 -12.5339 -11.5954 -11.4087 -10.9444 -10.4253
   -10.0657  -9.4264  -8.8215  -8.4327  -8.2184  -7.9192  -7.8659  -6.9701
    -5.5792  -5.4614  -5.2928  -4.5318  -4.4213  -3.7730  -3.3047  -3.0700
    -2.1923  -2.0144  -1.5751  -0.6424  -0.4824  -0.1231   0.0359   0.4410
     0.8867   0.9592   1.1909   1.2045   1.2911   1.5060   1.6881   2.3138
     2.3810   2.4268   2.6811   2.9823   2.9865   3.2262   3.3589   3.5347
     3.6426   3.7168   3.9325   4.0793   4.1853   4.2812   4.2983   4.4789
     4.5197   4.7325   4.9293   5.0201   5.1542   5.2106   5.5809   6.0201
     6.1490   6.4332   9.5371  10.0396  11.6637  11.7397  11.7762  12.0126
    12.0308  12.1207  12.2773  12.5366  12.6260  12.7401  12.8510

          k = 0.0000-0.2000 0.0000 ( 29117 PWs)   bands (ev):

   -13.6637 -13.3764 -12.9685 -12.6654 -12.3565 -11.9847 -11.4952 -11.0206
   -10.4453  -9.8508  -9.2577  -8.5703  -7.9572  -7.3639  -6.7767  -6.5031
    -4.9033  -4.6050  -4.4838  -4.0868  -3.7290  -3.4443  -2.8841  -2.6763
    -2.1101  -1.9089  -1.5521  -1.3598  -1.0700  -0.8584  -0.4095  -0.0255
     0.1922   0.5118   1.0488   1.2980   1.3170   1.5056   1.6965   1.8648
     2.1439   2.1988   2.4380   2.6538   2.7401   2.7522   3.1421   3.1987
     3.3903   3.4663   3.8245   3.9208   4.1151   4.1936   4.3866   4.4626
     4.5475   4.7736   4.9026   4.9277   5.3021   5.3683   5.3883   5.5933
     5.7696   6.2109  10.1536  10.5880  11.1161  11.3754  11.8129  11.9644
    12.2391  12.4322  12.5405  12.9786  13.1031  13.2037  13.4286

          k = 0.1111-0.0000 0.0000 ( 29137 PWs)   bands (ev):

   -14.1447 -13.7729 -13.2022 -12.4319 -11.4217 -10.1620  -9.6905  -9.6851
    -9.2905  -9.2686  -8.8498  -8.7469  -8.5136  -8.1123  -8.1102  -6.9825
    -5.6965  -5.6728  -5.3877  -4.5870  -4.5828  -3.7156  -3.3076  -3.3055
    -2.1392  -1.9374  -1.9289  -0.7764  -0.3349  -0.2865  -0.2483   0.2122
     0.2495   0.9823   1.0699   1.1121   1.2244   1.3242   1.4744   2.1770
     2.3484   2.3842   2.5034   2.5794   3.0169   3.0494   3.0948   3.0969
     3.1410   3.2917   3.3052   3.5073   3.5900   3.7316   3.7389   3.8480
     3.9075   4.0486   4.1411   4.4014   5.0152   5.0953   5.3974   5.9407
     6.1061   6.3267   9.5473  10.0334  11.8120  11.8627  12.0361  12.0674
    12.3768  12.4489  12.5805  12.8443  12.8773  13.0362  13.1440

          k = 0.1111-0.1000 0.0000 ( 29122 PWs)   bands (ev):

   -13.9648 -13.6049 -13.0545 -12.3123 -11.3768 -11.1891 -10.7266 -10.2113
    -9.8546  -9.2184  -8.6194  -8.2341  -8.0120  -7.7171  -7.6622  -6.7776
    -5.3987  -5.2728  -5.1859  -4.3618  -4.2465  -3.6780  -3.1750  -2.9086
    -2.1495  -1.9432  -1.4362  -0.8009  -0.4643  -0.1910  -0.0120   0.0726
     0.2683   0.3396   0.6071   0.9966   1.1072   1.2622   1.3822   1.5941
     2.0117   2.1308   2.1812   2.2251   2.5552   2.6755   2.8295   3.0025
     3.0583   3.1717   3.3543   3.5906   3.6919   3.8412   3.9594   3.9959
     4.0615   4.0963   4.2532   4.3126   4.6231   5.1582   5.1872   5.3490
     6.0456   6.1368   9.7617  10.2346  11.9194  12.2351  12.3959  12.6616
    12.7381  12.7630  12.8308  12.9533  13.1095  13.2208  13.3709

          k = 0.1111-0.2000 0.0000 ( 29082 PWs)   bands (ev):

   -13.4385 -13.1520 -12.7451 -12.4424 -12.1348 -11.7640 -11.2766 -10.8044
   -10.2320  -9.6418  -9.0531  -8.3710  -7.7628  -7.1719  -6.5817  -6.3076
    -4.8098  -4.4547  -4.3304  -3.9586  -3.5864  -3.2941  -2.7321  -2.5276
    -1.9320  -1.7696  -1.4018  -1.2441  -0.9461  -0.7594  -0.4104  -0.1038
     0.1698   0.2226   0.2958   0.5927   0.8428   0.8967   1.1193   1.2469
     1.4203   1.6316   1.8175   2.0236   2.2487   2.4060   2.5036   2.7998
     2.8424   3.0918   3.2351   3.3142   3.6062   3.6727   3.9738   4.0101
     4.2376   4.4155   4.5607   4.6240   4.7416   4.7926   5.0824   5.2228
     5.5165   5.5651  10.3760  10.7771  11.3178  11.5267  11.8484  12.0295
    12.7934  12.9732  13.1928  13.5880  13.7369  13.7619  13.8778

          k = 0.2222-0.0000 0.0000 ( 29090 PWs)   bands (ev):

   -13.4683 -13.0994 -12.5335 -11.7716 -10.7764  -9.5413  -9.0471  -9.0424
    -8.6573  -8.6367  -8.2410  -8.1338  -7.9363  -7.5038  -7.5024  -6.4588
    -5.4611  -5.1083  -5.1031  -4.0987  -4.0964  -3.9109  -3.1150  -2.9462
    -2.9142  -2.3284  -2.1019  -1.7724  -1.7715  -1.5250  -1.1690  -0.4538
    -0.1234  -0.0847   0.0719   0.5615   0.5775   0.9433   0.9921   1.0811
     1.1581   1.1987   1.3965   1.5254   1.6824   1.6842   1.9493   1.9802
     2.0026   2.3980   2.4159   2.5654   2.6189   2.6735   2.9641   3.1059
     3.5022   3.5030   3.6621   3.9381   4.3344   4.5318   5.0146   5.0797
     5.3757   6.0398  10.1650  10.5155  12.4998  12.6391  12.7852  12.9981
    13.0473  13.0853  13.2124  13.2656  13.3949  13.3977  13.5357

          k = 0.2222-0.1000 0.0000 ( 29080 PWs)   bands (ev):

   -13.2895 -12.9324 -12.3868 -11.6527 -10.7280 -10.5349 -10.0784  -9.5788
    -9.2315  -8.6042  -8.0304  -7.6585  -7.3994  -7.1195  -7.0591  -6.2480
    -5.2901  -4.8123  -4.7269  -3.9560  -3.9120  -3.7087  -3.0942  -2.8191
    -2.4860  -2.1580  -1.9609  -1.7647  -1.4698  -1.1726  -1.0142  -0.6976
    -0.4652  -0.3832   0.0366   0.1882   0.3262   0.6119   0.7572   0.9075
     0.9427   1.1376   1.3015   1.5460   1.5741   1.6553   1.8459   1.9938
     2.0554   2.1661   2.3755   2.5203   2.6592   2.8325   2.9278   3.0468
     3.2670   3.3233   3.5485   3.8295   4.1500   4.1974   4.5562   5.1186
     5.3582   5.4256  10.3664  10.7007  12.2210  12.4650  12.5855  12.8137
    12.8614  12.9697  13.3716  13.5437  13.6811  13.7158  13.9192

          k = 0.2222-0.2000 0.0000 ( 29067 PWs)   bands (ev):

   -12.7663 -12.4825 -12.0791 -11.7773 -11.4740 -11.1072 -10.6266 -10.1634
    -9.6012  -9.0266  -8.4541  -7.7926  -7.2093  -6.6258  -6.0228  -5.7438
    -4.8329  -4.2670  -4.0446  -3.7494  -3.3962  -2.9928  -2.6535  -2.1958
    -1.9335  -1.7347  -1.6048  -1.4579  -1.3434  -1.2661  -1.2311  -0.9315
    -0.7437  -0.6847  -0.5668  -0.3012  -0.2106   0.0639   0.1645   0.3511
     0.5168   0.7592   0.8596   1.1168   1.2354   1.4604   1.6369   1.9011
     2.0520   2.3265   2.4270   2.5051   2.7493   2.8260   3.0467   3.0983
     3.1657   3.4524   3.6077   3.7534   3.9081   4.2071   4.2683   4.6162
     4.7700   4.8789  10.9040  11.1774  11.4867  11.6514  11.8714  12.1006
    12.2746  12.7601  13.0795  13.3891  13.7795  14.1120  14.5155

          k = 0.3333-0.0000 0.0000 ( 29134 PWs)   bands (ev):

   -12.3542 -11.9916 -11.4374 -10.6977  -9.7490  -8.6204  -7.9908  -7.9874
    -7.6404  -7.6048  -7.5008  -7.1437  -7.1300  -6.5148  -6.5126  -6.4550
    -6.3995  -5.0437  -4.7959  -4.5263  -4.3673  -4.2866  -3.7570  -3.6007
    -3.4831  -3.1417  -3.1322  -2.4148  -2.3494  -2.2689  -2.2685  -1.4753
    -1.0900  -0.9057  -0.8808  -0.8328  -0.7872  -0.4492  -0.4393   0.0715
     0.0864   0.1450   0.3889   0.9464   0.9563   1.1859   1.1960   1.3392
     1.3419   1.5116   2.2324   2.2425   2.2537   2.3917   2.6983   2.7755
     2.8642   3.2681   3.2983   3.3489   4.0167   4.2059   4.2284   4.6582
     5.1573   5.4429  11.1336  11.3196  12.2499  12.2530  12.7552  12.7833
    13.0309  13.0697  13.3827  13.7002  13.7151  13.7250  13.7607

          k = 0.3333-0.1000 0.0000 ( 29139 PWs)   bands (ev):

   -12.1773 -11.8266 -11.2924 -10.5792  -9.6875  -9.4634  -9.0215  -8.5940
    -8.2556  -7.6546  -7.3178  -6.9082  -6.4897  -6.3213  -6.2900  -6.0172
    -6.0011  -4.9172  -4.6667  -4.5419  -4.4649  -4.2513  -3.9063  -3.5497
    -3.2307  -2.8113  -2.3495  -2.2950  -2.2706  -1.8792  -1.7727  -1.7316
    -1.4395  -1.4306  -1.1216  -0.9794  -0.7911  -0.3184  -0.2830   0.0737
     0.3634   0.4712   0.5530   1.0644   1.1212   1.2767   1.4256   1.4702
     1.6335   1.6559   1.7259   1.7976   2.1886   2.2629   2.3504   2.5290
     2.7469   2.9327   2.9399   3.3971   3.4514   3.6625   4.2549   4.4318
     4.5146   4.6928  11.2751  11.4212  11.7077  12.3708  12.6670  12.9298
    12.9847  13.0530  13.3950  13.7054  13.7756  13.8384  14.0226

          k = 0.3333-0.2000 0.0000 ( 29094 PWs)   bands (ev):

   -11.6597 -11.3815 -10.9856 -10.6848 -10.3931 -10.0353  -9.5732  -9.1331
    -8.5994  -8.0779  -7.5644  -7.0104  -6.6664  -6.1840  -5.9333  -5.8059
    -4.8880  -4.8102  -4.5929  -4.3955  -4.3280  -3.9993  -3.6063  -3.1903
    -2.7729  -2.3228  -2.1906  -2.0630  -1.9062  -1.8375  -1.5673  -1.3650
    -1.2210  -1.1203  -0.8653  -0.6368  -0.5390  -0.3646  -0.2160  -0.0745
     0.0662   0.2308   0.3980   0.5663   0.7030   0.8358   1.1099   1.3910
     1.5470   1.6385   1.9708   2.0217   2.1734   2.2776   2.3035   2.4993
     2.5346   2.7387   2.7862   2.8178   3.1452   3.1560   3.5590   3.6328
     3.8498   3.8828  11.2684  11.5217  11.6582  11.8363  12.3445  12.6203
    12.7075  12.9302  13.3005  13.4375  13.7815  13.9792  14.0811

          k = 0.4444-0.0000 0.0000 ( 29202 PWs)   bands (ev):

   -10.8326 -10.4891  -9.9770  -9.3487  -8.9993  -8.7768  -8.7674  -7.4456
    -7.3247  -6.5511  -6.5508  -6.2202  -6.2117  -5.9932  -5.8404  -5.7654
    -5.6706  -5.2205  -5.2198  -5.0139  -4.8303  -4.8168  -4.6956  -4.6173
    -4.6089  -4.3014  -4.2743  -3.4722  -3.4284  -3.4283  -3.1972  -1.8857
    -1.5619  -1.5320  -1.3837  -0.9496  -0.9280  -0.5445  -0.3817  -0.2859
    -0.2022  -0.1385   0.2083   0.2543   0.2847   0.4956   0.5414   0.8098
     0.8168   1.2464   1.4304   1.7648   1.7649   2.2865   2.4052   2.7839
     2.8229   3.4055   3.6385   3.7677   3.7680   3.9469   4.2371   4.4226
     4.6966   4.6980  11.8784  11.8821  12.1469  12.1470  12.4465  12.5073
    13.0087  13.0236  13.2398  13.2438  14.0177  14.0651  14.4102

          k = 0.4444-0.1000 0.0000 ( 29157 PWs)   bands (ev):

   -10.6586 -10.3269  -9.8337  -9.2251  -8.8336  -8.6433  -8.6069  -8.0215
    -7.6579  -7.3988  -7.2444  -6.9201  -6.4408  -6.2738  -6.1447  -6.0890
    -5.6107  -5.5120  -4.9152  -4.7406  -4.6519  -4.5967  -4.4758  -4.3295
    -4.0193  -3.6014  -3.4429  -3.3005  -3.1250  -2.9706  -2.9103  -1.9063
    -1.8284  -1.7000  -1.3400  -1.0766  -0.9929  -0.5121  -0.2962  -0.0853
     0.1858   0.3259   0.3956   0.4990   0.5760   0.7270   0.8115   1.0305
     1.0815   1.2793   1.3780   1.7159   1.7681   2.3487   2.3847   2.6305
     2.6920   2.7032   3.0262   3.2161   3.3522   3.6233   3.6240   3.6705
     3.9533   3.9954  11.4674  11.9387  12.2561  12.4903  12.5536  12.8716
    12.9186  13.0747  13.4148  13.8114  13.8762  13.9793  14.3370

          k = 0.4444-0.2000 0.0000 ( 29103 PWs)   bands (ev):

   -10.1500  -9.8889  -9.5191  -9.2075  -8.9736  -8.6419  -8.3820  -8.2557
    -8.1482  -7.9868  -7.5372  -7.4454  -7.1064  -7.0596  -6.9840  -6.9346
    -5.2736  -5.2173  -4.8514  -4.6670  -4.5909  -4.2646  -4.2132  -3.8843
    -3.7202  -3.5198  -3.2160  -3.0769  -2.6469  -2.2310  -1.8346  -1.5194
    -1.1534  -1.0540  -0.9176  -0.6915  -0.4188  -0.2990  -0.0158   0.2016
     0.2526   0.4368   0.5507   0.7350   0.9164   1.0332   1.1371   1.2804
     1.4616   1.5501   1.5692   1.6439   1.7288   1.7592   1.8411   1.8963
     2.0078   2.1774   2.2038   2.2168   2.5281   2.5304   2.8229   2.8944
     3.0342   3.0750  11.7177  11.8192  12.2881  12.5536  12.7087  12.9315
    13.0679  13.1245  13.2569  13.4113  13.7004  13.7531  13.8055

     the Fermi energy is     7.9741 ev

!    total energy              =    -594.52798283 Ry
     estimated scf accuracy    <          1.8E-09 Ry
     smearing contrib. (-TS)   =       0.00000000 Ry
     internal energy E=F+TS    =    -594.52798283 Ry

     The total energy is F=E-TS. E is the sum of the following terms:
     one-electron contribution =   -4650.77656376 Ry
     hartree contribution      =    2396.04459414 Ry
     xc contribution           =    -152.27513672 Ry
     ewald contribution        =    2009.69241847 Ry
     one-center paw contrib.   =    -197.21329496 Ry

     convergence has been achieved in  10 iterations

     negative rho (up, down):  3.678E-06 0.000E+00

     Forces acting on atoms (cartesian axes, Ry/au):

     atom    1 type  1   force =     0.00000000   -0.00708207    0.02650613
     atom    2 type  1   force =     0.00000000    0.01050313   -0.02141308
     atom    3 type  1   force =     0.00000000    0.00000370    0.04883416
     atom    4 type  1   force =     0.00000000   -0.00000867    0.05178651
     atom    5 type  1   force =     0.00000000    0.00784313   -0.00137154
     atom    6 type  1   force =     0.00000000   -0.00046143    0.00007363
     atom    7 type  1   force =     0.00000000   -0.00008364    0.00029093
     atom    8 type  1   force =     0.00000000    0.00019206   -0.00061414
     atom    9 type  1   force =     0.00000000   -0.00019206    0.00061414
     atom   10 type  1   force =     0.00000000    0.00008364   -0.00029093
     atom   11 type  1   force =     0.00000000    0.00046143   -0.00007363
     atom   12 type  1   force =     0.00000000   -0.00784313    0.00137154
     atom   13 type  1   force =     0.00000000    0.00000867   -0.05178651
     atom   14 type  1   force =     0.00000000   -0.00000370   -0.04883416
     atom   15 type  1   force =     0.00000000   -0.01050313    0.02141308
     atom   16 type  1   force =     0.00000000    0.00708207   -0.02650613
     atom   17 type  1   force =     0.00000000    0.00708148    0.02650477
     atom   18 type  1   force =     0.00000000   -0.01050225   -0.02141049
     atom   19 type  1   force =     0.00000000   -0.00000426   -0.01080982
     atom   20 type  1   force =     0.00000000    0.00000901   -0.03359684
     atom   21 type  1   force =     0.00000000   -0.00784352   -0.00133205
     atom   22 type  1   force =     0.00000000    0.00046248    0.00002396
     atom   23 type  1   force =     0.00000000    0.00008258   -0.00039502
     atom   24 type  1   force =     0.00000000   -0.00019162    0.00066557
     atom   25 type  1   force =     0.00000000    0.00019162   -0.00066557
     atom   26 type  1   force =     0.00000000   -0.00008258    0.00039502
     atom   27 type  1   force =     0.00000000   -0.00046248   -0.00002396
     atom   28 type  1   force =     0.00000000    0.00784352    0.00133205
     atom   29 type  1   force =     0.00000000   -0.00000901    0.03359684
     atom   30 type  1   force =     0.00000000    0.00000426    0.01080982
     atom   31 type  1   force =     0.00000000    0.01050225    0.02141049
     atom   32 type  1   force =     0.00000000   -0.00708148   -0.02650477
     atom   33 type  2   force =     0.00000000   -0.00023838   -0.03224034
     atom   34 type  2   force =     0.00000000    0.00023829   -0.03224011
     atom   35 type  2   force =     0.00000000    0.00023838    0.03224034
     atom   36 type  2   force =     0.00000000   -0.00023829    0.03224011

     Total force =     0.149415     Total SCF correction =     0.000113
     Energy error            =      9.3E-02 Ry
     Gradient error          =      5.2E-02 Ry/Bohr

     number of scf cycles    =   2
     number of bfgs steps    =   1

     energy             old  =    -594.4346203878 Ry
     energy             new  =    -594.5279828338 Ry

     CASE: energy            _new < energy            _old

     new trust radius        =       0.0536764930 bohr
     new conv_thr            =       0.0000000100 Ry


ATOMIC_POSITIONS (angstrom)
C                0.0000000000       -1.6977287595       18.3824784810
C                1.2634728900       -1.3499106684       17.5608571224
C                1.2634728900       -0.0000005186       16.7046495233
C                0.0000000000       -0.0000010355       15.7670249660
C                0.0000000000       -1.2617299513       14.8440479550
C                1.2634728900       -1.2614400645       13.9512272218
C                1.2634728900        0.0000345275       13.0572217434
C                0.0000000000        0.0000067249       12.1640292258
C                0.0000000000       -1.2634796149       11.2713733642
C                1.2634728900       -1.2635074175       10.3781808466
C                1.2634728900       -0.0020328255        9.4841753682
C                0.0000000000       -0.0017429387        8.5913546350
C                0.0000000000       -1.2634718545        7.6683776240
C                1.2634728900       -1.2634723714        6.7307530667
C                1.2634728900        0.0864377784        5.8745454676
C                0.0000000000        0.4342558695        5.0529241090
C                0.0000000000       -3.3561632353       18.3824779111
C                1.2634728900       -3.7039805989       17.5608566918
C                1.2634728900       -2.5269451990       16.5757032978
C                0.0000000000       -2.5269446559       15.7159748607
C                0.0000000000       -3.7921617554       14.8440736821
C                1.2634728900       -3.7924513166       13.9512548915
C                1.2634728900       -2.5269806144       13.0583911084
C                0.0000000000       -2.5269524239       12.1648118043
C                0.0000000000       -3.7904120361       11.2705907857
C                1.2634728900       -3.7903838456       10.3770114816
C                1.2634728900       -2.5249131434        9.4841476985
C                0.0000000000       -2.5252027046        8.5913289079
C                0.0000000000       -3.7904198041        7.7194277293
C                1.2634728900       -3.7904192610        6.8596992922
C                1.2634728900       -2.6133838611        5.8745458982
C                0.0000000000       -2.9612012247        5.0529246789
H                0.0000000000       -1.3287547652       19.4231971775
H                0.0000000000       -3.7251369228       19.4231971438
H                0.0000000000        0.0652818752        4.0122054025
H                0.0000000000       -2.5922275372        4.0122054362



     Writing config-only to output data dir /tmp/qe/slab.save/ :
     XML data file
     NEW-OLD atomic charge density approx. for the potential

     Check: negative core charge=   -0.000001

     negative rho (up, down):  4.378E-06 0.000E+00

     total cpu time spent up to now is      180.5 secs

     Self-consistent Calculation

     iteration #  1     ecut=    90.00 Ry     beta= 0.30
     Davidson diagonalization with overlap
     c_bands:  1 eigenvalues not converged
     ethr =  1.00E-06,  avg # of iterations = 12.0

     negative rho (up, down):  4.586E-06 0.000E+00

     total cpu time spent up to now is      195.5 secs

     total energy              =    -594.54134375 Ry
     estimated scf accuracy    <       0.00214501 Ry

     iteration #  2     ecut=    90.00 Ry     beta= 0.30
     Davidson diagonalization with overlap
     ethr =  1.63E-06,  avg # of iterations =  1.6

     negative rho (up, down):  4.667E-06 0.000E+00

     total cpu time spent up to now is      201.2 secs

     total energy              =    -594.54131418 Ry
     estimated scf accuracy    <       0.00055482 Ry

     iteration #  3     ecut=    90.00 Ry     beta= 0.30
     Davidson diagonalization with overlap
     ethr =  4.20E-07,  avg # of iterations =  3.2

     negative rho (up, down):  4.554E-06 0.000E+00

     total cpu time spent up to now is      208.3 secs

     total energy              =    -594.54138991 Ry
     estimated scf accuracy    <       0.00008818 Ry

     iteration #  4     ecut=    90.00 Ry     beta= 0.30
     Davidson diagonalization with overlap
     ethr =  6.68E-08,  avg # of iterations =  1.9

     negative rho (up, down):  4.499E-06 0.000E+00

     total cpu time spent up to now is      214.1 secs

     total energy              =    -594.54139796 Ry
     estimated scf accuracy    <       0.00001456 Ry

     iteration #  5     ecut=    90.00 Ry     beta= 0.30
     Davidson diagonalization with overlap
     ethr =  1.10E-08,  avg # of iterations =  2.6

     negative rho (up, down):  4.448E-06 0.000E+00

     total cpu time spent up to now is      221.3 secs

     total energy              =    -594.54139952 Ry
     estimated scf accuracy    <       0.00000360 Ry

     iteration #  6     ecut=    90.00 Ry     beta= 0.30
     Davidson diagonalization with overlap
     ethr =  2.73E-09,  avg # of iterations =  2.3

     negative rho (up, down):  4.409E-06 0.000E+00

     total cpu time spent up to now is      227.6 secs

     total energy              =    -594.54139992 Ry
     estimated scf accuracy    <       0.00000076 Ry

     iteration #  7     ecut=    90.00 Ry     beta= 0.30
     Davidson diagonalization with overlap
     ethr =  5.74E-10,  avg # of iterations =  2.6

     negative rho (up, down):  4.395E-06 0.000E+00

     total cpu time spent up to now is      234.8 secs

     total energy              =    -594.54140007 Ry
     estimated scf accuracy    <       0.00000014 Ry

     iteration #  8     ecut=    90.00 Ry     beta= 0.30
     Davidson diagonalization with overlap
     ethr =  1.02E-10,  avg # of iterations =  2.3

     negative rho (up, down):  4.393E-06 0.000E+00

     total cpu time spent up to now is      241.0 secs

     total energy              =    -594.54140008 Ry
     estimated scf accuracy    <       0.00000002 Ry

     iteration #  9     ecut=    90.00 Ry     beta= 0.30
     Davidson diagonalization with overlap
     ethr =  1.15E-11,  avg # of iterations =  3.3

     negative rho (up, down):  4.400E-06 0.000E+00

     total cpu time spent up to now is      248.7 secs

     End of self-consistent calculation

          k = 0.0000-0.0000 0.0000 ( 29123 PWs)   bands (ev):

   -14.3265 -13.9446 -13.3764 -12.5990 -11.5684 -10.3080  -9.8669  -9.8620
    -9.4683  -9.4451  -9.0423  -8.9383  -8.6755  -8.2796  -8.2769  -7.1640
    -5.8628  -5.8416  -5.4873  -4.7522  -4.7484  -3.8204  -3.4650  -3.4629
    -2.1411  -2.0829  -2.0444  -0.4438  -0.3749  -0.2820   0.7912   0.8424
     1.1328   1.1402   1.1402   1.3369   1.3874   1.6734   2.0351   2.4034
     2.5393   2.6348   2.9883   3.0616   3.3439   3.6472   3.7971   3.9817
     3.9817   4.0833   4.0833   4.1500   4.2275   4.2404   4.2468   4.3457
     4.4506   4.5054   4.8457   4.8457   5.3904   5.5837   5.7235   6.4397
     6.5371   6.6006   9.3015   9.8393  11.1769  11.1991  11.4814  11.4962
    11.7113  11.9155  12.2406  12.2731  12.3167  12.3843  12.6187

          k = 0.0000-0.1000 0.0000 ( 29153 PWs)   bands (ev):

   -14.1462 -13.7756 -13.2256 -12.4720 -11.5116 -11.3723 -10.9097 -10.3865
   -10.0470  -9.4234  -8.7936  -8.3978  -8.1814  -7.8515  -7.8068  -6.9732
    -5.5598  -5.4365  -5.3016  -4.5170  -4.4101  -3.7956  -3.2988  -3.1042
    -2.2196  -2.0328  -1.5550  -0.6477  -0.4726  -0.1043   0.0717   0.4714
     0.9383   0.9558   1.2119   1.2699   1.2908   1.5334   1.7786   2.3021
     2.3978   2.4781   2.6735   2.9905   3.0272   3.3150   3.4205   3.5384
     3.6333   3.7659   3.9207   4.1366   4.1802   4.2841   4.3770   4.4986
     4.5502   4.8064   5.0476   5.1530   5.1828   5.2142   5.6640   6.0560
     6.1803   6.4790   9.5168  10.0435  11.7153  11.7791  11.8152  12.0765
    12.0953  12.2061  12.3402  12.5686  12.6468  12.7614  12.8934

          k = 0.0000-0.2000 0.0000 ( 29117 PWs)   bands (ev):

   -13.6184 -13.3197 -12.9033 -12.6092 -12.2871 -11.9391 -11.4547 -11.0007
   -10.4415  -9.8334  -9.2270  -8.5196  -7.9089  -7.3070  -6.7397  -6.4909
    -4.9353  -4.5645  -4.4844  -4.1066  -3.7235  -3.4297  -2.8898  -2.6718
    -2.1292  -1.9007  -1.5292  -1.3726  -1.0622  -0.8458  -0.3981  -0.0290
     0.2084   0.5493   1.0382   1.3411   1.3551   1.5949   1.6941   1.9589
     2.2001   2.2156   2.5195   2.6411   2.7697   2.8047   3.1760   3.2065
     3.3841   3.5277   3.8717   3.9088   4.1149   4.2607   4.3940   4.4753
     4.6391   4.7692   4.9237   5.0210   5.3841   5.3985   5.4085   5.6808
     5.8524   6.2650  10.1370  10.5918  11.1182  11.4062  11.8924  12.0504
    12.3091  12.4955  12.6141  13.0340  13.1240  13.2339  13.4666

          k = 0.1111-0.0000 0.0000 ( 29137 PWs)   bands (ev):

   -14.0999 -13.7189 -13.1521 -12.3771 -11.3506 -10.0962  -9.6511  -9.6464
    -9.2555  -9.2328  -8.8352  -8.7319  -8.4750  -8.0748  -8.0723  -6.9730
    -5.6688  -5.6427  -5.3945  -4.5702  -4.5676  -3.7315  -3.3104  -3.3077
    -2.1492  -1.9745  -1.9624  -0.7697  -0.3117  -0.2599  -0.1945   0.2464
     0.3360   1.0277   1.0862   1.1282   1.2492   1.4053   1.5067   2.1571
     2.3657   2.3881   2.5202   2.6564   3.0134   3.0802   3.1299   3.1316
     3.1486   3.3403   3.3525   3.5328   3.6286   3.7533   3.7917   3.9728
     3.9962   4.0789   4.1550   4.3765   5.0533   5.1435   5.4066   5.9726
     6.1409   6.3631   9.5273  10.0340  11.8550  11.9120  12.0522  12.0982
    12.3897  12.5340  12.5832  12.8896  12.9516  13.0593  13.1506

          k = 0.1111-0.1000 0.0000 ( 29122 PWs)   bands (ev):

   -13.9200 -13.5502 -13.0016 -12.2504 -11.2929 -11.1528 -10.6918 -10.1721
    -9.8360  -9.2154  -8.5915  -8.1992  -7.9750  -7.6488  -7.6027  -6.7818
    -5.3894  -5.2493  -5.1819  -4.3467  -4.2363  -3.6971  -3.1701  -2.9452
    -2.1655  -1.9715  -1.4179  -0.7963  -0.4573  -0.1464   0.0143   0.1244
     0.3008   0.4068   0.6536   1.0256   1.1558   1.2739   1.4290   1.6187
     2.0526   2.1637   2.1955   2.2496   2.5762   2.6889   2.8578   3.0244
     3.1062   3.1802   3.3880   3.6235   3.7159   3.8935   3.9869   4.0464
     4.1204   4.1488   4.3085   4.3898   4.5997   5.1920   5.2363   5.3615
     6.0810   6.1718   9.7425  10.2355  11.9649  12.3017  12.4390  12.6907
    12.7785  12.7995  12.8530  13.0181  13.1320  13.2706  13.3807

          k = 0.1111-0.2000 0.0000 ( 29082 PWs)   bands (ev):

   -13.3932 -13.0953 -12.6800 -12.3862 -12.0653 -11.7184 -11.2359 -10.7845
   -10.2283  -9.6245  -9.0224  -8.3203  -7.7144  -7.1147  -6.5454  -6.2954
    -4.8406  -4.4159  -4.3334  -3.9747  -3.5816  -3.2780  -2.7350  -2.5287
    -1.9516  -1.7621  -1.3749  -1.2538  -0.9432  -0.7519  -0.3907  -0.1021
     0.2016   0.2588   0.3728   0.6324   0.8865   0.9782   1.1506   1.2864
     1.4582   1.6546   1.8852   2.0416   2.2833   2.4248   2.5222   2.8208
     2.8947   3.0747   3.2952   3.3244   3.5996   3.7423   4.0024   4.0674
     4.2529   4.4654   4.6092   4.6983   4.7743   4.8537   5.0689   5.2674
     5.5536   5.5854  10.3601  10.7785  11.3217  11.5600  11.9134  12.0971
    12.8205  13.0077  13.2285  13.5831  13.7973  13.8254  13.8954

          k = 0.2222-0.0000 0.0000 ( 29090 PWs)   bands (ev):

   -13.4236 -13.0453 -12.4834 -11.7171 -10.7056  -9.4752  -9.0077  -9.0036
    -8.6220  -8.6007  -8.2252  -8.1185  -7.8984  -7.4654  -7.4636  -6.4543
    -5.4607  -5.0782  -5.0741  -4.0815  -4.0786  -3.8871  -3.0890  -2.9422
    -2.9149  -2.3142  -2.0508  -1.8193  -1.8168  -1.4622  -1.1254  -0.4141
    -0.0858  -0.0430   0.1317   0.6026   0.6163   0.9754   1.0180   1.1038
     1.1835   1.2231   1.4605   1.5676   1.7380   1.7392   1.9946   2.0635
     2.0738   2.4100   2.4386   2.5708   2.6086   2.7265   2.9388   3.1243
     3.4578   3.5039   3.6509   3.9928   4.3589   4.5009   5.0528   5.1074
     5.3822   6.0736  10.1619  10.5328  12.5396  12.6497  12.8009  12.9822
    13.1041  13.1266  13.2974  13.3110  13.4479  13.4521  13.5308

          k = 0.2222-0.1000 0.0000 ( 29080 PWs)   bands (ev):

   -13.2446 -12.8777 -12.3340 -11.5911 -10.6442 -10.4989 -10.0431  -9.5381
    -9.2135  -8.6014  -8.0027  -7.6239  -7.3626  -7.0495  -6.9974  -6.2575
    -5.3030  -4.7779  -4.6990  -3.9387  -3.8975  -3.6904  -3.0767  -2.8157
    -2.5237  -2.1523  -1.9102  -1.7943  -1.3961  -1.1422  -0.9880  -0.6574
    -0.4173  -0.3611   0.0734   0.2278   0.3684   0.6556   0.7768   0.9448
     0.9734   1.1634   1.3536   1.5773   1.5985   1.6965   1.8947   1.9989
     2.0787   2.2458   2.4543   2.5220   2.6976   2.8837   2.9247   3.0653
     3.2491   3.3235   3.5750   3.7938   4.1866   4.2226   4.5339   5.1243
     5.3912   5.4616  10.3637  10.7170  12.2640  12.4921  12.6571  12.8225
    12.8450  12.9892  13.4078  13.5997  13.7272  13.7764  13.9669

          k = 0.2222-0.2000 0.0000 ( 29067 PWs)   bands (ev):

   -12.7210 -12.4258 -12.0140 -11.7211 -11.4047 -11.0615 -10.5855 -10.1433
    -9.5974  -9.0094  -8.4239  -7.7424  -7.1605  -6.5683  -5.9915  -5.7302
    -4.8481  -4.2463  -4.0398  -3.7350  -3.3753  -2.9704  -2.6405  -2.2099
    -1.9264  -1.6801  -1.5560  -1.4406  -1.3314  -1.2364  -1.2053  -0.8931
    -0.6980  -0.6523  -0.5658  -0.2532  -0.1792   0.0963   0.1942   0.3724
     0.5483   0.7672   0.9073   1.1340   1.2556   1.5002   1.6898   1.9071
     2.1172   2.3413   2.4693   2.5363   2.7982   2.8895   3.0574   3.1489
     3.1898   3.4773   3.6133   3.7879   3.9298   4.1998   4.2742   4.5828
     4.8078   4.8871  10.9055  11.1910  11.5254  11.6922  11.8774  12.1180
    12.3204  12.8127  13.0991  13.3887  13.8101  14.1283  14.5556

          k = 0.3333-0.0000 0.0000 ( 29134 PWs)   bands (ev):

   -12.3095 -11.9377 -11.3879 -10.6444  -9.6798  -8.5543  -7.9510  -7.9485
    -7.6041  -7.5690  -7.4628  -7.1298  -7.1120  -6.4788  -6.4746  -6.4316
    -6.3793  -4.9852  -4.7631  -4.4623  -4.3346  -4.2356  -3.7007  -3.5809
    -3.4477  -3.1207  -3.1179  -2.3817  -2.3372  -2.3113  -2.3107  -1.4492
    -1.0433  -0.8673  -0.8513  -0.7921  -0.7452  -0.3875  -0.3848   0.0877
     0.1402   0.1933   0.4166   0.9771   0.9853   1.2159   1.2296   1.3809
     1.3844   1.5213   2.1555   2.1601   2.2598   2.4309   2.6690   2.8306
     2.8675   3.3183   3.3255   3.3773   3.9965   4.2422   4.2605   4.6251
     5.1568   5.4723  11.1564  11.3567  12.2912  12.2954  12.7792  12.8033
    13.0905  13.1506  13.4273  13.6974  13.7060  13.7410  13.7916

          k = 0.3333-0.1000 0.0000 ( 29139 PWs)   bands (ev):

   -12.1324 -11.7720 -11.2401 -10.5191  -9.6048  -9.4277  -8.9840  -8.5465
    -8.2425  -7.6500  -7.2868  -6.8788  -6.4521  -6.2835  -6.2540  -5.9751
    -5.9582  -4.8576  -4.6397  -4.4893  -4.4177  -4.1980  -3.8789  -3.5123
    -3.2228  -2.8178  -2.3526  -2.2735  -2.2559  -1.8331  -1.7744  -1.7104
    -1.4268  -1.3915  -1.0661  -0.9681  -0.7415  -0.2955  -0.2199   0.0937
     0.3916   0.5140   0.5851   1.0852   1.1514   1.3047   1.4569   1.5280
     1.6505   1.7031   1.7572   1.8167   2.1379   2.2136   2.3835   2.5147
     2.7640   2.9192   2.9714   3.4291   3.4996   3.6327   4.2460   4.4519
     4.5262   4.7133  11.3011  11.4552  11.7320  12.4189  12.6941  12.9379
    13.0325  13.1341  13.4248  13.7511  13.8397  13.8603  14.0940

          k = 0.3333-0.2000 0.0000 ( 29094 PWs)   bands (ev):

   -11.6145 -11.3250 -10.9212 -10.6285 -10.3243  -9.9894  -9.5306  -9.1131
    -8.5954  -8.0614  -7.5374  -6.9678  -6.6094  -6.1441  -5.9150  -5.7706
    -4.8514  -4.7700  -4.5289  -4.3540  -4.2738  -3.9455  -3.5752  -3.1705
    -2.7647  -2.3117  -2.1665  -2.0218  -1.8824  -1.8284  -1.5253  -1.3374
    -1.2075  -1.0632  -0.8551  -0.6217  -0.5061  -0.3522  -0.1809  -0.0540
     0.1064   0.2188   0.4192   0.5797   0.7384   0.8604   1.1248   1.4106
     1.5615   1.6655   1.9965   2.0236   2.2060   2.2937   2.3382   2.5239
     2.5609   2.7734   2.8064   2.8482   3.1264   3.1951   3.5769   3.6187
     3.8491   3.8687  11.2947  11.5399  11.6815  11.8747  12.3707  12.6671
    12.7366  12.9839  13.3933  13.5324  13.8136  13.9882  14.1054

          k = 0.4444-0.0000 0.0000 ( 29202 PWs)   bands (ev):

   -10.7880 -10.4358  -9.9299  -9.3014  -8.9517  -8.7248  -8.7127  -7.3907
    -7.2731  -6.5112  -6.5109  -6.1788  -6.1719  -5.9373  -5.8113  -5.7364
    -5.6165  -5.1859  -5.1850  -4.9505  -4.7889  -4.7778  -4.6376  -4.5732
    -4.5622  -4.3000  -4.2856  -3.4464  -3.4073  -3.4072  -3.1559  -1.8585
    -1.5232  -1.4969  -1.3835  -0.9082  -0.8929  -0.5266  -0.3471  -0.2651
    -0.1703  -0.1161   0.2170   0.2821   0.3117   0.5126   0.5470   0.8369
     0.8431   1.2661   1.4390   1.6580   1.6581   2.2845   2.4057   2.8355
     2.8747   3.4514   3.6964   3.8015   3.8046   3.9941   4.2617   4.4473
     4.6401   4.6406  11.9352  11.9395  12.2136  12.2139  12.4700  12.5337
    13.0762  13.0893  13.2661  13.2699  14.0234  14.0880  14.4556

          k = 0.4444-0.1000 0.0000 ( 29157 PWs)   bands (ev):

   -10.6139 -10.2730  -9.7840  -9.1716  -8.7841  -8.5873  -8.5519  -7.9805
    -7.6079  -7.3489  -7.2042  -6.9015  -6.4320  -6.2297  -6.1035  -6.0375
    -5.5810  -5.4708  -4.8741  -4.6820  -4.6101  -4.5422  -4.4290  -4.3007
    -4.0007  -3.5659  -3.4151  -3.2632  -3.0716  -2.9258  -2.8815  -1.8824
    -1.7905  -1.6747  -1.3394  -1.0534  -0.9708  -0.5123  -0.2771  -0.0937
     0.2028   0.3507   0.4203   0.4974   0.5942   0.7462   0.8294   1.0590
     1.1245   1.3242   1.3791   1.6346   1.6990   2.3570   2.3802   2.6586
     2.7381   2.7475   3.0822   3.2728   3.3665   3.6626   3.6684   3.7035
     3.8918   3.9429  11.5277  12.0482  12.2986  12.5045  12.5583  12.8722
    12.9980  13.1264  13.4399  13.8184  13.9145  14.0670  14.3439

          k = 0.4444-0.2000 0.0000 ( 29103 PWs)   bands (ev):

   -10.1049  -9.8333  -9.4572  -9.1496  -8.9093  -8.5918  -8.3287  -8.2165
    -8.0952  -7.9648  -7.5134  -7.4003  -7.0832  -7.0334  -6.9595  -6.8991
    -5.2335  -5.1728  -4.8182  -4.6213  -4.5604  -4.2024  -4.1872  -3.8356
    -3.6670  -3.4758  -3.1757  -3.0184  -2.5864  -2.1692  -1.7936  -1.5037
    -1.1392  -1.0261  -0.9072  -0.6841  -0.4136  -0.2752   0.0077   0.1556
     0.2448   0.3925   0.5206   0.7432   0.9312   1.0232   1.1730   1.3209
     1.4903   1.5721   1.6111   1.6537   1.7526   1.7813   1.8673   1.9120
     2.0186   2.1938   2.2189   2.2450   2.5352   2.5664   2.8528   2.9055
     3.0337   3.0734  11.7812  11.9034  12.3309  12.5708  12.7321  12.9230
    13.1166  13.1626  13.2962  13.4508  13.7256  13.7950  13.8494

     the Fermi energy is     8.0153 ev

!    total energy              =    -594.54140009 Ry
     estimated scf accuracy    <          8.7E-09 Ry
     smearing contrib. (-TS)   =       0.00000000 Ry
     internal energy E=F+TS    =    -594.54140009 Ry

     The total energy is F=E-TS. E is the sum of the following terms:
     one-electron contribution =   -4644.60492941 Ry
     hartree contribution      =    2393.11341385 Ry
     xc contribution           =    -152.30440526 Ry
     ewald contribution        =    2006.46743279 Ry
     one-center paw contrib.   =    -197.21291205 Ry

     convergence has been achieved in   9 iterations

     negative rho (up, down):  4.400E-06 0.000E+00

     Forces acting on atoms (cartesian axes, Ry/au):

     atom    1 type  1   force =     0.00000000   -0.01817528   -0.00919914
     atom    2 type  1   force =     0.00000000    0.00821997   -0.00034669
     atom    3 type  1   force =     0.00000000   -0.00001144    0.02309296
     atom    4 type  1   force =     0.00000000    0.00001030    0.02785323
     atom    5 type  1   force =     0.00000000    0.00743483    0.00477666
     atom    6 type  1   force =     0.00000000    0.00769600    0.00049359
     atom    7 type  1   force =     0.00000000    0.00027869   -0.00156345
     atom    8 type  1   force =     0.00000000   -0.00013965   -0.00012428
     atom    9 type  1   force =     0.00000000    0.00013965    0.00012428
     atom   10 type  1   force =    -0.00000000   -0.00027869    0.00156345
     atom   11 type  1   force =     0.00000000   -0.00769600   -0.00049359
     atom   12 type  1   force =     0.00000000   -0.00743483   -0.00477666
     atom   13 type  1   force =     0.00000000   -0.00001030   -0.02785323
     atom   14 type  1   force =     0.00000000    0.00001144   -0.02309296
     atom   15 type  1   force =     0.00000000   -0.00821997    0.00034669
     atom   16 type  1   force =     0.00000000    0.01817528    0.00919914
     atom   17 type  1   force =     0.00000000    0.01817538   -0.00919847
     atom   18 type  1   force =     0.00000000   -0.00822088   -0.00035397
     atom   19 type  1   force =     0.00000000    0.00001288   -0.00956606
     atom   20 type  1   force =     0.00000000   -0.00000884   -0.01388818
     atom   21 type  1   force =     0.00000000   -0.00743590    0.00477692
     atom   22 type  1   force =    -0.00000000   -0.00769761    0.00064668
     atom   23 type  1   force =     0.00000000   -0.00027660    0.00137356
     atom   24 type  1   force =     0.00000000    0.00014017    0.00011139
     atom   25 type  1   force =     0.00000000   -0.00014017   -0.00011139
     atom   26 type  1   force =     0.00000000    0.00027660   -0.00137356
     atom   27 type  1   force =     0.00000000    0.00769761   -0.00064668
     atom   28 type  1   force =     0.00000000    0.00743590   -0.00477692
     atom   29 type  1   force =     0.00000000    0.00000884    0.01388818
     atom   30 type  1   force =    -0.00000000   -0.00001288    0.00956606
     atom   31 type  1   force =     0.00000000    0.00822088    0.00035397
     atom   32 type  1   force =     0.00000000   -0.01817538    0.00919847
     atom   33 type  2   force =     0.00000000    0.00769454   -0.00983204
     atom   34 type  2   force =     0.00000000   -0.00769487   -0.00983298
     atom   35 type  2   force =    -0.00000000   -0.00769454    0.00983204
     atom   36 type  2   force =     0.00000000    0.00769487    0.00983298

     Total force =     0.079378     Total SCF correction =     0.000207
     Energy error            =      1.3E-02 Ry
     Gradient error          =      2.8E-02 Ry/Bohr

     number of scf cycles    =   3
     number of bfgs steps    =   2

     energy             old  =    -594.5279828338 Ry
     energy             new  =    -594.5414000855 Ry

     CASE: energy            _new < energy            _old

     new trust radius        =       0.0670431808 bohr
     new conv_thr            =       0.0000000100 Ry


ATOMIC_POSITIONS (angstrom)
C                0.0000000000       -1.7114888363       18.3764189546
C                1.2634728900       -1.3490940624       17.5599233630
C                1.2634728900       -0.0000094152       16.7396948982
C                0.0000000000        0.0000058492       15.8025026888
C                0.0000000000       -1.2539208655       14.8477197480
C                1.2634728900       -1.2549250370       13.9516521872
C                1.2634728900        0.0002544451       13.0559179414
C                0.0000000000       -0.0000734452       12.1637770759
C                0.0000000000       -1.2633994448       11.2716255141
C                1.2634728900       -1.2637273351       10.3794846486
C                1.2634728900       -0.0085478530        9.4837504028
C                0.0000000000       -0.0095520245        8.5876828420
C                0.0000000000       -1.2634787392        7.6328999012
C                1.2634728900       -1.2634634748        6.6957076918
C                1.2634728900        0.0856211724        5.8754792270
C                0.0000000000        0.4480159463        5.0589836354
C                0.0000000000       -3.3424032291       18.3764186455
C                1.2634728900       -3.7047977698       17.5599173087
C                1.2634728900       -2.5269352041       16.5605832160
C                0.0000000000       -2.5269502485       15.6961408924
C                0.0000000000       -3.7999718179       14.8477553850
C                1.2634728900       -3.7989674720       13.9518007711
C                1.2634728900       -2.5271990132       13.0595155027
C                0.0000000000       -2.5268717342       12.1650653437
C                0.0000000000       -3.7904927258       11.2703372463
C                1.2634728900       -3.7901654468       10.3758870873
C                1.2634728900       -2.5183969880        9.4836018189
C                0.0000000000       -2.5173926421        8.5876472050
C                0.0000000000       -3.7904142115        7.7392616976
C                1.2634728900       -3.7904292559        6.8748193740
C                1.2634728900       -2.6125666902        5.8754852813
C                0.0000000000       -2.9749612309        5.0589839445
H                0.0000000000       -1.3218033203       19.4079051629
H                0.0000000000       -3.7320886631       19.4079043835
H               -0.0000000000        0.0583304303        4.0274974171
H                0.0000000000       -2.5852757969        4.0274981965



     Writing config-only to output data dir /tmp/qe/slab.save/ :
     XML data file
     NEW-OLD atomic charge density approx. for the potential

     Check: negative core charge=   -0.000001

     negative rho (up, down):  5.490E-06 0.000E+00

     total cpu time spent up to now is      250.9 secs

     Self-consistent Calculation

     iteration #  1     ecut=    90.00 Ry     beta= 0.30
     Davidson diagonalization with overlap
     c_bands:  1 eigenvalues not converged
     ethr =  1.00E-06,  avg # of iterations = 13.1

     negative rho (up, down):  5.326E-06 0.000E+00

     total cpu time spent up to now is      267.1 secs

     total energy              =    -594.54897842 Ry
     estimated scf accuracy    <       0.00283772 Ry

     iteration #  2     ecut=    90.00 Ry     beta= 0.30
     Davidson diagonalization with overlap
     ethr =  2.15E-06,  avg # of iterations =  1.7

     negative rho (up, down):  5.089E-06 0.000E+00

     total cpu time spent up to now is      272.8 secs

     total energy              =    -594.54896872 Ry
     estimated scf accuracy    <       0.00074936 Ry

     iteration #  3     ecut=    90.00 Ry     beta= 0.30
     Davidson diagonalization with overlap
     ethr =  5.68E-07,  avg # of iterations =  2.5

     negative rho (up, down):  4.935E-06 0.000E+00

     total cpu time spent up to now is      279.6 secs

     total energy              =    -594.54907183 Ry
     estimated scf accuracy    <       0.00013237 Ry

     iteration #  4     ecut=    90.00 Ry     beta= 0.30
     Davidson diagonalization with overlap
     ethr =  1.00E-07,  avg # of iterations =  1.6

     negative rho (up, down):  4.886E-06 0.000E+00

     total cpu time spent up to now is      285.4 secs

     total energy              =    -594.54907786 Ry
     estimated scf accuracy    <       0.00004319 Ry

     iteration #  5     ecut=    90.00 Ry     beta= 0.30
     Davidson diagonalization with overlap
     ethr =  3.27E-08,  avg # of iterations =  2.3

     negative rho (up, down):  4.855E-06 0.000E+00

     total cpu time spent up to now is      292.6 secs

     total energy              =    -594.54908337 Ry
     estimated scf accuracy    <       0.00000590 Ry

     iteration #  6     ecut=    90.00 Ry     beta= 0.30
     Davidson diagonalization with overlap
     ethr =  4.47E-09,  avg # of iterations =  2.1

     negative rho (up, down):  4.864E-06 0.000E+00

     total cpu time spent up to now is      298.7 secs

     total energy              =    -594.54908378 Ry
     estimated scf accuracy    <       0.00000129 Ry

     iteration #  7     ecut=    90.00 Ry     beta= 0.30
     Davidson diagonalization with overlap
     ethr =  9.75E-10,  avg # of iterations =  3.4

     negative rho (up, down):  4.861E-06 0.000E+00

     total cpu time spent up to now is      306.4 secs

     total energy              =    -594.54908400 Ry
     estimated scf accuracy    <       0.00000047 Ry

     iteration #  8     ecut=    90.00 Ry     beta= 0.30
     Davidson diagonalization with overlap
     ethr =  3.58E-10,  avg # of iterations =  3.3

     negative rho (up, down):  4.871E-06 0.000E+00

     total cpu time spent up to now is      313.9 secs

     total energy              =    -594.54908411 Ry
     estimated scf accuracy    <       0.00000004 Ry

     iteration #  9     ecut=    90.00 Ry     beta= 0.30
     Davidson diagonalization with overlap
     ethr =  3.28E-11,  avg # of iterations =  2.5

     negative rho (up, down):  4.897E-06 0.000E+00

     total cpu time spent up to now is      320.5 secs

     End of self-consistent calculation

          k = 0.0000-0.0000 0.0000 ( 29123 PWs)   bands (ev):

   -14.3074 -13.9316 -13.3878 -12.6044 -11.5635 -10.3090  -9.8505  -9.8480
    -9.4680  -9.4423  -9.0844  -8.9663  -8.6683  -8.2998  -8.2950  -7.1761
    -5.8604  -5.8323  -5.5025  -4.7569  -4.7489  -3.8316  -3.4798  -3.4798
    -2.1354  -2.0931  -2.0599  -0.4310  -0.3944  -0.2968   0.8156   0.8643
     1.1376   1.1394   1.1642   1.3401   1.4028   1.6734   1.9741   2.4098
     2.5203   2.6412   2.9595   3.0601   3.3505   3.6449   3.8289   4.0029
     4.0032   4.0968   4.1170   4.1176   4.2017   4.2332   4.2501   4.3669
     4.4586   4.5345   4.8657   4.8657   5.3804   5.5907   5.7426   6.4453
     6.5484   6.6028   9.2996   9.8222  11.1908  11.2146  11.4557  11.5051
    11.6863  11.8649  12.2098  12.2619  12.3741  12.3989  12.5945

          k = 0.0000-0.1000 0.0000 ( 29153 PWs)   bands (ev):

   -14.1271 -13.7627 -13.2352 -12.4720 -11.4896 -11.3634 -10.9056 -10.4168
   -10.0787  -9.4675  -8.8066  -8.3896  -8.1706  -7.8297  -7.7974  -6.9972
    -5.5884  -5.4261  -5.3024  -4.5221  -4.4118  -3.8077  -3.3177  -3.1198
    -2.2659  -2.0098  -1.5873  -0.6468  -0.4352  -0.1154   0.0895   0.4941
     0.9059   0.9631   1.2049   1.2952   1.3071   1.5185   1.7829   2.2562
     2.3858   2.4934   2.7094   2.9436   3.0488   3.3524   3.4182   3.5357
     3.6372   3.7509   3.9434   4.1204   4.1299   4.3071   4.3712   4.4782
     4.5650   4.8257   5.0880   5.1978   5.2061   5.2066   5.6808   6.0701
     6.1787   6.4927   9.5177  10.0315  11.6873  11.7958  11.8311  12.1069
    12.1544  12.2752  12.3810  12.5931  12.6196  12.7826  12.9061

          k = 0.0000-0.2000 0.0000 ( 29117 PWs)   bands (ev):

   -13.5999 -13.3081 -12.9019 -12.5890 -12.2649 -11.9300 -11.4726 -11.0369
   -10.4978  -9.8661  -9.2380  -8.5093  -7.8903  -7.2820  -6.7153  -6.5077
    -4.9659  -4.5553  -4.4881  -4.1328  -3.7350  -3.4102  -2.9383  -2.6463
    -2.2103  -1.9091  -1.5195  -1.3624  -1.1059  -0.8315  -0.3905  -0.0229
     0.2032   0.5585   1.0500   1.3306   1.3821   1.6255   1.7056   1.9781
     2.1857   2.2223   2.5542   2.6233   2.7647   2.8212   3.1901   3.1910
     3.3294   3.5025   3.8319   3.9418   4.0768   4.2471   4.4114   4.4683
     4.6536   4.7501   4.9293   5.0599   5.3735   5.3973   5.4572   5.7206
     5.8815   6.2843  10.1445  10.5946  11.1485  11.4665  12.0543  12.1981
    12.3443  12.4986  12.6326  13.0392  13.1310  13.2460  13.4558

          k = 0.1111-0.0000 0.0000 ( 29137 PWs)   bands (ev):

   -14.0808 -13.7057 -13.1633 -12.3824 -11.3456 -10.0972  -9.6346  -9.6323
    -9.2551  -9.2298  -8.8772  -8.7598  -8.4678  -8.0950  -8.0906  -6.9859
    -5.6684  -5.6334  -5.4072  -4.5745  -4.5685  -3.7425  -3.3244  -3.3244
    -2.1474  -1.9847  -1.9761  -0.7443  -0.3369  -0.2860  -0.1673   0.2612
     0.3365   1.0488   1.1108   1.1153   1.2582   1.4100   1.5093   2.0963
     2.3818   2.3980   2.5269   2.6487   2.9599   3.0901   3.1280   3.1548
     3.1684   3.3527   3.3564   3.5551   3.6857   3.7475   3.7777   3.9686
     3.9931   4.0936   4.1256   4.3782   5.0920   5.1438   5.3950   5.9882
     6.1386   6.3682   9.5265  10.0206  11.8711  11.9189  11.9959  12.0820
    12.3656  12.5344  12.6129  12.8786  13.0296  13.0846  13.1237

          k = 0.1111-0.1000 0.0000 ( 29122 PWs)   bands (ev):

   -13.9009 -13.5372 -13.0111 -12.2504 -11.2710 -11.1437 -10.6876 -10.2022
    -9.8677  -9.2597  -8.6045  -8.1910  -7.9645  -7.6268  -7.5926  -6.8069
    -5.4279  -5.2373  -5.1731  -4.3536  -4.2366  -3.7088  -3.1862  -2.9636
    -2.2019  -1.9632  -1.4494  -0.7846  -0.4286  -0.1392   0.0199   0.1393
     0.3139   0.4172   0.6689   0.9904   1.1634   1.2804   1.4342   1.6196
     2.0427   2.1662   2.2059   2.2322   2.5614   2.6964   2.8562   3.0150
     3.0816   3.1661   3.3742   3.6203   3.7349   3.9126   3.9757   4.0527
     4.1468   4.1927   4.3155   4.4008   4.5818   5.2222   5.2474   5.3482
     6.0835   6.1855   9.7440  10.2263  11.9927  12.3867  12.4322  12.7223
    12.7962  12.8192  12.8664  13.0243  13.1302  13.3402  13.3609

          k = 0.1111-0.2000 0.0000 ( 29082 PWs)   bands (ev):

   -13.3746 -13.0835 -12.6785 -12.3660 -12.0431 -11.7092 -11.2537 -10.8207
   -10.2848  -9.6573  -9.0335  -8.3101  -7.6961  -7.0897  -6.5211  -6.3121
    -4.8692  -4.4068  -4.3415  -3.9981  -3.5922  -3.2579  -2.7817  -2.5074
    -2.0325  -1.7702  -1.3568  -1.2518  -0.9871  -0.7371  -0.3934  -0.0782
     0.1925   0.2782   0.3923   0.6355   0.9055   0.9944   1.1863   1.2985
     1.4530   1.6689   1.8861   2.0432   2.2610   2.3890   2.5032   2.8008
     2.8605   3.0862   3.2704   3.2936   3.6406   3.7353   3.9802   4.0767
     4.2865   4.5010   4.6297   4.7182   4.7709   4.8744   5.0569   5.2739
     5.5670   5.5885  10.3680  10.7836  11.3545  11.6287  12.0284  12.2300
    12.8600  12.9976  13.2426  13.5562  13.7985  13.8212  13.8776

          k = 0.2222-0.0000 0.0000 ( 29090 PWs)   bands (ev):

   -13.4044 -13.0319 -12.4943 -11.7221 -10.7004  -9.4759  -8.9912  -8.9893
    -8.6214  -8.5975  -8.2668  -8.1463  -7.8912  -7.4857  -7.4824  -6.4714
    -5.4772  -5.0691  -5.0651  -4.0802  -4.0798  -3.8925  -3.0822  -2.9552
    -2.9400  -2.3018  -2.0336  -1.8298  -1.8276  -1.4653  -1.1285  -0.3979
    -0.0918  -0.0595   0.1146   0.6119   0.6187   0.9981   1.0137   1.1229
     1.1969   1.2232   1.4697   1.5863   1.7361   1.7386   1.9943   2.0859
     2.0904   2.4025   2.4465   2.5491   2.5831   2.7230   2.9389   3.2211
     3.3722   3.4064   3.6790   4.0163   4.3705   4.4744   5.0687   5.1081
     5.3686   6.0787  10.1639  10.5278  12.5463  12.6260  12.7711  12.9026
    13.0707  13.1763  13.2956  13.3670  13.4663  13.4799  13.5402

          k = 0.2222-0.1000 0.0000 ( 29080 PWs)   bands (ev):

   -13.2255 -12.8644 -12.3431 -11.5908 -10.6228 -10.4891 -10.0384  -9.5671
    -9.2455  -8.6464  -8.0156  -7.6168  -7.3533  -7.0262  -6.9841  -6.2882
    -5.3340  -4.7685  -4.6880  -3.9548  -3.8832  -3.6959  -3.0797  -2.8338
    -2.5443  -2.1425  -1.8914  -1.8276  -1.3933  -1.1461  -1.0131  -0.6410
    -0.4059  -0.3472   0.0919   0.2480   0.3710   0.6628   0.7516   0.9382
     0.9630   1.1679   1.3492   1.5687   1.6084   1.7125   1.8830   1.9787
     2.0612   2.2742   2.4843   2.5451   2.6881   2.8733   2.9142   3.0664
     3.2451   3.3443   3.5499   3.7521   4.2216   4.2264   4.5135   5.1071
     5.4042   5.4712  10.3675  10.7151  12.2918  12.4813  12.7248  12.7889
    12.8135  12.9914  13.4190  13.6667  13.7424  13.8173  13.9813

          k = 0.2222-0.2000 0.0000 ( 29067 PWs)   bands (ev):

   -12.7024 -12.4135 -12.0121 -11.7010 -11.3822 -11.0519 -10.6028 -10.1794
    -9.6544  -9.0424  -8.4353  -7.7329  -7.1435  -6.5440  -5.9695  -5.7454
    -4.8671  -4.2492  -4.0514  -3.7437  -3.3657  -2.9656  -2.6422  -2.2502
    -1.9088  -1.6734  -1.5538  -1.4881  -1.3361  -1.2347  -1.2017  -0.8858
    -0.6874  -0.6545  -0.5775  -0.2378  -0.1723   0.0859   0.1915   0.3597
     0.5605   0.7444   0.9145   1.1177   1.2486   1.4831   1.7063   1.9133
     2.1351   2.3256   2.4666   2.5370   2.7981   2.9143   3.0641   3.1523
     3.2020   3.4967   3.6001   3.7945   3.9569   4.1575   4.3027   4.5242
     4.8353   4.8680  10.9155  11.2015  11.5622  11.7394  11.8787  12.1230
    12.3827  12.9039  13.1055  13.3929  13.8705  14.1278  14.5733

          k = 0.3333-0.0000 0.0000 ( 29134 PWs)   bands (ev):

   -12.2902 -11.9237 -11.3978 -10.6488  -9.6735  -8.5508  -7.9345  -7.9338
    -7.6061  -7.5674  -7.4693  -7.1614  -7.1312  -6.5018  -6.4970  -6.4462
    -6.3983  -4.9762  -4.7539  -4.4389  -4.3271  -4.2290  -3.6810  -3.5901
    -3.4559  -3.1336  -3.1246  -2.3897  -2.3377  -2.3329  -2.3303  -1.4377
    -1.0308  -0.8645  -0.8419  -0.7868  -0.7615  -0.3836  -0.3822   0.0868
     0.1493   0.1873   0.4112   0.9862   0.9933   1.2075   1.2332   1.3936
     1.4012   1.5516   2.1588   2.1657   2.2818   2.4662   2.5534   2.7331
     2.8818   3.3052   3.3505   3.3900   3.9660   4.2453   4.2736   4.5852
     5.1411   5.4781  11.1643  11.3621  12.2889  12.2965  12.7651  12.7885
    13.0900  13.1309  13.4488  13.6579  13.6776  13.7233  13.8256

          k = 0.3333-0.1000 0.0000 ( 29139 PWs)   bands (ev):

   -12.1132 -11.7580 -11.2482 -10.5181  -9.5850  -9.4156  -8.9777  -8.5678
    -8.2766  -7.6978  -7.2836  -6.8896  -6.4593  -6.2725  -6.2449  -5.9862
    -5.9652  -4.8471  -4.6315  -4.4751  -4.4063  -4.1845  -3.8877  -3.5116
    -3.2483  -2.8359  -2.3864  -2.2780  -2.2487  -1.8260  -1.8076  -1.6932
    -1.4272  -1.3861  -1.0419  -0.9785  -0.7148  -0.3157  -0.2198   0.0867
     0.3935   0.5194   0.5718   1.0896   1.1501   1.3241   1.4608   1.5614
     1.6572   1.7289   1.7670   1.8148   2.1258   2.2201   2.3547   2.4991
     2.7581   2.8786   2.9184   3.4526   3.5090   3.5943   4.2188   4.4466
     4.5291   4.7160  11.3119  11.4649  11.7257  12.4023  12.6690  12.9181
    13.0467  13.1908  13.4256  13.7819  13.8439  13.9748  14.1545

          k = 0.3333-0.2000 0.0000 ( 29094 PWs)   bands (ev):

   -11.5955 -11.3116 -10.9183 -10.6084 -10.3011  -9.9787  -9.5459  -9.1485
    -8.6528  -8.0932  -7.5504  -6.9587  -6.5962  -6.1427  -5.9243  -5.7644
    -4.8484  -4.7695  -4.5059  -4.3382  -4.2559  -3.9313  -3.5923  -3.1957
    -2.7915  -2.3244  -2.1647  -2.0115  -1.8781  -1.8294  -1.5165  -1.3337
    -1.2220  -1.0536  -0.8689  -0.6337  -0.5156  -0.3788  -0.1785  -0.0537
     0.1269   0.1769   0.4383   0.5491   0.7396   0.8776   1.1262   1.4218
     1.5673   1.6733   2.0051   2.0364   2.1799   2.3025   2.3310   2.5377
     2.5572   2.7480   2.8470   2.8819   3.0930   3.2367   3.5462   3.5542
     3.8300   3.8357  11.2870  11.5441  11.6977  11.9124  12.3688  12.7202
    12.7511  13.0852  13.4395  13.5806  13.8616  13.9787  14.1531

          k = 0.4444-0.0000 0.0000 ( 29202 PWs)   bands (ev):

   -10.7686 -10.4206  -9.9371  -9.3017  -8.9305  -8.7127  -8.6899  -7.4542
    -7.3401  -6.4939  -6.4937  -6.1684  -6.1622  -5.9286  -5.8290  -5.7410
    -5.6080  -5.2106  -5.2091  -4.9247  -4.7698  -4.7623  -4.6336  -4.5530
    -4.5478  -4.3366  -4.3312  -3.4508  -3.4315  -3.4311  -3.1525  -1.8445
    -1.5049  -1.4898  -1.3852  -0.8992  -0.8870  -0.5068  -0.3435  -0.2705
    -0.1641  -0.1186   0.2190   0.2694   0.3022   0.5011   0.5384   0.8441
     0.8500   1.2799   1.4579   1.7042   1.7043   2.1703   2.2781   2.8358
     2.8575   3.4736   3.7269   3.8087   3.8115   3.9997   4.2441   4.4324
     4.5962   4.6024  11.9404  11.9452  12.2344  12.2352  12.4823  12.5476
    13.0725  13.0781  13.2638  13.2696  14.0216  14.0855  14.4652

          k = 0.4444-0.1000 0.0000 ( 29157 PWs)   bands (ev):

   -10.5945 -10.2577  -9.7890  -9.1664  -8.7623  -8.5709  -8.5291  -7.9617
    -7.6073  -7.4068  -7.2657  -6.9388  -6.4695  -6.2103  -6.1063  -6.0207
    -5.5834  -5.4685  -4.8563  -4.6573  -4.6098  -4.5461  -4.4376  -4.3218
    -4.0190  -3.5620  -3.4218  -3.2507  -3.0535  -2.9260  -2.8974  -1.8760
    -1.7774  -1.6614  -1.3361  -1.0442  -0.9716  -0.5068  -0.3031  -0.1156
     0.2042   0.3465   0.4241   0.4631   0.5923   0.7448   0.8200   1.0642
     1.1340   1.3646   1.4038   1.6716   1.7374   2.2846   2.3005   2.6046
     2.7016   2.7639   3.1113   3.2859   3.3509   3.6690   3.6910   3.6951
     3.8523   3.8939  11.5383  12.1067  12.2990  12.4854  12.5813  12.8581
    13.0010  13.1102  13.4489  13.8271  13.9204  14.0728  14.3240

          k = 0.4444-0.2000 0.0000 ( 29103 PWs)   bands (ev):

   -10.0854  -9.8173  -9.4508  -9.1292  -8.8823  -8.5758  -8.3089  -8.2069
    -8.0722  -7.9955  -7.5656  -7.3889  -7.1175  -7.0760  -6.9992  -6.9430
    -5.2294  -5.1751  -4.8388  -4.6529  -4.5435  -4.1986  -4.1713  -3.8300
    -3.6393  -3.4609  -3.1671  -3.0050  -2.5537  -2.1414  -1.7715  -1.5087
    -1.1452  -1.0082  -0.9154  -0.6788  -0.4466  -0.2624   0.0025   0.0687
     0.2245   0.3255   0.4901   0.7370   0.9168   1.0113   1.1996   1.3547
     1.5057   1.5848   1.6160   1.6815   1.7615   1.7967   1.8589   1.9331
     2.0257   2.2352   2.2650   2.2680   2.5252   2.5768   2.7658   2.7913
     3.0041   3.0270  11.7961  11.9493  12.3670  12.5920  12.7757  12.8749
    13.1355  13.1729  13.3982  13.4690  13.7350  13.8221  13.8679

     the Fermi energy is     8.0334 ev

!    total energy              =    -594.54908412 Ry
     estimated scf accuracy    <          3.1E-09 Ry
     smearing contrib. (-TS)   =       0.00000000 Ry
     internal energy E=F+TS    =    -594.54908412 Ry

     The total energy is F=E-TS. E is the sum of the following terms:
     one-electron contribution =   -4641.50008479 Ry
     hartree contribution      =    2391.57096893 Ry
     xc contribution           =    -152.32988910 Ry
     ewald contribution        =    2004.92262805 Ry
     one-center paw contrib.   =    -197.21270720 Ry

     convergence has been achieved in   9 iterations

     negative rho (up, down):  4.897E-06 0.000E+00

     Forces acting on atoms (cartesian axes, Ry/au):

     atom    1 type  1   force =     0.00000000   -0.00565049   -0.00672945
     atom    2 type  1   force =     0.00000000   -0.00557321    0.00102555
     atom    3 type  1   force =     0.00000000    0.00000441   -0.00174370
     atom    4 type  1   force =     0.00000000   -0.00000603   -0.00019330
     atom    5 type  1   force =     0.00000000    0.00482371    0.00482447
     atom    6 type  1   force =     0.00000000    0.00747181    0.00393845
     atom    7 type  1   force =     0.00000000    0.00005365   -0.00244361
     atom    8 type  1   force =     0.00000000    0.00003771   -0.00144219
     atom    9 type  1   force =     0.00000000   -0.00003771    0.00144219
     atom   10 type  1   force =     0.00000000   -0.00005365    0.00244361
     atom   11 type  1   force =     0.00000000   -0.00747181   -0.00393845
     atom   12 type  1   force =     0.00000000   -0.00482371   -0.00482447
     atom   13 type  1   force =     0.00000000    0.00000603    0.00019330
     atom   14 type  1   force =     0.00000000   -0.00000441    0.00174370
     atom   15 type  1   force =     0.00000000    0.00557321   -0.00102555
     atom   16 type  1   force =     0.00000000    0.00565049    0.00672945
     atom   17 type  1   force =     0.00000000    0.00564919   -0.00673585
     atom   18 type  1   force =     0.00000000    0.00557486    0.00102545
     atom   19 type  1   force =     0.00000000   -0.00000271   -0.00281357
     atom   20 type  1   force =     0.00000000    0.00001026    0.00710777
     atom   21 type  1   force =     0.00000000   -0.00482503    0.00495394
     atom   22 type  1   force =     0.00000000   -0.00746251    0.00405648
     atom   23 type  1   force =     0.00000000   -0.00006429    0.00501821
     atom   24 type  1   force =     0.00000000   -0.00003421    0.00165683
     atom   25 type  1   force =     0.00000000    0.00003421   -0.00165683
     atom   26 type  1   force =     0.00000000    0.00006429   -0.00501821
     atom   27 type  1   force =     0.00000000    0.00746251   -0.00405648
     atom   28 type  1   force =     0.00000000    0.00482503   -0.00495394
     atom   29 type  1   force =     0.00000000   -0.00001026   -0.00710777
     atom   30 type  1   force =     0.00000000    0.00000271    0.00281357
     atom   31 type  1   force =     0.00000000   -0.00557486   -0.00102545
     atom   32 type  1   force =     0.00000000   -0.00564919    0.00673585
     atom   33 type  2   force =     0.00000000    0.00541046   -0.00611519
     atom   34 type  2   force =     0.00000000   -0.00541112   -0.00611538
     atom   35 type  2   force =     0.00000000   -0.00541046    0.00611519
     atom   36 type  2   force =     0.00000000    0.00541112    0.00611538

     Total force =     0.037079     Total SCF correction =     0.000141
     Energy error            =      7.7E-03 Ry
     Gradient error          =      7.5E-03 Ry/Bohr

     number of scf cycles    =   4
     number of bfgs steps    =   3

     energy             old  =    -594.5414000855 Ry
     energy             new  =    -594.5490841165 Ry

     CASE: energy            _new < energy            _old

     new trust radius        =       0.0169318205 bohr
     new conv_thr            =       0.0000000075 Ry


ATOMIC_POSITIONS (angstrom)
C                0.0000000000       -1.7166184190       18.3730432372
C                1.2634728900       -1.3528197143       17.5593651566
C                1.2634728900       -0.0000073240       16.7467358582
C                0.0000000000        0.0000021533       15.8102205450
C                0.0000000000       -1.2494901037       14.8510195937
C                1.2634728900       -1.2495701173       13.9541689050
C                1.2634728900        0.0003054683       13.0542643696
C                0.0000000000       -0.0000442153       12.1627980626
C                0.0000000000       -1.2634286747       11.2726045274
C                1.2634728900       -1.2637783583       10.3811382204
C                1.2634728900       -0.0139027727        9.4812336850
C                0.0000000000       -0.0139827863        8.5843829963
C                0.0000000000       -1.2634750433        7.6251820450
C                1.2634728900       -1.2634655660        6.6886667318
C                1.2634728900        0.0893468243        5.8760374334
C                0.0000000000        0.4531455290        5.0623593528
C                0.0000000000       -3.3372745157       18.3730388394
C                1.2634728900       -3.7010710765       17.5593586318
C                1.2634728900       -2.5269361564       16.5557534574
C                0.0000000000       -2.5269437429       15.6957998889
C                0.0000000000       -3.8044035365       14.8511405455
C                1.2634728900       -3.8043166072       13.9544008404
C                1.2634728900       -2.5272566217       13.0627550435
C                0.0000000000       -2.5268986844       12.1661830274
C                0.0000000000       -3.7904657756       11.2692195626
C                1.2634728900       -3.7901078383       10.3726475465
C                1.2634728900       -2.5130478528        9.4810017496
C                0.0000000000       -2.5129609235        8.5842620445
C                0.0000000000       -3.7904207171        7.7396027011
C                1.2634728900       -3.7904283036        6.8796491326
C                1.2634728900       -2.6162933835        5.8760439582
C                0.0000000000       -2.9800899443        5.0623637506
H                0.0000000000       -1.3176238166       19.3999801713
H                0.0000000000       -3.7362686179       19.3999792093
H               -0.0000000000        0.0541509266        4.0354224087
H                0.0000000000       -2.5810958421        4.0354233707



     Writing config-only to output data dir /tmp/qe/slab.save/ :
     XML data file
     NEW-OLD atomic charge density approx. for the potential

     Check: negative core charge=   -0.000001

     negative rho (up, down):  5.554E-06 0.000E+00

     total cpu time spent up to now is      322.7 secs

     Self-consistent Calculation

     iteration #  1     ecut=    90.00 Ry     beta= 0.30
     Davidson diagonalization with overlap
     ethr =  1.00E-06,  avg # of iterations =  5.2

     negative rho (up, down):  5.483E-06 0.000E+00

     total cpu time spent up to now is      333.2 secs

     total energy              =    -594.55031819 Ry
     estimated scf accuracy    <       0.00027767 Ry

     iteration #  2     ecut=    90.00 Ry     beta= 0.30
     Davidson diagonalization with overlap
     ethr =  2.10E-07,  avg # of iterations =  2.3

     negative rho (up, down):  5.280E-06 0.000E+00

     total cpu time spent up to now is      339.3 secs

     total energy              =    -594.55032440 Ry
     estimated scf accuracy    <       0.00008773 Ry

     iteration #  3     ecut=    90.00 Ry     beta= 0.30
     Davidson diagonalization with overlap
     ethr =  6.65E-08,  avg # of iterations =  2.3

     negative rho (up, down):  5.208E-06 0.000E+00

     total cpu time spent up to now is      346.2 secs

     total energy              =    -594.55033656 Ry
     estimated scf accuracy    <       0.00001577 Ry

     iteration #  4     ecut=    90.00 Ry     beta= 0.30
     Davidson diagonalization with overlap
     ethr =  1.19E-08,  avg # of iterations =  2.1

     negative rho (up, down):  5.142E-06 0.000E+00

     total cpu time spent up to now is      352.4 secs

     total energy              =    -594.55033834 Ry
     estimated scf accuracy    <       0.00000533 Ry

     iteration #  5     ecut=    90.00 Ry     beta= 0.30
     Davidson diagonalization with overlap
     ethr =  4.04E-09,  avg # of iterations =  1.9

     negative rho (up, down):  5.138E-06 0.000E+00

     total cpu time spent up to now is      358.3 secs

     total energy              =    -594.55033870 Ry
     estimated scf accuracy    <       0.00000083 Ry

     iteration #  6     ecut=    90.00 Ry     beta= 0.30
     Davidson diagonalization with overlap
     ethr =  6.26E-10,  avg # of iterations =  2.5

     negative rho (up, down):  5.148E-06 0.000E+00

     total cpu time spent up to now is      365.2 secs

     total energy              =    -594.55033881 Ry
     estimated scf accuracy    <       0.00000015 Ry

     iteration #  7     ecut=    90.00 Ry     beta= 0.30
     Davidson diagonalization with overlap
     ethr =  1.11E-10,  avg # of iterations =  2.7

     negative rho (up, down):  5.150E-06 0.000E+00

     total cpu time spent up to now is      372.3 secs

     total energy              =    -594.55033884 Ry
     estimated scf accuracy    <       0.00000004 Ry

     iteration #  8     ecut=    90.00 Ry     beta= 0.30
     Davidson diagonalization with overlap
     ethr =  3.23E-11,  avg # of iterations =  2.4

     negative rho (up, down):  5.161E-06 0.000E+00

     total cpu time spent up to now is      378.5 secs

     End of self-consistent calculation

          k = 0.0000-0.0000 0.0000 ( 29123 PWs)   bands (ev):

   -14.2986 -13.9408 -13.4049 -12.6147 -11.5756 -10.3212  -9.8379  -9.8362
    -9.4662  -9.4415  -9.0897  -8.9679  -8.6825  -8.3045  -8.2995  -7.1898
    -5.8490  -5.8234  -5.5120  -4.7576  -4.7502  -3.8338  -3.4844  -3.4843
    -2.1347  -2.0903  -2.0512  -0.4295  -0.4032  -0.2957   0.8224   0.8819
     1.1357   1.1362   1.1477   1.3457   1.4124   1.6506   1.9685   2.3988
     2.5226   2.6363   2.9537   3.0733   3.3366   3.6488   3.8348   4.0156
     4.0176   4.0887   4.1276   4.1305   4.2038   4.2102   4.2288   4.3828
     4.4475   4.5519   4.8535   4.8535   5.3926   5.5740   5.7541   6.4582
     6.5450   6.6025   9.2967   9.8123  11.1939  11.2236  11.4371  11.4886
    11.6699  11.8461  12.1953  12.2520  12.3688  12.4206  12.5774

          k = 0.0000-0.1000 0.0000 ( 29153 PWs)   bands (ev):

   -14.1187 -13.7728 -13.2535 -12.4841 -11.5020 -11.3509 -10.9007 -10.4293
   -10.0843  -9.4686  -8.8134  -8.3893  -8.1604  -7.8371  -7.8021  -7.0048
    -5.5937  -5.4187  -5.2968  -4.5261  -4.4145  -3.8063  -3.3253  -3.1245
    -2.2671  -2.0039  -1.5927  -0.6390  -0.4234  -0.1232   0.0984   0.5066
     0.8961   0.9693   1.2043   1.2776   1.3130   1.5120   1.7591   2.2572
     2.4006   2.4810   2.7131   2.9259   3.0640   3.3499   3.4087   3.5378
     3.6539   3.7420   3.9589   4.1146   4.1200   4.3227   4.3601   4.4786
     4.5600   4.8309   5.0715   5.1911   5.2056   5.2260   5.6708   6.0835
     6.1760   6.4907   9.5161  10.0238  11.6622  11.8090  11.8330  12.0919
    12.1596  12.2910  12.3854  12.5923  12.6122  12.7920  12.9054

          k = 0.0000-0.2000 0.0000 ( 29117 PWs)   bands (ev):

   -13.5935 -13.3227 -12.9243 -12.5829 -12.2710 -11.9240 -11.4795 -11.0410
   -10.5043  -9.8720  -9.2409  -8.5133  -7.8921  -7.2849  -6.7114  -6.5085
    -4.9712  -4.5531  -4.4824  -4.1360  -3.7337  -3.4087  -2.9508  -2.6437
    -2.2302  -1.9097  -1.5162  -1.3506  -1.1131  -0.8250  -0.3806  -0.0226
     0.2089   0.5552   1.0697   1.3327   1.3846   1.6027   1.7105   1.9534
     2.1710   2.2312   2.5524   2.6308   2.7725   2.8261   3.1812   3.1966
     3.3194   3.4908   3.8237   3.9619   4.0727   4.2392   4.4264   4.4722
     4.6414   4.7502   4.9318   5.0509   5.3708   5.3969   5.4456   5.7181
     5.8828   6.2854  10.1458  10.5929  11.1577  11.4828  12.0906  12.2414
    12.3581  12.4803  12.6358  13.0297  13.1295  13.2550  13.4468

          k = 0.1111-0.0000 0.0000 ( 29137 PWs)   bands (ev):

   -14.0720 -13.7149 -13.1805 -12.3927 -11.3577 -10.1093  -9.6221  -9.6205
    -9.2533  -9.2290  -8.8825  -8.7613  -8.4819  -8.0998  -8.0951  -6.9999
    -5.6566  -5.6245  -5.4172  -4.5751  -4.5696  -3.7451  -3.3288  -3.3288
    -2.1434  -1.9818  -1.9707  -0.7333  -0.3505  -0.2978  -0.1669   0.2647
     0.3072   1.0665   1.1055   1.1142   1.2678   1.3982   1.5151   2.0926
     2.3833   2.3999   2.5309   2.6303   2.9602   3.1040   3.1323   3.1599
     3.1783   3.3382   3.3411   3.5586   3.6964   3.7257   3.7842   3.9641
     3.9862   4.0940   4.1142   4.3888   5.1070   5.1308   5.4066   5.9959
     6.1314   6.3813   9.5245  10.0128  11.8815  11.9116  11.9737  12.0678
    12.3578  12.5150  12.6345  12.8766  13.0210  13.1189  13.1247

          k = 0.1111-0.1000 0.0000 ( 29122 PWs)   bands (ev):

   -13.8924 -13.5473 -13.0294 -12.2624 -11.2836 -11.1311 -10.6826 -10.2148
    -9.8732  -9.2608  -8.6113  -8.1907  -7.9543  -7.6343  -7.5973  -6.8148
    -5.4358  -5.2322  -5.1625  -4.3574  -4.2394  -3.7073  -3.1935  -2.9687
    -2.2009  -1.9594  -1.4554  -0.7740  -0.4208  -0.1471   0.0138   0.1442
     0.3156   0.4022   0.6747   0.9737   1.1597   1.2820   1.4338   1.6241
     2.0436   2.1699   2.2035   2.2312   2.5554   2.7014   2.8530   3.0151
     3.0701   3.1611   3.3719   3.6159   3.7447   3.9192   3.9754   4.0500
     4.1424   4.1996   4.3131   4.3974   4.5755   5.2375   5.2452   5.3448
     6.0807   6.1963   9.7430  10.2205  11.9939  12.4012  12.4335  12.7354
    12.8047  12.8284  12.8766  13.0074  13.1248  13.3510  13.3631

          k = 0.1111-0.2000 0.0000 ( 29082 PWs)   bands (ev):

   -13.3682 -13.0981 -12.7009 -12.3599 -12.0491 -11.7031 -11.2606 -10.8248
   -10.2912  -9.6630  -9.0363  -8.3141  -7.6981  -7.0929  -6.5175  -6.3129
    -4.8739  -4.4045  -4.3376  -4.0006  -3.5901  -3.2571  -2.7936  -2.5054
    -2.0521  -1.7707  -1.3540  -1.2403  -0.9936  -0.7280  -0.3877  -0.0714
     0.1829   0.2796   0.3721   0.6367   0.9119   0.9762   1.1953   1.3064
     1.4577   1.6798   1.8745   2.0456   2.2474   2.3826   2.5012   2.8072
     2.8484   3.0927   3.2604   3.2890   3.6552   3.7273   3.9743   4.0734
     4.2968   4.5074   4.6322   4.7062   4.7747   4.8683   5.0526   5.2685
     5.5702   5.5924  10.3699  10.7835  11.3648  11.6480  12.0639  12.2810
    12.8732  13.0011  13.2508  13.5591  13.7714  13.8135  13.8806

          k = 0.2222-0.0000 0.0000 ( 29090 PWs)   bands (ev):

   -13.3955 -13.0410 -12.5113 -11.7323 -10.7123  -9.4879  -8.9786  -8.9774
    -8.6196  -8.5965  -8.2726  -8.1474  -7.9039  -7.4908  -7.4873  -6.4873
    -5.4819  -5.0608  -5.0588  -4.0818  -4.0807  -3.8971  -3.0854  -2.9598
    -2.9370  -2.2928  -2.0482  -1.8262  -1.8236  -1.4913  -1.1290  -0.4060
    -0.0991  -0.0655   0.1060   0.6139   0.6211   1.0023   1.0142   1.1237
     1.2057   1.2274   1.4540   1.6029   1.7327   1.7359   1.9999   2.0834
     2.0875   2.4047   2.4498   2.5453   2.5770   2.7121   2.9498   3.2349
     3.3445   3.3842   3.6901   4.0222   4.3700   4.4799   5.0691   5.1062
     5.3787   6.0921  10.1634  10.5243  12.5504  12.6114  12.7660  12.8921
    13.0637  13.1906  13.2963  13.3797  13.4720  13.4912  13.5634

          k = 0.2222-0.1000 0.0000 ( 29080 PWs)   bands (ev):

   -13.2170 -12.8744 -12.3613 -11.6028 -10.6356 -10.4761 -10.0334  -9.5799
    -9.2505  -8.6474  -8.0222  -7.6162  -7.3432  -7.0340  -6.9891  -6.2978
    -5.3428  -4.7630  -4.6770  -3.9595  -3.8889  -3.6939  -3.0875  -2.8313
    -2.5471  -2.1325  -1.9060  -1.8312  -1.4215  -1.1494  -1.0111  -0.6396
    -0.4134  -0.3384   0.0937   0.2532   0.3679   0.6662   0.7462   0.9342
     0.9606   1.1722   1.3433   1.5636   1.6150   1.7091   1.8876   1.9767
     2.0594   2.2748   2.4781   2.5531   2.6782   2.8675   2.9173   3.0655
     3.2408   3.3478   3.5588   3.7364   4.2272   4.2337   4.5065   5.1044
     5.4116   5.4824  10.3681  10.7134  12.3027  12.4821  12.7452  12.7852
    12.8143  12.9982  13.4300  13.6881  13.7516  13.8371  13.9802

          k = 0.2222-0.2000 0.0000 ( 29067 PWs)   bands (ev):

   -12.6959 -12.4280 -12.0344 -11.6949 -11.3881 -11.0457 -10.6097 -10.1834
    -9.6607  -9.0478  -8.4378  -7.7367  -7.1459  -6.5485  -5.9679  -5.7460
    -4.8699  -4.2487  -4.0549  -3.7451  -3.3604  -2.9680  -2.6430  -2.2593
    -1.9027  -1.6852  -1.5699  -1.5079  -1.3339  -1.2361  -1.1961  -0.8859
    -0.6845  -0.6621  -0.5776  -0.2336  -0.1692   0.0802   0.1922   0.3580
     0.5642   0.7421   0.9163   1.1150   1.2484   1.4776   1.7087   1.9184
     2.1341   2.3219   2.4677   2.5313   2.7993   2.9159   3.0588   3.1517
     3.2072   3.4945   3.6033   3.7972   3.9645   4.1417   4.3176   4.5042
     4.8449   4.8625  10.9204  11.2064  11.5758  11.7545  11.8899  12.1265
    12.4086  12.9351  13.1147  13.4013  13.8899  14.1362  14.5810

          k = 0.3333-0.0000 0.0000 ( 29134 PWs)   bands (ev):

   -12.2813 -11.9325 -11.4146 -10.6585  -9.6844  -8.5603  -7.9219  -7.9216
    -7.6047  -7.5661  -7.4735  -7.1611  -7.1290  -6.5111  -6.5036  -6.4672
    -6.4251  -4.9836  -4.7542  -4.4446  -4.3176  -4.2279  -3.6861  -3.5847
    -3.4565  -3.1290  -3.1159  -2.4016  -2.3444  -2.3393  -2.3364  -1.4494
    -1.0381  -0.8724  -0.8309  -0.7809  -0.7681  -0.3874  -0.3849   0.0814
     0.1465   0.1875   0.4047   0.9892   0.9964   1.2049   1.2418   1.3986
     1.4091   1.5599   2.1712   2.1782   2.2820   2.4846   2.5021   2.6865
     2.8934   3.3025   3.3504   3.3883   3.9708   4.2425   4.2733   4.5871
     5.1486   5.4916  11.1675  11.3644  12.2915  12.3005  12.7677  12.7910
    13.1065  13.1401  13.4586  13.6601  13.6883  13.7211  13.8216

          k = 0.3333-0.1000 0.0000 ( 29139 PWs)   bands (ev):

   -12.1046 -11.7677 -11.2661 -10.5296  -9.5979  -9.4016  -8.9726  -8.5812
    -8.2785  -7.7002  -7.2801  -6.8868  -6.4684  -6.2875  -6.2562  -5.9934
    -5.9708  -4.8546  -4.6272  -4.4749  -4.4030  -4.1845  -3.8847  -3.5184
    -3.2496  -2.8383  -2.3892  -2.2928  -2.2596  -1.8263  -1.8096  -1.6852
    -1.4257  -1.3835  -1.0463  -0.9811  -0.7116  -0.3300  -0.2277   0.0841
     0.3896   0.5230   0.5706   1.0933   1.1506   1.3303   1.4665   1.5670
     1.6657   1.7335   1.7716   1.8186   2.1302   2.2296   2.3473   2.4763
     2.7427   2.8599   2.9129   3.4564   3.5169   3.5802   4.2141   4.4480
     4.5377   4.7275  11.3181  11.4715  11.7259  12.4070  12.6742  12.9238
    13.0579  13.2100  13.4318  13.7911  13.8459  14.0047  14.1692

          k = 0.3333-0.2000 0.0000 ( 29094 PWs)   bands (ev):

   -11.5889 -11.3257 -10.9405 -10.6026 -10.3066  -9.9720  -9.5528  -9.1520
    -8.6589  -8.0967  -7.5506  -6.9574  -6.5967  -6.1613  -5.9454  -5.7684
    -4.8473  -4.7722  -4.5071  -4.3358  -4.2538  -3.9314  -3.5961  -3.2015
    -2.7962  -2.3336  -2.1729  -2.0064  -1.8803  -1.8306  -1.5144  -1.3363
    -1.2223  -1.0563  -0.8733  -0.6389  -0.5208  -0.3874  -0.1811  -0.0518
     0.1274   0.1774   0.4459   0.5485   0.7400   0.8831   1.1299   1.4254
     1.5742   1.6800   2.0110   2.0366   2.1699   2.3069   2.3296   2.5327
     2.5579   2.7501   2.8528   2.8951   3.0694   3.2490   3.5146   3.5475
     3.8281   3.8318  11.2944  11.5558  11.7111  11.9305  12.3696  12.7245
    12.7712  13.1154  13.4510  13.5908  13.8715  13.9836  14.1763

          k = 0.4444-0.0000 0.0000 ( 29202 PWs)   bands (ev):

   -10.7596 -10.4287  -9.9525  -9.3094  -8.9222  -8.7153  -8.6895  -7.4971
    -7.3823  -6.4812  -6.4811  -6.1665  -6.1602  -5.9303  -5.8313  -5.7414
    -5.6112  -5.2160  -5.2143  -4.9413  -4.7562  -4.7486  -4.6427  -4.5428
    -4.5415  -4.3395  -4.3391  -3.4573  -3.4452  -3.4445  -3.1690  -1.8527
    -1.5017  -1.4827  -1.3820  -0.8984  -0.8876  -0.5039  -0.3403  -0.2674
    -0.1628  -0.1174   0.2121   0.2706   0.3028   0.5033   0.5467   0.8493
     0.8557   1.2798   1.4527   1.7190   1.7192   2.1202   2.2200   2.8305
     2.8510   3.4917   3.7392   3.8074   3.8088   3.9989   4.2511   4.4392
     4.5967   4.6068  11.9424  11.9475  12.2470  12.2480  12.4890  12.5551
    13.0816  13.0861  13.2678  13.2730  14.0324  14.0961  14.4662

          k = 0.4444-0.1000 0.0000 ( 29157 PWs)   bands (ev):

   -10.5859 -10.2666  -9.8055  -9.1754  -8.7547  -8.5736  -8.5290  -7.9476
    -7.6147  -7.4415  -7.2988  -6.9499  -6.4720  -6.1978  -6.1093  -6.0196
    -5.5787  -5.4705  -4.8442  -4.6683  -4.6090  -4.5585  -4.4448  -4.3304
    -4.0214  -3.5613  -3.4288  -3.2400  -3.0678  -2.9334  -2.9034  -1.8779
    -1.7690  -1.6535  -1.3334  -1.0446  -0.9677  -0.5101  -0.3121  -0.1182
     0.2057   0.3444   0.4306   0.4595   0.6022   0.7471   0.8228   1.0657
     1.1361   1.3696   1.4073   1.6812   1.7437   2.2445   2.2533   2.5928
     2.6949   2.7768   3.1198   3.2880   3.3460   3.6761   3.6913   3.7059
     3.8551   3.8882  11.5438  12.1254  12.3033  12.4908  12.5970  12.8630
    13.0049  13.1063  13.4615  13.8360  13.9356  14.0734  14.3404

          k = 0.4444-0.2000 0.0000 ( 29103 PWs)   bands (ev):

   -10.0787  -9.8305  -9.4720  -9.1250  -8.8853  -8.5690  -8.3125  -8.1976
    -8.0711  -7.9953  -7.5771  -7.3859  -7.1385  -7.0924  -7.0144  -6.9594
    -5.2271  -5.1794  -4.8462  -4.6649  -4.5415  -4.2050  -4.1730  -3.8365
    -3.6404  -3.4586  -3.1696  -3.0072  -2.5557  -2.1423  -1.7666  -1.5078
    -1.1472  -1.0023  -0.9097  -0.6794  -0.4440  -0.2605  -0.0043   0.0582
     0.2255   0.3196   0.4920   0.7361   0.9153   1.0145   1.2125   1.3608
     1.5124   1.6006   1.6130   1.6879   1.7690   1.8019   1.8593   1.9346
     2.0203   2.2340   2.2718   2.2789   2.5095   2.5795   2.7354   2.7412
     3.0050   3.0172  11.8057  11.9680  12.3813  12.6082  12.7973  12.8793
    13.1344  13.1815  13.4309  13.4819  13.7507  13.8281  13.8771

     the Fermi energy is     8.0414 ev

!    total energy              =    -594.55033884 Ry
     estimated scf accuracy    <          4.6E-09 Ry
     smearing contrib. (-TS)   =       0.00000000 Ry
     internal energy E=F+TS    =    -594.55033884 Ry

     The total energy is F=E-TS. E is the sum of the following terms:
     one-electron contribution =   -4641.62542993 Ry
     hartree contribution      =    2391.63734620 Ry
     xc contribution           =    -152.35076579 Ry
     ewald contribution        =    2005.00157216 Ry
     one-center paw contrib.   =    -197.21306147 Ry

     convergence has been achieved in   8 iterations

     negative rho (up, down):  5.161E-06 0.000E+00

     Forces acting on atoms (cartesian axes, Ry/au):

     atom    1 type  1   force =     0.00000000   -0.00100781   -0.00456548
     atom    2 type  1   force =     0.00000000   -0.00190678   -0.00064850
     atom    3 type  1   force =     0.00000000   -0.00001607   -0.00481114
     atom    4 type  1   force =     0.00000000    0.00000078   -0.00297391
     atom    5 type  1   force =     0.00000000    0.00146412    0.00340761
     atom    6 type  1   force =     0.00000000    0.00143760    0.00296307
     atom    7 type  1   force =     0.00000000    0.00031429   -0.00040660
     atom    8 type  1   force =     0.00000000    0.00044104   -0.00132056
     atom    9 type  1   force =     0.00000000   -0.00044104    0.00132056
     atom   10 type  1   force =     0.00000000   -0.00031429    0.00040660
     atom   11 type  1   force =    -0.00000000   -0.00143760   -0.00296307
     atom   12 type  1   force =     0.00000000   -0.00146412   -0.00340761
     atom   13 type  1   force =     0.00000000   -0.00000078    0.00297391
     atom   14 type  1   force =    -0.00000000    0.00001607    0.00481114
     atom   15 type  1   force =     0.00000000    0.00190678    0.00064850
     atom   16 type  1   force =     0.00000000    0.00100781    0.00456548
     atom   17 type  1   force =     0.00000000    0.00100710   -0.00456298
     atom   18 type  1   force =     0.00000000    0.00190682   -0.00065802
     atom   19 type  1   force =     0.00000000    0.00002292    0.00266637
     atom   20 type  1   force =     0.00000000    0.00000627    0.00282647
     atom   21 type  1   force =     0.00000000   -0.00146683    0.00346952
     atom   22 type  1   force =     0.00000000   -0.00143687    0.00307599
     atom   23 type  1   force =     0.00000000   -0.00030993    0.00506289
     atom   24 type  1   force =     0.00000000   -0.00043145    0.00321863
     atom   25 type  1   force =     0.00000000    0.00043145   -0.00321863
     atom   26 type  1   force =     0.00000000    0.00030993   -0.00506289
     atom   27 type  1   force =    -0.00000000    0.00143687   -0.00307599
     atom   28 type  1   force =     0.00000000    0.00146683   -0.00346952
     atom   29 type  1   force =     0.00000000   -0.00000627   -0.00282647
     atom   30 type  1   force =     0.00000000   -0.00002292   -0.00266637
     atom   31 type  1   force =     0.00000000   -0.00190682    0.00065802
     atom   32 type  1   force =     0.00000000   -0.00100710    0.00456298
     atom   33 type  2   force =     0.00000000    0.00450956   -0.00433034
     atom   34 type  2   force =     0.00000000   -0.00451001   -0.00433486
     atom   35 type  2   force =    -0.00000000   -0.00450956    0.00433034
     atom   36 type  2   force =     0.00000000    0.00451001    0.00433486

     Total force =     0.023062     Total SCF correction =     0.000089
     Energy error            =      1.3E-03 Ry
     Gradient error          =      5.1E-03 Ry/Bohr

     number of scf cycles    =   5
     number of bfgs steps    =   4

     energy             old  =    -594.5490841165 Ry
     energy             new  =    -594.5503388420 Ry

     CASE: energy            _new < energy            _old

     new trust radius        =       0.0175808377 bohr
     new conv_thr            =       0.0000000051 Ry


ATOMIC_POSITIONS (angstrom)
C                0.0000000000       -1.7196645988       18.3688565377
C                1.2634728900       -1.3552595369       17.5578943770
C                1.2634728900       -0.0000203114       16.7473613587
C                0.0000000000        0.0000014838       15.8127255395
C                0.0000000000       -1.2463886573       14.8549975672
C                1.2634728900       -1.2465029823       13.9574957827
C                1.2634728900        0.0005896964       13.0533695545
C                0.0000000000        0.0003428201       12.1613402070
C                0.0000000000       -1.2638157101       11.2740623830
C                1.2634728900       -1.2640625864       10.3820330355
C                1.2634728900       -0.0169699077        9.4779068073
C                0.0000000000       -0.0170842327        8.5804050228
C                0.0000000000       -1.2634743738        7.6226770505
C                1.2634728900       -1.2634525786        6.6880412313
C                1.2634728900        0.0917866469        5.8775082130
C                0.0000000000        0.4561917088        5.0665460523
C                0.0000000000       -3.3342292356       18.3688529019
C                1.2634728900       -3.6986308677       17.5578796100
C                1.2634728900       -2.5269170013       16.5557524849
C                0.0000000000       -2.5269361713       15.6965047251
C                0.0000000000       -3.8075076128       14.8551998648
C                1.2634728900       -3.8073812525       13.9578510119
C                1.2634728900       -2.5275392848       13.0680896719
C                0.0000000000       -2.5272768490       12.1692922032
C                0.0000000000       -3.7900876110       11.2661103868
C                1.2634728900       -3.7898251752       10.3673129181
C                1.2634728900       -2.5099832075        9.4775515781
C                0.0000000000       -2.5098568472        8.5802027252
C                0.0000000000       -3.7904282887        7.7388978649
C                1.2634728900       -3.7904474587        6.8796501051
C                1.2634728900       -2.6187335923        5.8775229800
C                0.0000000000       -2.9831352244        5.0665496881
H                0.0000000000       -1.3123198624       19.3923410765
H                0.0000000000       -3.7415731106       19.3923362248
H               -0.0000000000        0.0488469724        4.0430615035
H                0.0000000000       -2.5757913494        4.0430663552



     Writing config-only to output data dir /tmp/qe/slab.save/ :
     XML data file
     NEW-OLD atomic charge density approx. for the potential

     Check: negative core charge=   -0.000001

     negative rho (up, down):  5.742E-06 0.000E+00

     total cpu time spent up to now is      380.8 secs

     Self-consistent Calculation

     iteration #  1     ecut=    90.00 Ry     beta= 0.30
     Davidson diagonalization with overlap
     ethr =  1.00E-06,  avg # of iterations =  4.8

     negative rho (up, down):  5.635E-06 0.000E+00

     total cpu time spent up to now is      390.4 secs

     total energy              =    -594.55098253 Ry
     estimated scf accuracy    <       0.00018480 Ry

     iteration #  2     ecut=    90.00 Ry     beta= 0.30
     Davidson diagonalization with overlap
     ethr =  1.40E-07,  avg # of iterations =  2.6

     negative rho (up, down):  5.418E-06 0.000E+00

     total cpu time spent up to now is      396.8 secs

     total energy              =    -594.55099079 Ry
     estimated scf accuracy    <       0.00006055 Ry

     iteration #  3     ecut=    90.00 Ry     beta= 0.30
     Davidson diagonalization with overlap
     ethr =  4.59E-08,  avg # of iterations =  2.1

     negative rho (up, down):  5.354E-06 0.000E+00

     total cpu time spent up to now is      403.4 secs

     total energy              =    -594.55099769 Ry
     estimated scf accuracy    <       0.00001445 Ry

     iteration #  4     ecut=    90.00 Ry     beta= 0.30
     Davidson diagonalization with overlap
     ethr =  1.09E-08,  avg # of iterations =  2.0

     negative rho (up, down):  5.261E-06 0.000E+00

     total cpu time spent up to now is      409.4 secs

     total energy              =    -594.55099840 Ry
     estimated scf accuracy    <       0.00000493 Ry

     iteration #  5     ecut=    90.00 Ry     beta= 0.30
     Davidson diagonalization with overlap
     ethr =  3.73E-09,  avg # of iterations =  2.3

     negative rho (up, down):  5.260E-06 0.000E+00

     total cpu time spent up to now is      416.2 secs

     total energy              =    -594.55099878 Ry
     estimated scf accuracy    <       0.00000103 Ry

     iteration #  6     ecut=    90.00 Ry     beta= 0.30
     Davidson diagonalization with overlap
     ethr =  7.78E-10,  avg # of iterations =  2.4

     negative rho (up, down):  5.272E-06 0.000E+00

     total cpu time spent up to now is      422.9 secs

     total energy              =    -594.55099896 Ry
     estimated scf accuracy    <       0.00000010 Ry

     iteration #  7     ecut=    90.00 Ry     beta= 0.30
     Davidson diagonalization with overlap
     ethr =  7.56E-11,  avg # of iterations =  2.3

     negative rho (up, down):  5.276E-06 0.000E+00

     total cpu time spent up to now is      429.7 secs

     total energy              =    -594.55099899 Ry
     estimated scf accuracy    <       0.00000002 Ry

     iteration #  8     ecut=    90.00 Ry     beta= 0.30
     Davidson diagonalization with overlap
     ethr =  1.15E-11,  avg # of iterations =  2.3

     negative rho (up, down):  5.285E-06 0.000E+00

     total cpu time spent up to now is      435.8 secs

     End of self-consistent calculation

          k = 0.0000-0.0000 0.0000 ( 29123 PWs)   bands (ev):

   -14.2938 -13.9600 -13.4219 -12.6296 -11.5928 -10.3371  -9.8283  -9.8258
    -9.4749  -9.4476  -9.0910  -8.9685  -8.6904  -8.3160  -8.3106  -7.1989
    -5.8445  -5.8198  -5.5190  -4.7678  -4.7605  -3.8328  -3.4905  -3.4904
    -2.1322  -2.0914  -2.0462  -0.4314  -0.4132  -0.2923   0.8284   0.8935
     1.1279   1.1311   1.1317   1.3344   1.4232   1.6343   1.9624   2.3851
     2.5219   2.6335   2.9546   3.0842   3.3216   3.6473   3.8314   4.0313
     4.0347   4.0789   4.1324   4.1371   4.1996   4.2050   4.2153   4.3861
     4.4299   4.5636   4.8304   4.8304   5.3860   5.5670   5.7647   6.4611
     6.5483   6.6005   9.2984   9.8069  11.1916  11.2324  11.4176  11.4632
    11.6545  11.8347  12.1841  12.2425  12.3629  12.4391  12.5590

          k = 0.0000-0.1000 0.0000 ( 29153 PWs)   bands (ev):

   -14.1144 -13.7928 -13.2714 -12.5010 -11.5220 -11.3407 -10.9076 -10.4414
   -10.0857  -9.4696  -8.8197  -8.3889  -8.1479  -7.8535  -7.8181  -7.0093
    -5.5970  -5.4160  -5.2945  -4.5364  -4.4265  -3.8031  -3.3348  -3.1297
    -2.2661  -2.0027  -1.5990  -0.6306  -0.4159  -0.1366   0.0984   0.5062
     0.8870   0.9747   1.2033   1.2574   1.3157   1.5043   1.7425   2.2555
     2.4119   2.4659   2.7182   2.9123   3.0790   3.3347   3.4018   3.5334
     3.6635   3.7365   3.9669   4.1090   4.1132   4.3277   4.3545   4.4732
     4.5593   4.8370   5.0609   5.1728   5.1978   5.2343   5.6608   6.0921
     6.1693   6.4940   9.5186  10.0199  11.6374  11.8215  11.8331  12.0715
    12.1573  12.2963  12.3812  12.5820  12.6193  12.8038  12.9053

          k = 0.0000-0.2000 0.0000 ( 29117 PWs)   bands (ev):

   -13.5925 -13.3466 -12.9448 -12.5796 -12.2840 -11.9317 -11.4919 -11.0444
   -10.5057  -9.8760  -9.2457  -8.5188  -7.8947  -7.2935  -6.7119  -6.5118
    -4.9714  -4.5571  -4.4789  -4.1351  -3.7378  -3.4180  -2.9606  -2.6501
    -2.2446  -1.9102  -1.5154  -1.3469  -1.1237  -0.8230  -0.3810  -0.0302
     0.2115   0.5478   1.0841   1.3240   1.3862   1.5804   1.7161   1.9388
     2.1594   2.2403   2.5435   2.6364   2.7790   2.8189   3.1658   3.2024
     3.3133   3.4817   3.8211   3.9723   4.0681   4.2352   4.4292   4.4716
     4.6362   4.7434   4.9313   5.0442   5.3617   5.3971   5.4422   5.7151
     5.8736   6.2871  10.1500  10.5924  11.1669  11.4933  12.1006  12.2638
    12.3664  12.4670  12.6422  13.0215  13.1327  13.2659  13.4374

          k = 0.1111-0.0000 0.0000 ( 29137 PWs)   bands (ev):

   -14.0671 -13.7341 -13.1974 -12.4076 -11.3748 -10.1251  -9.6125  -9.6101
    -9.2619  -9.2352  -8.8838  -8.7618  -8.4896  -8.1114  -8.1064  -7.0092
    -5.6520  -5.6209  -5.4246  -4.5852  -4.5799  -3.7451  -3.3348  -3.3348
    -2.1364  -1.9828  -1.9702  -0.7252  -0.3632  -0.3107  -0.1716   0.2745
     0.2784   1.0782   1.0938   1.1154   1.2731   1.3836   1.5037   2.0874
     2.3796   2.4044   2.5369   2.6149   2.9662   3.1239   3.1409   3.1577
     3.1846   3.3291   3.3306   3.5576   3.6956   3.7100   3.7830   3.9575
     3.9688   4.0837   4.1026   4.3893   5.1206   5.1261   5.3995   6.0052
     6.1251   6.3844   9.5269  10.0097  11.8910  11.8937  11.9566  12.0474
    12.3510  12.5006  12.6535  12.8739  13.0107  13.1104  13.1554

          k = 0.1111-0.1000 0.0000 ( 29122 PWs)   bands (ev):

   -13.8881 -13.5673 -13.0472 -12.2793 -11.3036 -11.1208 -10.6895 -10.2270
    -9.8745  -9.2617  -8.6175  -8.1904  -7.9418  -7.6508  -7.6134  -6.8195
    -5.4406  -5.2304  -5.1582  -4.3675  -4.2515  -3.7049  -3.2029  -2.9739
    -2.1975  -1.9606  -1.4616  -0.7652  -0.4187  -0.1580   0.0024   0.1466
     0.3220   0.3823   0.6691   0.9564   1.1523   1.2820   1.4274   1.6277
     2.0397   2.1768   2.1962   2.2274   2.5499   2.7070   2.8516   3.0143
     3.0597   3.1592   3.3692   3.6121   3.7484   3.9234   3.9746   4.0507
     4.1404   4.1998   4.3048   4.3819   4.5643   5.2455   5.2493   5.3349
     6.0731   6.2057   9.7461  10.2187  11.9900  12.4048  12.4378  12.7445
    12.8116  12.8377  12.8873  12.9815  13.1142  13.3433  13.3738

          k = 0.1111-0.2000 0.0000 ( 29082 PWs)   bands (ev):

   -13.3672 -13.1220 -12.7213 -12.3566 -12.0621 -11.7109 -11.2730 -10.8282
   -10.2926  -9.6670  -9.0411  -8.3197  -7.7007  -7.1016  -6.5181  -6.3163
    -4.8744  -4.4095  -4.3334  -4.0001  -3.5932  -3.2673  -2.8027  -2.5117
    -2.0662  -1.7707  -1.3550  -1.2364  -1.0033  -0.7239  -0.3893  -0.0743
     0.1748   0.2756   0.3510   0.6375   0.9139   0.9597   1.1972   1.3129
     1.4516   1.6824   1.8566   2.0464   2.2359   2.3777   2.5018   2.8126
     2.8394   3.1019   3.2550   3.2881   3.6632   3.7209   3.9673   4.0707
     4.3014   4.5067   4.6307   4.6900   4.7786   4.8591   5.0498   5.2604
     5.5667   5.5990  10.3744  10.7843  11.3745  11.6604  12.0869  12.3161
    12.8755  13.0077  13.2543  13.5621  13.7453  13.7983  13.8874

          k = 0.2222-0.0000 0.0000 ( 29090 PWs)   bands (ev):

   -13.3907 -13.0601 -12.5282 -11.7471 -10.7293  -9.5035  -8.9689  -8.9670
    -8.6282  -8.6026  -8.2738  -8.1476  -7.9107  -7.5028  -7.4990  -6.4982
    -5.4885  -5.0577  -5.0566  -4.0933  -4.0917  -3.9040  -3.0859  -2.9661
    -2.9352  -2.2869  -2.0638  -1.8275  -1.8247  -1.5151  -1.1263  -0.4161
    -0.1093  -0.0742   0.0990   0.6115   0.6191   1.0026   1.0164   1.1276
     1.2104   1.2327   1.4465   1.6142   1.7299   1.7343   1.9898   2.0738
     2.0771   2.4048   2.4500   2.5463   2.5782   2.7062   2.9576   3.2332
     3.3252   3.3629   3.6878   4.0289   4.3733   4.4769   5.0683   5.1083
     5.3694   6.0957  10.1662  10.5236  12.5498  12.5954  12.7573  12.8883
    13.0620  13.2069  13.3001  13.3929  13.4676  13.4969  13.5746

          k = 0.2222-0.1000 0.0000 ( 29080 PWs)   bands (ev):

   -13.2126 -12.8943 -12.3791 -11.6196 -10.6557 -10.4655 -10.0403  -9.5924
    -9.2514  -8.6483  -8.0281  -7.6156  -7.3307  -7.0511  -7.0052  -6.3041
    -5.3498  -4.7614  -4.6728  -3.9687  -3.8998  -3.7015  -3.0926  -2.8303
    -2.5504  -2.1268  -1.9210  -1.8388  -1.4468  -1.1522  -1.0088  -0.6440
    -0.4242  -0.3298   0.0953   0.2459   0.3594   0.6695   0.7412   0.9316
     0.9512   1.1700   1.3379   1.5595   1.6165   1.7074   1.8910   1.9804
     2.0593   2.2673   2.4708   2.5581   2.6704   2.8590   2.9171   3.0677
     3.2336   3.3472   3.5573   3.7231   4.2221   4.2452   4.5009   5.0956
     5.4089   5.4901  10.3717  10.7139  12.3139  12.4845  12.7609  12.7863
    12.8142  13.0031  13.4408  13.7078  13.7576  13.8439  13.9677

          k = 0.2222-0.2000 0.0000 ( 29067 PWs)   bands (ev):

   -12.6948 -12.4517 -12.0548 -11.6917 -11.4009 -11.0533 -10.6223 -10.1868
    -9.6621  -9.0516  -8.4424  -7.7423  -7.1489  -6.5577  -5.9703  -5.7499
    -4.8724  -4.2522  -4.0572  -3.7471  -3.3631  -2.9760  -2.6477  -2.2678
    -1.9022  -1.6948  -1.5851  -1.5228  -1.3339  -1.2378  -1.1946  -0.8908
    -0.6843  -0.6691  -0.5847  -0.2382  -0.1766   0.0711   0.1868   0.3541
     0.5624   0.7400   0.9093   1.1126   1.2478   1.4758   1.7051   1.9255
     2.1310   2.3174   2.4680   2.5298   2.7962   2.9174   3.0559   3.1468
     3.2118   3.4910   3.6019   3.7931   3.9667   4.1314   4.3197   4.4894
     4.8462   4.8608  10.9263  11.2110  11.5867  11.7656  11.9003  12.1320
    12.4277  12.9572  13.1218  13.4096  13.9036  14.1449  14.5837

          k = 0.3333-0.0000 0.0000 ( 29134 PWs)   bands (ev):

   -12.2764 -11.9514 -11.4313 -10.6731  -9.7009  -8.5744  -7.9122  -7.9114
    -7.6135  -7.5723  -7.4718  -7.1604  -7.1275  -6.5264  -6.5174  -6.4861
    -6.4494  -4.9884  -4.7553  -4.4611  -4.3141  -4.2257  -3.7031  -3.5899
    -3.4578  -3.1257  -3.1124  -2.4059  -2.3535  -2.3512  -2.3437  -1.4588
    -1.0391  -0.8818  -0.8202  -0.7775  -0.7762  -0.3941  -0.3912   0.0820
     0.1382   0.1832   0.4017   0.9888   0.9961   1.2009   1.2475   1.3982
     1.4099   1.5737   2.1807   2.1876   2.2813   2.4652   2.4992   2.6491
     2.8828   3.3037   3.3542   3.3762   3.9682   4.2430   4.2733   4.5824
     5.1366   5.4954  11.1718  11.3670  12.2930  12.3024  12.7727  12.7967
    13.1195  13.1471  13.4628  13.6647  13.7072  13.7233  13.8076

          k = 0.3333-0.1000 0.0000 ( 29139 PWs)   bands (ev):

   -12.1002 -11.7874 -11.2837 -10.5461  -9.6179  -9.3903  -8.9799  -8.5945
    -8.2778  -7.7015  -7.2777  -6.8878  -6.4772  -6.3046  -6.2618  -6.0097
    -5.9858  -4.8597  -4.6260  -4.4789  -4.4028  -4.1908  -3.8892  -3.5300
    -3.2517  -2.8463  -2.3943  -2.2995  -2.2662  -1.8348  -1.8096  -1.6799
    -1.4272  -1.3834  -1.0517  -0.9867  -0.7164  -0.3414  -0.2401   0.0871
     0.3870   0.5251   0.5676   1.0973   1.1489   1.3394   1.4707   1.5634
     1.6688   1.7280   1.7723   1.8162   2.1414   2.2341   2.3343   2.4561
     2.7273   2.8463   2.9024   3.4606   3.5213   3.5669   4.2061   4.4493
     4.5313   4.7283  11.3243  11.4775  11.7282  12.4143  12.6831  12.9365
    13.0706  13.2170  13.4399  13.7953  13.8460  14.0157  14.1792

          k = 0.3333-0.2000 0.0000 ( 29094 PWs)   bands (ev):

   -11.5878 -11.3492 -10.9607 -10.5996 -10.3190  -9.9795  -9.5655  -9.1551
    -8.6601  -8.0995  -7.5544  -6.9594  -6.6004  -6.1772  -5.9671  -5.7771
    -4.8527  -4.7804  -4.5078  -4.3351  -4.2566  -3.9384  -3.6030  -3.2051
    -2.7969  -2.3388  -2.1755  -2.0050  -1.8843  -1.8303  -1.5187  -1.3433
    -1.2285  -1.0671  -0.8781  -0.6457  -0.5289  -0.3969  -0.1848  -0.0550
     0.1219   0.1814   0.4502   0.5425   0.7412   0.8821   1.1292   1.4214
     1.5794   1.6779   2.0138   2.0400   2.1604   2.3041   2.3272   2.5257
     2.5564   2.7491   2.8526   2.9005   3.0523   3.2525   3.4927   3.5343
     3.8242   3.8292  11.3024  11.5684  11.7244  11.9464  12.3722  12.7247
    12.7871  13.1306  13.4577  13.5967  13.8812  13.9892  14.1926

          k = 0.4444-0.0000 0.0000 ( 29202 PWs)   bands (ev):

   -10.7547 -10.4471  -9.9688  -9.3233  -8.9208  -8.7200  -8.6994  -7.5330
    -7.4179  -6.4712  -6.4710  -6.1764  -6.1684  -5.9355  -5.8350  -5.7383
    -5.6145  -5.2293  -5.2275  -4.9569  -4.7468  -4.7358  -4.6621  -4.5419
    -4.5399  -4.3419  -4.3391  -3.4657  -3.4644  -3.4579  -3.1751  -1.8564
    -1.4997  -1.4786  -1.3803  -0.9053  -0.8951  -0.5031  -0.3407  -0.2644
    -0.1664  -0.1191   0.2082   0.2672   0.2995   0.5037   0.5532   0.8495
     0.8561   1.2831   1.4524   1.7293   1.7295   2.0825   2.1762   2.8303
     2.8501   3.5046   3.7294   3.8061   3.8104   3.9875   4.2498   4.4445
     4.5797   4.5986  11.9429  11.9480  12.2533  12.2550  12.4972  12.5632
    13.0925  13.0972  13.2773  13.2816  14.0439  14.1055  14.4667

          k = 0.4444-0.1000 0.0000 ( 29157 PWs)   bands (ev):

   -10.5814 -10.2858  -9.8227  -9.1910  -8.7550  -8.5779  -8.5388  -7.9377
    -7.6334  -7.4709  -7.3236  -6.9594  -6.4784  -6.1908  -6.1156  -6.0292
    -5.5747  -5.4711  -4.8338  -4.6738  -4.6151  -4.5780  -4.4579  -4.3350
    -4.0239  -3.5643  -3.4343  -3.2298  -3.0711  -2.9481  -2.9188  -1.8789
    -1.7642  -1.6487  -1.3324  -1.0543  -0.9736  -0.5131  -0.3225  -0.1186
     0.2065   0.3431   0.4347   0.4580   0.6087   0.7474   0.8226   1.0650
     1.1335   1.3718   1.4125   1.6867   1.7449   2.2124   2.2186   2.5888
     2.6901   2.7813   3.1142   3.2849   3.3360   3.6838   3.6848   3.7118
     3.8458   3.8706  11.5472  12.1355  12.3065  12.5001  12.6104  12.8748
    13.0078  13.1075  13.4761  13.8497  13.9454  14.0789  14.3631

          k = 0.4444-0.2000 0.0000 ( 29103 PWs)   bands (ev):

   -10.0775  -9.8537  -9.4922  -9.1238  -8.8953  -8.5771  -8.3269  -8.1900
    -8.0800  -7.9949  -7.5863  -7.3821  -7.1610  -7.1131  -7.0287  -6.9740
    -5.2255  -5.1834  -4.8554  -4.6760  -4.5374  -4.2095  -4.1730  -3.8438
    -3.6454  -3.4599  -3.1724  -3.0116  -2.5570  -2.1516  -1.7654  -1.5092
    -1.1494  -0.9984  -0.9089  -0.6807  -0.4474  -0.2699  -0.0122   0.0538
     0.2239   0.3208   0.4940   0.7397   0.9142   1.0142   1.2153   1.3490
     1.5158   1.6073   1.6154   1.6874   1.7763   1.8004   1.8598   1.9292
     2.0082   2.2162   2.2612   2.2824   2.4993   2.5763   2.7013   2.7183
     3.0054   3.0118  11.8129  11.9797  12.3901  12.6270  12.8122  12.8917
    13.1321  13.1892  13.4529  13.4929  13.7620  13.8365  13.8892

     the Fermi energy is     8.0446 ev

!    total energy              =    -594.55099899 Ry
     estimated scf accuracy    <          4.2E-09 Ry
     smearing contrib. (-TS)   =       0.00000000 Ry
     internal energy E=F+TS    =    -594.55099899 Ry

     The total energy is F=E-TS. E is the sum of the following terms:
     one-electron contribution =   -4643.55894754 Ry
     hartree contribution      =    2392.59602213 Ry
     xc contribution           =    -152.37138033 Ry
     ewald contribution        =    2005.99677295 Ry
     one-center paw contrib.   =    -197.21346619 Ry

     convergence has been achieved in   8 iterations

     negative rho (up, down):  5.285E-06 0.000E+00

     Forces acting on atoms (cartesian axes, Ry/au):

     atom    1 type  1   force =     0.00000000    0.00284668   -0.00093476
     atom    2 type  1   force =     0.00000000    0.00155252   -0.00196235
     atom    3 type  1   force =     0.00000000   -0.00001413   -0.00326411
     atom    4 type  1   force =     0.00000000    0.00000363   -0.00211435
     atom    5 type  1   force =     0.00000000   -0.00150096    0.00009330
     atom    6 type  1   force =     0.00000000   -0.00145823    0.00132812
     atom    7 type  1   force =     0.00000000    0.00066617    0.00114420
     atom    8 type  1   force =     0.00000000    0.00069310   -0.00056786
     atom    9 type  1   force =     0.00000000   -0.00069310    0.00056786
     atom   10 type  1   force =     0.00000000   -0.00066617   -0.00114420
     atom   11 type  1   force =     0.00000000    0.00145823   -0.00132812
     atom   12 type  1   force =     0.00000000    0.00150096   -0.00009330
     atom   13 type  1   force =     0.00000000   -0.00000363    0.00211435
     atom   14 type  1   force =     0.00000000    0.00001413    0.00326411
     atom   15 type  1   force =     0.00000000   -0.00155252    0.00196235
     atom   16 type  1   force =     0.00000000   -0.00284668    0.00093476
     atom   17 type  1   force =     0.00000000   -0.00284628   -0.00094858
     atom   18 type  1   force =     0.00000000   -0.00154785   -0.00197782
     atom   19 type  1   force =     0.00000000    0.00002058   -0.00027020
     atom   20 type  1   force =     0.00000000    0.00000098    0.00246457
     atom   21 type  1   force =     0.00000000    0.00150417    0.00019933
     atom   22 type  1   force =     0.00000000    0.00147557    0.00170994
     atom   23 type  1   force =     0.00000000   -0.00066159    0.00240145
     atom   24 type  1   force =     0.00000000   -0.00065372    0.00187805
     atom   25 type  1   force =     0.00000000    0.00065372   -0.00187805
     atom   26 type  1   force =     0.00000000    0.00066159   -0.00240145
     atom   27 type  1   force =     0.00000000   -0.00147557   -0.00170994
     atom   28 type  1   force =     0.00000000   -0.00150417   -0.00019933
     atom   29 type  1   force =     0.00000000   -0.00000098   -0.00246457
     atom   30 type  1   force =     0.00000000   -0.00002058    0.00027020
     atom   31 type  1   force =     0.00000000    0.00154785    0.00197782
     atom   32 type  1   force =     0.00000000    0.00284628    0.00094858
     atom   33 type  2   force =     0.00000000    0.00327616   -0.00337519
     atom   34 type  2   force =     0.00000000   -0.00327902   -0.00337593
     atom   35 type  2   force =     0.00000000   -0.00327616    0.00337519
     atom   36 type  2   force =     0.00000000    0.00327902    0.00337593

     Total force =     0.015644     Total SCF correction =     0.000135
     Energy error            =      6.6E-04 Ry
     Gradient error          =      3.4E-03 Ry/Bohr

     number of scf cycles    =   6
     number of bfgs steps    =   5

     energy             old  =    -594.5503388420 Ry
     energy             new  =    -594.5509989866 Ry

     CASE: energy            _new < energy            _old

     new trust radius        =       0.0144374015 bohr
     new conv_thr            =       0.0000000034 Ry


ATOMIC_POSITIONS (angstrom)
C                0.0000000000       -1.7193594880       18.3660309074
C                1.2634728900       -1.3552356963       17.5559448293
C                1.2634728900       -0.0000349631       16.7451093449
C                0.0000000000        0.0000034952       15.8122549173
C                0.0000000000       -1.2459082402       14.8569399448
C                1.2634728900       -1.2457203378       13.9600246906
C                1.2634728900        0.0011997348       13.0536697834
C                0.0000000000        0.0010005196       12.1602746506
C                0.0000000000       -1.2644734096       11.2751279394
C                1.2634728900       -1.2646726248       10.3817328066
C                1.2634728900       -0.0177525522        9.4753778994
C                0.0000000000       -0.0175646498        8.5784626452
C                0.0000000000       -1.2634763852        7.6231476727
C                1.2634728900       -1.2634379269        6.6902932451
C                1.2634728900        0.0917628063        5.8794577607
C                0.0000000000        0.4558865980        5.0693716826
C                0.0000000000       -3.3345344771       18.3660162705
C                1.2634728900       -3.6986508442       17.5559154778
C                1.2634728900       -2.5268952239       16.5551931881
C                0.0000000000       -2.5269319383       15.6992166457
C                0.0000000000       -3.8079865817       14.8572637691
C                1.2634728900       -3.8081488428       13.9607261806
C                1.2634728900       -2.5281464537       13.0722160356
C                0.0000000000       -2.5279011932       12.1719172038
C                0.0000000000       -3.7894632668       11.2634853862
C                1.2634728900       -3.7892180063       10.3631865544
C                1.2634728900       -2.5092156172        9.4746764094
C                0.0000000000       -2.5093778783        8.5781388209
C                0.0000000000       -3.7904325217        7.7361859443
C                1.2634728900       -3.7904692361        6.8802094019
C                1.2634728900       -2.6187136158        5.8794871122
C                0.0000000000       -2.9828299829        5.0693863195
H                0.0000000000       -1.3074263789       19.3864778891
H                0.0000000000       -3.7464690293       19.3864711824
H               -0.0000000000        0.0439534889        4.0489246909
H                0.0000000000       -2.5708954307        4.0489313976



     Writing config-only to output data dir /tmp/qe/slab.save/ :
     XML data file
     NEW-OLD atomic charge density approx. for the potential

     Check: negative core charge=   -0.000001

     negative rho (up, down):  5.687E-06 0.000E+00

     total cpu time spent up to now is      438.0 secs

     Self-consistent Calculation

     iteration #  1     ecut=    90.00 Ry     beta= 0.30
     Davidson diagonalization with overlap
     ethr =  1.00E-06,  avg # of iterations =  3.1

     Threshold (ethr) on eigenvalues was too large:
     Diagonalizing with lowered threshold

     Davidson diagonalization with overlap
     ethr =  5.48E-08,  avg # of iterations =  3.7

     negative rho (up, down):  5.596E-06 0.000E+00

     total cpu time spent up to now is      453.6 secs

     total energy              =    -594.55132148 Ry
     estimated scf accuracy    <       0.00009188 Ry

     iteration #  2     ecut=    90.00 Ry     beta= 0.30
     Davidson diagonalization with overlap
     ethr =  6.96E-08,  avg # of iterations =  1.4

     negative rho (up, down):  5.414E-06 0.000E+00

     total cpu time spent up to now is      459.2 secs

     total energy              =    -594.55132155 Ry
     estimated scf accuracy    <       0.00002932 Ry

     iteration #  3     ecut=    90.00 Ry     beta= 0.30
     Davidson diagonalization with overlap
     ethr =  2.22E-08,  avg # of iterations =  1.9

     negative rho (up, down):  5.324E-06 0.000E+00

     total cpu time spent up to now is      465.1 secs

     total energy              =    -594.55132338 Ry
     estimated scf accuracy    <       0.00000543 Ry

     iteration #  4     ecut=    90.00 Ry     beta= 0.30
     Davidson diagonalization with overlap
     ethr =  4.12E-09,  avg # of iterations =  2.0

     negative rho (up, down):  5.300E-06 0.000E+00

     total cpu time spent up to now is      471.2 secs

     total energy              =    -594.55132383 Ry
     estimated scf accuracy    <       0.00000084 Ry

     iteration #  5     ecut=    90.00 Ry     beta= 0.30
     Davidson diagonalization with overlap
     ethr =  6.36E-10,  avg # of iterations =  2.0

     negative rho (up, down):  5.300E-06 0.000E+00

     total cpu time spent up to now is      477.3 secs

     total energy              =    -594.55132390 Ry
     estimated scf accuracy    <       0.00000016 Ry

     iteration #  6     ecut=    90.00 Ry     beta= 0.30
     Davidson diagonalization with overlap
     ethr =  1.22E-10,  avg # of iterations =  3.0

     negative rho (up, down):  5.306E-06 0.000E+00

     total cpu time spent up to now is      484.6 secs

     total energy              =    -594.55132392 Ry
     estimated scf accuracy    <       0.00000003 Ry

     iteration #  7     ecut=    90.00 Ry     beta= 0.30
     Davidson diagonalization with overlap
     ethr =  2.04E-11,  avg # of iterations =  3.4

     negative rho (up, down):  5.308E-06 0.000E+00

     total cpu time spent up to now is      491.7 secs

     total energy              =    -594.55132392 Ry
     estimated scf accuracy    <       0.00000002 Ry

     iteration #  8     ecut=    90.00 Ry     beta= 0.30
     Davidson diagonalization with overlap
     ethr =  1.24E-11,  avg # of iterations =  3.7

     negative rho (up, down):  5.309E-06 0.000E+00

     total cpu time spent up to now is      498.8 secs

     total energy              =    -594.55132393 Ry
     estimated scf accuracy    <          7.3E-09 Ry

     iteration #  9     ecut=    90.00 Ry     beta= 0.30
     Davidson diagonalization with overlap
     ethr =  5.56E-12,  avg # of iterations =  2.7

     negative rho (up, down):  5.312E-06 0.000E+00

     total cpu time spent up to now is      505.1 secs

     End of self-consistent calculation

          k = 0.0000-0.0000 0.0000 ( 29123 PWs)   bands (ev):

   -14.2925 -13.9749 -13.4271 -12.6337 -11.5961 -10.3408  -9.8243  -9.8208
    -9.4859  -9.4577  -9.0885  -8.9714  -8.6983  -8.3254  -8.3199  -7.2007
    -5.8431  -5.8183  -5.5176  -4.7756  -4.7679  -3.8283  -3.4952  -3.4951
    -2.1302  -2.0943  -2.0442  -0.4321  -0.4158  -0.2860   0.8273   0.8996
     1.1067   1.1292   1.1300   1.3228   1.4319   1.6270   1.9588   2.3793
     2.5187   2.6322   2.9557   3.0923   3.3168   3.6475   3.8328   4.0382
     4.0425   4.0790   4.1209   4.1279   4.1937   4.1997   4.2004   4.3908
     4.4226   4.5708   4.8162   4.8162   5.3873   5.5551   5.7740   6.4648
     6.5462   6.6004   9.3032   9.8096  11.1904  11.2349  11.4044  11.4477
    11.6521  11.8317  12.1793  12.2360  12.3597  12.4376  12.5543

          k = 0.0000-0.1000 0.0000 ( 29153 PWs)   bands (ev):

   -14.1135 -13.8079 -13.2765 -12.5057 -11.5276 -11.3353 -10.9182 -10.4448
   -10.0859  -9.4731  -8.8237  -8.3923  -8.1398  -7.8680  -7.8323  -7.0093
    -5.5963  -5.4149  -5.2911  -4.5460  -4.4338  -3.7984  -3.3390  -3.1357
    -2.2629  -2.0046  -1.6016  -0.6247  -0.4128  -0.1418   0.0973   0.5028
     0.8846   0.9730   1.2028   1.2358   1.3150   1.5045   1.7351   2.2534
     2.4160   2.4594   2.7200   2.9095   3.0855   3.3228   3.3937   3.5319
     3.6715   3.7277   3.9749   4.1027   4.1143   4.3314   4.3470   4.4759
     4.5516   4.8408   5.0453   5.1573   5.1992   5.2424   5.6485   6.0997
     6.1662   6.4918   9.5235  10.0228  11.6241  11.8259  11.8308  12.0604
    12.1469  12.2921  12.3773  12.5790  12.6178  12.8074  12.9029

          k = 0.0000-0.2000 0.0000 ( 29117 PWs)   bands (ev):

   -13.5938 -13.3625 -12.9496 -12.5779 -12.2889 -11.9393 -11.4982 -11.0444
   -10.5056  -9.8784  -9.2506  -8.5232  -7.8986  -7.3015  -6.7143  -6.5144
    -4.9660  -4.5611  -4.4745  -4.1321  -3.7432  -3.4278  -2.9668  -2.6579
    -2.2471  -1.9118  -1.5118  -1.3477  -1.1293  -0.8233  -0.3821  -0.0340
     0.2128   0.5446   1.0905   1.3204   1.3803   1.5570   1.7187   1.9329
     2.1568   2.2446   2.5361   2.6421   2.7805   2.8101   3.1559   3.2086
     3.3122   3.4777   3.8174   3.9823   4.0683   4.2285   4.4326   4.4744
     4.6264   4.7449   4.9389   5.0365   5.3587   5.4030   5.4295   5.7063
     5.8642   6.2841  10.1545  10.5940  11.1733  11.4973  12.0950  12.2596
    12.3606  12.4531  12.6459  13.0163  13.1320  13.2713  13.4326

          k = 0.1111-0.0000 0.0000 ( 29137 PWs)   bands (ev):

   -14.0659 -13.7491 -13.2027 -12.4117 -11.3782 -10.1288  -9.6084  -9.6051
    -9.2730  -9.2452  -8.8812  -8.7647  -8.4975  -8.1209  -8.1158  -7.0110
    -5.6505  -5.6194  -5.4233  -4.5929  -4.5872  -3.7414  -3.3395  -3.3394
    -2.1298  -1.9858  -1.9727  -0.7233  -0.3690  -0.3142  -0.1799   0.2596
     0.2846   1.0841   1.0907   1.1150   1.2766   1.3787   1.4921   2.0838
     2.3757   2.4075   2.5389   2.6095   2.9688   3.1389   3.1406   3.1452
     3.1854   3.3115   3.3129   3.5549   3.6938   3.7041   3.7850   3.9574
     3.9576   4.0775   4.0979   4.3918   5.1205   5.1261   5.4001   6.0122
     6.1205   6.3884   9.5320  10.0132  11.8857  11.8962  11.9504  12.0384
    12.3484  12.4933  12.6527  12.8726  13.0103  13.1097  13.1557

          k = 0.1111-0.1000 0.0000 ( 29122 PWs)   bands (ev):

   -13.8872 -13.5824 -13.0524 -12.2840 -11.3091 -11.1154 -10.7002 -10.2304
    -9.8747  -9.2652  -8.6215  -8.1938  -7.9335  -7.6654  -7.6276  -6.8194
    -5.4398  -5.2286  -5.1556  -4.3767  -4.2587  -3.7009  -3.2072  -2.9800
    -2.1928  -1.9638  -1.4641  -0.7610  -0.4197  -0.1675  -0.0050   0.1460
     0.3276   0.3697   0.6642   0.9505   1.1481   1.2812   1.4228   1.6335
     2.0378   2.1809   2.1876   2.2201   2.5454   2.7044   2.8519   3.0131
     3.0539   3.1577   3.3660   3.6072   3.7499   3.9243   3.9749   4.0471
     4.1339   4.1984   4.3012   4.3712   4.5627   5.2418   5.2585   5.3339
     6.0665   6.2132   9.7513  10.2223  11.9846  12.4031  12.4345  12.7486
    12.8135  12.8427  12.8929  12.9682  13.1058  13.3397  13.3720

          k = 0.1111-0.2000 0.0000 ( 29082 PWs)   bands (ev):

   -13.3685 -13.1379 -12.7261 -12.3549 -12.0669 -11.7185 -11.2793 -10.8282
   -10.2925  -9.6694  -9.0460  -8.3241  -7.7046  -7.1096  -6.5206  -6.3190
    -4.8693  -4.4141  -4.3277  -3.9979  -3.5978  -3.2779  -2.8087  -2.5193
    -2.0685  -1.7718  -1.3526  -1.2368  -1.0083  -0.7235  -0.3911  -0.0775
     0.1695   0.2715   0.3327   0.6379   0.9153   0.9516   1.1953   1.3178
     1.4474   1.6804   1.8477   2.0446   2.2295   2.3766   2.5027   2.8150
     2.8352   3.1071   3.2488   3.2883   3.6678   3.7157   3.9645   4.0653
     4.3046   4.5072   4.6314   4.6770   4.7823   4.8482   5.0544   5.2521
     5.5612   5.6062  10.3791  10.7863  11.3809  11.6644  12.0886  12.3178
    12.8748  13.0126  13.2557  13.5706  13.7288  13.7863  13.8942

          k = 0.2222-0.0000 0.0000 ( 29090 PWs)   bands (ev):

   -13.3894 -13.0750 -12.5335 -11.7513 -10.7326  -9.5070  -8.9649  -8.9621
    -8.6392  -8.6127  -8.2710  -8.1503  -7.9185  -7.5126  -7.5086  -6.5003
    -5.4883  -5.0562  -5.0551  -4.1006  -4.0991  -3.9086  -3.0823  -2.9702
    -2.9345  -2.2860  -2.0802  -1.8314  -1.8286  -1.5291  -1.1181  -0.4206
    -0.1131  -0.0761   0.1009   0.6076   0.6154   1.0006   1.0152   1.1269
     1.2048   1.2268   1.4419   1.6203   1.7287   1.7328   1.9786   2.0654
     2.0692   2.4000   2.4474   2.5462   2.5816   2.7039   2.9579   3.2283
     3.3225   3.3564   3.6840   4.0287   4.3784   4.4775   5.0640   5.1122
     5.3683   6.1000  10.1720  10.5287  12.5506  12.5910  12.7529  12.8881
    13.0638  13.2123  13.3022  13.3964  13.4641  13.5014  13.5734

          k = 0.2222-0.1000 0.0000 ( 29080 PWs)   bands (ev):

   -13.2117 -12.9094 -12.3843 -11.6242 -10.6611 -10.4600 -10.0510  -9.5958
    -9.2517  -8.6516  -8.0319  -7.6190  -7.3221  -7.0659  -7.0198  -6.3044
    -5.3489  -4.7593  -4.6721  -3.9754  -3.9050  -3.7079  -3.0930  -2.8296
    -2.5554  -2.1266  -1.9370  -1.8434  -1.4613  -1.1510  -1.0037  -0.6489
    -0.4286  -0.3234   0.0971   0.2399   0.3493   0.6732   0.7381   0.9275
     0.9418   1.1676   1.3330   1.5559   1.6154   1.7008   1.8929   1.9824
     2.0579   2.2590   2.4615   2.5577   2.6650   2.8565   2.9143   3.0695
     3.2319   3.3455   3.5548   3.7202   4.2202   4.2501   4.5020   5.0938
     5.4062   5.4968  10.3777  10.7192  12.3162  12.4860  12.7648  12.7893
    12.8147  13.0039  13.4483  13.7154  13.7616  13.8421  13.9611

          k = 0.2222-0.2000 0.0000 ( 29067 PWs)   bands (ev):

   -12.6962 -12.4676 -12.0596 -11.6900 -11.4056 -11.0609 -10.6285 -10.1868
    -9.6619  -9.0539  -8.4472  -7.7465  -7.1528  -6.5652  -5.9727  -5.7532
    -4.8699  -4.2531  -4.0557  -3.7486  -3.3681  -2.9846  -2.6519  -2.2741
    -1.9053  -1.7030  -1.5968  -1.5315  -1.3327  -1.2383  -1.1937  -0.8928
    -0.6834  -0.6714  -0.5901  -0.2436  -0.1851   0.0667   0.1824   0.3520
     0.5610   0.7368   0.9049   1.1107   1.2465   1.4743   1.7040   1.9261
     2.1285   2.3155   2.4651   2.5255   2.7946   2.9142   3.0540   3.1441
     3.2125   3.4888   3.6009   3.7897   3.9666   4.1318   4.3205   4.4869
     4.8448   4.8632  10.9320  11.2158  11.5892  11.7685  11.9069  12.1354
    12.4317  12.9627  13.1242  13.4141  13.9075  14.1495  14.5853

          k = 0.3333-0.0000 0.0000 ( 29134 PWs)   bands (ev):

   -12.2751 -11.9663 -11.4365 -10.6771  -9.7041  -8.5775  -7.9082  -7.9067
    -7.6221  -7.5825  -7.4697  -7.1620  -7.1304  -6.5356  -6.5276  -6.4958
    -6.4599  -4.9885  -4.7586  -4.4684  -4.3123  -4.2243  -3.7104  -3.5950
    -3.4603  -3.1246  -3.1107  -2.4094  -2.3650  -2.3638  -2.3457  -1.4605
    -1.0419  -0.8941  -0.8176  -0.7849  -0.7765  -0.4003  -0.3984   0.0833
     0.1317   0.1806   0.4023   0.9877   0.9949   1.2014   1.2501   1.3981
     1.4095   1.5763   2.1772   2.1837   2.2841   2.4526   2.5064   2.6374
     2.8724   3.3040   3.3573   3.3704   3.9653   4.2432   4.2718   4.5820
     5.1326   5.4997  11.1799  11.3751  12.2928  12.3019  12.7795  12.8035
    13.1264  13.1513  13.4678  13.6687  13.7206  13.7284  13.8056

          k = 0.3333-0.1000 0.0000 ( 29139 PWs)   bands (ev):

   -12.0992 -11.8025 -11.2889 -10.5506  -9.6230  -9.3847  -8.9908  -8.5975
    -8.2784  -7.7041  -7.2779  -6.8902  -6.4794  -6.3130  -6.2626  -6.0227
    -5.9993  -4.8601  -4.6291  -4.4797  -4.4008  -4.1958  -3.8943  -3.5366
    -3.2556  -2.8554  -2.3990  -2.3053  -2.2697  -1.8400  -1.8087  -1.6808
    -1.4270  -1.3810  -1.0590  -0.9949  -0.7252  -0.3468  -0.2492   0.0884
     0.3857   0.5251   0.5660   1.0980   1.1473   1.3451   1.4709   1.5604
     1.6689   1.7214   1.7710   1.8150   2.1444   2.2310   2.3289   2.4487
     2.7228   2.8373   2.8985   3.4642   3.5224   3.5609   4.2024   4.4509
     4.5285   4.7313  11.3330  11.4860  11.7298  12.4205  12.6906  12.9432
    13.0747  13.2185  13.4411  13.7959  13.8454  14.0134  14.1829

          k = 0.3333-0.2000 0.0000 ( 29094 PWs)   bands (ev):

   -11.5891 -11.3651 -10.9656 -10.5980 -10.3234  -9.9872  -9.5718  -9.1550
    -8.6597  -8.1014  -7.5587  -6.9618  -6.6026  -6.1823  -5.9753  -5.7820
    -4.8599  -4.7884  -4.5100  -4.3385  -4.2597  -3.9446  -3.6086  -3.2079
    -2.7998  -2.3443  -2.1768  -2.0055  -1.8870  -1.8328  -1.5210  -1.3502
    -1.2340  -1.0734  -0.8819  -0.6512  -0.5348  -0.4040  -0.1854  -0.0581
     0.1171   0.1847   0.4508   0.5378   0.7423   0.8787   1.1284   1.4185
     1.5811   1.6758   2.0145   2.0390   2.1602   2.3018   2.3262   2.5221
     2.5541   2.7474   2.8486   2.9004   3.0483   3.2542   3.4878   3.5274
     3.8226   3.8285  11.3089  11.5780  11.7322  11.9479  12.3759  12.7243
    12.7919  13.1269  13.4624  13.6035  13.8791  13.9925  14.1981

          k = 0.4444-0.0000 0.0000 ( 29202 PWs)   bands (ev):

   -10.7533 -10.4616  -9.9738  -9.3278  -8.9227  -8.7172  -8.7088  -7.5417
    -7.4257  -6.4666  -6.4663  -6.1878  -6.1793  -5.9357  -5.8370  -5.7423
    -5.6141  -5.2391  -5.2373  -4.9688  -4.7441  -4.7287  -4.6693  -4.5443
    -4.5404  -4.3470  -4.3455  -3.4800  -3.4795  -3.4606  -3.1813  -1.8590
    -1.4991  -1.4775  -1.3780  -0.9133  -0.9028  -0.5016  -0.3414  -0.2628
    -0.1714  -0.1224   0.2094   0.2659   0.2975   0.5029   0.5559   0.8469
     0.8534   1.2831   1.4544   1.7247   1.7249   2.0699   2.1627   2.8310
     2.8508   3.5122   3.7211   3.8053   3.8098   3.9837   4.2482   4.4482
     4.5712   4.5972  11.9449  11.9498  12.2571  12.2594  12.5072  12.5733
    13.1009  13.1059  13.2867  13.2906  14.0557  14.1166  14.4693

          k = 0.4444-0.1000 0.0000 ( 29157 PWs)   bands (ev):

   -10.5804 -10.3005  -9.8277  -9.1959  -8.7581  -8.5743  -8.5481  -7.9336
    -7.6457  -7.4782  -7.3287  -6.9637  -6.4829  -6.1909  -6.1154  -6.0377
    -5.5761  -5.4700  -4.8286  -4.6848  -4.6221  -4.5906  -4.4680  -4.3409
    -4.0305  -3.5692  -3.4365  -3.2238  -3.0785  -2.9617  -2.9293  -1.8801
    -1.7618  -1.6467  -1.3304  -1.0625  -0.9807  -0.5129  -0.3275  -0.1181
     0.2086   0.3427   0.4352   0.4585   0.6121   0.7461   0.8199   1.0624
     1.1302   1.3698   1.4151   1.6811   1.7385   2.2005   2.2075   2.5887
     2.6883   2.7835   3.1096   3.2853   3.3298   3.6798   3.6904   3.7137
     3.8434   3.8617  11.5499  12.1421  12.3088  12.5083  12.6207  12.8815
    13.0135  13.1111  13.4883  13.8540  13.9552  14.0839  14.3825

          k = 0.4444-0.2000 0.0000 ( 29103 PWs)   bands (ev):

   -10.0788  -9.8692  -9.4969  -9.1231  -8.8977  -8.5858  -8.3352  -8.1856
    -8.0886  -7.9948  -7.5899  -7.3776  -7.1700  -7.1209  -7.0338  -6.9778
    -5.2280  -5.1862  -4.8649  -4.6864  -4.5375  -4.2152  -4.1775  -3.8516
    -3.6545  -3.4637  -3.1761  -3.0159  -2.5624  -2.1617  -1.7683  -1.5112
    -1.1486  -0.9953  -0.9088  -0.6803  -0.4512  -0.2768  -0.0157   0.0540
     0.2242   0.3232   0.4948   0.7452   0.9126   1.0140   1.2136   1.3400
     1.5164   1.6066   1.6208   1.6847   1.7765   1.7963   1.8581   1.9249
     2.0018   2.2060   2.2541   2.2840   2.4952   2.5726   2.6921   2.7108
     3.0039   3.0104  11.8178  11.9872  12.3941  12.6330  12.8151  12.8990
    13.1268  13.1901  13.4546  13.4973  13.7711  13.8409  13.8960

     the Fermi energy is     8.0461 ev

!    total energy              =    -594.55132393 Ry
     estimated scf accuracy    <          2.8E-10 Ry
     smearing contrib. (-TS)   =       0.00000000 Ry
     internal energy E=F+TS    =    -594.55132393 Ry

     The total energy is F=E-TS. E is the sum of the following terms:
     one-electron contribution =   -4646.40229264 Ry
     hartree contribution      =    2394.01170982 Ry
     xc contribution           =    -152.38442266 Ry
     ewald contribution        =    2007.43741729 Ry
     one-center paw contrib.   =    -197.21373574 Ry

     convergence has been achieved in   9 iterations

     negative rho (up, down):  5.312E-06 0.000E+00

     Forces acting on atoms (cartesian axes, Ry/au):

     atom    1 type  1   force =     0.00000000    0.00271636   -0.00058730
     atom    2 type  1   force =     0.00000000    0.00165772   -0.00208804
     atom    3 type  1   force =     0.00000000   -0.00000897   -0.00124289
     atom    4 type  1   force =     0.00000000   -0.00001162   -0.00126809
     atom    5 type  1   force =     0.00000000   -0.00180501   -0.00085995
     atom    6 type  1   force =     0.00000000   -0.00240730   -0.00054979
     atom    7 type  1   force =     0.00000000    0.00040600    0.00119720
     atom    8 type  1   force =     0.00000000    0.00044222    0.00042343
     atom    9 type  1   force =     0.00000000   -0.00044222   -0.00042343
     atom   10 type  1   force =     0.00000000   -0.00040600   -0.00119720
     atom   11 type  1   force =     0.00000000    0.00240730    0.00054979
     atom   12 type  1   force =     0.00000000    0.00180501    0.00085995
     atom   13 type  1   force =     0.00000000    0.00001162    0.00126809
     atom   14 type  1   force =     0.00000000    0.00000897    0.00124289
     atom   15 type  1   force =     0.00000000   -0.00165772    0.00208804
     atom   16 type  1   force =     0.00000000   -0.00271636    0.00058730
     atom   17 type  1   force =     0.00000000   -0.00271897   -0.00059070
     atom   18 type  1   force =     0.00000000   -0.00165136   -0.00210487
     atom   19 type  1   force =     0.00000000    0.00002027    0.00110773
     atom   20 type  1   force =     0.00000000    0.00002418   -0.00201020
     atom   21 type  1   force =     0.00000000    0.00181022   -0.00053037
     atom   22 type  1   force =     0.00000000    0.00243490    0.00000611
     atom   23 type  1   force =     0.00000000   -0.00039600   -0.00064566
     atom   24 type  1   force =     0.00000000   -0.00043470    0.00018173
     atom   25 type  1   force =     0.00000000    0.00043470   -0.00018173
     atom   26 type  1   force =     0.00000000    0.00039600    0.00064566
     atom   27 type  1   force =     0.00000000   -0.00243490   -0.00000611
     atom   28 type  1   force =     0.00000000   -0.00181022    0.00053037
     atom   29 type  1   force =     0.00000000   -0.00002418    0.00201020
     atom   30 type  1   force =     0.00000000   -0.00002027   -0.00110773
     atom   31 type  1   force =     0.00000000    0.00165136    0.00210487
     atom   32 type  1   force =     0.00000000    0.00271897    0.00059070
     atom   33 type  2   force =     0.00000000    0.00284101   -0.00170215
     atom   34 type  2   force =     0.00000000   -0.00284230   -0.00171386
     atom   35 type  2   force =     0.00000000   -0.00284101    0.00170215
     atom   36 type  2   force =     0.00000000    0.00284230    0.00171386

     Total force =     0.012844     Total SCF correction =     0.000041
     Energy error            =      3.2E-04 Ry
     Gradient error          =      2.8E-03 Ry/Bohr

     number of scf cycles    =   7
     number of bfgs steps    =   6

     energy             old  =    -594.5509989866 Ry
     energy             new  =    -594.5513239311 Ry

     CASE: energy            _new < energy            _old

     new trust radius        =       0.0141580106 bohr
     new conv_thr            =       0.0000000028 Ry


ATOMIC_POSITIONS (angstrom)
C                0.0000000000       -1.7176597810       18.3630945809
C                1.2634728900       -1.3544585806       17.5533848000
C                1.2634728900       -0.0000500849       16.7424147458
C                0.0000000000       -0.0000060420       15.8106842032
C                0.0000000000       -1.2466117094       14.8578677466
C                1.2634728900       -1.2465064392       13.9613229525
C                1.2634728900        0.0018522206       13.0545367204
C                0.0000000000        0.0017102593       12.1599113903
C                0.0000000000       -1.2651831493       11.2754911997
C                1.2634728900       -1.2653251106       10.3808658696
C                1.2634728900       -0.0169664508        9.4740796375
C                0.0000000000       -0.0168611806        8.5775348434
C                0.0000000000       -1.2634668480        7.6247183868
C                1.2634728900       -1.2634228051        6.6929878442
C                1.2634728900        0.0909856906        5.8820177900
C                0.0000000000        0.4541868910        5.0723080091
C                0.0000000000       -3.3362366673       18.3630716682
C                1.2634728900       -3.6994206176       17.5533337036
C                1.2634728900       -2.5268665120       16.5558262363
C                0.0000000000       -2.5269078515       15.6996967329
C                0.0000000000       -3.8072783480       14.8585464370
C                1.2634728900       -3.8073313587       13.9626776767
C                1.2634728900       -2.5287898152       13.0744277874
C                0.0000000000       -2.5285884902       12.1736664137
C                0.0000000000       -3.7887759698       11.2617361763
C                1.2634728900       -3.7885746448       10.3609748026
C                1.2634728900       -2.5100331013        9.4727249133
C                0.0000000000       -2.5100861120        8.5768561530
C                0.0000000000       -3.7904566085        7.7357058571
C                1.2634728900       -3.7904979480        6.8795763537
C                1.2634728900       -2.6179438424        5.8820688864
C                0.0000000000       -2.9811277927        5.0723309218
H                0.0000000000       -1.3018519800       19.3814859427
H                0.0000000000       -3.7520457277       19.3814679889
H               -0.0000000000        0.0383790900        4.0539166373
H                0.0000000000       -2.5653187323        4.0539345911



     Writing config-only to output data dir /tmp/qe/slab.save/ :
     XML data file
     NEW-OLD atomic charge density approx. for the potential

     Check: negative core charge=   -0.000001

     negative rho (up, down):  5.647E-06 0.000E+00

     total cpu time spent up to now is      507.3 secs

     Self-consistent Calculation

     iteration #  1     ecut=    90.00 Ry     beta= 0.30
     Davidson diagonalization with overlap
     ethr =  1.00E-06,  avg # of iterations =  3.1

     Threshold (ethr) on eigenvalues was too large:
     Diagonalizing with lowered threshold

     Davidson diagonalization with overlap
     ethr =  4.87E-08,  avg # of iterations =  3.5

     negative rho (up, down):  5.560E-06 0.000E+00

     total cpu time spent up to now is      522.7 secs

     total energy              =    -594.55153849 Ry
     estimated scf accuracy    <       0.00008344 Ry

     iteration #  2     ecut=    90.00 Ry     beta= 0.30
     Davidson diagonalization with overlap
     ethr =  6.32E-08,  avg # of iterations =  1.7

     negative rho (up, down):  5.401E-06 0.000E+00

     total cpu time spent up to now is      528.4 secs

     total energy              =    -594.55153848 Ry
     estimated scf accuracy    <       0.00002699 Ry

     iteration #  3     ecut=    90.00 Ry     beta= 0.30
     Davidson diagonalization with overlap
     ethr =  2.04E-08,  avg # of iterations =  2.0

     negative rho (up, down):  5.333E-06 0.000E+00

     total cpu time spent up to now is      534.7 secs

     total energy              =    -594.55154019 Ry
     estimated scf accuracy    <       0.00000524 Ry

     iteration #  4     ecut=    90.00 Ry     beta= 0.30
     Davidson diagonalization with overlap
     ethr =  3.97E-09,  avg # of iterations =  2.0

     negative rho (up, down):  5.308E-06 0.000E+00

     total cpu time spent up to now is      540.6 secs

     total energy              =    -594.55154061 Ry
     estimated scf accuracy    <       0.00000096 Ry

     iteration #  5     ecut=    90.00 Ry     beta= 0.30
     Davidson diagonalization with overlap
     ethr =  7.30E-10,  avg # of iterations =  2.0

     negative rho (up, down):  5.309E-06 0.000E+00

     total cpu time spent up to now is      546.6 secs

     total energy              =    -594.55154069 Ry
     estimated scf accuracy    <       0.00000016 Ry

     iteration #  6     ecut=    90.00 Ry     beta= 0.30
     Davidson diagonalization with overlap
     ethr =  1.21E-10,  avg # of iterations =  2.6

     negative rho (up, down):  5.314E-06 0.000E+00

     total cpu time spent up to now is      553.4 secs

     total energy              =    -594.55154071 Ry
     estimated scf accuracy    <       0.00000003 Ry

     iteration #  7     ecut=    90.00 Ry     beta= 0.30
     Davidson diagonalization with overlap
     ethr =  1.98E-11,  avg # of iterations =  3.1

     negative rho (up, down):  5.317E-06 0.000E+00

     total cpu time spent up to now is      560.4 secs

     total energy              =    -594.55154071 Ry
     estimated scf accuracy    <       0.00000001 Ry

     iteration #  8     ecut=    90.00 Ry     beta= 0.30
     Davidson diagonalization with overlap
     ethr =  9.57E-12,  avg # of iterations =  2.9

     negative rho (up, down):  5.321E-06 0.000E+00

     total cpu time spent up to now is      567.0 secs

     End of self-consistent calculation

          k = 0.0000-0.0000 0.0000 ( 29123 PWs)   bands (ev):

   -14.2946 -13.9878 -13.4306 -12.6376 -11.5982 -10.3413  -9.8251  -9.8204
    -9.4981  -9.4684  -9.0882  -8.9758  -8.6976  -8.3385  -8.3326  -7.1965
    -5.8470  -5.8214  -5.5124  -4.7864  -4.7782  -3.8211  -3.5007  -3.5005
    -2.1287  -2.1001  -2.0436  -0.4337  -0.4180  -0.2779   0.8253   0.8984
     1.0938   1.1281   1.1291   1.3060   1.4412   1.6249   1.9505   2.3746
     2.5152   2.6331   2.9537   3.0991   3.3141   3.6452   3.8320   4.0406
     4.0439   4.0771   4.1141   4.1204   4.1931   4.1974   4.1991   4.3852
     4.4198   4.5765   4.7990   4.7990   5.3750   5.5553   5.7820   6.4615
     6.5481   6.6017   9.3097   9.8146  11.1878  11.2345  11.3939  11.4363
    11.6502  11.8285  12.1756  12.2321  12.3573  12.4352  12.5494

          k = 0.0000-0.1000 0.0000 ( 29153 PWs)   bands (ev):

   -14.1157 -13.8207 -13.2796 -12.5092 -11.5308 -11.3352 -10.9310 -10.4476
   -10.0869  -9.4789  -8.8251  -8.3949  -8.1363  -7.8804  -7.8465  -7.0070
    -5.5960  -5.4170  -5.2901  -4.5563  -4.4437  -3.7929  -3.3427  -3.1426
    -2.2628  -2.0068  -1.6043  -0.6203  -0.4129  -0.1476   0.0934   0.4953
     0.8822   0.9707   1.2004   1.2230   1.3142   1.5051   1.7336   2.2474
     2.4158   2.4549   2.7228   2.9109   3.0868   3.3133   3.3892   3.5273
     3.6734   3.7227   3.9746   4.0968   4.1164   4.3315   4.3452   4.4743
     4.5478   4.8415   5.0389   5.1439   5.1955   5.2436   5.6440   6.1035
     6.1636   6.4930   9.5298  10.0275  11.6157  11.8207  11.8340  12.0520
    12.1385  12.2857  12.3737  12.5754  12.6136  12.8113  12.9003

          k = 0.0000-0.2000 0.0000 ( 29117 PWs)   bands (ev):

   -13.5977 -13.3752 -12.9502 -12.5785 -12.2939 -11.9497 -11.5047 -11.0477
   -10.5080  -9.8807  -9.2553  -8.5257  -7.9008  -7.3069  -6.7166  -6.5180
    -4.9612  -4.5673  -4.4729  -4.1297  -3.7491  -3.4378  -2.9720  -2.6671
    -2.2517  -1.9153  -1.5128  -1.3512  -1.1358  -0.8260  -0.3871  -0.0402
     0.2117   0.5421   1.0916   1.3138   1.3761   1.5450   1.7214   1.9348
     2.1580   2.2450   2.5293   2.6453   2.7798   2.7995   3.1480   3.2131
     3.3122   3.4743   3.8131   3.9836   4.0685   4.2242   4.4296   4.4749
     4.6244   4.7442   4.9420   5.0339   5.3549   5.4070   5.4268   5.7019
     5.8559   6.2829  10.1597  10.5957  11.1791  11.4989  12.0862  12.2485
    12.3533  12.4445  12.6480  13.0132  13.1328  13.2730  13.4291

          k = 0.1111-0.0000 0.0000 ( 29137 PWs)   bands (ev):

   -14.0680 -13.7619 -13.2061 -12.4156 -11.3803 -10.1293  -9.6092  -9.6047
    -9.2852  -9.2559  -8.8808  -8.7691  -8.4968  -8.1342  -8.1286  -7.0068
    -5.6543  -5.6225  -5.4183  -4.6036  -4.5976  -3.7351  -3.3449  -3.3447
    -2.1218  -1.9919  -1.9789  -0.7216  -0.3726  -0.3159  -0.1864   0.2503
     0.2931   1.0827   1.0904   1.1144   1.2778   1.3753   1.4750   2.0755
     2.3722   2.4117   2.5405   2.6095   2.9664   3.1354   3.1358   3.1502
     3.1856   3.3032   3.3084   3.5518   3.6868   3.7051   3.7832   3.9440
     3.9593   4.0689   4.0948   4.3839   5.1227   5.1326   5.3875   6.0183
     6.1201   6.3852   9.5386  10.0187  11.8768  11.8980  11.9466  12.0281
    12.3449  12.4888  12.6508  12.8716  13.0088  13.1073  13.1504

          k = 0.1111-0.1000 0.0000 ( 29122 PWs)   bands (ev):

   -13.8895 -13.5952 -13.0555 -12.2875 -11.3123 -11.1153 -10.7130 -10.2332
    -9.8758  -9.2710  -8.6229  -8.1964  -7.9299  -7.6779  -7.6418  -6.8171
    -5.4382  -5.2296  -5.1571  -4.3868  -4.2684  -3.6963  -3.2110  -2.9870
    -2.1904  -1.9687  -1.4666  -0.7579  -0.4235  -0.1743  -0.0105   0.1440
     0.3308   0.3618   0.6567   0.9469   1.1425   1.2808   1.4173   1.6375
     2.0323   2.1772   2.1853   2.2145   2.5426   2.7028   2.8521   3.0129
     3.0501   3.1564   3.3622   3.6037   3.7489   3.9229   3.9754   4.0450
     4.1302   4.1966   4.2971   4.3616   4.5575   5.2424   5.2645   5.3282
     6.0614   6.2177   9.7576  10.2274  11.9786  12.4005  12.4297  12.7502
    12.8130  12.8452  12.8960  12.9582  13.0968  13.3351  13.3652

          k = 0.1111-0.2000 0.0000 ( 29082 PWs)   bands (ev):

   -13.3724 -13.1506 -12.7267 -12.3556 -12.0719 -11.7289 -11.2858 -10.8315
   -10.2949  -9.6717  -9.0507  -8.3265  -7.7068  -7.1149  -6.5228  -6.3228
    -4.8649  -4.4208  -4.3249  -3.9962  -3.6031  -3.2886  -2.8138  -2.5283
    -2.0731  -1.7748  -1.3550  -1.2398  -1.0147  -0.7258  -0.3961  -0.0834
     0.1672   0.2664   0.3228   0.6373   0.9152   0.9480   1.1919   1.3179
     1.4404   1.6756   1.8408   2.0429   2.2259   2.3767   2.5034   2.8145
     2.8320   3.1105   3.2464   3.2884   3.6685   3.7136   3.9626   4.0633
     4.3048   4.5046   4.6304   4.6691   4.7837   4.8425   5.0568   5.2476
     5.5563   5.6108  10.3842  10.7880  11.3864  11.6656  12.0850  12.3104
    12.8722  13.0140  13.2550  13.5758  13.7217  13.7808  13.8982

          k = 0.2222-0.0000 0.0000 ( 29090 PWs)   bands (ev):

   -13.3915 -13.0878 -12.5370 -11.7551 -10.7348  -9.5075  -8.9656  -8.9617
    -8.6513  -8.6235  -8.2700  -8.1546  -7.9180  -7.5261  -7.5218  -6.4960
    -5.4864  -5.0591  -5.0577  -4.1108  -4.1096  -3.9113  -3.0777  -2.9749
    -2.9378  -2.2856  -2.0890  -1.8391  -1.8363  -1.5349  -1.1114  -0.4218
    -0.1164  -0.0781   0.1050   0.6031   0.6107   0.9988   1.0138   1.1285
     1.1989   1.2230   1.4464   1.6190   1.7272   1.7313   1.9618   2.0549
     2.0588   2.3950   2.4450   2.5436   2.5879   2.7082   2.9536   3.2218
     3.3208   3.3535   3.6746   4.0342   4.3853   4.4678   5.0633   5.1174
     5.3546   6.0970  10.1786  10.5342  12.5484  12.5857  12.7482  12.8885
    13.0687  13.2148  13.3032  13.3976  13.4598  13.4995  13.5682

          k = 0.2222-0.1000 0.0000 ( 29080 PWs)   bands (ev):

   -13.2140 -12.9222 -12.3873 -11.6278 -10.6643 -10.4599 -10.0638  -9.5985
    -9.2530  -8.6575  -8.0331  -7.6219  -7.3183  -7.0785  -7.0338  -6.3023
    -5.3462  -4.7615  -4.6755  -3.9830  -3.9101  -3.7163  -3.0913  -2.8316
    -2.5628  -2.1282  -1.9453  -1.8522  -1.4668  -1.1504  -1.0006  -0.6542
    -0.4311  -0.3216   0.0985   0.2337   0.3407   0.6756   0.7333   0.9241
     0.9327   1.1643   1.3298   1.5538   1.6126   1.6974   1.8901   1.9840
     2.0551   2.2497   2.4568   2.5559   2.6643   2.8549   2.9092   3.0727
     3.2282   3.3422   3.5512   3.7178   4.2158   4.2558   4.5014   5.0880
     5.4009   5.4994  10.3841  10.7245  12.3169  12.4872  12.7657  12.7896
    12.8162  13.0035  13.4527  13.7184  13.7614  13.8384  13.9520

          k = 0.2222-0.2000 0.0000 ( 29067 PWs)   bands (ev):

   -12.7000 -12.4803 -12.0603 -11.6907 -11.4106 -11.0714 -10.6350 -10.1901
    -9.6644  -9.0562  -8.4520  -7.7489  -7.1549  -6.5696  -5.9746  -5.7577
    -4.8690  -4.2560  -4.0545  -3.7503  -3.3743  -2.9931  -2.6566  -2.2822
    -1.9101  -1.7072  -1.6037  -1.5369  -1.3347  -1.2415  -1.1946  -0.8968
    -0.6853  -0.6762  -0.5951  -0.2514  -0.1941   0.0628   0.1759   0.3484
     0.5583   0.7332   0.8993   1.1090   1.2445   1.4736   1.7011   1.9265
     2.1260   2.3154   2.4617   2.5252   2.7916   2.9126   3.0541   3.1421
     3.2130   3.4879   3.5985   3.7861   3.9650   4.1324   4.3168   4.4854
     4.8414   4.8654  10.9369  11.2189  11.5903  11.7694  11.9102  12.1388
    12.4302  12.9613  13.1258  13.4181  13.9083  14.1518  14.5867

          k = 0.3333-0.0000 0.0000 ( 29134 PWs)   bands (ev):

   -12.2771 -11.9791 -11.4401 -10.6811  -9.7065  -8.5785  -7.9091  -7.9066
    -7.6321  -7.5936  -7.4663  -7.1660  -7.1346  -6.5457  -6.5408  -6.5005
    -6.4625  -4.9875  -4.7602  -4.4747  -4.3152  -4.2248  -3.7181  -3.6052
    -3.4641  -3.1259  -3.1133  -2.4067  -2.3796  -2.3786  -2.3446  -1.4573
    -1.0386  -0.9015  -0.8192  -0.7895  -0.7776  -0.4060  -0.4049   0.0880
     0.1257   0.1770   0.4053   0.9843   0.9913   1.2021   1.2495   1.3948
     1.4053   1.5812   2.1691   2.1754   2.2884   2.4519   2.5073   2.6348
     2.8573   3.3091   3.3604   3.3645   3.9552   4.2464   4.2732   4.5722
     5.1176   5.4968  11.1869  11.3816  12.2933  12.3022  12.7843  12.8087
    13.1330  13.1560  13.4693  13.6684  13.7284  13.7322  13.8037

          k = 0.3333-0.1000 0.0000 ( 29139 PWs)   bands (ev):

   -12.1015 -11.8152 -11.2920 -10.5543  -9.6262  -9.3847  -9.0037  -8.5992
    -8.2815  -7.7089  -7.2776  -6.8960  -6.4780  -6.3147  -6.2627  -6.0364
    -6.0133  -4.8592  -4.6319  -4.4804  -4.4025  -4.2019  -3.9019  -3.5425
    -3.2617  -2.8665  -2.4066  -2.3045  -2.2681  -1.8503  -1.8082  -1.6828
    -1.4273  -1.3833  -1.0617  -1.0013  -0.7326  -0.3478  -0.2557   0.0920
     0.3856   0.5233   0.5624   1.0971   1.1453   1.3490   1.4705   1.5556
     1.6660   1.7131   1.7678   1.8113   2.1464   2.2248   2.3238   2.4444
     2.7199   2.8340   2.8961   3.4676   3.5242   3.5537   4.1952   4.4505
     4.5193   4.7274  11.3403  11.4929  11.7319  12.4269  12.6967  12.9479
    13.0774  13.2159  13.4423  13.7950  13.8420  14.0087  14.1866

          k = 0.3333-0.2000 0.0000 ( 29094 PWs)   bands (ev):

   -11.5929 -11.3777 -10.9663 -10.5986 -10.3282  -9.9978  -9.5783  -9.1585
    -8.6622  -8.1040  -7.5640  -6.9636  -6.6051  -6.1806  -5.9788  -5.7872
    -4.8682  -4.7967  -4.5116  -4.3412  -4.2637  -3.9507  -3.6145  -3.2109
    -2.8033  -2.3469  -2.1750  -2.0076  -1.8908  -1.8346  -1.5257  -1.3564
    -1.2412  -1.0800  -0.8858  -0.6555  -0.5423  -0.4091  -0.1864  -0.0648
     0.1112   0.1852   0.4490   0.5315   0.7423   0.8731   1.1257   1.4123
     1.5808   1.6698   2.0133   2.0408   2.1613   2.2986   2.3253   2.5211
     2.5496   2.7442   2.8464   2.8976   3.0491   3.2521   3.4870   3.5196
     3.8206   3.8270  11.3143  11.5856  11.7378  11.9453  12.3789  12.7226
    12.7912  13.1175  13.4683  13.6104  13.8817  13.9935  14.1969

          k = 0.4444-0.0000 0.0000 ( 29202 PWs)   bands (ev):

   -10.7554 -10.4744  -9.9778  -9.3333  -8.9281  -8.7184  -8.7160  -7.5405
    -7.4238  -6.4668  -6.4665  -6.2001  -6.1911  -5.9370  -5.8408  -5.7449
    -5.6136  -5.2536  -5.2519  -4.9713  -4.7473  -4.7271  -4.6744  -4.5500
    -4.5423  -4.3538  -4.3484  -3.4963  -3.4961  -3.4600  -3.1776  -1.8560
    -1.4994  -1.4792  -1.3756  -0.9216  -0.9108  -0.4995  -0.3434  -0.2615
    -0.1764  -0.1267   0.2130   0.2626   0.2935   0.5007   0.5542   0.8409
     0.8471   1.2859   1.4596   1.7170   1.7173   2.0693   2.1620   2.8379
     2.8568   3.5121   3.7057   3.8080   3.8120   3.9739   4.2389   4.4424
     4.5535   4.5898  11.9468  11.9515  12.2599  12.2627  12.5156  12.5815
    13.1097  13.1149  13.2950  13.2990  14.0640  14.1239  14.4710

          k = 0.4444-0.1000 0.0000 ( 29157 PWs)   bands (ev):

   -10.5826 -10.3132  -9.8313  -9.2011  -8.7644  -8.5720  -8.5575  -7.9346
    -7.6558  -7.4777  -7.3274  -6.9689  -6.4908  -6.1961  -6.1160  -6.0468
    -5.5790  -5.4689  -4.8278  -4.6880  -4.6303  -4.6010  -4.4788  -4.3450
    -4.0374  -3.5748  -3.4366  -3.2211  -3.0785  -2.9750  -2.9409  -1.8797
    -1.7630  -1.6469  -1.3289  -1.0717  -0.9899  -0.5105  -0.3305  -0.1191
     0.2099   0.3432   0.4324   0.4580   0.6107   0.7437   0.8160   1.0585
     1.1255   1.3700   1.4189   1.6737   1.7306   2.1991   2.2070   2.5912
     2.6904   2.7806   3.1010   3.2842   3.3212   3.6721   3.6915   3.7115
     3.8355   3.8464  11.5526  12.1501  12.3106  12.5144  12.6293  12.8870
    13.0189  13.1151  13.4962  13.8544  13.9611  14.0892  14.3954

          k = 0.4444-0.2000 0.0000 ( 29103 PWs)   bands (ev):

   -10.0827  -9.8820  -9.4981  -9.1238  -8.9021  -8.5975  -8.3447  -8.1847
    -8.0972  -7.9987  -7.5923  -7.3737  -7.1771  -7.1259  -7.0383  -6.9798
    -5.2307  -5.1888  -4.8750  -4.6962  -4.5367  -4.2183  -4.1793  -3.8567
    -3.6603  -3.4675  -3.1779  -3.0192  -2.5644  -2.1700  -1.7713  -1.5139
    -1.1490  -0.9946  -0.9117  -0.6800  -0.4589  -0.2848  -0.0195   0.0514
     0.2193   0.3240   0.4929   0.7494   0.9093   1.0116   1.2088   1.3278
     1.5158   1.5998   1.6266   1.6801   1.7746   1.7921   1.8564   1.9203
     1.9945   2.1935   2.2410   2.2813   2.4981   2.5711   2.6923   2.7073
     3.0025   3.0101  11.8234  11.9960  12.3975  12.6333  12.8102  12.9050
    13.1236  13.1892  13.4482  13.4982  13.7768  13.8463  13.9015

     the Fermi energy is     8.0467 ev

!    total energy              =    -594.55154071 Ry
     estimated scf accuracy    <          7.2E-10 Ry
     smearing contrib. (-TS)   =       0.00000000 Ry
     internal energy E=F+TS    =    -594.55154071 Ry

     The total energy is F=E-TS. E is the sum of the following terms:
     one-electron contribution =   -4650.69983587 Ry
     hartree contribution      =    2396.15026032 Ry
     xc contribution           =    -152.39415397 Ry
     ewald contribution        =    2009.60615092 Ry
     one-center paw contrib.   =    -197.21396211 Ry

     convergence has been achieved in   8 iterations

     negative rho (up, down):  5.321E-06 0.000E+00

     Forces acting on atoms (cartesian axes, Ry/au):

     atom    1 type  1   force =     0.00000000    0.00126661    0.00024548
     atom    2 type  1   force =     0.00000000    0.00096193   -0.00120549
     atom    3 type  1   force =     0.00000000   -0.00003235   -0.00049673
     atom    4 type  1   force =     0.00000000   -0.00004204   -0.00038428
     atom    5 type  1   force =     0.00000000   -0.00098398   -0.00212457
     atom    6 type  1   force =     0.00000000   -0.00124507   -0.00176113
     atom    7 type  1   force =     0.00000000   -0.00006989    0.00064867
     atom    8 type  1   force =     0.00000000   -0.00016054    0.00077854
     atom    9 type  1   force =     0.00000000    0.00016054   -0.00077854
     atom   10 type  1   force =    -0.00000000    0.00006989   -0.00064867
     atom   11 type  1   force =     0.00000000    0.00124507    0.00176113
     atom   12 type  1   force =    -0.00000000    0.00098398    0.00212457
     atom   13 type  1   force =     0.00000000    0.00004204    0.00038428
     atom   14 type  1   force =     0.00000000    0.00003235    0.00049673
     atom   15 type  1   force =    -0.00000000   -0.00096193    0.00120549
     atom   16 type  1   force =     0.00000000   -0.00126661   -0.00024548
     atom   17 type  1   force =     0.00000000   -0.00126378    0.00022899
     atom   18 type  1   force =     0.00000000   -0.00095476   -0.00122451
     atom   19 type  1   force =     0.00000000    0.00005594   -0.00183098
     atom   20 type  1   force =     0.00000000    0.00007360   -0.00126815
     atom   21 type  1   force =     0.00000000    0.00098204   -0.00172201
     atom   22 type  1   force =     0.00000000    0.00123977   -0.00135849
     atom   23 type  1   force =     0.00000000    0.00009365   -0.00249590
     atom   24 type  1   force =     0.00000000    0.00012955   -0.00160829
     atom   25 type  1   force =     0.00000000   -0.00012955    0.00160829
     atom   26 type  1   force =     0.00000000   -0.00009365    0.00249590
     atom   27 type  1   force =     0.00000000   -0.00123977    0.00135849
     atom   28 type  1   force =     0.00000000   -0.00098204    0.00172201
     atom   29 type  1   force =     0.00000000   -0.00007360    0.00126815
     atom   30 type  1   force =     0.00000000   -0.00005594    0.00183098
     atom   31 type  1   force =     0.00000000    0.00095476    0.00122451
     atom   32 type  1   force =     0.00000000    0.00126378   -0.00022899
     atom   33 type  2   force =     0.00000000    0.00219260   -0.00084270
     atom   34 type  2   force =     0.00000000   -0.00219810   -0.00085391
     atom   35 type  2   force =     0.00000000   -0.00219260    0.00084270
     atom   36 type  2   force =    -0.00000000    0.00219810    0.00085391

     Total force =     0.010188     Total SCF correction =     0.000071
     Energy error            =      2.2E-04 Ry
     Gradient error          =      2.5E-03 Ry/Bohr

     number of scf cycles    =   8
     number of bfgs steps    =   7

     energy             old  =    -594.5513239311 Ry
     energy             new  =    -594.5515407098 Ry

     CASE: energy            _new < energy            _old

     new trust radius        =       0.0118922532 bohr
     new conv_thr            =       0.0000000022 Ry


ATOMIC_POSITIONS (angstrom)
C                0.0000000000       -1.7158728131       18.3611863987
C                1.2634728900       -1.3535010094       17.5511626844
C                1.2634728900       -0.0000856451       16.7399259171
C                0.0000000000       -0.0000439562       15.8090974446
C                0.0000000000       -1.2476279961       14.8569892771
C                1.2634728900       -1.2476362564       13.9609559638
C                1.2634728900        0.0021814413       13.0554523440
C                0.0000000000        0.0019990035       12.1601794054
C                0.0000000000       -1.2654718935       11.2752231846
C                1.2634728900       -1.2656543313       10.3799502460
C                1.2634728900       -0.0158366336        9.4744466262
C               -0.0000000000       -0.0158448939        8.5784133129
C                0.0000000000       -1.2634289338        7.6263051454
C                1.2634728900       -1.2633872449        6.6954766729
C                1.2634728900        0.0900281194        5.8842399056
C                0.0000000000        0.4523999231        5.0742161913
C                0.0000000000       -3.3380224514       18.3611448612
C                1.2634728900       -3.7003685938       17.5510841932
C                1.2634728900       -2.5268045919       16.5546852505
C                0.0000000000       -2.5268368010       15.6997067827
C                0.0000000000       -3.8062614440       14.8581694397
C                1.2634728900       -3.8061899129       13.9629778342
C                1.2634728900       -2.5290952821       13.0741781240
C                0.0000000000       -2.5288873056       12.1736199576
C                0.0000000000       -3.7884771544       11.2617826324
C                1.2634728900       -3.7882691779       10.3612244660
C                1.2634728900       -2.5111745471        9.4724247558
C                0.0000000000       -2.5111030160        8.5772331503
C                0.0000000000       -3.7905276590        7.7356958073
C                1.2634728900       -3.7905598681        6.8807173395
C                1.2634728900       -2.6169958662        5.8843183968
C                0.0000000000       -2.9793420086        5.0742577288
H                0.0000000000       -1.2967347167       19.3778456245
H                0.0000000000       -3.7571688441       19.3778132790
H               -0.0000000000        0.0332618267        4.0575569555
H               -0.0000000000       -2.5601956159        4.0575893010



     Writing config-only to output data dir /tmp/qe/slab.save/ :
     XML data file
     NEW-OLD atomic charge density approx. for the potential

     Check: negative core charge=   -0.000001

     negative rho (up, down):  5.566E-06 0.000E+00

     total cpu time spent up to now is      569.3 secs

     Self-consistent Calculation

     iteration #  1     ecut=    90.00 Ry     beta= 0.30
     Davidson diagonalization with overlap
     ethr =  1.00E-06,  avg # of iterations =  3.0

     Threshold (ethr) on eigenvalues was too large:
     Diagonalizing with lowered threshold

     Davidson diagonalization with overlap
     ethr =  3.32E-08,  avg # of iterations =  3.5

     negative rho (up, down):  5.501E-06 0.000E+00

     total cpu time spent up to now is      584.4 secs

     total energy              =    -594.55168448 Ry
     estimated scf accuracy    <       0.00005732 Ry

     iteration #  2     ecut=    90.00 Ry     beta= 0.30
     Davidson diagonalization with overlap
     ethr =  4.34E-08,  avg # of iterations =  1.8

     negative rho (up, down):  5.396E-06 0.000E+00

     total cpu time spent up to now is      590.3 secs

     total energy              =    -594.55168473 Ry
     estimated scf accuracy    <       0.00001813 Ry

     iteration #  3     ecut=    90.00 Ry     beta= 0.30
     Davidson diagonalization with overlap
     ethr =  1.37E-08,  avg # of iterations =  2.0

     negative rho (up, down):  5.352E-06 0.000E+00

     total cpu time spent up to now is      596.2 secs

     total energy              =    -594.55168584 Ry
     estimated scf accuracy    <       0.00000375 Ry

     iteration #  4     ecut=    90.00 Ry     beta= 0.30
     Davidson diagonalization with overlap
     ethr =  2.84E-09,  avg # of iterations =  1.9

     negative rho (up, down):  5.332E-06 0.000E+00

     total cpu time spent up to now is      602.1 secs

     total energy              =    -594.55168611 Ry
     estimated scf accuracy    <       0.00000066 Ry

     iteration #  5     ecut=    90.00 Ry     beta= 0.30
     Davidson diagonalization with overlap
     ethr =  4.99E-10,  avg # of iterations =  2.0

     negative rho (up, down):  5.334E-06 0.000E+00

     total cpu time spent up to now is      608.4 secs

     total energy              =    -594.55168617 Ry
     estimated scf accuracy    <       0.00000008 Ry

     iteration #  6     ecut=    90.00 Ry     beta= 0.30
     Davidson diagonalization with overlap
     ethr =  5.94E-11,  avg # of iterations =  2.3

     negative rho (up, down):  5.338E-06 0.000E+00

     total cpu time spent up to now is      614.6 secs

     total energy              =    -594.55168618 Ry
     estimated scf accuracy    <       0.00000002 Ry

     iteration #  7     ecut=    90.00 Ry     beta= 0.30
     Davidson diagonalization with overlap
     ethr =  1.41E-11,  avg # of iterations =  2.1

     negative rho (up, down):  5.343E-06 0.000E+00

     total cpu time spent up to now is      621.4 secs

     End of self-consistent calculation

          k = 0.0000-0.0000 0.0000 ( 29123 PWs)   bands (ev):

   -14.2985 -13.9938 -13.4313 -12.6373 -11.5956 -10.3388  -9.8290  -9.8240
    -9.5062  -9.4764  -9.0904  -8.9812  -8.6975  -8.3459  -8.3399  -7.1917
    -5.8514  -5.8253  -5.5059  -4.7919  -4.7834  -3.8142  -3.5047  -3.5045
    -2.1282  -2.1041  -2.0416  -0.4344  -0.4181  -0.2703   0.8199   0.8936
     1.0850   1.1279   1.1287   1.2967   1.4486   1.6231   1.9447   2.3733
     2.5127   2.6327   2.9503   3.1044   3.3147   3.6447   3.8335   4.0365
     4.0395   4.0783   4.1045   4.1108   4.1877   4.1918   4.2006   4.3839
     4.4187   4.5813   4.7916   4.7916   5.3722   5.5512   5.7875   6.4591
     6.5463   6.6047   9.3153   9.8197  11.1852  11.2302  11.3876  11.4322
    11.6500  11.8262  12.1735  12.2294  12.3540  12.4277  12.5482

          k = 0.0000-0.1000 0.0000 ( 29153 PWs)   bands (ev):

   -14.1197 -13.8265 -13.2798 -12.5083 -11.5285 -11.3386 -10.9393 -10.4492
   -10.0895  -9.4842  -8.8256  -8.3981  -8.1383  -7.8873  -7.8545  -7.0043
    -5.5958  -5.4199  -5.2891  -4.5624  -4.4476  -3.7878  -3.3438  -3.1480
    -2.2624  -2.0075  -1.6064  -0.6172  -0.4137  -0.1496   0.0901   0.4912
     0.8820   0.9653   1.1981   1.2144   1.3132   1.5065   1.7321   2.2443
     2.4145   2.4540   2.7241   2.9132   3.0824   3.3075   3.3861   3.5262
     3.6755   3.7152   3.9755   4.0903   4.1188   4.3323   4.3415   4.4762
     4.5425   4.8400   5.0317   5.1360   5.1974   5.2463   5.6385   6.1053
     6.1648   6.4907   9.5351  10.0322  11.6109  11.8138  11.8325  12.0482
    12.1302  12.2789  12.3723  12.5741  12.6073  12.8120  12.8976

          k = 0.0000-0.2000 0.0000 ( 29117 PWs)   bands (ev):

   -13.6018 -13.3799 -12.9482 -12.5811 -12.2958 -11.9554 -11.5073 -11.0508
   -10.5116  -9.8822  -9.2583  -8.5272  -7.9034  -7.3106  -6.7188  -6.5206
    -4.9568  -4.5712  -4.4727  -4.1281  -3.7526  -3.4431  -2.9748  -2.6729
    -2.2535  -1.9181  -1.5151  -1.3536  -1.1390  -0.8286  -0.3887  -0.0420
     0.2117   0.5415   1.0910   1.3118   1.3698   1.5367   1.7238   1.9351
     2.1597   2.2413   2.5242   2.6477   2.7779   2.7929   3.1435   3.2163
     3.3127   3.4711   3.8071   3.9857   4.0696   4.2197   4.4303   4.4766
     4.6203   4.7464   4.9466   5.0307   5.3562   5.4108   5.4205   5.6959
     5.8495   6.2792  10.1638  10.5971  11.1836  11.4995  12.0777  12.2359
    12.3449  12.4369  12.6461  13.0108  13.1311  13.2699  13.4262

          k = 0.1111-0.0000 0.0000 ( 29137 PWs)   bands (ev):

   -14.0719 -13.7679 -13.2068 -12.4153 -11.3777 -10.1268  -9.6131  -9.6083
    -9.2933  -9.2639  -8.8830  -8.7745  -8.4968  -8.1416  -8.1360  -7.0018
    -5.6585  -5.6263  -5.4121  -4.6091  -4.6027  -3.7288  -3.3488  -3.3486
    -2.1160  -1.9960  -1.9831  -0.7209  -0.3743  -0.3151  -0.1915   0.2473
     0.2955   1.0780   1.0921   1.1132   1.2782   1.3766   1.4658   2.0697
     2.3701   2.4134   2.5390   2.6122   2.9616   3.1269   3.1285   3.1509
     3.1830   3.2938   3.3010   3.5497   3.6836   3.7076   3.7826   3.9379
     3.9617   4.0659   4.0934   4.3810   5.1223   5.1349   5.3844   6.0215
     6.1214   6.3827   9.5440  10.0236  11.8736  11.8959  11.9446  12.0241
    12.3430  12.4853  12.6436  12.8708  13.0080  13.1087  13.1374

          k = 0.1111-0.1000 0.0000 ( 29122 PWs)   bands (ev):

   -13.8934 -13.6010 -13.0557 -12.2866 -11.3101 -11.1188 -10.7213 -10.2348
    -9.8785  -9.2764  -8.6234  -8.1996  -7.9319  -7.6848  -7.6498  -6.8144
    -5.4362  -5.2317  -5.1588  -4.3928  -4.2720  -3.6916  -3.2122  -2.9924
    -2.1887  -1.9714  -1.4686  -0.7561  -0.4258  -0.1789  -0.0127   0.1397
     0.3303   0.3589   0.6530   0.9469   1.1395   1.2798   1.4148   1.6396
     2.0288   2.1725   2.1835   2.2090   2.5408   2.6996   2.8501   3.0120
     3.0480   3.1545   3.3592   3.6005   3.7484   3.9212   3.9746   4.0415
     4.1256   4.1953   4.2954   4.3565   4.5577   5.2397   5.2683   5.3284
     6.0601   6.2192   9.7628  10.2319  11.9729  12.3957  12.4247  12.7513
    12.8100  12.8439  12.8966  12.9557  13.0917  13.3317  13.3586

          k = 0.1111-0.2000 0.0000 ( 29082 PWs)   bands (ev):

   -13.3765 -13.1553 -12.7247 -12.3581 -12.0739 -11.7346 -11.2884 -10.8346
   -10.2985  -9.6732  -9.0537  -8.3280  -7.7094  -7.1184  -6.5248  -6.3254
    -4.8607  -4.4246  -4.3240  -3.9951  -3.6064  -3.2944  -2.8165  -2.5341
    -2.0750  -1.7772  -1.3578  -1.2421  -1.0181  -0.7285  -0.3987  -0.0857
     0.1660   0.2639   0.3170   0.6352   0.9141   0.9473   1.1890   1.3151
     1.4373   1.6716   1.8393   2.0408   2.2246   2.3762   2.5018   2.8130
     2.8295   3.1108   3.2433   3.2878   3.6695   3.7120   3.9623   4.0605
     4.3055   4.5040   4.6308   4.6637   4.7838   4.8370   5.0595   5.2439
     5.5538   5.6128  10.3881  10.7891  11.3905  11.6654  12.0782  12.2984
    12.8707  13.0149  13.2551  13.5804  13.7179  13.7763  13.8993

          k = 0.2222-0.0000 0.0000 ( 29090 PWs)   bands (ev):

   -13.3954 -13.0939 -12.5377 -11.7549 -10.7322  -9.5049  -8.9696  -8.9654
    -8.6594  -8.6314  -8.2718  -8.1600  -7.9184  -7.5336  -7.5292  -6.4907
    -5.4828  -5.0626  -5.0609  -4.1153  -4.1145  -3.9116  -3.0749  -2.9781
    -2.9420  -2.2862  -2.0944  -1.8443  -1.8414  -1.5358  -1.1070  -0.4201
    -0.1176  -0.0782   0.1086   0.5987   0.6065   0.9953   1.0089   1.1290
     1.1923   1.2172   1.4490   1.6142   1.7250   1.7286   1.9528   2.0494
     2.0536   2.3906   2.4429   2.5395   2.5912   2.7109   2.9487   3.2189
     3.3206   3.3535   3.6694   4.0362   4.3896   4.4638   5.0633   5.1210
     5.3509   6.0943  10.1840  10.5392  12.5459  12.5835  12.7477  12.8874
    13.0721  13.2113  13.3034  13.3950  13.4597  13.4986  13.5618

          k = 0.2222-0.1000 0.0000 ( 29080 PWs)   bands (ev):

   -13.2179 -12.9280 -12.3876 -11.6269 -10.6620 -10.4634 -10.0721  -9.5998
    -9.2559  -8.6628  -8.0335  -7.6253  -7.3199  -7.0853  -7.0417  -6.2994
    -5.3421  -4.7646  -4.6796  -3.9871  -3.9107  -3.7200  -3.0895  -2.8343
    -2.5689  -2.1303  -1.9506  -1.8572  -1.4673  -1.1505  -0.9989  -0.6576
    -0.4300  -0.3229   0.0981   0.2314   0.3337   0.6759   0.7288   0.9188
     0.9282   1.1628   1.3274   1.5510   1.6097   1.6935   1.8867   1.9834
     2.0516   2.2443   2.4524   2.5537   2.6630   2.8550   2.9060   3.0741
     3.2268   3.3400   3.5487   3.7175   4.2154   4.2570   4.5026   5.0878
     5.3993   5.4991  10.3893  10.7291  12.3145  12.4882  12.7629  12.7879
    12.8171  13.0031  13.4541  13.7158  13.7593  13.8377  13.9486

          k = 0.2222-0.2000 0.0000 ( 29067 PWs)   bands (ev):

   -12.7041 -12.4851 -12.0583 -11.6932 -11.4125 -11.0771 -10.6376 -10.1932
    -9.6680  -9.0578  -8.4550  -7.7504  -7.1572  -6.5724  -5.9756  -5.7608
    -4.8670  -4.2575  -4.0534  -3.7518  -3.3785  -2.9983  -2.6596  -2.2879
    -1.9138  -1.7105  -1.6074  -1.5401  -1.3370  -1.2448  -1.1964  -0.8990
    -0.6874  -0.6791  -0.5978  -0.2563  -0.2001   0.0611   0.1715   0.3466
     0.5577   0.7297   0.8971   1.1072   1.2426   1.4719   1.7000   1.9250
     2.1236   2.3164   2.4583   2.5235   2.7898   2.9092   3.0529   3.1417
     3.2120   3.4876   3.5973   3.7841   3.9638   4.1335   4.3157   4.4864
     4.8397   4.8667  10.9405  11.2208  11.5897  11.7686  11.9117  12.1409
    12.4253  12.9562  13.1265  13.4206  13.9070  14.1526  14.5898

          k = 0.3333-0.0000 0.0000 ( 29134 PWs)   bands (ev):

   -12.2810 -11.9852 -11.4409 -10.6809  -9.7041  -8.5765  -7.9131  -7.9104
    -7.6389  -7.6018  -7.4665  -7.1711  -7.1398  -6.5511  -6.5478  -6.4998
    -6.4599  -4.9879  -4.7620  -4.4753  -4.3185  -4.2274  -3.7198  -3.6108
    -3.4672  -3.1288  -3.1170  -2.4061  -2.3885  -2.3875  -2.3425  -1.4525
    -1.0383  -0.9091  -0.8248  -0.7938  -0.7806  -0.4101  -0.4100   0.0915
     0.1228   0.1756   0.4074   0.9819   0.9890   1.2034   1.2469   1.3931
     1.4028   1.5806   2.1618   2.1681   2.2926   2.4530   2.5038   2.6361
     2.8503   3.3112   3.3558   3.3682   3.9485   4.2487   4.2746   4.5679
     5.1128   5.4936  11.1929  11.3874  12.2943  12.3030  12.7879  12.8124
    13.1361  13.1579  13.4687  13.6675  13.7303  13.7357  13.8044

          k = 0.3333-0.1000 0.0000 ( 29139 PWs)   bands (ev):

   -12.1054 -11.8211 -11.2923 -10.5535  -9.6238  -9.3884  -9.0119  -8.5993
    -8.2859  -7.7134  -7.2792  -6.9003  -6.4757  -6.3130  -6.2639  -6.0438
    -6.0213  -4.8594  -4.6349  -4.4804  -4.4055  -4.2055  -3.9069  -3.5452
    -3.2668  -2.8741  -2.4116  -2.3054  -2.2663  -1.8549  -1.8100  -1.6865
    -1.4276  -1.3853  -1.0641  -1.0062  -0.7377  -0.3479  -0.2598   0.0934
     0.3850   0.5211   0.5599   1.0957   1.1436   1.3490   1.4683   1.5536
     1.6632   1.7080   1.7654   1.8097   2.1441   2.2190   2.3235   2.4425
     2.7187   2.8330   2.8959   3.4689   3.5236   3.5517   4.1935   4.4504
     4.5160   4.7243  11.3466  11.4988  11.7332  12.4297  12.6989  12.9484
    13.0766  13.2141  13.4425  13.7947  13.8380  14.0048  14.1881

          k = 0.3333-0.2000 0.0000 ( 29094 PWs)   bands (ev):

   -11.5970 -11.3826 -10.9643 -10.6010 -10.3301 -10.0036  -9.5807  -9.1617
    -8.6658  -8.1059  -7.5673  -6.9652  -6.6073  -6.1770  -5.9766  -5.7899
    -4.8745  -4.8028  -4.5147  -4.3445  -4.2674  -3.9544  -3.6183  -3.2142
    -2.8079  -2.3491  -2.1749  -2.0103  -1.8929  -1.8378  -1.5281  -1.3606
    -1.2458  -1.0823  -0.8879  -0.6581  -0.5472  -0.4122  -0.1876  -0.0688
     0.1080   0.1822   0.4463   0.5279   0.7413   0.8692   1.1244   1.4093
     1.5803   1.6663   2.0122   2.0410   2.1638   2.2977   2.3240   2.5218
     2.5464   2.7418   2.8440   2.8938   3.0504   3.2500   3.4884   3.5171
     3.8198   3.8260  11.3178  11.5896  11.7402  11.9386  12.3809  12.7211
    12.7884  13.1100  13.4735  13.6158  13.8813  13.9945  14.1954

          k = 0.4444-0.0000 0.0000 ( 29202 PWs)   bands (ev):

   -10.7592 -10.4804  -9.9788  -9.3340  -8.9323  -8.7239  -8.7157  -7.5330
    -7.4156  -6.4706  -6.4702  -6.2075  -6.1988  -5.9384  -5.8446  -5.7500
    -5.6135  -5.2610  -5.2593  -4.9720  -4.7518  -4.7299  -4.6758  -4.5549
    -4.5450  -4.3607  -4.3534  -3.5056  -3.5054  -3.4598  -3.1768  -1.8536
    -1.5015  -1.4827  -1.3728  -0.9271  -0.9158  -0.4969  -0.3457  -0.2615
    -0.1797  -0.1304   0.2172   0.2605   0.2908   0.4983   0.5509   0.8366
     0.8426   1.2864   1.4627   1.7107   1.7109   2.0711   2.1648   2.8416
     2.8601   3.5084   3.6989   3.8104   3.8136   3.9696   4.2323   4.4381
     4.5471   4.5855  11.9495  11.9541  12.2624  12.2654  12.5219  12.5877
    13.1137  13.1192  13.2987  13.3032  14.0690  14.1288  14.4712

          k = 0.4444-0.1000 0.0000 ( 29157 PWs)   bands (ev):

   -10.5865 -10.3190  -9.8318  -9.2013  -8.7687  -8.5713  -8.5629  -7.9387
    -7.6600  -7.4721  -7.3222  -6.9724  -6.4958  -6.2004  -6.1177  -6.0519
    -5.5834  -5.4691  -4.8308  -4.6924  -4.6361  -4.6058  -4.4858  -4.3500
    -4.0439  -3.5792  -3.4360  -3.2224  -3.0820  -2.9829  -2.9466  -1.8800
    -1.7658  -1.6486  -1.3267  -1.0759  -0.9949  -0.5070  -0.3312  -0.1204
     0.2098   0.3440   0.4294   0.4567   0.6079   0.7416   0.8129   1.0553
     1.1222   1.3694   1.4210   1.6679   1.7248   2.2003   2.2084   2.5920
     2.6915   2.7768   3.0975   3.2840   3.3172   3.6683   3.6914   3.7086
     3.8313   3.8418  11.5553  12.1553  12.3125  12.5181  12.6354  12.8878
    13.0220  13.1183  13.4996  13.8512  13.9659  14.0906  14.4018

          k = 0.4444-0.2000 0.0000 ( 29103 PWs)   bands (ev):

   -10.0868  -9.8868  -9.4964  -9.1257  -8.9040  -8.6040  -8.3481  -8.1870
    -8.1024  -8.0037  -7.5938  -7.3735  -7.1782  -7.1256  -7.0388  -6.9778
    -5.2346  -5.1916  -4.8828  -4.7037  -4.5395  -4.2216  -4.1828  -3.8612
    -3.6648  -3.4712  -3.1798  -3.0220  -2.5681  -2.1758  -1.7749  -1.5158
    -1.1479  -0.9950  -0.9141  -0.6780  -0.4640  -0.2879  -0.0204   0.0496
     0.2158   0.3235   0.4899   0.7509   0.9067   1.0101   1.2056   1.3230
     1.5142   1.5935   1.6282   1.6780   1.7707   1.7890   1.8540   1.9178
     1.9921   2.1898   2.2362   2.2782   2.4989   2.5702   2.6948   2.7072
     3.0012   3.0102  11.8269  12.0012  12.3996  12.6279  12.8047  12.9062
    13.1217  13.1880  13.4403  13.4978  13.7814  13.8490  13.9026

     the Fermi energy is     8.0480 ev

!    total energy              =    -594.55168618 Ry
     estimated scf accuracy    <          1.4E-09 Ry
     smearing contrib. (-TS)   =       0.00000000 Ry
     internal energy E=F+TS    =    -594.55168618 Ry

     The total energy is F=E-TS. E is the sum of the following terms:
     one-electron contribution =   -4655.52766468 Ry
     hartree contribution      =    2398.55642901 Ry
     xc contribution           =    -152.39950860 Ry
     ewald contribution        =    2012.03314658 Ry
     one-center paw contrib.   =    -197.21408850 Ry

     convergence has been achieved in   7 iterations

     negative rho (up, down):  5.343E-06 0.000E+00

     Forces acting on atoms (cartesian axes, Ry/au):

     atom    1 type  1   force =     0.00000000   -0.00033232   -0.00005658
     atom    2 type  1   force =     0.00000000   -0.00040183   -0.00058606
     atom    3 type  1   force =     0.00000000   -0.00004344   -0.00005443
     atom    4 type  1   force =     0.00000000   -0.00005532   -0.00087469
     atom    5 type  1   force =     0.00000000   -0.00003939   -0.00182400
     atom    6 type  1   force =     0.00000000    0.00002211   -0.00189086
     atom    7 type  1   force =     0.00000000   -0.00048739   -0.00051889
     atom    8 type  1   force =     0.00000000   -0.00053208    0.00076497
     atom    9 type  1   force =     0.00000000    0.00053208   -0.00076497
     atom   10 type  1   force =     0.00000000    0.00048739    0.00051889
     atom   11 type  1   force =     0.00000000   -0.00002211    0.00189086
     atom   12 type  1   force =     0.00000000    0.00003939    0.00182400
     atom   13 type  1   force =     0.00000000    0.00005532    0.00087469
     atom   14 type  1   force =     0.00000000    0.00004344    0.00005443
     atom   15 type  1   force =     0.00000000    0.00040183    0.00058606
     atom   16 type  1   force =     0.00000000    0.00033232    0.00005658
     atom   17 type  1   force =     0.00000000    0.00033416   -0.00007394
     atom   18 type  1   force =     0.00000000    0.00041926   -0.00063610
     atom   19 type  1   force =     0.00000000    0.00007530   -0.00111995
     atom   20 type  1   force =    -0.00000000    0.00008615   -0.00237484
     atom   21 type  1   force =     0.00000000    0.00003503   -0.00164673
     atom   22 type  1   force =     0.00000000   -0.00003976   -0.00195230
     atom   23 type  1   force =     0.00000000    0.00047917   -0.00286188
     atom   24 type  1   force =     0.00000000    0.00051194   -0.00192423
     atom   25 type  1   force =     0.00000000   -0.00051194    0.00192423
     atom   26 type  1   force =     0.00000000   -0.00047917    0.00286188
     atom   27 type  1   force =     0.00000000    0.00003976    0.00195230
     atom   28 type  1   force =     0.00000000   -0.00003503    0.00164673
     atom   29 type  1   force =     0.00000000   -0.00008615    0.00237484
     atom   30 type  1   force =     0.00000000   -0.00007530    0.00111995
     atom   31 type  1   force =     0.00000000   -0.00041926    0.00063610
     atom   32 type  1   force =     0.00000000   -0.00033416    0.00007394
     atom   33 type  2   force =     0.00000000    0.00164138   -0.00022013
     atom   34 type  2   force =    -0.00000000   -0.00164774   -0.00024035
     atom   35 type  2   force =     0.00000000   -0.00164138    0.00022013
     atom   36 type  2   force =     0.00000000    0.00164774    0.00024035

     Total force =     0.009133     Total SCF correction =     0.000105
     Energy error            =      1.5E-04 Ry
     Gradient error          =      2.9E-03 Ry/Bohr

     number of scf cycles    =   9
     number of bfgs steps    =   8

     energy             old  =    -594.5515407098 Ry
     energy             new  =    -594.5516861792 Ry

     CASE: energy            _new < energy            _old

     new trust radius        =       0.0152266171 bohr
     new conv_thr            =       0.0000000015 Ry


ATOMIC_POSITIONS (angstrom)
C                0.0000000000       -1.7142357773       18.3589640272
C                1.2634728900       -1.3529670835       17.5482936698
C                1.2634728900       -0.0001585068       16.7372378675
C                0.0000000000       -0.0001266452       15.8065601590
C                0.0000000000       -1.2487015313       14.8548088261
C                1.2634728900       -1.2487527354       13.9592758258
C                1.2634728900        0.0021500377       13.0558989183
C                0.0000000000        0.0019121749       12.1609723204
C                0.0000000000       -1.2653850649       11.2744302696
C                1.2634728900       -1.2656229277       10.3795036717
C                1.2634728900       -0.0147201546        9.4761267642
C               -0.0000000000       -0.0147713587        8.5805937639
C                0.0000000000       -1.2633462448        7.6288424310
C                1.2634728900       -1.2633143832        6.6981647225
C                1.2634728900        0.0894941935        5.8871089202
C                0.0000000000        0.4507628873        5.0764385628
C                0.0000000000       -3.3396573734       18.3588890895
C                1.2634728900       -3.7008764034       17.5481397376
C                1.2634728900       -2.5266780771       16.5528802212
C               -0.0000000000       -2.5266968631       15.6976875658
C                0.0000000000       -3.8051903911       14.8566012620
C                1.2634728900       -3.8050739391       13.9618862078
C                1.2634728900       -2.5290531124       13.0719604760
C                0.0000000000       -2.5288176858       12.1723103821
C                0.0000000000       -3.7885467742       11.2630922079
C                1.2634728900       -3.7883113476       10.3634421140
C                1.2634728900       -2.5122905209        9.4735163822
C                0.0000000000       -2.5121740689        8.5788013280
C                0.0000000000       -3.7906675969        7.7377150242
C                1.2634728900       -3.7906863829        6.8825223688
C                1.2634728900       -2.6164880566        5.8872628524
C                0.0000000000       -2.9777070866        5.0765135005
H                0.0000000000       -1.2899193509       19.3735978003
H               -0.0000000000       -3.7639953892       19.3735327583
H               -0.0000000000        0.0264464609        4.0618047797
H               -0.0000000000       -2.5533690708        4.0618698217



     Writing config-only to output data dir /tmp/qe/slab.save/ :
     XML data file
     NEW-OLD atomic charge density approx. for the potential

     Check: negative core charge=   -0.000001

     negative rho (up, down):  5.644E-06 0.000E+00

     total cpu time spent up to now is      623.6 secs

     Self-consistent Calculation

     iteration #  1     ecut=    90.00 Ry     beta= 0.30
     Davidson diagonalization with overlap
     ethr =  1.00E-06,  avg # of iterations =  3.1

     Threshold (ethr) on eigenvalues was too large:
     Diagonalizing with lowered threshold

     Davidson diagonalization with overlap
     ethr =  5.54E-08,  avg # of iterations =  3.4

     negative rho (up, down):  5.576E-06 0.000E+00

     total cpu time spent up to now is      639.0 secs

     total energy              =    -594.55183942 Ry
     estimated scf accuracy    <       0.00009021 Ry

     iteration #  2     ecut=    90.00 Ry     beta= 0.30
     Davidson diagonalization with overlap
     ethr =  6.83E-08,  avg # of iterations =  1.7

     negative rho (up, down):  5.460E-06 0.000E+00

     total cpu time spent up to now is      644.7 secs

     total energy              =    -594.55183872 Ry
     estimated scf accuracy    <       0.00003051 Ry

     iteration #  3     ecut=    90.00 Ry     beta= 0.30
     Davidson diagonalization with overlap
     ethr =  2.31E-08,  avg # of iterations =  1.9

     negative rho (up, down):  5.414E-06 0.000E+00

     total cpu time spent up to now is      650.8 secs

     total energy              =    -594.55184042 Ry
     estimated scf accuracy    <       0.00000607 Ry

     iteration #  4     ecut=    90.00 Ry     beta= 0.30
     Davidson diagonalization with overlap
     ethr =  4.60E-09,  avg # of iterations =  2.0

     negative rho (up, down):  5.402E-06 0.000E+00

     total cpu time spent up to now is      656.9 secs

     total energy              =    -594.55184087 Ry
     estimated scf accuracy    <       0.00000095 Ry

     iteration #  5     ecut=    90.00 Ry     beta= 0.30
     Davidson diagonalization with overlap
     ethr =  7.17E-10,  avg # of iterations =  2.0

     negative rho (up, down):  5.406E-06 0.000E+00

     total cpu time spent up to now is      663.4 secs

     total energy              =    -594.55184099 Ry
     estimated scf accuracy    <       0.00000011 Ry

     iteration #  6     ecut=    90.00 Ry     beta= 0.30
     Davidson diagonalization with overlap
     ethr =  8.58E-11,  avg # of iterations =  2.3

     negative rho (up, down):  5.412E-06 0.000E+00

     total cpu time spent up to now is      669.4 secs

     total energy              =    -594.55184099 Ry
     estimated scf accuracy    <       0.00000003 Ry

     iteration #  7     ecut=    90.00 Ry     beta= 0.30
     Davidson diagonalization with overlap
     ethr =  2.27E-11,  avg # of iterations =  2.3

     negative rho (up, down):  5.414E-06 0.000E+00

     total cpu time spent up to now is      676.3 secs

     total energy              =    -594.55184100 Ry
     estimated scf accuracy    <          2.7E-09 Ry

     iteration #  8     ecut=    90.00 Ry     beta= 0.30
     Davidson diagonalization with overlap
     ethr =  2.06E-12,  avg # of iterations =  3.5

     negative rho (up, down):  5.419E-06 0.000E+00

     total cpu time spent up to now is      683.9 secs

     End of self-consistent calculation

          k = 0.0000-0.0000 0.0000 ( 29123 PWs)   bands (ev):

   -14.3058 -13.9978 -13.4340 -12.6385 -11.5952 -10.3366  -9.8367  -9.8320
    -9.5123  -9.4829  -9.0957  -8.9874  -8.6953  -8.3525  -8.3463  -7.1863
    -5.8582  -5.8323  -5.4992  -4.7976  -4.7891  -3.8059  -3.5093  -3.5091
    -2.1290  -2.1084  -2.0362  -0.4374  -0.4203  -0.2602   0.8119   0.8837
     1.0811   1.1273   1.1280   1.2880   1.4580   1.6198   1.9369   2.3710
     2.5111   2.6316   2.9447   3.1113   3.3136   3.6425   3.8328   4.0289
     4.0314   4.0768   4.0997   4.1054   4.1814   4.1861   4.2011   4.3797
     4.4186   4.5877   4.7869   4.7869   5.3658   5.5518   5.7927   6.4543
     6.5439   6.6098   9.3212   9.8243  11.1797  11.2226  11.3816  11.4297
    11.6464  11.8216  12.1694  12.2272  12.3477  12.4231  12.5433

          k = 0.0000-0.1000 0.0000 ( 29153 PWs)   bands (ev):

   -14.1268 -13.8303 -13.2821 -12.5089 -11.5281 -11.3463 -10.9457 -10.4523
   -10.0936  -9.4890  -8.8261  -8.4008  -8.1460  -7.8915  -7.8599  -7.0016
    -5.5973  -5.4256  -5.2892  -4.5673  -4.4521  -3.7820  -3.3456  -3.1537
    -2.2630  -2.0065  -1.6092  -0.6141  -0.4153  -0.1537   0.0844   0.4870
     0.8822   0.9575   1.1943   1.2107   1.3130   1.5061   1.7291   2.2417
     2.4145   2.4520   2.7252   2.9147   3.0733   3.3035   3.3836   3.5246
     3.6758   3.7089   3.9739   4.0844   4.1195   4.3324   4.3398   4.4755
     4.5379   4.8340   5.0284   5.1319   5.1970   5.2471   5.6374   6.1054
     6.1681   6.4877   9.5408  10.0364  11.6055  11.8071  11.8243  12.0429
    12.1239  12.2739  12.3715  12.5714  12.6018  12.8142  12.8955

          k = 0.0000-0.2000 0.0000 ( 29117 PWs)   bands (ev):

   -13.6084 -13.3826 -12.9492 -12.5874 -12.2993 -11.9602 -11.5102 -11.0562
   -10.5170  -9.8840  -9.2607  -8.5289  -7.9055  -7.3129  -6.7210  -6.5232
    -4.9537  -4.5751  -4.4757  -4.1280  -3.7553  -3.4473  -2.9769  -2.6783
    -2.2585  -1.9215  -1.5212  -1.3572  -1.1423  -0.8325  -0.3896  -0.0450
     0.2115   0.5402   1.0907   1.3095   1.3631   1.5340   1.7270   1.9326
     2.1605   2.2332   2.5187   2.6497   2.7764   2.7878   3.1400   3.2182
     3.3126   3.4666   3.8010   3.9858   4.0699   4.2165   4.4302   4.4777
     4.6186   4.7468   4.9468   5.0278   5.3584   5.4120   5.4179   5.6919
     5.8453   6.2751  10.1684  10.5981  11.1893  11.5011  12.0702  12.2255
    12.3379  12.4327  12.6405  13.0069  13.1293  13.2631  13.4220

          k = 0.1111-0.0000 0.0000 ( 29137 PWs)   bands (ev):

   -14.0791 -13.7719 -13.2096 -12.4165 -11.3773 -10.1246  -9.6208  -9.6163
    -9.2993  -9.2704  -8.8883  -8.7806  -8.4945  -8.1481  -8.1424  -6.9964
    -5.6649  -5.6332  -5.4061  -4.6147  -4.6084  -3.7212  -3.3534  -3.3532
    -2.1097  -2.0005  -1.9867  -0.7189  -0.3772  -0.3157  -0.1960   0.2490
     0.2930   1.0683   1.0937   1.1109   1.2779   1.3788   1.4571   2.0625
     2.3694   2.4134   2.5371   2.6159   2.9545   3.1219   3.1230   3.1422
     3.1750   3.2908   3.2980   3.5475   3.6807   3.7109   3.7799   3.9337
     3.9641   4.0640   4.0918   4.3750   5.1242   5.1381   5.3778   6.0228
     6.1257   6.3776   9.5497  10.0280  11.8681  11.8894  11.9404  12.0188
    12.3404  12.4804  12.6393  12.8696  13.0026  13.1094  13.1275

          k = 0.1111-0.1000 0.0000 ( 29122 PWs)   bands (ev):

   -13.9005 -13.6048 -13.0580 -12.2872 -11.3096 -11.1264 -10.7277 -10.2378
    -9.8826  -9.2812  -8.6239  -8.2023  -7.9395  -7.6889  -7.6552  -6.8116
    -5.4354  -5.2368  -5.1619  -4.3976  -4.2764  -3.6863  -3.2139  -2.9982
    -2.1878  -1.9734  -1.4714  -0.7534  -0.4285  -0.1828  -0.0154   0.1329
     0.3272   0.3562   0.6492   0.9464   1.1351   1.2782   1.4126   1.6398
     2.0237   2.1695   2.1786   2.2047   2.5392   2.6995   2.8471   3.0106
     3.0465   3.1515   3.3560   3.5978   3.7472   3.9175   3.9725   4.0393
     4.1222   4.1938   4.2938   4.3543   4.5554   5.2383   5.2701   5.3269
     6.0616   6.2181   9.7684  10.2359  11.9659  12.3902  12.4209  12.7521
    12.8055  12.8402  12.8964  12.9539  13.0869  13.3270  13.3534

          k = 0.1111-0.2000 0.0000 ( 29082 PWs)   bands (ev):

   -13.3831 -13.1580 -12.7257 -12.3644 -12.0774 -11.7394 -11.2913 -10.8400
   -10.3039  -9.6750  -9.0561  -8.3296  -7.7114  -7.1206  -6.5269  -6.3282
    -4.8577  -4.4283  -4.3265  -3.9953  -3.6090  -3.2988  -2.8185  -2.5397
    -2.0800  -1.7802  -1.3640  -1.2460  -1.0219  -0.7323  -0.4016  -0.0881
     0.1649   0.2612   0.3149   0.6305   0.9114   0.9468   1.1858   1.3077
     1.4350   1.6675   1.8395   2.0383   2.2245   2.3753   2.4988   2.8111
     2.8273   3.1093   3.2424   3.2869   3.6687   3.7114   3.9619   4.0597
     4.3050   4.5022   4.6299   4.6616   4.7817   4.8341   5.0579   5.2425
     5.5537   5.6109  10.3924  10.7897  11.3958  11.6665  12.0734  12.2891
    12.8697  13.0163  13.2564  13.5823  13.7163  13.7732  13.8980

          k = 0.2222-0.0000 0.0000 ( 29090 PWs)   bands (ev):

   -13.4026 -13.0979 -12.5405 -11.7561 -10.7318  -9.5029  -8.9772  -8.9734
    -8.6654  -8.6380  -8.2768  -8.1662  -7.9166  -7.5401  -7.5357  -6.4847
    -5.4793  -5.0693  -5.0671  -4.1205  -4.1199  -3.9101  -3.0754  -2.9824
    -2.9476  -2.2867  -2.0951  -1.8500  -1.8470  -1.5328  -1.1069  -0.4174
    -0.1210  -0.0798   0.1109   0.5943   0.6024   0.9909   1.0028   1.1314
     1.1865   1.2134   1.4528   1.6044   1.7210   1.7245   1.9447   2.0463
     2.0503   2.3877   2.4422   2.5335   2.5949   2.7134   2.9432   3.2161
     3.3154   3.3521   3.6640   4.0421   4.3928   4.4565   5.0666   5.1236
     5.3440   6.0884  10.1894  10.5433  12.5400  12.5779  12.7479  12.8842
    13.0748  13.2081  13.3026  13.3930  13.4623  13.4977  13.5580

          k = 0.2222-0.1000 0.0000 ( 29080 PWs)   bands (ev):

   -13.2251 -12.9318 -12.3899 -11.6275 -10.6614 -10.4712 -10.0785  -9.6026
    -9.2602  -8.6677  -8.0338  -7.6283  -7.3274  -7.0893  -7.0469  -6.2963
    -5.3383  -4.7713  -4.6857  -3.9909  -3.9117  -3.7230  -3.0892  -2.8387
    -2.5759  -2.1323  -1.9514  -1.8641  -1.4641  -1.1529  -1.0003  -0.6611
    -0.4279  -0.3290   0.0953   0.2302   0.3291   0.6739   0.7227   0.9140
     0.9248   1.1612   1.3245   1.5479   1.6068   1.6914   1.8808   1.9826
     2.0468   2.2413   2.4502   2.5516   2.6621   2.8552   2.9031   3.0755
     3.2236   3.3372   3.5468   3.7144   4.2145   4.2581   4.5017   5.0866
     5.3986   5.4958  10.3945  10.7330  12.3130  12.4909  12.7608  12.7838
    12.8178  13.0042  13.4543  13.7139  13.7530  13.8403  13.9440

          k = 0.2222-0.2000 0.0000 ( 29067 PWs)   bands (ev):

   -12.7107 -12.4878 -12.0593 -11.6994 -11.4160 -11.0820 -10.6404 -10.1986
    -9.6734  -9.0596  -8.4574  -7.7519  -7.1591  -6.5741  -5.9765  -5.7642
    -4.8662  -4.2603  -4.0543  -3.7542  -3.3824  -3.0026  -2.6629  -2.2941
    -1.9177  -1.7128  -1.6098  -1.5434  -1.3417  -1.2506  -1.2014  -0.9028
    -0.6908  -0.6847  -0.6017  -0.2611  -0.2050   0.0592   0.1669   0.3444
     0.5563   0.7271   0.8947   1.1054   1.2402   1.4697   1.6980   1.9247
     2.1207   2.3184   2.4555   2.5229   2.7883   2.9062   3.0503   3.1423
     3.2112   3.4870   3.5967   3.7825   3.9625   4.1312   4.3136   4.4844
     4.8385   4.8656  10.9439  11.2218  11.5908  11.7694  11.9128  12.1444
    12.4216  12.9525  13.1276  13.4244  13.9062  14.1531  14.5947

          k = 0.3333-0.0000 0.0000 ( 29134 PWs)   bands (ev):

   -12.2882 -11.9892 -11.4437 -10.6823  -9.7040  -8.5752  -7.9206  -7.9183
    -7.6440  -7.6082  -7.4698  -7.1774  -7.1455  -6.5562  -6.5539  -6.4974
    -6.4555  -4.9914  -4.7639  -4.4765  -4.3246  -4.2326  -3.7224  -3.6165
    -3.4707  -3.1336  -3.1231  -2.4046  -2.3964  -2.3948  -2.3398  -1.4467
    -1.0369  -0.9135  -0.8293  -0.7995  -0.7865  -0.4146  -0.4143   0.0957
     0.1208   0.1758   0.4081   0.9790   0.9862   1.2033   1.2428   1.3909
     1.4001   1.5817   2.1565   2.1631   2.2967   2.4510   2.4953   2.6347
     2.8432   3.3157   3.3487   3.3721   3.9408   4.2523   4.2775   4.5603
     5.1056   5.4866  11.1980  11.3916  12.2979  12.3067  12.7905  12.8151
    13.1400  13.1599  13.4641  13.6637  13.7302  13.7375  13.8038

          k = 0.3333-0.1000 0.0000 ( 29139 PWs)   bands (ev):

   -12.1125 -11.8249 -11.2947 -10.5543  -9.6232  -9.3964  -9.0182  -8.6011
    -8.2917  -7.7178  -7.2813  -6.9056  -6.4748  -6.3104  -6.2673  -6.0489
    -6.0269  -4.8628  -4.6377  -4.4834  -4.4114  -4.2090  -3.9120  -3.5480
    -3.2723  -2.8809  -2.4167  -2.3054  -2.2638  -1.8612  -1.8138  -1.6918
    -1.4281  -1.3907  -1.0646  -1.0082  -0.7400  -0.3478  -0.2625   0.0955
     0.3833   0.5179   0.5571   1.0944   1.1414   1.3468   1.4661   1.5516
     1.6594   1.7035   1.7629   1.8075   2.1418   2.2134   2.3243   2.4374
     2.7141   2.8331   2.8954   3.4682   3.5240   3.5492   4.1914   4.4494
     4.5117   4.7177  11.3525  11.5043  11.7354  12.4320  12.7001  12.9499
    13.0764  13.2125  13.4460  13.7958  13.8320  14.0038  14.1904

          k = 0.3333-0.2000 0.0000 ( 29094 PWs)   bands (ev):

   -11.6036 -11.3854 -10.9654 -10.6071 -10.3336 -10.0085  -9.5834  -9.1673
    -8.6712  -8.1081  -7.5702  -6.9672  -6.6107  -6.1737  -5.9738  -5.7930
    -4.8803  -4.8089  -4.5195  -4.3477  -4.2725  -3.9579  -3.6221  -3.2187
    -2.8132  -2.3509  -2.1757  -2.0147  -1.8953  -1.8411  -1.5307  -1.3644
    -1.2503  -1.0844  -0.8897  -0.6601  -0.5525  -0.4150  -0.1904  -0.0734
     0.1042   0.1758   0.4428   0.5245   0.7391   0.8653   1.1232   1.4056
     1.5798   1.6624   2.0113   2.0424   2.1655   2.2959   2.3229   2.5226
     2.5430   2.7398   2.8426   2.8899   3.0491   3.2456   3.4863   3.5146
     3.8186   3.8240  11.3223  11.5935  11.7426  11.9317  12.3829  12.7196
    12.7866  13.1065  13.4815  13.6219  13.8854  13.9961  14.1939

          k = 0.4444-0.0000 0.0000 ( 29202 PWs)   bands (ev):

   -10.7664 -10.4845  -9.9818  -9.3361  -8.9385  -8.7287  -8.7200  -7.5249
    -7.4067  -6.4783  -6.4778  -6.2128  -6.2047  -5.9432  -5.8503  -5.7549
    -5.6165  -5.2674  -5.2658  -4.9701  -4.7583  -4.7372  -4.6776  -4.5610
    -4.5506  -4.3671  -4.3565  -3.5133  -3.5131  -3.4592  -3.1737  -1.8502
    -1.5063  -1.4886  -1.3684  -0.9317  -0.9201  -0.4939  -0.3496  -0.2616
    -0.1820  -0.1344   0.2205   0.2580   0.2875   0.4956   0.5470   0.8321
     0.8383   1.2876   1.4651   1.7074   1.7076   2.0698   2.1642   2.8471
     2.8651   3.4996   3.6912   3.8142   3.8170   3.9620   4.2243   4.4302
     4.5395   4.5775  11.9534  11.9578  12.2660  12.2688  12.5270  12.5925
    13.1180  13.1235  13.3007  13.3059  14.0721  14.1316  14.4682

          k = 0.4444-0.1000 0.0000 ( 29157 PWs)   bands (ev):

   -10.5936 -10.3229  -9.8346  -9.2030  -8.7746  -8.5754  -8.5677  -7.9465
    -7.6622  -7.4663  -7.3173  -6.9765  -6.5009  -6.2063  -6.1229  -6.0564
    -5.5887  -5.4723  -4.8380  -4.6937  -4.6408  -4.6092  -4.4920  -4.3548
    -4.0495  -3.5843  -3.4350  -3.2279  -3.0841  -2.9885  -2.9508  -1.8809
    -1.7715  -1.6520  -1.3241  -1.0792  -0.9980  -0.5029  -0.3315  -0.1223
     0.2078   0.3450   0.4256   0.4540   0.6034   0.7391   0.8102   1.0526
     1.1193   1.3700   1.4237   1.6645   1.7202   2.1983   2.2070   2.5925
     2.6939   2.7693   3.0933   3.2819   3.3133   3.6631   3.6894   3.7045
     3.8237   3.8372  11.5593  12.1615  12.3161  12.5222  12.6415  12.8879
    13.0240  13.1219  13.5011  13.8478  13.9706  14.0912  14.4053

          k = 0.4444-0.2000 0.0000 ( 29103 PWs)   bands (ev):

   -10.0933  -9.8898  -9.4978  -9.1310  -8.9082  -8.6094  -8.3521  -8.1926
    -8.1070  -8.0116  -7.5960  -7.3777  -7.1783  -7.1248  -7.0397  -6.9754
    -5.2391  -5.1959  -4.8899  -4.7101  -4.5442  -4.2248  -4.1859  -3.8647
    -3.6671  -3.4755  -3.1813  -3.0246  -2.5705  -2.1794  -1.7786  -1.5176
    -1.1480  -0.9975  -0.9173  -0.6755  -0.4688  -0.2902  -0.0220   0.0458
     0.2108   0.3217   0.4856   0.7497   0.9038   1.0079   1.2023   1.3185
     1.5121   1.5870   1.6262   1.6760   1.7666   1.7868   1.8515   1.9143
     1.9897   2.1854   2.2305   2.2728   2.4980   2.5700   2.6947   2.7074
     3.0004   3.0093  11.8317  12.0076  12.4024  12.6210  12.8005  12.9086
    13.1218  13.1890  13.4346  13.4988  13.7863  13.8519  13.9039

     the Fermi energy is     8.0499 ev

!    total energy              =    -594.55184100 Ry
     estimated scf accuracy    <          1.3E-09 Ry
     smearing contrib. (-TS)   =       0.00000000 Ry
     internal energy E=F+TS    =    -594.55184100 Ry

     The total energy is F=E-TS. E is the sum of the following terms:
     one-electron contribution =   -4662.97297981 Ry
     hartree contribution      =    2402.27036321 Ry
     xc contribution           =    -152.40567980 Ry
     ewald contribution        =    2015.77069339 Ry
     one-center paw contrib.   =    -197.21423798 Ry

     convergence has been achieved in   8 iterations

     negative rho (up, down):  5.419E-06 0.000E+00

     Forces acting on atoms (cartesian axes, Ry/au):

     atom    1 type  1   force =     0.00000000   -0.00152541   -0.00012390
     atom    2 type  1   force =     0.00000000   -0.00118604    0.00008854
     atom    3 type  1   force =     0.00000000   -0.00001217   -0.00047808
     atom    4 type  1   force =     0.00000000   -0.00002407   -0.00095797
     atom    5 type  1   force =     0.00000000    0.00096635   -0.00142475
     atom    6 type  1   force =     0.00000000    0.00109266   -0.00151582
     atom    7 type  1   force =    -0.00000000   -0.00067042   -0.00135584
     atom    8 type  1   force =     0.00000000   -0.00067166    0.00002527
     atom    9 type  1   force =     0.00000000    0.00067166   -0.00002527
     atom   10 type  1   force =    -0.00000000    0.00067042    0.00135584
     atom   11 type  1   force =     0.00000000   -0.00109266    0.00151582
     atom   12 type  1   force =     0.00000000   -0.00096635    0.00142475
     atom   13 type  1   force =     0.00000000    0.00002407    0.00095797
     atom   14 type  1   force =     0.00000000    0.00001217    0.00047808
     atom   15 type  1   force =     0.00000000    0.00118604   -0.00008854
     atom   16 type  1   force =    -0.00000000    0.00152541    0.00012390
     atom   17 type  1   force =    -0.00000000    0.00152666   -0.00017062
     atom   18 type  1   force =     0.00000000    0.00122004    0.00001670
     atom   19 type  1   force =     0.00000000    0.00004306   -0.00170062
     atom   20 type  1   force =     0.00000000    0.00003065   -0.00136731
     atom   21 type  1   force =     0.00000000   -0.00095262   -0.00175889
     atom   22 type  1   force =     0.00000000   -0.00112572   -0.00219869
     atom   23 type  1   force =    -0.00000000    0.00064384   -0.00176207
     atom   24 type  1   force =     0.00000000    0.00066156   -0.00137200
     atom   25 type  1   force =     0.00000000   -0.00066156    0.00137200
     atom   26 type  1   force =     0.00000000   -0.00064384    0.00176207
     atom   27 type  1   force =     0.00000000    0.00112572    0.00219869
     atom   28 type  1   force =     0.00000000    0.00095262    0.00175889
     atom   29 type  1   force =     0.00000000   -0.00003065    0.00136731
     atom   30 type  1   force =     0.00000000   -0.00004306    0.00170062
     atom   31 type  1   force =     0.00000000   -0.00122004   -0.00001670
     atom   32 type  1   force =     0.00000000   -0.00152666    0.00017062
     atom   33 type  2   force =     0.00000000    0.00066636   -0.00002736
     atom   34 type  2   force =     0.00000000   -0.00067727   -0.00005844
     atom   35 type  2   force =     0.00000000   -0.00066636    0.00002736
     atom   36 type  2   force =     0.00000000    0.00067727    0.00005844

     Total force =     0.008895     Total SCF correction =     0.000099
     Energy error            =      1.5E-04 Ry
     Gradient error          =      2.2E-03 Ry/Bohr

     number of scf cycles    =  10
     number of bfgs steps    =   9

     energy             old  =    -594.5516861792 Ry
     energy             new  =    -594.5518410000 Ry

     CASE: energy            _new < energy            _old

     new trust radius        =       0.0141269539 bohr
     new conv_thr            =       0.0000000015 Ry


ATOMIC_POSITIONS (angstrom)
C                0.0000000000       -1.7136444605       18.3571419055
C                1.2634728900       -1.3531201188       17.5457101883
C                1.2634728900       -0.0002218484       16.7346526100
C                0.0000000000       -0.0002061202       15.8039322046
C                0.0000000000       -1.2490358122       14.8518427377
C                1.2634728900       -1.2492059874       13.9567805361
C                1.2634728900        0.0017025160       13.0554420229
C                0.0000000000        0.0014250766       12.1615452708
C                0.0000000000       -1.2648979666       11.2738573192
C                1.2634728900       -1.2651754060       10.3799605671
C                1.2634728900       -0.0142669026        9.4786220539
C               -0.0000000000       -0.0144370778        8.5835598523
C                0.0000000000       -1.2632667698        7.6314703854
C                1.2634728900       -1.2632510416        6.7007499800
C                1.2634728900        0.0896472288        5.8896924017
C                0.0000000000        0.4501715705        5.0782606845
C               -0.0000000000       -3.3402461647       18.3569986449
C                1.2634728900       -3.7006741737       17.5454387900
C                1.2634728900       -2.5265474936       16.5499534075
C               -0.0000000000       -2.5265682969       15.6949175684
C                0.0000000000       -3.8048436916       14.8538592696
C                1.2634728900       -3.8046443444       13.9593754511
C                1.2634728900       -2.5286139749       13.0690253846
C                0.0000000000       -2.5283506142       12.1704160798
C                0.0000000000       -3.7890138458       11.2649865102
C                1.2634728900       -3.7887504851       10.3663772054
C                1.2634728900       -2.5127201156        9.4760271389
C                0.0000000000       -2.5125207684        8.5815433204
C                0.0000000000       -3.7907961631        7.7404850216
C                1.2634728900       -3.7908169664        6.8854491825
C                1.2634728900       -2.6166902863        5.8899638000
C                0.0000000000       -2.9771182953        5.0784039451
H                0.0000000000       -1.2836027387       19.3696806302
H               -0.0000000000       -3.7703302902       19.3695635578
H               -0.0000000000        0.0201298487        4.0657219498
H               -0.0000000000       -2.5470341698        4.0658390222



     Writing config-only to output data dir /tmp/qe/slab.save/ :
     XML data file
     NEW-OLD atomic charge density approx. for the potential

     Check: negative core charge=   -0.000001

     negative rho (up, down):  5.715E-06 0.000E+00

     total cpu time spent up to now is      686.1 secs

     Self-consistent Calculation

     iteration #  1     ecut=    90.00 Ry     beta= 0.30
     Davidson diagonalization with overlap
     ethr =  1.00E-06,  avg # of iterations =  3.0

     Threshold (ethr) on eigenvalues was too large:
     Diagonalizing with lowered threshold

     Davidson diagonalization with overlap
     ethr =  5.21E-08,  avg # of iterations =  3.8

     negative rho (up, down):  5.661E-06 0.000E+00

     total cpu time spent up to now is      702.1 secs

     total energy              =    -594.55196233 Ry
     estimated scf accuracy    <       0.00008469 Ry

     iteration #  2     ecut=    90.00 Ry     beta= 0.30
     Davidson diagonalization with overlap
     ethr =  6.42E-08,  avg # of iterations =  1.7

     negative rho (up, down):  5.568E-06 0.000E+00

     total cpu time spent up to now is      707.8 secs

     total energy              =    -594.55196121 Ry
     estimated scf accuracy    <       0.00003064 Ry

     iteration #  3     ecut=    90.00 Ry     beta= 0.30
     Davidson diagonalization with overlap
     ethr =  2.32E-08,  avg # of iterations =  1.5

     negative rho (up, down):  5.521E-06 0.000E+00

     total cpu time spent up to now is      713.3 secs

     total energy              =    -594.55196205 Ry
     estimated scf accuracy    <       0.00000771 Ry

     iteration #  4     ecut=    90.00 Ry     beta= 0.30
     Davidson diagonalization with overlap
     ethr =  5.84E-09,  avg # of iterations =  2.0

     negative rho (up, down):  5.523E-06 0.000E+00

     total cpu time spent up to now is      719.4 secs

     total energy              =    -594.55196269 Ry
     estimated scf accuracy    <       0.00000063 Ry

     iteration #  5     ecut=    90.00 Ry     beta= 0.30
     Davidson diagonalization with overlap
     ethr =  4.80E-10,  avg # of iterations =  2.7

     negative rho (up, down):  5.528E-06 0.000E+00

     total cpu time spent up to now is      726.4 secs

     total energy              =    -594.55196278 Ry
     estimated scf accuracy    <       0.00000010 Ry

     iteration #  6     ecut=    90.00 Ry     beta= 0.30
     Davidson diagonalization with overlap
     ethr =  7.70E-11,  avg # of iterations =  2.3

     negative rho (up, down):  5.533E-06 0.000E+00

     total cpu time spent up to now is      733.0 secs

     total energy              =    -594.55196279 Ry
     estimated scf accuracy    <       0.00000002 Ry

     iteration #  7     ecut=    90.00 Ry     beta= 0.30
     Davidson diagonalization with overlap
     ethr =  1.46E-11,  avg # of iterations =  2.5

     negative rho (up, down):  5.536E-06 0.000E+00

     total cpu time spent up to now is      739.3 secs

     total energy              =    -594.55196280 Ry
     estimated scf accuracy    <          2.5E-09 Ry

     iteration #  8     ecut=    90.00 Ry     beta= 0.30
     Davidson diagonalization with overlap
     ethr =  1.86E-12,  avg # of iterations =  3.2

     negative rho (up, down):  5.540E-06 0.000E+00

     total cpu time spent up to now is      747.0 secs

     End of self-consistent calculation

          k = 0.0000-0.0000 0.0000 ( 29123 PWs)   bands (ev):

   -14.3142 -13.9985 -13.4374 -12.6404 -11.5961 -10.3366  -9.8458  -9.8419
    -9.5143  -9.4860  -9.1015  -8.9922  -8.6953  -8.3540  -8.3479  -7.1836
    -5.8645  -5.8393  -5.4949  -4.7997  -4.7915  -3.7993  -3.5127  -3.5127
    -2.1302  -2.1107  -2.0292  -0.4408  -0.4233  -0.2511   0.8026   0.8719
     1.0801   1.1261   1.1267   1.2852   1.4665   1.6151   1.9320   2.3684
     2.5105   2.6296   2.9396   3.1183   3.3117   3.6406   3.8313   4.0192
     4.0216   4.0748   4.0956   4.1010   4.1739   4.1795   4.2016   4.3793
     4.4166   4.5941   4.7895   4.7895   5.3654   5.5500   5.7964   6.4500
     6.5401   6.6161   9.3252   9.8264  11.1726  11.2132  11.3774  11.4288
    11.6411  11.8171  12.1648  12.2252  12.3389  12.4219  12.5378

          k = 0.0000-0.1000 0.0000 ( 29153 PWs)   bands (ev):

   -14.1351 -13.8309 -13.2855 -12.5106 -11.5291 -11.3555 -10.9479 -10.4553
   -10.0978  -9.4916  -8.8273  -8.4029  -8.1561  -7.8921  -7.8608  -7.0001
    -5.6000  -5.4322  -5.2896  -4.5687  -4.4536  -3.7772  -3.3472  -3.1573
    -2.2629  -2.0040  -1.6124  -0.6111  -0.4163  -0.1569   0.0775   0.4852
     0.8832   0.9484   1.1915   1.2099   1.3134   1.5040   1.7243   2.2426
     2.4160   2.4495   2.7257   2.9133   3.0622   3.3013   3.3808   3.5250
     3.6768   3.7037   3.9743   4.0800   4.1184   4.3326   4.3376   4.4751
     4.5338   4.8267   5.0264   5.1320   5.1986   5.2487   5.6361   6.1041
     6.1738   6.4837   9.5449  10.0385  11.5995  11.8003  11.8128  12.0378
    12.1196  12.2722  12.3717  12.5694  12.5990  12.8161  12.8946

          k = 0.0000-0.2000 0.0000 ( 29117 PWs)   bands (ev):

   -13.6153 -13.3823 -12.9531 -12.5958 -12.3033 -11.9622 -11.5121 -11.0603
   -10.5214  -9.8857  -9.2618  -8.5307  -7.9074  -7.3148  -6.7231  -6.5248
    -4.9518  -4.5772  -4.4805  -4.1287  -3.7565  -3.4489  -2.9778  -2.6811
    -2.2628  -1.9236  -1.5276  -1.3603  -1.1442  -0.8362  -0.3875  -0.0462
     0.2128   0.5384   1.0925   1.3088   1.3559   1.5338   1.7304   1.9261
     2.1588   2.2229   2.5135   2.6510   2.7765   2.7856   3.1376   3.2189
     3.3120   3.4626   3.7968   3.9877   4.0692   4.2140   4.4327   4.4790
     4.6162   4.7463   4.9457   5.0243   5.3624   5.4116   5.4149   5.6882
     5.8431   6.2707  10.1719  10.5983  11.1947  11.5041  12.0669  12.2209
    12.3332  12.4302  12.6325  13.0019  13.1264  13.2547  13.4172

          k = 0.1111-0.0000 0.0000 ( 29137 PWs)   bands (ev):

   -14.0876 -13.7726 -13.2130 -12.4184 -11.3782 -10.1246  -9.6299  -9.6262
    -9.3013  -9.2735  -8.8941  -8.7855  -8.4946  -8.1496  -8.1439  -6.9936
    -5.6707  -5.6403  -5.4026  -4.6168  -4.6108  -3.7150  -3.3568  -3.3568
    -2.1055  -2.0028  -1.9872  -0.7164  -0.3804  -0.3174  -0.2000   0.2527
     0.2867   1.0567   1.0940   1.1080   1.2770   1.3820   1.4544   2.0584
     2.3694   2.4116   2.5352   2.6185   2.9483   3.1180   3.1194   3.1286
     3.1650   3.2894   3.2952   3.5463   3.6809   3.7116   3.7776   3.9349
     3.9650   4.0649   4.0899   4.3735   5.1244   5.1398   5.3773   6.0227
     6.1310   6.3728   9.5536  10.0300  11.8635  11.8793  11.9342  12.0163
    12.3384  12.4747  12.6383  12.8681  12.9947  13.1107  13.1226

          k = 0.1111-0.1000 0.0000 ( 29122 PWs)   bands (ev):

   -13.9088 -13.6053 -13.0614 -12.2889 -11.3106 -11.1357 -10.7299 -10.2408
    -9.8868  -9.2837  -8.6251  -8.2045  -7.9497  -7.6895  -7.6561  -6.8101
    -5.4362  -5.2431  -5.1647  -4.3990  -4.2779  -3.6817  -3.2154  -3.0019
    -2.1868  -1.9734  -1.4749  -0.7505  -0.4294  -0.1857  -0.0182   0.1246
     0.3221   0.3548   0.6474   0.9455   1.1316   1.2762   1.4123   1.6384
     2.0198   2.1663   2.1745   2.2015   2.5385   2.7006   2.8439   3.0083
     3.0450   3.1486   3.3543   3.5961   3.7461   3.9139   3.9692   4.0378
     4.1200   4.1931   4.2927   4.3544   4.5544   5.2356   5.2705   5.3279
     6.0659   6.2152   9.7723  10.2378  11.9598  12.3864  12.4186  12.7523
    12.8003  12.8349  12.8961  12.9538  13.0846  13.3233  13.3522

          k = 0.1111-0.2000 0.0000 ( 29082 PWs)   bands (ev):

   -13.3901 -13.1577 -12.7296 -12.3728 -12.0814 -11.7414 -11.2932 -10.8441
   -10.3083  -9.6767  -9.0572  -8.3314  -7.7133  -7.1225  -6.5288  -6.3298
    -4.8558  -4.4301  -4.3313  -3.9963  -3.6103  -3.3005  -2.8192  -2.5427
    -2.0843  -1.7822  -1.3699  -1.2498  -1.0245  -0.7358  -0.4024  -0.0883
     0.1633   0.2601   0.3147   0.6244   0.9082   0.9459   1.1833   1.2989
     1.4349   1.6648   1.8414   2.0359   2.2250   2.3734   2.4948   2.8098
     2.8262   3.1068   3.2420   3.2860   3.6682   3.7109   3.9614   4.0588
     4.3049   4.5015   4.6290   4.6609   4.7786   4.8324   5.0542   5.2418
     5.5559   5.6070  10.3956  10.7896  11.4009  11.6692  12.0729  12.2864
    12.8710  13.0184  13.2594  13.5823  13.7144  13.7698  13.8959

          k = 0.2222-0.0000 0.0000 ( 29090 PWs)   bands (ev):

   -13.4111 -13.0986 -12.5439 -11.7580 -10.7327  -9.5028  -8.9863  -8.9831
    -8.6674  -8.6409  -8.2826  -8.1711  -7.9169  -7.5414  -7.5371  -6.4817
    -5.4772  -5.0761  -5.0738  -4.1225  -4.1219  -3.9076  -3.0796  -2.9858
    -2.9519  -2.2877  -2.0935  -1.8527  -1.8497  -1.5287  -1.1100  -0.4152
    -0.1252  -0.0818   0.1102   0.5905   0.5993   0.9858   0.9963   1.1343
     1.1823   1.2107   1.4528   1.5929   1.7168   1.7203   1.9428   2.0481
     2.0518   2.3865   2.4422   2.5293   2.5963   2.7124   2.9399   3.2150
     3.3071   3.3484   3.6617   4.0466   4.3932   4.4538   5.0714   5.1247
     5.3432   6.0825  10.1931  10.5454  12.5325  12.5715  12.7497  12.8795
    13.0747  13.2064  13.3017  13.3929  13.4679  13.4995  13.5574

          k = 0.2222-0.1000 0.0000 ( 29080 PWs)   bands (ev):

   -13.2333 -12.9324 -12.3933 -11.6293 -10.6624 -10.4805 -10.0806  -9.6055
    -9.2644  -8.6702  -8.0350  -7.6306  -7.3376  -7.0898  -7.0477  -6.2945
    -5.3363  -4.7785  -4.6921  -3.9920  -3.9116  -3.7230  -3.0914  -2.8428
    -2.5804  -2.1340  -1.9502  -1.8683  -1.4602  -1.1569  -1.0035  -0.6631
    -0.4252  -0.3369   0.0911   0.2294   0.3268   0.6688   0.7181   0.9094
     0.9239   1.1602   1.3214   1.5444   1.6052   1.6896   1.8762   1.9819
     2.0434   2.2421   2.4490   2.5508   2.6595   2.8552   2.9025   3.0757
     3.2205   3.3354   3.5452   3.7101   4.2158   4.2569   4.5006   5.0885
     5.4007   5.4904  10.3982  10.7351  12.3131  12.4950  12.7609  12.7789
    12.8171  13.0065  13.4542  13.7153  13.7442  13.8451  13.9413

          k = 0.2222-0.2000 0.0000 ( 29067 PWs)   bands (ev):

   -12.7177 -12.4875 -12.0632 -11.7077 -11.4201 -11.0839 -10.6423 -10.2027
    -9.6778  -9.0613  -8.4585  -7.7536  -7.1610  -6.5759  -5.9775  -5.7663
    -4.8656  -4.2626  -4.0569  -3.7567  -3.3853  -3.0045  -2.6656  -2.2978
    -1.9202  -1.7148  -1.6113  -1.5458  -1.3469  -1.2559  -1.2084  -0.9063
    -0.6942  -0.6899  -0.6050  -0.2635  -0.2076   0.0581   0.1642   0.3431
     0.5553   0.7261   0.8932   1.1041   1.2386   1.4673   1.6965   1.9255
     2.1183   2.3198   2.4540   2.5218   2.7879   2.9034   3.0462   3.1433
     3.2105   3.4859   3.5974   3.7812   3.9623   4.1262   4.3133   4.4811
     4.8390   4.8633  10.9467  11.2222  11.5936  11.7721  11.9144  12.1482
    12.4212  12.9531  13.1283  13.4281  13.9066  14.1545  14.6002

          k = 0.3333-0.0000 0.0000 ( 29134 PWs)   bands (ev):

   -12.2967 -11.9899 -11.4471 -10.6843  -9.7050  -8.5755  -7.9295  -7.9279
    -7.6459  -7.6109  -7.4756  -7.1825  -7.1502  -6.5570  -6.5547  -6.4960
    -6.4527  -4.9974  -4.7659  -4.4779  -4.3308  -4.2388  -3.7238  -3.6184
    -3.4729  -3.1391  -3.1292  -2.4047  -2.3990  -2.3971  -2.3378  -1.4428
    -1.0383  -0.9169  -0.8340  -0.8043  -0.7930  -0.4178  -0.4176   0.0981
     0.1206   0.1783   0.4072   0.9777   0.9852   1.2018   1.2386   1.3905
     1.3996   1.5820   2.1566   2.1637   2.2989   2.4429   2.4839   2.6285
     2.8402   3.3184   3.3443   3.3727   3.9366   4.2559   4.2808   4.5569
     5.1044   5.4792  11.2013  11.3939  12.3030  12.3120  12.7929  12.8173
    13.1424  13.1602  13.4560  13.6597  13.7301  13.7381  13.8027

          k = 0.3333-0.1000 0.0000 ( 29139 PWs)   bands (ev):

   -12.1208 -11.8255 -11.2981 -10.5560  -9.6239  -9.4060  -9.0202  -8.6037
    -8.2963  -7.7204  -7.2851  -6.9088  -6.4768  -6.3097  -6.2721  -6.0491
    -6.0276  -4.8687  -4.6398  -4.4887  -4.4181  -4.2114  -3.9150  -3.5498
    -3.2754  -2.8841  -2.4188  -2.3071  -2.2626  -1.8640  -1.8188  -1.6975
    -1.4289  -1.3960  -1.0653  -1.0081  -0.7401  -0.3488  -0.2641   0.0971
     0.3810   0.5152   0.5560   1.0944   1.1397   1.3431   1.4634   1.5510
     1.6559   1.7019   1.7613   1.8065   2.1398   2.2103   2.3268   2.4305
     2.7071   2.8328   2.8939   3.4657   3.5231   3.5492   4.1931   4.4491
     4.5107   4.7111  11.3568  11.5083  11.7381  12.4321  12.6998  12.9522
    13.0769  13.2135  13.4511  13.7997  13.8268  14.0062  14.1921

          k = 0.3333-0.2000 0.0000 ( 29094 PWs)   bands (ev):

   -11.6105 -11.3851 -10.9693 -10.6153 -10.3378 -10.0104  -9.5852  -9.1713
    -8.6756  -8.1098  -7.5715  -6.9696  -6.6143  -6.1739  -5.9713  -5.7954
    -4.8839  -4.8135  -4.5252  -4.3503  -4.2778  -3.9606  -3.6249  -3.2226
    -2.8172  -2.3527  -2.1784  -2.0201  -1.8961  -1.8442  -1.5318  -1.3670
    -1.2529  -1.0852  -0.8902  -0.6617  -0.5556  -0.4171  -0.1942  -0.0754
     0.1018   0.1687   0.4397   0.5228   0.7366   0.8630   1.1238   1.4040
     1.5804   1.6606   2.0114   2.0438   2.1655   2.2947   2.3221   2.5227
     2.5417   2.7387   2.8414   2.8867   3.0439   3.2410   3.4813   3.5141
     3.8183   3.8222  11.3266  11.5964  11.7444  11.9274  12.3850  12.7189
    12.7883  13.1104  13.4886  13.6261  13.8893  13.9998  14.1968

          k = 0.4444-0.0000 0.0000 ( 29202 PWs)   bands (ev):

   -10.7746 -10.4852  -9.9852  -9.3379  -8.9443  -8.7312  -8.7262  -7.5205
    -7.4017  -6.4876  -6.4871  -6.2145  -6.2070  -5.9493  -5.8555  -5.7596
    -5.6213  -5.2678  -5.2662  -4.9696  -4.7654  -4.7468  -4.6791  -4.5662
    -4.5573  -4.3704  -4.3585  -3.5154  -3.5153  -3.4590  -3.1737  -1.8485
    -1.5123  -1.4950  -1.3642  -0.9338  -0.9223  -0.4915  -0.3542  -0.2623
    -0.1829  -0.1371   0.2215   0.2571   0.2855   0.4939   0.5451   0.8306
     0.8371   1.2877   1.4649   1.7092   1.7094   2.0617   2.1565   2.8495
     2.8674   3.4886   3.6883   3.8178   3.8207   3.9575   4.2192   4.4245
     4.5388   4.5706  11.9582  11.9625  12.2699  12.2725  12.5300  12.5952
    13.1196  13.1249  13.3004  13.3060  14.0733  14.1322  14.4623

          k = 0.4444-0.1000 0.0000 ( 29157 PWs)   bands (ev):

   -10.6017 -10.3235  -9.8379  -9.2047  -8.7797  -8.5823  -8.5702  -7.9556
    -7.6619  -7.4637  -7.3153  -6.9793  -6.5033  -6.2118  -6.1291  -6.0588
    -5.5937  -5.4772  -4.8470  -4.6948  -4.6431  -4.6101  -4.4948  -4.3589
    -4.0531  -3.5882  -3.4342  -3.2361  -3.0870  -2.9896  -2.9516  -1.8830
    -1.7780  -1.6561  -1.3213  -1.0796  -0.9977  -0.4998  -0.3320  -0.1233
     0.2046   0.3462   0.4227   0.4516   0.6002   0.7374   0.8090   1.0516
     1.1182   1.3706   1.4256   1.6655   1.7190   2.1905   2.1998   2.5909
     2.6943   2.7608   3.0910   3.2796   3.3130   3.6608   3.6875   3.7005
     3.8177   3.8394  11.5639  12.1651  12.3209  12.5258  12.6458  12.8867
    13.0234  13.1254  13.5018  13.8474  13.9748  14.0899  14.4068

          k = 0.4444-0.2000 0.0000 ( 29103 PWs)   bands (ev):

   -10.1001  -9.8896  -9.5016  -9.1387  -8.9128  -8.6112  -8.3539  -8.2002
    -8.1097  -8.0177  -7.5984  -7.3860  -7.1766  -7.1234  -7.0406  -6.9739
    -5.2437  -5.2007  -4.8937  -4.7134  -4.5504  -4.2284  -4.1892  -3.8679
    -3.6680  -3.4795  -3.1828  -3.0267  -2.5728  -2.1812  -1.7820  -1.5183
    -1.1479  -1.0015  -0.9192  -0.6725  -0.4711  -0.2903  -0.0233   0.0431
     0.2086   0.3195   0.4815   0.7465   0.9025   1.0061   1.2006   1.3182
     1.5095   1.5837   1.6206   1.6761   1.7640   1.7858   1.8490   1.9116
     1.9895   2.1847   2.2300   2.2671   2.4925   2.5687   2.6893   2.7068
     3.0006   3.0081  11.8355  12.0110  12.4051  12.6165  12.8018  12.9107
    13.1237  13.1933  13.4353  13.5016  13.7911  13.8536  13.9047

     the Fermi energy is     8.0519 ev

!    total energy              =    -594.55196280 Ry
     estimated scf accuracy    <          6.0E-10 Ry
     smearing contrib. (-TS)   =       0.00000000 Ry
     internal energy E=F+TS    =    -594.55196280 Ry

     The total energy is F=E-TS. E is the sum of the following terms:
     one-electron contribution =   -4671.18361772 Ry
     hartree contribution      =    2406.36797631 Ry
     xc contribution           =    -152.41178229 Ry
     ewald contribution        =    2019.88983147 Ry
     one-center paw contrib.   =    -197.21437057 Ry

     convergence has been achieved in   8 iterations

     negative rho (up, down):  5.540E-06 0.000E+00

     Forces acting on atoms (cartesian axes, Ry/au):

     atom    1 type  1   force =     0.00000000   -0.00156018   -0.00044040
     atom    2 type  1   force =     0.00000000   -0.00118958    0.00005392
     atom    3 type  1   force =     0.00000000    0.00006133   -0.00058509
     atom    4 type  1   force =     0.00000000    0.00005779   -0.00118062
     atom    5 type  1   force =     0.00000000    0.00104426   -0.00056247
     atom    6 type  1   force =    -0.00000000    0.00136257   -0.00060831
     atom    7 type  1   force =     0.00000000   -0.00041616   -0.00186509
     atom    8 type  1   force =     0.00000000   -0.00038580   -0.00056681
     atom    9 type  1   force =     0.00000000    0.00038580    0.00056681
     atom   10 type  1   force =     0.00000000    0.00041616    0.00186509
     atom   11 type  1   force =     0.00000000   -0.00136257    0.00060831
     atom   12 type  1   force =     0.00000000   -0.00104426    0.00056247
     atom   13 type  1   force =     0.00000000   -0.00005779    0.00118062
     atom   14 type  1   force =     0.00000000   -0.00006133    0.00058509
     atom   15 type  1   force =     0.00000000    0.00118958   -0.00005392
     atom   16 type  1   force =     0.00000000    0.00156018    0.00044040
     atom   17 type  1   force =     0.00000000    0.00155775   -0.00047574
     atom   18 type  1   force =     0.00000000    0.00122647    0.00000835
     atom   19 type  1   force =    -0.00000000   -0.00004698   -0.00091215
     atom   20 type  1   force =     0.00000000   -0.00007655   -0.00117170
     atom   21 type  1   force =     0.00000000   -0.00101619   -0.00130633
     atom   22 type  1   force =     0.00000000   -0.00137908   -0.00156575
     atom   23 type  1   force =     0.00000000    0.00038888   -0.00032213
     atom   24 type  1   force =     0.00000000    0.00040056   -0.00012958
     atom   25 type  1   force =     0.00000000   -0.00040056    0.00012958
     atom   26 type  1   force =    -0.00000000   -0.00038888    0.00032213
     atom   27 type  1   force =    -0.00000000    0.00137908    0.00156575
     atom   28 type  1   force =     0.00000000    0.00101619    0.00130633
     atom   29 type  1   force =     0.00000000    0.00007655    0.00117170
     atom   30 type  1   force =     0.00000000    0.00004698    0.00091215
     atom   31 type  1   force =     0.00000000   -0.00122647   -0.00000835
     atom   32 type  1   force =     0.00000000   -0.00155775    0.00047574
     atom   33 type  2   force =     0.00000000   -0.00036679   -0.00003093
     atom   34 type  2   force =     0.00000000    0.00035404   -0.00009241
     atom   35 type  2   force =     0.00000000    0.00036679    0.00003093
     atom   36 type  2   force =     0.00000000   -0.00035404    0.00009241

     Total force =     0.007444     Total SCF correction =     0.000087
     Energy error            =      1.2E-04 Ry
     Gradient error          =      1.9E-03 Ry/Bohr

     number of scf cycles    =  11
     number of bfgs steps    =  10

     energy             old  =    -594.5518410000 Ry
     energy             new  =    -594.5519627967 Ry

     CASE: energy            _new < energy            _old

     new trust radius        =       0.0080018784 bohr
     new conv_thr            =       0.0000000012 Ry


ATOMIC_POSITIONS (angstrom)
C                0.0000000000       -1.7140901600       18.3559559457
C                1.2634728900       -1.3537693192       17.5440123139
C                1.2634728900       -0.0002071148       16.7330431738
C                0.0000000000       -0.0002020658       15.8018598034
C                0.0000000000       -1.2486989366       14.8496437569
C                1.2634728900       -1.2487956493       13.9548951855
C                1.2634728900        0.0012293938       13.0539943562
C                0.0000000000        0.0009461899       12.1614965893
C                0.0000000000       -1.2644190799       11.2739060007
C                1.2634728900       -1.2647022838       10.3814082338
C                1.2634728900       -0.0146772407        9.4805074045
C               -0.0000000000       -0.0147739534        8.5857588331
C                0.0000000000       -1.2632708242        7.6335427866
C                1.2634728900       -1.2632657752        6.7023594162
C                1.2634728900        0.0902964292        5.8913902761
C                0.0000000000        0.4506172700        5.0794466443
C               -0.0000000000       -3.3398010495       18.3557516486
C                1.2634728900       -3.6999717118       17.5436476690
C                1.2634728900       -2.5265152735       16.5475954874
C               -0.0000000000       -2.5265579423       15.6921719821
C                0.0000000000       -3.8051526636       14.8512721364
C                1.2634728900       -3.8050756672       13.9568588840
C                1.2634728900       -2.5281605215       13.0670786123
C                0.0000000000       -2.5278716369       12.1693089721
C                0.0000000000       -3.7894928231       11.2660936179
C                1.2634728900       -3.7892039385       10.3683239777
C                1.2634728900       -2.5122887928        9.4785437060
C                0.0000000000       -2.5122117964        8.5841304536
C                0.0000000000       -3.7908065177        7.7432306079
C                1.2634728900       -3.7908491865        6.8878071026
C                1.2634728900       -2.6173927482        5.8917549210
C                0.0000000000       -2.9775634105        5.0796509414
H                0.0000000000       -1.2802300239       19.3672235179
H               -0.0000000000       -3.7737226587       19.3670293758
H               -0.0000000000        0.0167571339        4.0681790621
H               -0.0000000000       -2.5436418013        4.0683732042



     Writing config-only to output data dir /tmp/qe/slab.save/ :
     XML data file
     NEW-OLD atomic charge density approx. for the potential

     Check: negative core charge=   -0.000001

     negative rho (up, down):  5.742E-06 0.000E+00

     total cpu time spent up to now is      749.2 secs

     Self-consistent Calculation

     iteration #  1     ecut=    90.00 Ry     beta= 0.30
     Davidson diagonalization with overlap
     ethr =  1.00E-06,  avg # of iterations =  3.0

     Threshold (ethr) on eigenvalues was too large:
     Diagonalizing with lowered threshold

     Davidson diagonalization with overlap
     ethr =  2.56E-08,  avg # of iterations =  4.5

     negative rho (up, down):  5.720E-06 0.000E+00

     total cpu time spent up to now is      765.6 secs

     total energy              =    -594.55203011 Ry
     estimated scf accuracy    <       0.00004238 Ry

     iteration #  2     ecut=    90.00 Ry     beta= 0.30
     Davidson diagonalization with overlap
     ethr =  3.21E-08,  avg # of iterations =  1.6

     negative rho (up, down):  5.664E-06 0.000E+00

     total cpu time spent up to now is      771.5 secs

     total energy              =    -594.55202936 Ry
     estimated scf accuracy    <       0.00001518 Ry

     iteration #  3     ecut=    90.00 Ry     beta= 0.30
     Davidson diagonalization with overlap
     ethr =  1.15E-08,  avg # of iterations =  1.5

     negative rho (up, down):  5.637E-06 0.000E+00

     total cpu time spent up to now is      777.1 secs

     total energy              =    -594.55202964 Ry
     estimated scf accuracy    <       0.00000369 Ry

     iteration #  4     ecut=    90.00 Ry     beta= 0.30
     Davidson diagonalization with overlap
     ethr =  2.80E-09,  avg # of iterations =  2.0

     negative rho (up, down):  5.640E-06 0.000E+00

     total cpu time spent up to now is      783.2 secs

     total energy              =    -594.55202997 Ry
     estimated scf accuracy    <       0.00000026 Ry

     iteration #  5     ecut=    90.00 Ry     beta= 0.30
     Davidson diagonalization with overlap
     ethr =  1.96E-10,  avg # of iterations =  3.1

     negative rho (up, down):  5.647E-06 0.000E+00

     total cpu time spent up to now is      790.4 secs

     total energy              =    -594.55203001 Ry
     estimated scf accuracy    <       0.00000005 Ry

     iteration #  6     ecut=    90.00 Ry     beta= 0.30
     Davidson diagonalization with overlap
     ethr =  3.52E-11,  avg # of iterations =  2.3

     negative rho (up, down):  5.649E-06 0.000E+00

     total cpu time spent up to now is      797.1 secs

     total energy              =    -594.55203002 Ry
     estimated scf accuracy    <       0.00000001 Ry

     iteration #  7     ecut=    90.00 Ry     beta= 0.30
     Davidson diagonalization with overlap
     ethr =  7.67E-12,  avg # of iterations =  2.7

     negative rho (up, down):  5.653E-06 0.000E+00

     total cpu time spent up to now is      803.4 secs

     End of self-consistent calculation

          k = 0.0000-0.0000 0.0000 ( 29123 PWs)   bands (ev):

   -14.3209 -13.9976 -13.4406 -12.6432 -11.5992 -10.3385  -9.8530  -9.8497
    -9.5133  -9.4858  -9.1047  -8.9941  -8.6965  -8.3520  -8.3460  -7.1842
    -5.8683  -5.8441  -5.4945  -4.7997  -4.7919  -3.7964  -3.5140  -3.5140
    -2.1309  -2.1109  -2.0239  -0.4435  -0.4262  -0.2459   0.7953   0.8628
     1.0820   1.1250   1.1258   1.2858   1.4714   1.6114   1.9303   2.3656
     2.5108   2.6287   2.9373   3.1231   3.3086   3.6388   3.8289   4.0106
     4.0130   4.0718   4.0947   4.0996   4.1708   4.1772   4.2013   4.3800
     4.4148   4.5983   4.7955   4.7955   5.3658   5.5501   5.7979   6.4478
     6.5367   6.6209   9.3264   9.8257  11.1660  11.2060  11.3754  11.4283
    11.6359  11.8142  12.1606  12.2243  12.3319  12.4257  12.5326

          k = 0.0000-0.1000 0.0000 ( 29153 PWs)   bands (ev):

   -14.1416 -13.8299 -13.2889 -12.5137 -11.5323 -11.3631 -10.9472 -10.4572
   -10.1002  -9.4917  -8.8288  -8.4038  -8.1644  -7.8902  -7.8584  -7.0003
    -5.6032  -5.4370  -5.2901  -4.5674  -4.4542  -3.7751  -3.3485  -3.1582
    -2.2625  -2.0016  -1.6143  -0.6096  -0.4164  -0.1592   0.0714   0.4846
     0.8842   0.9415   1.1905   1.2118   1.3147   1.5011   1.7203   2.2450
     2.4184   2.4464   2.7262   2.9104   3.0532   3.3011   3.3781   3.5257
     3.6775   3.7027   3.9751   4.0790   4.1163   4.3328   4.3366   4.4739
     4.5317   4.8196   5.0279   5.1357   5.1988   5.2489   5.6375   6.1029
     6.1785   6.4804   9.5462  10.0381  11.5957  11.7964  11.8022  12.0340
    12.1191  12.2745  12.3725  12.5680  12.6002  12.8180  12.8948

          k = 0.0000-0.2000 0.0000 ( 29117 PWs)   bands (ev):

   -13.6207 -13.3810 -12.9584 -12.6029 -12.3069 -11.9625 -11.5139 -11.0621
   -10.5231  -9.8872  -9.2620  -8.5320  -7.9078  -7.3149  -6.7245  -6.5253
    -4.9518  -4.5780  -4.4851  -4.1298  -3.7566  -3.4491  -2.9781  -2.6814
    -2.2659  -1.9248  -1.5320  -1.3621  -1.1451  -0.8383  -0.3853  -0.0469
     0.2138   0.5367   1.0955   1.3085   1.3510   1.5362   1.7324   1.9190
     2.1561   2.2144   2.5104   2.6515   2.7781   2.7854   3.1365   3.2187
     3.3114   3.4605   3.7962   3.9894   4.0679   4.2131   4.4349   4.4798
     4.6150   4.7449   4.9427   5.0219   5.3654   5.4100   5.4147   5.6875
     5.8438   6.2678  10.1734  10.5980  11.1979  11.5070  12.0689  12.2233
    12.3324  12.4307  12.6262  12.9972  13.1243  13.2484  13.4136

          k = 0.1111-0.0000 0.0000 ( 29137 PWs)   bands (ev):

   -14.0942 -13.7718 -13.2161 -12.4212 -11.3813 -10.1265  -9.6371  -9.6340
    -9.3003  -9.2733  -8.8973  -8.7874  -8.4958  -8.1476  -8.1420  -6.9943
    -5.6740  -5.6451  -5.4028  -4.6169  -4.6112  -3.7123  -3.3581  -3.3581
    -2.1041  -2.0030  -1.9856  -0.7144  -0.3830  -0.3198  -0.2027   0.2567
     0.2803   1.0478   1.0933   1.1057   1.2756   1.3840   1.4550   2.0570
     2.3699   2.4090   2.5350   2.6189   2.9454   3.1152   3.1157   3.1197
     3.1571   3.2922   3.2963   3.5459   3.6822   3.7104   3.7769   3.9389
     3.9642   4.0670   4.0891   4.3735   5.1246   5.1405   5.3775   6.0210
     6.1353   6.3703   9.5548  10.0295  11.8594  11.8703  11.9287  12.0152
    12.3372  12.4707  12.6421  12.8666  12.9876  13.1115  13.1266

          k = 0.1111-0.1000 0.0000 ( 29122 PWs)   bands (ev):

   -13.9153 -13.6044 -13.0648 -12.2920 -11.3137 -11.1433 -10.7291 -10.2427
    -9.8891  -9.2838  -8.6267  -8.2053  -7.9580  -7.6875  -7.6537  -6.8103
    -5.4384  -5.2481  -5.1661  -4.3979  -4.2785  -3.6797  -3.2167  -3.0028
    -2.1862  -1.9725  -1.4771  -0.7487  -0.4290  -0.1873  -0.0209   0.1185
     0.3168   0.3546   0.6466   0.9442   1.1290   1.2750   1.4130   1.6362
     2.0175   2.1609   2.1743   2.2010   2.5383   2.7032   2.8431   3.0059
     3.0441   3.1469   3.3540   3.5954   3.7453   3.9104   3.9665   4.0384
     4.1203   4.1936   4.2928   4.3570   4.5528   5.2343   5.2694   5.3285
     6.0703   6.2124   9.7736  10.2375  11.9571  12.3867  12.4188  12.7512
    12.7970  12.8307  12.8960  12.9534  13.0844  13.3216  13.3550

          k = 0.1111-0.2000 0.0000 ( 29082 PWs)   bands (ev):

   -13.3954 -13.1564 -12.7349 -12.3799 -12.0850 -11.7417 -11.2949 -10.8459
   -10.3100  -9.6783  -9.0574  -8.3328  -7.7137  -7.1227  -6.5302  -6.3304
    -4.8556  -4.4305  -4.3363  -3.9977  -3.6107  -3.3006  -2.8194  -2.5431
    -2.0874  -1.7833  -1.3739  -1.2521  -1.0258  -0.7378  -0.4025  -0.0881
     0.1616   0.2597   0.3162   0.6194   0.9057   0.9446   1.1822   1.2918
     1.4356   1.6637   1.8431   2.0340   2.2255   2.3720   2.4924   2.8098
     2.8268   3.1048   3.2432   3.2858   3.6671   3.7108   3.9606   4.0595
     4.3044   4.5010   4.6276   4.6627   4.7756   4.8333   5.0497   5.2427
     5.5588   5.6027  10.3970  10.7892  11.4041  11.6724  12.0770  12.2911
    12.8737  13.0204  13.2629  13.5805  13.7136  13.7680  13.8938

          k = 0.2222-0.0000 0.0000 ( 29090 PWs)   bands (ev):

   -13.4177 -13.0978 -12.5470 -11.7608 -10.7358  -9.5048  -8.9935  -8.9909
    -8.6663  -8.6407  -8.2859  -8.1731  -7.9182  -7.5393  -7.5351  -6.4823
    -5.4773  -5.0809  -5.0787  -4.1230  -4.1221  -3.9057  -3.0853  -2.9875
    -2.9534  -2.2892  -2.0906  -1.8529  -1.8498  -1.5251  -1.1151  -0.4148
    -0.1289  -0.0839   0.1075   0.5887   0.5979   0.9827   0.9929   1.1363
     1.1806   1.2104   1.4507   1.5844   1.7140   1.7177   1.9439   2.0527
     2.0561   2.3872   2.4433   2.5282   2.5967   2.7094   2.9397   3.2148
     3.2994   3.3444   3.6617   4.0501   4.3920   4.4530   5.0757   5.1241
     5.3433   6.0789  10.1942  10.5451  12.5260  12.5663  12.7508  12.8757
    13.0727  13.2085  13.3009  13.3968  13.4735  13.5021  13.5603

          k = 0.2222-0.1000 0.0000 ( 29080 PWs)   bands (ev):

   -13.2398 -12.9315 -12.3967 -11.6323 -10.6655 -10.4882 -10.0799  -9.6074
    -9.2667  -8.6703  -8.0366  -7.6314  -7.3460  -7.0877  -7.0454  -6.2946
    -5.3369  -4.7834  -4.6963  -3.9914  -3.9121  -3.7220  -3.0951  -2.8451
    -2.5816  -2.1352  -1.9476  -1.8701  -1.4571  -1.1605  -1.0074  -0.6639
    -0.4240  -0.3436   0.0874   0.2287   0.3274   0.6636   0.7157   0.9076
     0.9243   1.1593   1.3189   1.5422   1.6055   1.6892   1.8735   1.9818
     2.0424   2.2453   2.4497   2.5513   2.6576   2.8548   2.9032   3.0756
     3.2180   3.3348   3.5448   3.7062   4.2169   4.2557   4.4991   5.0900
     5.4030   5.4862  10.3994  10.7350  12.3154  12.4993  12.7639  12.7760
    12.8158  13.0090  13.4548  13.7195  13.7372  13.8489  13.9394

          k = 0.2222-0.2000 0.0000 ( 29067 PWs)   bands (ev):

   -12.7230 -12.4863 -12.0685 -11.7149 -11.4237 -11.0842 -10.6440 -10.2045
    -9.6794  -9.0628  -8.4587  -7.7550  -7.1615  -6.5764  -5.9785  -5.7671
    -4.8659  -4.2640  -4.0605  -3.7587  -3.3867  -3.0045  -2.6675  -2.2985
    -1.9216  -1.7155  -1.6120  -1.5464  -1.3510  -1.2601  -1.2144  -0.9091
    -0.6971  -0.6934  -0.6073  -0.2639  -0.2077   0.0575   0.1637   0.3423
     0.5537   0.7271   0.8921   1.1040   1.2379   1.4661   1.6954   1.9273
     2.1174   2.3201   2.4542   2.5214   2.7887   2.9021   3.0432   3.1443
     3.2105   3.4847   3.5988   3.7809   3.9629   4.1212   4.3131   4.4772
     4.8401   4.8609  10.9480  11.2223  11.5974  11.7757  11.9160  12.1512
    12.4245  12.9579  13.1290  13.4307  13.9082  14.1562  14.6031

          k = 0.3333-0.0000 0.0000 ( 29134 PWs)   bands (ev):

   -12.3033 -11.9891 -11.4502 -10.6870  -9.7080  -8.5776  -7.9366  -7.9354
    -7.6450  -7.6104  -7.4806  -7.1846  -7.1524  -6.5550  -6.5523  -6.4966
    -6.4526  -5.0031  -4.7677  -4.4803  -4.3353  -4.2430  -3.7252  -3.6182
    -3.4738  -3.1429  -3.1330  -2.4049  -2.3978  -2.3962  -2.3371  -1.4419
    -1.0399  -0.9167  -0.8375  -0.8057  -0.7983  -0.4194  -0.4189   0.0986
     0.1214   0.1813   0.4051   0.9778   0.9855   1.1995   1.2366   1.3912
     1.4005   1.5834   2.1603   2.1680   2.2989   2.4336   2.4749   2.6209
     2.8392   3.3203   3.3419   3.3718   3.9358   4.2582   4.2829   4.5555
     5.1046   5.4743  11.2019  11.3936  12.3081  12.3174  12.7944  12.8185
    13.1434  13.1596  13.4482  13.6570  13.7311  13.7369  13.8015

          k = 0.3333-0.1000 0.0000 ( 29139 PWs)   bands (ev):

   -12.1272 -11.8246 -11.3014 -10.5590  -9.6269  -9.4137  -9.0194  -8.6060
    -8.2980  -7.7208  -7.2880  -6.9100  -6.4807  -6.3111  -6.2766  -6.0464
    -6.0250  -4.8744  -4.6410  -4.4944  -4.4229  -4.2128  -3.9160  -3.5510
    -3.2759  -2.8840  -2.4186  -2.3087  -2.2629  -1.8654  -1.8223  -1.7018
    -1.4294  -1.4001  -1.0654  -1.0061  -0.7387  -0.3504  -0.2640   0.0979
     0.3790   0.5136   0.5563   1.0951   1.1391   1.3406   1.4618   1.5512
     1.6533   1.7026   1.7606   1.8059   2.1395   2.2103   2.3286   2.4246
     2.7005   2.8326   2.8919   3.4629   3.5229   3.5498   4.1952   4.4487
     4.5106   4.7068  11.3583  11.5096  11.7407  12.4317  12.6996  12.9560
    13.0787  13.2163  13.4558  13.8042  13.8246  14.0108  14.1936

          k = 0.3333-0.2000 0.0000 ( 29094 PWs)   bands (ev):

   -11.6159 -11.3839 -10.9746 -10.6225 -10.3415 -10.0106  -9.5869  -9.1730
    -8.6772  -8.1111  -7.5716  -6.9713  -6.6169  -6.1765  -5.9712  -5.7968
    -4.8846  -4.8152  -4.5292  -4.3516  -4.2815  -3.9623  -3.6266  -3.2245
    -2.8184  -2.3543  -2.1812  -2.0244  -1.8962  -1.8455  -1.5320  -1.3680
    -1.2537  -1.0857  -0.8905  -0.6628  -0.5565  -0.4182  -0.1972  -0.0758
     0.1000   0.1649   0.4384   0.5223   0.7347   0.8627   1.1251   1.4037
     1.5811   1.6606   2.0122   2.0448   2.1640   2.2940   2.3214   2.5216
     2.5419   2.7385   2.8416   2.8861   3.0382   3.2377   3.4755   3.5142
     3.8183   3.8209  11.3299  11.5981  11.7456  11.9279  12.3867  12.7194
    12.7930  13.1182  13.4930  13.6280  13.8937  14.0037  14.2014

          k = 0.4444-0.0000 0.0000 ( 29202 PWs)   bands (ev):

   -10.7812 -10.4844  -9.9881  -9.3401  -8.9487  -8.7320  -8.7318  -7.5212
    -7.4022  -6.4949  -6.4944  -6.2138  -6.2065  -5.9543  -5.8583  -5.7620
    -5.6266  -5.2649  -5.2633  -4.9700  -4.7708  -4.7548  -4.6806  -4.5694
    -4.5623  -4.3694  -4.3581  -3.5133  -3.5132  -3.4592  -3.1746  -1.8488
    -1.5172  -1.4996  -1.3618  -0.9338  -0.9226  -0.4908  -0.3578  -0.2632
    -0.1825  -0.1378   0.2195   0.2575   0.2848   0.4938   0.5460   0.8316
     0.8383   1.2878   1.4635   1.7139   1.7142   2.0521   2.1466   2.8502
     2.8683   3.4801   3.6874   3.8199   3.8235   3.9548   4.2177   4.4208
     4.5401   4.5668  11.9620  11.9664  12.2729  12.2751  12.5303  12.5953
    13.1205  13.1252  13.2999  13.3051  14.0733  14.1311  14.4562

          k = 0.4444-0.1000 0.0000 ( 29157 PWs)   bands (ev):

   -10.6080 -10.3226  -9.8411  -9.2071  -8.7836  -8.5887  -8.5710  -7.9627
    -7.6607  -7.4650  -7.3171  -6.9803  -6.5033  -6.2164  -6.1335  -6.0596
    -5.5966  -5.4825  -4.8544  -4.6945  -4.6432  -4.6091  -4.4940  -4.3603
    -4.0539  -3.5904  -3.4342  -3.2437  -3.0879  -2.9875  -2.9500  -1.8854
    -1.7828  -1.6591  -1.3198  -1.0788  -0.9957  -0.4992  -0.3328  -0.1230
     0.2023   0.3462   0.4205   0.4507   0.5993   0.7367   0.8093   1.0524
     1.1189   1.3715   1.4266   1.6690   1.7205   2.1815   2.1915   2.5888
     2.6940   2.7548   3.0895   3.2774   3.3143   3.6594   3.6861   3.6981
     3.8146   3.8427  11.5676  12.1663  12.3253  12.5284  12.6474  12.8864
    13.0221  13.1280  13.5023  13.8503  13.9772  14.0891  14.4070

          k = 0.4444-0.2000 0.0000 ( 29103 PWs)   bands (ev):

   -10.1053  -9.8884  -9.5067  -9.1457  -8.9169  -8.6108  -8.3553  -8.2069
    -8.1107  -8.0199  -7.5997  -7.3939  -7.1753  -7.1232  -7.0420  -6.9747
    -5.2469  -5.2044  -4.8937  -4.7129  -4.5549  -4.2310  -4.1909  -3.8690
    -3.6674  -3.4821  -3.1838  -3.0274  -2.5730  -2.1802  -1.7838  -1.5183
    -1.1489  -1.0055  -0.9201  -0.6711  -0.4710  -0.2898  -0.0251   0.0414
     0.2087   0.3181   0.4794   0.7433   0.9021   1.0049   1.2003   1.3189
     1.5077   1.5840   1.6149   1.6768   1.7637   1.7861   1.8479   1.9104
     1.9896   2.1847   2.2309   2.2636   2.4868   2.5676   2.6822   2.7059
     3.0014   3.0067  11.8380  12.0122  12.4074  12.6169  12.8071  12.9137
    13.1265  13.1991  13.4412  13.5045  13.7939  13.8548  13.9063

     the Fermi energy is     8.0524 ev

!    total energy              =    -594.55203002 Ry
     estimated scf accuracy    <          7.8E-10 Ry
     smearing contrib. (-TS)   =       0.00000000 Ry
     internal energy E=F+TS    =    -594.55203002 Ry

     The total energy is F=E-TS. E is the sum of the following terms:
     one-electron contribution =   -4677.40252310 Ry
     hartree contribution      =    2409.47464807 Ry
     xc contribution           =    -152.41694312 Ry
     ewald contribution        =    2023.00726464 Ry
     one-center paw contrib.   =    -197.21447651 Ry

     convergence has been achieved in   7 iterations

     negative rho (up, down):  5.653E-06 0.000E+00

     Forces acting on atoms (cartesian axes, Ry/au):

     atom    1 type  1   force =     0.00000000   -0.00070972   -0.00061798
     atom    2 type  1   force =     0.00000000   -0.00044984   -0.00029263
     atom    3 type  1   force =     0.00000000    0.00011193   -0.00074489
     atom    4 type  1   force =     0.00000000    0.00011030   -0.00071670
     atom    5 type  1   force =     0.00000000    0.00067632   -0.00016235
     atom    6 type  1   force =     0.00000000    0.00071851   -0.00013950
     atom    7 type  1   force =     0.00000000   -0.00001190   -0.00119096
     atom    8 type  1   force =     0.00000000    0.00004426   -0.00091435
     atom    9 type  1   force =     0.00000000   -0.00004426    0.00091435
     atom   10 type  1   force =     0.00000000    0.00001190    0.00119096
     atom   11 type  1   force =     0.00000000   -0.00071851    0.00013950
     atom   12 type  1   force =     0.00000000   -0.00067632    0.00016235
     atom   13 type  1   force =     0.00000000   -0.00011030    0.00071670
     atom   14 type  1   force =     0.00000000   -0.00011193    0.00074489
     atom   15 type  1   force =     0.00000000    0.00044984    0.00029263
     atom   16 type  1   force =     0.00000000    0.00070972    0.00061798
     atom   17 type  1   force =     0.00000000    0.00072246   -0.00064126
     atom   18 type  1   force =     0.00000000    0.00046608   -0.00024968
     atom   19 type  1   force =    -0.00000000   -0.00011974   -0.00073005
     atom   20 type  1   force =     0.00000000   -0.00013515   -0.00048758
     atom   21 type  1   force =     0.00000000   -0.00064663   -0.00082808
     atom   22 type  1   force =     0.00000000   -0.00070174   -0.00078228
     atom   23 type  1   force =     0.00000000    0.00000634    0.00067969
     atom   24 type  1   force =     0.00000000   -0.00003603    0.00061018
     atom   25 type  1   force =     0.00000000    0.00003603   -0.00061018
     atom   26 type  1   force =     0.00000000   -0.00000634   -0.00067969
     atom   27 type  1   force =     0.00000000    0.00070174    0.00078228
     atom   28 type  1   force =     0.00000000    0.00064663    0.00082808
     atom   29 type  1   force =     0.00000000    0.00013515    0.00048758
     atom   30 type  1   force =     0.00000000    0.00011974    0.00073005
     atom   31 type  1   force =     0.00000000   -0.00046608    0.00024968
     atom   32 type  1   force =     0.00000000   -0.00072246    0.00064126
     atom   33 type  2   force =     0.00000000   -0.00103899   -0.00019859
     atom   34 type  2   force =     0.00000000    0.00101519   -0.00025496
     atom   35 type  2   force =     0.00000000    0.00103899    0.00019859
     atom   36 type  2   force =     0.00000000   -0.00101519    0.00025496

     Total force =     0.005063     Total SCF correction =     0.000038
     Energy error            =      6.7E-05 Ry
     Gradient error          =      1.2E-03 Ry/Bohr

     number of scf cycles    =  12
     number of bfgs steps    =  11

     energy             old  =    -594.5519627967 Ry
     energy             new  =    -594.5520300157 Ry

     CASE: energy            _new < energy            _old

     new trust radius        =       0.0035486807 bohr
     new conv_thr            =       0.0000000007 Ry


ATOMIC_POSITIONS (angstrom)
C                0.0000000000       -1.7147311382       18.3551610534
C                1.2634728900       -1.3542699736       17.5430222117
C                1.2634728900       -0.0001183064       16.7320167729
C                0.0000000000       -0.0001197666       15.8006614546
C                0.0000000000       -1.2481074782       14.8484769016
C                1.2634728900       -1.2482136592       13.9538771946
C                1.2634728900        0.0010202320       13.0525846022
C                0.0000000000        0.0007739242       12.1608494090
C                0.0000000000       -1.2642468142       11.2745531810
C                1.2634728900       -1.2644931220       10.3828179878
C                1.2634728900       -0.0152592308        9.4815253954
C               -0.0000000000       -0.0153654118        8.5869256884
C                0.0000000000       -1.2633531234        7.6347411354
C                1.2634728900       -1.2633545836        6.7033858171
C                1.2634728900        0.0907970836        5.8923803783
C                0.0000000000        0.4512582482        5.0802415366
C               -0.0000000000       -3.3391495899       18.3549142732
C                1.2634728900       -3.6994381802       17.5426550999
C                1.2634728900       -2.5265905384       16.5459858511
C               -0.0000000000       -2.5266512095       15.6904666835
C                0.0000000000       -3.8057111207       14.8494792163
C                1.2634728900       -3.8056530630       13.9551334949
C                1.2634728900       -2.5279617154       13.0665923694
C                0.0000000000       -2.5276963488       12.1691861887
C                0.0000000000       -3.7896681112       11.2662164013
C                1.2634728900       -3.7894027446       10.3688102206
C                1.2634728900       -2.5117113970        9.4802690951
C                0.0000000000       -2.5116533393        8.5859233737
C                0.0000000000       -3.7907132505        7.7449359065
C                1.2634728900       -3.7907739216        6.8894167389
C                1.2634728900       -2.6179262798        5.8927474901
C                0.0000000000       -2.9782148701        5.0804883168
H                0.0000000000       -1.2796655768       19.3660801897
H               -0.0000000000       -3.7743137280       19.3658133281
H               -0.0000000000        0.0161926868        4.0693223903
H               -0.0000000000       -2.5430507320        4.0695892519



     Writing config-only to output data dir /tmp/qe/slab.save/ :
     XML data file
     NEW-OLD atomic charge density approx. for the potential

     Check: negative core charge=   -0.000001

     negative rho (up, down):  5.754E-06 0.000E+00

     total cpu time spent up to now is      805.6 secs

     Self-consistent Calculation

     iteration #  1     ecut=    90.00 Ry     beta= 0.30
     Davidson diagonalization with overlap
     ethr =  1.00E-06,  avg # of iterations =  2.7

     Threshold (ethr) on eigenvalues was too large:
     Diagonalizing with lowered threshold

     Davidson diagonalization with overlap
     ethr =  1.07E-08,  avg # of iterations =  4.9

     negative rho (up, down):  5.748E-06 0.000E+00

     total cpu time spent up to now is      821.7 secs

     total energy              =    -594.55206340 Ry
     estimated scf accuracy    <       0.00001645 Ry

     iteration #  2     ecut=    90.00 Ry     beta= 0.30
     Davidson diagonalization with overlap
     ethr =  1.25E-08,  avg # of iterations =  1.9

     negative rho (up, down):  5.721E-06 0.000E+00

     total cpu time spent up to now is      827.5 secs

     total energy              =    -594.55206326 Ry
     estimated scf accuracy    <       0.00000535 Ry

     iteration #  3     ecut=    90.00 Ry     beta= 0.30
     Davidson diagonalization with overlap
     ethr =  4.06E-09,  avg # of iterations =  2.0

     negative rho (up, down):  5.711E-06 0.000E+00

     total cpu time spent up to now is      833.5 secs

     total energy              =    -594.55206341 Ry
     estimated scf accuracy    <       0.00000145 Ry

     iteration #  4     ecut=    90.00 Ry     beta= 0.30
     Davidson diagonalization with overlap
     ethr =  1.10E-09,  avg # of iterations =  2.0

     negative rho (up, down):  5.708E-06 0.000E+00

     total cpu time spent up to now is      839.5 secs

     total energy              =    -594.55206352 Ry
     estimated scf accuracy    <       0.00000018 Ry

     iteration #  5     ecut=    90.00 Ry     beta= 0.30
     Davidson diagonalization with overlap
     ethr =  1.35E-10,  avg # of iterations =  2.1

     negative rho (up, down):  5.712E-06 0.000E+00

     total cpu time spent up to now is      846.3 secs

     total energy              =    -594.55206355 Ry
     estimated scf accuracy    <       0.00000002 Ry

     iteration #  6     ecut=    90.00 Ry     beta= 0.30
     Davidson diagonalization with overlap
     ethr =  1.57E-11,  avg # of iterations =  2.4

     negative rho (up, down):  5.714E-06 0.000E+00

     total cpu time spent up to now is      852.8 secs

     total energy              =    -594.55206355 Ry
     estimated scf accuracy    <          4.2E-09 Ry

     iteration #  7     ecut=    90.00 Ry     beta= 0.30
     Davidson diagonalization with overlap
     ethr =  3.20E-12,  avg # of iterations =  3.2

     negative rho (up, down):  5.716E-06 0.000E+00

     total cpu time spent up to now is      859.3 secs

     End of self-consistent calculation

          k = 0.0000-0.0000 0.0000 ( 29123 PWs)   bands (ev):

   -14.3248 -13.9971 -13.4425 -12.6454 -11.6016 -10.3406  -9.8574  -9.8541
    -9.5123  -9.4851  -9.1056  -8.9946  -8.6985  -8.3495  -8.3436  -7.1858
    -5.8702  -5.8466  -5.4957  -4.7989  -4.7911  -3.7960  -3.5140  -3.5140
    -2.1307  -2.1101  -2.0217  -0.4440  -0.4274  -0.2445   0.7912   0.8573
     1.0829   1.1245   1.1256   1.2869   1.4731   1.6093   1.9302   2.3636
     2.5107   2.6288   2.9372   3.1254   3.3066   3.6382   3.8276   4.0058
     4.0082   4.0702   4.0938   4.0984   4.1696   4.1764   4.2012   4.3816
     4.4130   4.6002   4.8004   4.8004   5.3674   5.5492   5.7984   6.4464
     6.5351   6.6237   9.3261   9.8243  11.1618  11.2016  11.3747  11.4275
    11.6330  11.8130  12.1582  12.2237  12.3281  12.4299  12.5301

          k = 0.0000-0.1000 0.0000 ( 29153 PWs)   bands (ev):

   -14.1454 -13.8294 -13.2910 -12.5161 -11.5349 -11.3677 -10.9466 -10.4580
   -10.1008  -9.4915  -8.8302  -8.4042  -8.1686  -7.8885  -7.8562  -7.0008
    -5.6057  -5.4399  -5.2904  -4.5660  -4.4540  -3.7748  -3.3493  -3.1575
    -2.2618  -2.0002  -1.6152  -0.6090  -0.4158  -0.1595   0.0669   0.4840
     0.8848   0.9375   1.1911   1.2128   1.3158   1.4988   1.7179   2.2471
     2.4194   2.4441   2.7266   2.9081   3.0483   3.3006   3.3763   3.5267
     3.6784   3.7027   3.9767   4.0792   4.1149   4.3328   4.3355   4.4738
     4.5309   4.8161   5.0290   5.1383   5.1994   5.2490   5.6378   6.1018
     6.1816   6.4789   9.5460  10.0370  11.5942  11.7941  11.7962  12.0324
    12.1192  12.2769  12.3730  12.5674  12.6023  12.8186  12.8951

          k = 0.0000-0.2000 0.0000 ( 29117 PWs)   bands (ev):

   -13.6238 -13.3803 -12.9620 -12.6074 -12.3094 -11.9629 -11.5154 -11.0621
   -10.5231  -9.8885  -9.2622  -8.5327  -7.9078  -7.3148  -6.7254  -6.5250
    -4.9520  -4.5785  -4.4882  -4.1305  -3.7570  -3.4493  -2.9785  -2.6808
    -2.2667  -1.9252  -1.5336  -1.3627  -1.1456  -0.8393  -0.3838  -0.0467
     0.2145   0.5356   1.0979   1.3084   1.3481   1.5375   1.7332   1.9146
     2.1542   2.2095   2.5085   2.6515   2.7795   2.7850   3.1354   3.2186
     3.3113   3.4602   3.7969   3.9912   4.0672   4.2124   4.4368   4.4803
     4.6139   4.7439   4.9417   5.0209   5.3672   5.4092   5.4145   5.6875
     5.8444   6.2667  10.1735  10.5977  11.1989  11.5085  12.0718  12.2269
    12.3328  12.4314  12.6230  12.9944  13.1228  13.2450  13.4116

          k = 0.1111-0.0000 0.0000 ( 29137 PWs)   bands (ev):

   -14.0982 -13.7712 -13.2180 -12.4234 -11.3837 -10.1287  -9.6415  -9.6384
    -9.2993  -9.2726  -8.8983  -8.7879  -8.4978  -8.1450  -8.1395  -6.9958
    -5.6757  -5.6475  -5.4043  -4.6160  -4.6104  -3.7120  -3.3582  -3.3581
    -2.1040  -2.0022  -1.9842  -0.7137  -0.3840  -0.3212  -0.2044   0.2587
     0.2765   1.0423   1.0924   1.1049   1.2743   1.3852   1.4562   2.0570
     2.3698   2.4073   2.5355   2.6185   2.9446   3.1091   3.1134   3.1197
     3.1536   3.2936   3.2969   3.5457   3.6832   3.7089   3.7777   3.9423
     3.9632   4.0686   4.0891   4.3747   5.1243   5.1404   5.3791   6.0203
     6.1378   6.3686   9.5545  10.0281  11.8573  11.8641  11.9254  12.0151
    12.3365  12.4687  12.6463  12.8656  12.9842  13.1121  13.1317

          k = 0.1111-0.1000 0.0000 ( 29122 PWs)   bands (ev):

   -13.9192 -13.6038 -13.0669 -12.2944 -11.3163 -11.1479 -10.7285 -10.2435
    -9.8897  -9.2837  -8.6280  -8.2057  -7.9622  -7.6859  -7.6515  -6.8108
    -5.4407  -5.2511  -5.1667  -4.3965  -4.2784  -3.6793  -3.2176  -3.0022
    -2.1855  -1.9715  -1.4781  -0.7481  -0.4281  -0.1879  -0.0225   0.1147
     0.3135   0.3543   0.6458   0.9435   1.1276   1.2748   1.4140   1.6341
     2.0165   2.1571   2.1747   2.2013   2.5384   2.7042   2.8432   3.0041
     3.0436   3.1464   3.3543   3.5954   3.7449   3.9089   3.9652   4.0390
     4.1211   4.1942   4.2931   4.3588   4.5525   5.2333   5.2687   5.3294
     6.0731   6.2106   9.7734  10.2365  11.9571  12.3884  12.4199  12.7497
    12.7951  12.8279  12.8956  12.9528  13.0846  13.3212  13.3579

          k = 0.1111-0.2000 0.0000 ( 29082 PWs)   bands (ev):

   -13.3985 -13.1557 -12.7385 -12.3844 -12.0875 -11.7421 -11.2965 -10.8459
   -10.3100  -9.6795  -9.0576  -8.3334  -7.7137  -7.1226  -6.5311  -6.3301
    -4.8557  -4.4307  -4.3397  -3.9985  -3.6112  -3.3005  -2.8198  -2.5425
    -2.0882  -1.7837  -1.3753  -1.2530  -1.0265  -0.7388  -0.4024  -0.0876
     0.1605   0.2596   0.3170   0.6166   0.9041   0.9435   1.1818   1.2882
     1.4357   1.6630   1.8436   2.0326   2.2256   2.3712   2.4915   2.8101
     2.8278   3.1041   3.2438   3.2857   3.6668   3.7107   3.9602   4.0599
     4.3045   4.5013   4.6270   4.6639   4.7743   4.8341   5.0479   5.2433
     5.5606   5.6006  10.3972  10.7889  11.4051  11.6741  12.0810  12.2962
    12.8762  13.0217  13.2653  13.5795  13.7130  13.7669  13.8931

          k = 0.2222-0.0000 0.0000 ( 29090 PWs)   bands (ev):

   -13.4217 -13.0972 -12.5489 -11.7629 -10.7382  -9.5070  -8.9978  -8.9953
    -8.6653  -8.6400  -8.2871  -8.1736  -7.9202  -7.5367  -7.5325  -6.4840
    -5.4785  -5.0833  -5.0814  -4.1225  -4.1214  -3.9049  -3.0892  -2.9879
    -2.9536  -2.2909  -2.0894  -1.8519  -1.8488  -1.5236  -1.1184  -0.4152
    -0.1305  -0.0848   0.1050   0.5879   0.5972   0.9811   0.9914   1.1369
     1.1798   1.2102   1.4481   1.5793   1.7131   1.7169   1.9454   2.0564
     2.0596   2.3875   2.4436   2.5290   2.5967   2.7069   2.9406   3.2147
     3.2963   3.3422   3.6619   4.0511   4.3908   4.4536   5.0782   5.1239
     5.3447   6.0767  10.1939  10.5441  12.5216  12.5642  12.7509  12.8740
    13.0706  13.2114  13.3008  13.4010  13.4775  13.5045  13.5626

          k = 0.2222-0.1000 0.0000 ( 29080 PWs)   bands (ev):

   -13.2437 -12.9309 -12.3988 -11.6347 -10.6681 -10.4928 -10.0793  -9.6083
    -9.2672  -8.6701  -8.0381  -7.6316  -7.3503  -7.0861  -7.0434  -6.2952
    -5.3384  -4.7858  -4.6988  -3.9906  -3.9122  -3.7213  -3.0980  -2.8459
    -2.5810  -2.1363  -1.9465  -1.8698  -1.4559  -1.1627  -1.0098  -0.6640
    -0.4240  -0.3469   0.0856   0.2275   0.3279   0.6597   0.7153   0.9067
     0.9248   1.1583   1.3173   1.5412   1.6064   1.6890   1.8730   1.9814
     2.0430   2.2476   2.4502   2.5521   2.6566   2.8544   2.9039   3.0753
     3.2170   3.3351   3.5443   3.7049   4.2180   4.2543   4.4989   5.0917
     5.4046   5.4835  10.3992  10.7342  12.3179  12.5024  12.7662  12.7758
    12.8150  13.0104  13.4563  13.7218  13.7344  13.8505  13.9381

          k = 0.2222-0.2000 0.0000 ( 29067 PWs)   bands (ev):

   -12.7261 -12.4855 -12.0721 -11.7194 -11.4262 -11.0846 -10.6456 -10.2044
    -9.6794  -9.0640  -8.4589  -7.7557  -7.1616  -6.5767  -5.9793  -5.7670
    -4.8661  -4.2646  -4.0631  -3.7601  -3.3878  -3.0044  -2.6689  -2.2979
    -1.9221  -1.7161  -1.6124  -1.5462  -1.3535  -1.2624  -1.2180  -0.9104
    -0.6997  -0.6943  -0.6084  -0.2636  -0.2076   0.0573   0.1638   0.3417
     0.5524   0.7279   0.8910   1.1042   1.2377   1.4658   1.6949   1.9286
     2.1175   2.3193   2.4548   2.5213   2.7895   2.9017   3.0418   3.1447
     3.2106   3.4841   3.6001   3.7808   3.9635   4.1188   4.3134   4.4756
     4.8411   4.8599  10.9483  11.2224  11.6000  11.7781  11.9172  12.1529
    12.4280  12.9624  13.1298  13.4319  13.9095  14.1582  14.6040

          k = 0.3333-0.0000 0.0000 ( 29134 PWs)   bands (ev):

   -12.3072 -11.9885 -11.4520 -10.6890  -9.7102  -8.5796  -7.9408  -7.9397
    -7.6442  -7.6095  -7.4834  -7.1853  -7.1534  -6.5530  -6.5495  -6.4979
    -6.4540  -5.0066  -4.7688  -4.4826  -4.3379  -4.2450  -3.7262  -3.6175
    -3.4739  -3.1451  -3.1349  -2.4055  -2.3954  -2.3941  -2.3373  -1.4424
    -1.0413  -0.9166  -0.8400  -0.8057  -0.8012  -0.4202  -0.4190   0.0984
     0.1220   0.1831   0.4040   0.9785   0.9864   1.1974   1.2359   1.3922
     1.4017   1.5844   2.1638   2.1718   2.2984   2.4283   2.4691   2.6165
     2.8388   3.3207   3.3413   3.3706   3.9360   4.2596   4.2843   4.5557
     5.1059   5.4714  11.2014  11.3927  12.3114  12.3210  12.7961  12.8199
    13.1436  13.1591  13.4425  13.6564  13.7330  13.7357  13.8009

          k = 0.3333-0.1000 0.0000 ( 29139 PWs)   bands (ev):

   -12.1311 -11.8240 -11.3035 -10.5614  -9.6294  -9.4182  -9.0187  -8.6072
    -8.2979  -7.7210  -7.2901  -6.9101  -6.4837  -6.3130  -6.2796  -6.0438
    -6.0226  -4.8779  -4.6415  -4.4981  -4.4256  -4.2139  -3.9163  -3.5517
    -3.2754  -2.8829  -2.4178  -2.3098  -2.2637  -1.8653  -1.8242  -1.7043
    -1.4300  -1.4019  -1.0658  -1.0051  -0.7380  -0.3520  -0.2637   0.0982
     0.3783   0.5132   0.5571   1.0960   1.1393   1.3396   1.4607   1.5514
     1.6513   1.7037   1.7602   1.8055   2.1396   2.2111   2.3296   2.4219
     2.6972   2.8325   2.8903   3.4613   3.5222   3.5510   4.1974   4.4488
     4.5112   4.7045  11.3583  11.5096  11.7429  12.4315  12.7001  12.9591
    13.0805  13.2194  13.4583  13.8080  13.8250  14.0141  14.1945

          k = 0.3333-0.2000 0.0000 ( 29094 PWs)   bands (ev):

   -11.6190 -11.3831 -10.9781 -10.6270 -10.3440 -10.0109  -9.5885  -9.1728
    -8.6771  -8.1121  -7.5717  -6.9722  -6.6185  -6.1793  -5.9719  -5.7976
    -4.8844  -4.8155  -4.5312  -4.3520  -4.2836  -3.9637  -3.6279  -3.2249
    -2.8181  -2.3555  -2.1832  -2.0272  -1.8960  -1.8461  -1.5319  -1.3684
    -1.2539  -1.0861  -0.8911  -0.6641  -0.5564  -0.4186  -0.1988  -0.0756
     0.0989   0.1640   0.4383   0.5220   0.7338   0.8627   1.1262   1.4041
     1.5816   1.6610   2.0131   2.0451   2.1624   2.2943   2.3205   2.5205
     2.5427   2.7386   2.8416   2.8864   3.0351   3.2361   3.4726   3.5147
     3.8187   3.8206  11.3318  11.5989  11.7462  11.9302  12.3882  12.7206
    12.7968  13.1244  13.4942  13.6281  13.8956  14.0070  14.2063

          k = 0.4444-0.0000 0.0000 ( 29202 PWs)   bands (ev):

   -10.7850 -10.4838  -9.9898  -9.3415  -8.9513  -8.7352  -8.7321  -7.5237
    -7.4046  -6.4992  -6.4988  -6.2134  -6.2058  -5.9568  -5.8595  -5.7633
    -5.6298  -5.2617  -5.2601  -4.9713  -4.7743  -4.7596  -4.6822  -4.5711
    -4.5646  -4.3678  -4.3578  -3.5103  -3.5101  -3.4592  -3.1762  -1.8496
    -1.5197  -1.5021  -1.3615  -0.9332  -0.9223  -0.4909  -0.3600  -0.2644
    -0.1824  -0.1377   0.2176   0.2581   0.2849   0.4943   0.5477   0.8334
     0.8401   1.2879   1.4626   1.7177   1.7179   2.0465   2.1406   2.8496
     2.8680   3.4746   3.6872   3.8212   3.8252   3.9541   4.2172   4.4190
     4.5421   4.5654  11.9646  11.9692  12.2751  12.2770  12.5297  12.5948
    13.1210  13.1251  13.3003  13.3049  14.0733  14.1303  14.4517

          k = 0.4444-0.1000 0.0000 ( 29157 PWs)   bands (ev):

   -10.6118 -10.3220  -9.8429  -9.2088  -8.7859  -8.5925  -8.5712  -7.9669
    -7.6604  -7.4675  -7.3195  -6.9803  -6.5027  -6.2193  -6.1358  -6.0601
    -5.5980  -5.4857  -4.8586  -4.6947  -4.6431  -4.6080  -4.4922  -4.3603
    -4.0538  -3.5911  -3.4344  -3.2483  -3.0884  -2.9853  -2.9483  -1.8872
    -1.7856  -1.6608  -1.3192  -1.0781  -0.9946  -0.4998  -0.3338  -0.1223
     0.2014   0.3456   0.4194   0.4509   0.5996   0.7366   0.8095   1.0535
     1.1199   1.3722   1.4269   1.6719   1.7225   2.1763   2.1868   2.5870
     2.6930   2.7511   3.0886   3.2761   3.3159   3.6587   3.6859   3.6966
     3.8136   3.8460  11.5701  12.1663  12.3284  12.5298  12.6473  12.8868
    13.0214  13.1298  13.5035  13.8539  13.9783  14.0894  14.4075

          k = 0.4444-0.2000 0.0000 ( 29103 PWs)   bands (ev):

   -10.1084  -9.8875  -9.5100  -9.1502  -8.9194  -8.6107  -8.3559  -8.2114
    -8.1112  -8.0195  -7.6005  -7.3991  -7.1749  -7.1237  -7.0433  -6.9764
    -5.2489  -5.2063  -4.8924  -4.7113  -4.5571  -4.2324  -4.1916  -3.8696
    -3.6670  -3.4834  -3.1843  -3.0273  -2.5728  -2.1792  -1.7848  -1.5178
    -1.1497  -1.0083  -0.9210  -0.6708  -0.4707  -0.2898  -0.0268   0.0410
     0.2099   0.3174   0.4784   0.7415   0.9018   1.0041   1.2002   1.3195
     1.5065   1.5852   1.6113   1.6776   1.7641   1.7865   1.8474   1.9104
     1.9900   2.1855   2.2325   2.2620   2.4832   2.5667   2.6780   2.7054
     3.0022   3.0064  11.8392  12.0116  12.4090  12.6194  12.8121  12.9160
    13.1289  13.2038  13.4466  13.5064  13.7953  13.8563  13.9074

     the Fermi energy is     8.0521 ev

!    total energy              =    -594.55206355 Ry
     estimated scf accuracy    <          3.7E-10 Ry
     smearing contrib. (-TS)   =       0.00000000 Ry
     internal energy E=F+TS    =    -594.55206355 Ry

     The total energy is F=E-TS. E is the sum of the following terms:
     one-electron contribution =   -4681.22594966 Ry
     hartree contribution      =    2411.38558320 Ry
     xc contribution           =    -152.42090371 Ry
     ewald contribution        =    2024.92376404 Ry
     one-center paw contrib.   =    -197.21455742 Ry

     convergence has been achieved in   7 iterations

     negative rho (up, down):  5.716E-06 0.000E+00

     Forces acting on atoms (cartesian axes, Ry/au):

     atom    1 type  1   force =     0.00000000    0.00009469   -0.00076328
     atom    2 type  1   force =     0.00000000    0.00015112   -0.00065214
     atom    3 type  1   force =     0.00000000    0.00008862   -0.00054518
     atom    4 type  1   force =     0.00000000    0.00009878   -0.00039880
     atom    5 type  1   force =     0.00000000    0.00008216   -0.00003730
     atom    6 type  1   force =     0.00000000    0.00012487    0.00006268
     atom    7 type  1   force =     0.00000000    0.00026055   -0.00055133
     atom    8 type  1   force =     0.00000000    0.00027477   -0.00053822
     atom    9 type  1   force =     0.00000000   -0.00027477    0.00053822
     atom   10 type  1   force =     0.00000000   -0.00026055    0.00055133
     atom   11 type  1   force =     0.00000000   -0.00012487   -0.00006268
     atom   12 type  1   force =     0.00000000   -0.00008216    0.00003730
     atom   13 type  1   force =     0.00000000   -0.00009878    0.00039880
     atom   14 type  1   force =     0.00000000   -0.00008862    0.00054518
     atom   15 type  1   force =     0.00000000   -0.00015112    0.00065214
     atom   16 type  1   force =     0.00000000   -0.00009469    0.00076328
     atom   17 type  1   force =     0.00000000   -0.00007151   -0.00072053
     atom   18 type  1   force =     0.00000000   -0.00015832   -0.00055820
     atom   19 type  1   force =     0.00000000   -0.00010965   -0.00038804
     atom   20 type  1   force =     0.00000000   -0.00010662   -0.00038251
     atom   21 type  1   force =     0.00000000   -0.00006625   -0.00029512
     atom   22 type  1   force =     0.00000000   -0.00008523   -0.00002453
     atom   23 type  1   force =     0.00000000   -0.00024958    0.00065940
     atom   24 type  1   force =     0.00000000   -0.00026318    0.00072805
     atom   25 type  1   force =     0.00000000    0.00026318   -0.00072805
     atom   26 type  1   force =     0.00000000    0.00024958   -0.00065940
     atom   27 type  1   force =     0.00000000    0.00008523    0.00002453
     atom   28 type  1   force =     0.00000000    0.00006625    0.00029512
     atom   29 type  1   force =     0.00000000    0.00010662    0.00038251
     atom   30 type  1   force =     0.00000000    0.00010965    0.00038804
     atom   31 type  1   force =     0.00000000    0.00015832    0.00055820
     atom   32 type  1   force =     0.00000000    0.00007151    0.00072053
     atom   33 type  2   force =     0.00000000   -0.00123060   -0.00032265
     atom   34 type  2   force =     0.00000000    0.00120410   -0.00035864
     atom   35 type  2   force =     0.00000000    0.00123060    0.00032265
     atom   36 type  2   force =     0.00000000   -0.00120410    0.00035864

     Total force =     0.003963     Total SCF correction =     0.000035
     Energy error            =      3.4E-05 Ry
     Gradient error          =      1.2E-03 Ry/Bohr

     number of scf cycles    =  13
     number of bfgs steps    =  12

     energy             old  =    -594.5520300157 Ry
     energy             new  =    -594.5520635507 Ry

     CASE: energy            _new < energy            _old

     new trust radius        =       0.0029025688 bohr
     new conv_thr            =       0.0000000003 Ry


ATOMIC_POSITIONS (angstrom)
C                0.0000000000       -1.7151796290       18.3540534195
C                1.2634728900       -1.3545393154       17.5418820120
C                1.2634728900        0.0000070638       16.7309352607
C                0.0000000000        0.0000098850       15.7995267549
C                0.0000000000       -1.2476101129       14.8476240731
C                1.2634728900       -1.2476511688       13.9531891760
C                1.2634728900        0.0010556229       13.0511403774
C                0.0000000000        0.0008391782       12.1600422098
C                0.0000000000       -1.2643120682       11.2753603802
C                1.2634728900       -1.2645285129       10.3842622126
C                1.2634728900       -0.0158217212        9.4822134140
C               -0.0000000000       -0.0158627771        8.5877785169
C                0.0000000000       -1.2634827750        7.6358758351
C                1.2634728900       -1.2634799538        6.7044673293
C                1.2634728900        0.0910664254        5.8935205780
C                0.0000000000        0.4517067390        5.0813491705
C               -0.0000000000       -3.3386754815       18.3538169557
C                1.2634728900       -3.6991526420       17.5415860903
C                1.2634728900       -2.5267230451       16.5445787912
C               -0.0000000000       -2.5267927846       15.6889733174
C                0.0000000000       -3.8061746944       14.8480148689
C                1.2634728900       -3.8061821786       13.9538984643
C                1.2634728900       -2.5279962374       13.0666618205
C                0.0000000000       -2.5277501135       12.1695887233
C                0.0000000000       -3.7896143465       11.2658138667
C                1.2634728900       -3.7893682226       10.3687407695
C                1.2634728900       -2.5111822814        9.4815041257
C                0.0000000000       -2.5111897656        8.5873877211
C                0.0000000000       -3.7905716754        7.7464292726
C                1.2634728900       -3.7906414149        6.8908237988
C                1.2634728900       -2.6182118180        5.8938164997
C                0.0000000000       -2.9786889785        5.0815856343
H                0.0000000000       -1.2803410293       19.3651461204
H               -0.0000000000       -3.7736770993       19.3648025555
H               -0.0000000000        0.0168681393        4.0702564596
H               -0.0000000000       -2.5436873607        4.0706000245



     Writing config-only to output data dir /tmp/qe/slab.save/ :
     XML data file
     NEW-OLD atomic charge density approx. for the potential

     Check: negative core charge=   -0.000001

     negative rho (up, down):  5.797E-06 0.000E+00

     total cpu time spent up to now is      861.6 secs

     Self-consistent Calculation

     iteration #  1     ecut=    90.00 Ry     beta= 0.30
     Davidson diagonalization with overlap
     ethr =  1.00E-06,  avg # of iterations =  2.3

     Threshold (ethr) on eigenvalues was too large:
     Diagonalizing with lowered threshold

     Davidson diagonalization with overlap
     ethr =  9.40E-09,  avg # of iterations =  4.8

     negative rho (up, down):  5.790E-06 0.000E+00

     total cpu time spent up to now is      877.6 secs

     total energy              =    -594.55209018 Ry
     estimated scf accuracy    <       0.00001384 Ry

     iteration #  2     ecut=    90.00 Ry     beta= 0.30
     Davidson diagonalization with overlap
     ethr =  1.05E-08,  avg # of iterations =  1.9

     negative rho (up, down):  5.762E-06 0.000E+00

     total cpu time spent up to now is      883.3 secs

     total energy              =    -594.55209006 Ry
     estimated scf accuracy    <       0.00000439 Ry

     iteration #  3     ecut=    90.00 Ry     beta= 0.30
     Davidson diagonalization with overlap
     ethr =  3.32E-09,  avg # of iterations =  2.0

     negative rho (up, down):  5.751E-06 0.000E+00

     total cpu time spent up to now is      889.3 secs

     total energy              =    -594.55209025 Ry
     estimated scf accuracy    <       0.00000111 Ry

     iteration #  4     ecut=    90.00 Ry     beta= 0.30
     Davidson diagonalization with overlap
     ethr =  8.41E-10,  avg # of iterations =  1.9

     negative rho (up, down):  5.747E-06 0.000E+00

     total cpu time spent up to now is      895.5 secs

     total energy              =    -594.55209033 Ry
     estimated scf accuracy    <       0.00000017 Ry

     iteration #  5     ecut=    90.00 Ry     beta= 0.30
     Davidson diagonalization with overlap
     ethr =  1.26E-10,  avg # of iterations =  2.0

     negative rho (up, down):  5.750E-06 0.000E+00

     total cpu time spent up to now is      902.0 secs

     total energy              =    -594.55209036 Ry
     estimated scf accuracy    <       0.00000002 Ry

     iteration #  6     ecut=    90.00 Ry     beta= 0.30
     Davidson diagonalization with overlap
     ethr =  1.28E-11,  avg # of iterations =  2.3

     negative rho (up, down):  5.752E-06 0.000E+00

     total cpu time spent up to now is      908.6 secs

     total energy              =    -594.55209036 Ry
     estimated scf accuracy    <          3.2E-09 Ry

     iteration #  7     ecut=    90.00 Ry     beta= 0.30
     Davidson diagonalization with overlap
     ethr =  2.46E-12,  avg # of iterations =  2.5

     negative rho (up, down):  5.753E-06 0.000E+00

     total cpu time spent up to now is      914.8 secs

     total energy              =    -594.55209036 Ry
     estimated scf accuracy    <          5.1E-10 Ry

     iteration #  8     ecut=    90.00 Ry     beta= 0.30
     Davidson diagonalization with overlap
     ethr =  3.87E-13,  avg # of iterations =  3.2

     negative rho (up, down):  5.755E-06 0.000E+00

     total cpu time spent up to now is      922.3 secs

     End of self-consistent calculation

          k = 0.0000-0.0000 0.0000 ( 29123 PWs)   bands (ev):

   -14.3282 -13.9977 -13.4441 -12.6473 -11.6038 -10.3425  -9.8611  -9.8578
    -9.5126  -9.4855  -9.1061  -8.9953  -8.7002  -8.3480  -8.3421  -7.1872
    -5.8717  -5.8484  -5.4968  -4.7986  -4.7907  -3.7961  -3.5136  -3.5136
    -2.1299  -2.1092  -2.0208  -0.4432  -0.4272  -0.2441   0.7872   0.8530
     1.0825   1.1251   1.1263   1.2865   1.4740   1.6072   1.9295   2.3614
     2.5108   2.6303   2.9378   3.1270   3.3044   3.6381   3.8274   4.0013
     4.0038   4.0698   4.0921   4.0965   4.1683   4.1754   4.2018   4.3826
     4.4112   4.6016   4.8033   4.8033   5.3675   5.5484   5.7994   6.4457
     6.5332   6.6261   9.3255   9.8230  11.1580  11.1981  11.3741  11.4259
    11.6311  11.8121  12.1562  12.2228  12.3262  12.4334  12.5287

          k = 0.0000-0.1000 0.0000 ( 29153 PWs)   bands (ev):

   -14.1488 -13.8300 -13.2928 -12.5183 -11.5372 -11.3717 -10.9474 -10.4588
   -10.1011  -9.4920  -8.8316  -8.4047  -8.1715  -7.8878  -7.8551  -7.0013
    -5.6082  -5.4421  -5.2903  -4.5651  -4.4544  -3.7748  -3.3499  -3.1566
    -2.2610  -1.9992  -1.6152  -0.6088  -0.4150  -0.1592   0.0629   0.4824
     0.8854   0.9337   1.1922   1.2124   1.3169   1.4973   1.7158   2.2484
     2.4198   2.4416   2.7276   2.9075   3.0440   3.2988   3.3742   3.5274
     3.6795   3.7022   3.9784   4.0788   4.1148   4.3334   4.3339   4.4746
     4.5296   4.8127   5.0295   5.1395   5.1998   5.2489   5.6378   6.1017
     6.1840   6.4771   9.5455  10.0359  11.5941  11.7911  11.7922  12.0314
    12.1188  12.2784  12.3729  12.5668  12.6040  12.8185  12.8949

          k = 0.0000-0.2000 0.0000 ( 29117 PWs)   bands (ev):

   -13.6267 -13.3807 -12.9648 -12.6112 -12.3116 -11.9645 -11.5174 -11.0621
   -10.5230  -9.8899  -9.2629  -8.5332  -7.9075  -7.3143  -6.7265  -6.5248
    -4.9519  -4.5794  -4.4907  -4.1309  -3.7578  -3.4501  -2.9795  -2.6805
    -2.2670  -1.9261  -1.5342  -1.3629  -1.1461  -0.8400  -0.3834  -0.0464
     0.2145   0.5350   1.0997   1.3082   1.3451   1.5375   1.7334   1.9110
     2.1537   2.2051   2.5065   2.6520   2.7806   2.7831   3.1334   3.2194
     3.3117   3.4597   3.7970   3.9929   4.0674   4.2111   4.4383   4.4812
     4.6122   4.7438   4.9421   5.0195   5.3686   5.4096   5.4141   5.6872
     5.8441   6.2652  10.1734  10.5974  11.1989  11.5090  12.0741  12.2298
    12.3326  12.4314  12.6206  12.9918  13.1213  13.2423  13.4099

          k = 0.1111-0.0000 0.0000 ( 29137 PWs)   bands (ev):

   -14.1016 -13.7719 -13.2197 -12.4254 -11.3859 -10.1305  -9.6452  -9.6421
    -9.2996  -9.2730  -8.8987  -8.7887  -8.4996  -8.1435  -8.1380  -6.9973
    -5.6771  -5.6493  -5.4057  -4.6157  -4.6100  -3.7121  -3.3578  -3.3578
    -2.1040  -2.0013  -1.9832  -0.7138  -0.3840  -0.3216  -0.2063   0.2597
     0.2733   1.0380   1.0921   1.1048   1.2728   1.3860   1.4558   2.0564
     2.3696   2.4060   2.5363   2.6180   2.9442   3.1041   3.1111   3.1186
     3.1506   3.2941   3.2970   3.5454   3.6836   3.7082   3.7790   3.9444
     3.9622   4.0697   4.0899   4.3752   5.1243   5.1403   5.3792   6.0198
     6.1399   6.3678   9.5540  10.0270  11.8555  11.8594  11.9233  12.0142
    12.3353  12.4677  12.6497  12.8645  12.9830  13.1133  13.1361

          k = 0.1111-0.1000 0.0000 ( 29122 PWs)   bands (ev):

   -13.9225 -13.6045 -13.0687 -12.2966 -11.3186 -11.1518 -10.7293 -10.2443
    -9.8900  -9.2842  -8.6294  -8.2062  -7.9652  -7.6852  -7.6505  -6.8113
    -5.4431  -5.2532  -5.1667  -4.3957  -4.2788  -3.6793  -3.2182  -3.0013
    -2.1850  -1.9707  -1.4782  -0.7482  -0.4273  -0.1887  -0.0238   0.1118
     0.3107   0.3533   0.6442   0.9435   1.1258   1.2752   1.4148   1.6321
     2.0154   2.1535   2.1745   2.2013   2.5379   2.7044   2.8437   3.0027
     3.0432   3.1461   3.3542   3.5953   3.7447   3.9072   3.9647   4.0393
     4.1217   4.1946   4.2936   4.3600   4.5524   5.2326   5.2685   5.3298
     6.0750   6.2097   9.7730  10.2355  11.9582  12.3904  12.4215  12.7475
    12.7935  12.8254  12.8948  12.9512  13.0842  13.3209  13.3602

          k = 0.1111-0.2000 0.0000 ( 29082 PWs)   bands (ev):

   -13.4015 -13.1561 -12.7413 -12.3882 -12.0896 -11.7437 -11.2985 -10.8459
   -10.3098  -9.6809  -9.0583  -8.3339  -7.7135  -7.1222  -6.5322  -6.3299
    -4.8556  -4.4313  -4.3423  -3.9992  -3.6121  -3.3012  -2.8209  -2.5421
    -2.0885  -1.7846  -1.3758  -1.2535  -1.0272  -0.7396  -0.4029  -0.0877
     0.1594   0.2589   0.3168   0.6145   0.9027   0.9423   1.1811   1.2854
     1.4350   1.6617   1.8433   2.0308   2.2252   2.3711   2.4910   2.8104
     2.8287   3.1038   3.2441   3.2859   3.6665   3.7104   3.9603   4.0606
     4.3046   4.5014   4.6265   4.6649   4.7735   4.8345   5.0476   5.2437
     5.5618   5.5994  10.3971  10.7888  11.4052  11.6748  12.0840  12.2998
    12.8785  13.0227  13.2677  13.5796  13.7127  13.7660  13.8931

          k = 0.2222-0.0000 0.0000 ( 29090 PWs)   bands (ev):

   -13.4251 -13.0978 -12.5506 -11.7649 -10.7403  -9.5088  -9.0015  -8.9989
    -8.6656  -8.6404  -8.2876  -8.1744  -7.9219  -7.5351  -7.5309  -6.4857
    -5.4797  -5.0852  -5.0834  -4.1224  -4.1213  -3.9048  -3.0920  -2.9879
    -2.9535  -2.2931  -2.0896  -1.8511  -1.8479  -1.5232  -1.1211  -0.4158
    -0.1308  -0.0851   0.1030   0.5873   0.5964   0.9797   0.9903   1.1363
     1.1783   1.2093   1.4459   1.5754   1.7124   1.7162   1.9450   2.0586
     2.0617   2.3874   2.4438   2.5298   2.5974   2.7050   2.9413   3.2143
     3.2960   3.3417   3.6615   4.0516   4.3907   4.4535   5.0799   5.1240
     5.3447   6.0754  10.1934  10.5431  12.5179  12.5636  12.7497  12.8735
    13.0693  13.2145  13.3011  13.4054  13.4808  13.5066  13.5645

          k = 0.2222-0.1000 0.0000 ( 29080 PWs)   bands (ev):

   -13.2470 -12.9315 -12.4005 -11.6369 -10.6704 -10.4967 -10.0801  -9.6092
    -9.2674  -8.6706  -8.0394  -7.6320  -7.3533  -7.0854  -7.0425  -6.2958
    -5.3399  -4.7874  -4.7008  -3.9904  -3.9125  -3.7214  -3.1004  -2.8466
    -2.5802  -2.1380  -1.9467  -1.8694  -1.4557  -1.1637  -1.0118  -0.6645
    -0.4246  -0.3493   0.0843   0.2260   0.3277   0.6566   0.7148   0.9056
     0.9246   1.1567   1.3157   1.5409   1.6072   1.6885   1.8723   1.9805
     2.0435   2.2486   2.4503   2.5526   2.6566   2.8538   2.9040   3.0753
     3.2168   3.3355   3.5441   3.7051   4.2186   4.2535   4.4994   5.0925
     5.4054   5.4821  10.3988  10.7334  12.3202  12.5054  12.7680  12.7769
    12.8153  13.0112  13.4587  13.7212  13.7345  13.8512  13.9363

          k = 0.2222-0.2000 0.0000 ( 29067 PWs)   bands (ev):

   -12.7291 -12.4859 -12.0749 -11.7232 -11.4283 -11.0862 -10.6476 -10.2044
    -9.6792  -9.0653  -8.4596  -7.7562  -7.1615  -6.5765  -5.9803  -5.7670
    -4.8663  -4.2650  -4.0655  -3.7615  -3.3891  -3.0051  -2.6704  -2.2974
    -1.9232  -1.7170  -1.6132  -1.5461  -1.3557  -1.2650  -1.2209  -0.9116
    -0.7025  -0.6951  -0.6093  -0.2640  -0.2080   0.0569   0.1634   0.3407
     0.5507   0.7283   0.8897   1.1044   1.2373   1.4657   1.6943   1.9295
     2.1176   2.3185   2.4552   2.5214   2.7902   2.9008   3.0417   3.1447
     3.2105   3.4840   3.6012   3.7810   3.9639   4.1182   4.3135   4.4755
     4.8417   4.8597  10.9485  11.2225  11.6020  11.7799  11.9182  12.1542
    12.4310  12.9659  13.1309  13.4327  13.9105  14.1602  14.6041

          k = 0.3333-0.0000 0.0000 ( 29134 PWs)   bands (ev):

   -12.3106 -11.9891 -11.4536 -10.6909  -9.7123  -8.5813  -7.9445  -7.9432
    -7.6444  -7.6098  -7.4852  -7.1862  -7.1546  -6.5520  -6.5478  -6.4993
    -6.4556  -5.0094  -4.7703  -4.4851  -4.3399  -4.2461  -3.7276  -3.6176
    -3.4745  -3.1471  -3.1365  -2.4065  -2.3939  -2.3926  -2.3379  -1.4432
    -1.0421  -0.9168  -0.8426  -0.8061  -0.8039  -0.4212  -0.4193   0.0980
     0.1223   0.1840   0.4031   0.9791   0.9869   1.1957   1.2357   1.3928
     1.4024   1.5857   2.1657   2.1739   2.2983   2.4265   2.4650   2.6151
     2.8373   3.3214   3.3402   3.3703   3.9357   4.2606   4.2854   4.5553
     5.1057   5.4695  11.2009  11.3919  12.3147  12.3246  12.7984  12.8220
    13.1440  13.1593  13.4382  13.6569  13.7349  13.7356  13.8010

          k = 0.3333-0.1000 0.0000 ( 29139 PWs)   bands (ev):

   -12.1344 -11.8246 -11.3052 -10.5635  -9.6317  -9.4221  -9.0195  -8.6084
    -8.2978  -7.7217  -7.2917  -6.9107  -6.4864  -6.3148  -6.2822  -6.0424
    -6.0215  -4.8805  -4.6425  -4.5011  -4.4276  -4.2155  -3.9170  -3.5527
    -3.2754  -2.8823  -2.4176  -2.3108  -2.2647  -1.8658  -1.8257  -1.7067
    -1.4307  -1.4033  -1.0664  -1.0051  -0.7383  -0.3535  -0.2636   0.0981
     0.3780   0.5126   0.5575   1.0965   1.1397   1.3395   1.4598   1.5512
     1.6492   1.7042   1.7596   1.8048   2.1396   2.2118   2.3301   2.4213
     2.6962   2.8326   2.8892   3.4607   3.5218   3.5518   4.1988   4.4488
     4.5110   4.7029  11.3581  11.5094  11.7452  12.4323  12.7017  12.9624
    13.0828  13.2222  13.4599  13.8111  13.8268  14.0164  14.1956

          k = 0.3333-0.2000 0.0000 ( 29094 PWs)   bands (ev):

   -11.6219 -11.3834 -10.9809 -10.6308 -10.3461 -10.0125  -9.5905  -9.1727
    -8.6769  -8.1134  -7.5724  -6.9729  -6.6200  -6.1815  -5.9728  -5.7984
    -4.8844  -4.8159  -4.5328  -4.3527  -4.2856  -3.9655  -3.6298  -3.2253
    -2.8182  -2.3572  -2.1850  -2.0296  -1.8967  -1.8469  -1.5322  -1.3688
    -1.2546  -1.0872  -0.8925  -0.6657  -0.5566  -0.4190  -0.1998  -0.0763
     0.0974   0.1642   0.4384   0.5213   0.7329   0.8624   1.1268   1.4042
     1.5816   1.6610   2.0138   2.0450   2.1615   2.2947   2.3198   2.5193
     2.5434   2.7387   2.8414   2.8872   3.0344   3.2353   3.4721   3.5150
     3.8189   3.8208  11.3337  11.5996  11.7469  11.9330  12.3899  12.7225
    12.7994  13.1285  13.4947  13.6281  13.8977  14.0098  14.2101

          k = 0.4444-0.0000 0.0000 ( 29202 PWs)   bands (ev):

   -10.7884 -10.4844  -9.9912  -9.3430  -8.9539  -8.7375  -8.7331  -7.5260
    -7.4068  -6.5027  -6.5024  -6.2142  -6.2063  -5.9588  -5.8606  -5.7648
    -5.6326  -5.2600  -5.2583  -4.9728  -4.7773  -4.7634  -4.6843  -4.5729
    -4.5665  -4.3670  -4.3582  -3.5079  -3.5078  -3.4594  -3.1776  -1.8507
    -1.5218  -1.5042  -1.3618  -0.9333  -0.9226  -0.4916  -0.3619  -0.2658
    -0.1828  -0.1376   0.2161   0.2585   0.2848   0.4948   0.5492   0.8347
     0.8413   1.2886   1.4626   1.7197   1.7199   2.0448   2.1386   2.8496
     2.8681   3.4707   3.6859   3.8221   3.8264   3.9528   4.2165   4.4175
     4.5423   4.5640  11.9673  11.9721  12.2775  12.2792  12.5293  12.5944
    13.1226  13.1263  13.3023  13.3063  14.0741  14.1303  14.4481

          k = 0.4444-0.1000 0.0000 ( 29157 PWs)   bands (ev):

   -10.6151 -10.3225  -9.8445  -9.2105  -8.7882  -8.5951  -8.5722  -7.9705
    -7.6614  -7.4698  -7.3215  -6.9806  -6.5027  -6.2221  -6.1378  -6.0613
    -5.5996  -5.4885  -4.8621  -4.6954  -4.6436  -4.6075  -4.4910  -4.3604
    -4.0543  -3.5921  -3.4348  -3.2520  -3.0888  -2.9842  -2.9474  -1.8890
    -1.7880  -1.6621  -1.3192  -1.0783  -0.9949  -0.5008  -0.3351  -0.1217
     0.2015   0.3444   0.4181   0.4514   0.6001   0.7366   0.8094   1.0544
     1.1205   1.3729   1.4270   1.6736   1.7239   2.1746   2.1854   2.5861
     2.6925   2.7484   3.0874   3.2749   3.3166   3.6576   3.6860   3.6952
     3.8125   3.8474  11.5727  12.1668  12.3314  12.5314  12.6472  12.8883
    13.0222  13.1319  13.5056  13.8572  13.9792  14.0910  14.4084

          k = 0.4444-0.2000 0.0000 ( 29103 PWs)   bands (ev):

   -10.1112  -9.8878  -9.5126  -9.1540  -8.9214  -8.6119  -8.3573  -8.2151
    -8.1122  -8.0193  -7.6014  -7.4030  -7.1755  -7.1248  -7.0447  -6.9783
    -5.2511  -5.2082  -4.8918  -4.7101  -4.5587  -4.2338  -4.1923  -3.8701
    -3.6673  -3.4849  -3.1850  -3.0275  -2.5726  -2.1785  -1.7860  -1.5179
    -1.1510  -1.0104  -0.9226  -0.6713  -0.4709  -0.2908  -0.0290   0.0407
     0.2107   0.3170   0.4775   0.7406   0.9010   1.0033   1.1997   1.3188
     1.5055   1.5859   1.6093   1.6777   1.7642   1.7867   1.8471   1.9109
     1.9898   2.1859   2.2330   2.2613   2.4820   2.5666   2.6768   2.7054
     3.0027   3.0064  11.8406  12.0116  12.4108  12.6224  12.8159  12.9188
    13.1313  13.2080  13.4503  13.5078  13.7963  13.8583  13.9091

     the Fermi energy is     8.0513 ev

!    total energy              =    -594.55209036 Ry
     estimated scf accuracy    <          8.0E-11 Ry
     smearing contrib. (-TS)   =       0.00000000 Ry
     internal energy E=F+TS    =    -594.55209036 Ry

     The total energy is F=E-TS. E is the sum of the following terms:
     one-electron contribution =   -4684.93305587 Ry
     hartree contribution      =    2413.23867584 Ry
     xc contribution           =    -152.42565587 Ry
     ewald contribution        =    2026.78261092 Ry
     one-center paw contrib.   =    -197.21466538 Ry

     convergence has been achieved in   8 iterations

     negative rho (up, down):  5.755E-06 0.000E+00

     Forces acting on atoms (cartesian axes, Ry/au):

     atom    1 type  1   force =     0.00000000    0.00055576   -0.00079503
     atom    2 type  1   force =     0.00000000    0.00050724   -0.00079788
     atom    3 type  1   force =     0.00000000    0.00001790   -0.00037205
     atom    4 type  1   force =     0.00000000    0.00002764   -0.00001928
     atom    5 type  1   force =     0.00000000   -0.00027369   -0.00012213
     atom    6 type  1   force =     0.00000000   -0.00037716   -0.00003039
     atom    7 type  1   force =     0.00000000    0.00031764    0.00030440
     atom    8 type  1   force =     0.00000000    0.00031527   -0.00016219
     atom    9 type  1   force =     0.00000000   -0.00031527    0.00016219
     atom   10 type  1   force =     0.00000000   -0.00031764   -0.00030440
     atom   11 type  1   force =     0.00000000    0.00037716    0.00003039
     atom   12 type  1   force =     0.00000000    0.00027369    0.00012213
     atom   13 type  1   force =     0.00000000   -0.00002764    0.00001928
     atom   14 type  1   force =     0.00000000   -0.00001790    0.00037205
     atom   15 type  1   force =     0.00000000   -0.00050724    0.00079788
     atom   16 type  1   force =     0.00000000   -0.00055576    0.00079503
     atom   17 type  1   force =     0.00000000   -0.00051889   -0.00074625
     atom   18 type  1   force =     0.00000000   -0.00053111   -0.00068566
     atom   19 type  1   force =     0.00000000   -0.00004017   -0.00028656
     atom   20 type  1   force =     0.00000000   -0.00001498   -0.00018335
     atom   21 type  1   force =     0.00000000    0.00027427    0.00013856
     atom   22 type  1   force =     0.00000000    0.00041378    0.00040585
     atom   23 type  1   force =     0.00000000   -0.00028861    0.00033564
     atom   24 type  1   force =     0.00000000   -0.00030943    0.00032921
     atom   25 type  1   force =     0.00000000    0.00030943   -0.00032921
     atom   26 type  1   force =     0.00000000    0.00028861   -0.00033564
     atom   27 type  1   force =     0.00000000   -0.00041378   -0.00040585
     atom   28 type  1   force =     0.00000000   -0.00027427   -0.00013856
     atom   29 type  1   force =     0.00000000    0.00001498    0.00018335
     atom   30 type  1   force =     0.00000000    0.00004017    0.00028656
     atom   31 type  1   force =     0.00000000    0.00053111    0.00068566
     atom   32 type  1   force =     0.00000000    0.00051889    0.00074625
     atom   33 type  2   force =     0.00000000   -0.00118039   -0.00043156
     atom   34 type  2   force =     0.00000000    0.00114953   -0.00039621
     atom   35 type  2   force =     0.00000000    0.00118039    0.00043156
     atom   36 type  2   force =     0.00000000   -0.00114953    0.00039621

     Total force =     0.004028     Total SCF correction =     0.000030
     Energy error            =      2.7E-05 Ry
     Gradient error          =      1.2E-03 Ry/Bohr

     number of scf cycles    =  14
     number of bfgs steps    =  13

     energy             old  =    -594.5520635507 Ry
     energy             new  =    -594.5520903574 Ry

     CASE: energy            _new < energy            _old

     new trust radius        =       0.0039896955 bohr
     new conv_thr            =       0.0000000003 Ry


ATOMIC_POSITIONS (angstrom)
C                0.0000000000       -1.7153827147       18.3520482176
C                1.2634728900       -1.3545734110       17.5399770534
C                1.2634728900        0.0001514748       16.7291984375
C                0.0000000000        0.0001643744       15.7980182399
C                0.0000000000       -1.2471755501       14.8464939983
C                1.2634728900       -1.2472066983       13.9522975060
C                1.2634728900        0.0012837076       13.0497136164
C                0.0000000000        0.0011038272       12.1589996180
C                0.0000000000       -1.2645767172       11.2764029720
C                1.2634728900       -1.2647565976       10.3856889736
C                1.2634728900       -0.0162661917        9.4831050840
C               -0.0000000000       -0.0162973399        8.5889085917
C                0.0000000000       -1.2636372644        7.6373843501
C                1.2634728900       -1.2636243648        6.7062041525
C                1.2634728900        0.0911005210        5.8954255366
C                0.0000000000        0.4519098247        5.0833543724
C               -0.0000000000       -3.3384127583       18.3518501108
C                1.2634728900       -3.6991165340       17.5398418165
C                1.2634728900       -2.5268893260       16.5426882098
C               -0.0000000000       -2.5269486052       15.6871891526
C                0.0000000000       -3.8065705367       14.8464231600
C                1.2634728900       -3.8065655927       13.9527162893
C                1.2634728900       -2.5282008609       13.0669126127
C                0.0000000000       -2.5279983153       12.1701683205
C                0.0000000000       -3.7893661447       11.2652342695
C                1.2634728900       -3.7891635991       10.3684899773
C                1.2634728900       -2.5107988673        9.4826863007
C                0.0000000000       -2.5107939233        8.5889794300
C                0.0000000000       -3.7904158548        7.7482134374
C                1.2634728900       -3.7904751340        6.8927143802
C                1.2634728900       -2.6182479260        5.8955607735
C                0.0000000000       -2.9789517017        5.0835524792
H                0.0000000000       -1.2818719970       19.3636923187
H               -0.0000000000       -3.7722160090       19.3632997229
H               -0.0000000000        0.0183991070        4.0717102613
H               -0.0000000000       -2.5451484510        4.0721028571



     Writing config-only to output data dir /tmp/qe/slab.save/ :
     XML data file
     NEW-OLD atomic charge density approx. for the potential

     Check: negative core charge=   -0.000001

     negative rho (up, down):  5.868E-06 0.000E+00

     total cpu time spent up to now is      924.6 secs

     Self-consistent Calculation

     iteration #  1     ecut=    90.00 Ry     beta= 0.30
     Davidson diagonalization with overlap
     ethr =  1.00E-06,  avg # of iterations =  3.0

     Threshold (ethr) on eigenvalues was too large:
     Diagonalizing with lowered threshold

     Davidson diagonalization with overlap
     ethr =  1.58E-08,  avg # of iterations =  4.7

     negative rho (up, down):  5.853E-06 0.000E+00

     total cpu time spent up to now is      940.8 secs

     total energy              =    -594.55212064 Ry
     estimated scf accuracy    <       0.00002395 Ry

     iteration #  2     ecut=    90.00 Ry     beta= 0.30
     Davidson diagonalization with overlap
     ethr =  1.81E-08,  avg # of iterations =  1.5

     negative rho (up, down):  5.802E-06 0.000E+00

     total cpu time spent up to now is      946.4 secs

     total energy              =    -594.55212039 Ry
     estimated scf accuracy    <       0.00000782 Ry

     iteration #  3     ecut=    90.00 Ry     beta= 0.30
     Davidson diagonalization with overlap
     ethr =  5.93E-09,  avg # of iterations =  1.9

     negative rho (up, down):  5.778E-06 0.000E+00

     total cpu time spent up to now is      952.2 secs

     total energy              =    -594.55212068 Ry
     estimated scf accuracy    <       0.00000181 Ry

     iteration #  4     ecut=    90.00 Ry     beta= 0.30
     Davidson diagonalization with overlap
     ethr =  1.37E-09,  avg # of iterations =  2.0

     negative rho (up, down):  5.773E-06 0.000E+00

     total cpu time spent up to now is      958.3 secs

     total energy              =    -594.55212083 Ry
     estimated scf accuracy    <       0.00000022 Ry

     iteration #  5     ecut=    90.00 Ry     beta= 0.30
     Davidson diagonalization with overlap
     ethr =  1.68E-10,  avg # of iterations =  2.2

     negative rho (up, down):  5.777E-06 0.000E+00

     total cpu time spent up to now is      964.7 secs

     total energy              =    -594.55212086 Ry
     estimated scf accuracy    <       0.00000003 Ry

     iteration #  6     ecut=    90.00 Ry     beta= 0.30
     Davidson diagonalization with overlap
     ethr =  2.40E-11,  avg # of iterations =  2.7

     negative rho (up, down):  5.781E-06 0.000E+00

     total cpu time spent up to now is      971.4 secs

     total energy              =    -594.55212086 Ry
     estimated scf accuracy    <          6.6E-09 Ry

     iteration #  7     ecut=    90.00 Ry     beta= 0.30
     Davidson diagonalization with overlap
     ethr =  4.96E-12,  avg # of iterations =  2.3

     negative rho (up, down):  5.782E-06 0.000E+00

     total cpu time spent up to now is      977.8 secs

     total energy              =    -594.55212086 Ry
     estimated scf accuracy    <          7.2E-10 Ry

     iteration #  8     ecut=    90.00 Ry     beta= 0.30
     Davidson diagonalization with overlap
     ethr =  5.45E-13,  avg # of iterations =  3.5

     negative rho (up, down):  5.784E-06 0.000E+00

     total cpu time spent up to now is      985.4 secs

     End of self-consistent calculation

          k = 0.0000-0.0000 0.0000 ( 29123 PWs)   bands (ev):

   -14.3329 -14.0003 -13.4465 -12.6498 -11.6060 -10.3443  -9.8660  -9.8624
    -9.5151  -9.4880  -9.1074  -8.9975  -8.7021  -8.3480  -8.3420  -7.1881
    -5.8744  -5.8512  -5.4975  -4.7992  -4.7911  -3.7958  -3.5135  -3.5134
    -2.1287  -2.1083  -2.0205  -0.4410  -0.4257  -0.2437   0.7821   0.8469
     1.0796   1.1266   1.1280   1.2832   1.4752   1.6044   1.9269   2.3584
     2.5107   2.6326   2.9379   3.1289   3.3017   3.6384   3.8285   3.9967
     3.9991   4.0706   4.0886   4.0927   4.1653   4.1726   4.2031   4.3830
     4.4089   4.6037   4.8039   4.8039   5.3662   5.5467   5.8016   6.4436
     6.5317   6.6295   9.3252   9.8221  11.1533  11.1932  11.3726  11.4226
    11.6293  11.8105  12.1538  12.2211  12.3247  12.4367  12.5277

          k = 0.0000-0.1000 0.0000 ( 29153 PWs)   bands (ev):

   -14.1534 -13.8325 -13.2951 -12.5209 -11.5397 -11.3766 -10.9505 -10.4605
   -10.1019  -9.4940  -8.8333  -8.4057  -8.1749  -7.8886  -7.8557  -7.0014
    -5.6115  -5.4452  -5.2901  -4.5655  -4.4557  -3.7746  -3.3505  -3.1560
    -2.2603  -1.9982  -1.6151  -0.6086  -0.4141  -0.1582   0.0578   0.4790
     0.8857   0.9286   1.1934   1.2096   1.3183   1.4956   1.7129   2.2488
     2.4192   2.4385   2.7290   2.9081   3.0390   3.2951   3.3712   3.5281
     3.6812   3.6999   3.9803   4.0768   4.1160   4.3313   4.3342   4.4768
     4.5272   4.8094   5.0283   5.1386   5.2006   5.2490   5.6365   6.1016
     6.1869   6.4755   9.5453  10.0351  11.5947  11.7858  11.7886  12.0305
    12.1170  12.2788  12.3718  12.5656  12.6051  12.8175  12.8941

          k = 0.0000-0.2000 0.0000 ( 29117 PWs)   bands (ev):

   -13.6310 -13.3828 -12.9676 -12.6161 -12.3146 -11.9681 -11.5206 -11.0631
   -10.5238  -9.8919  -9.2645  -8.5337  -7.9076  -7.3142  -6.7280  -6.5247
    -4.9514  -4.5816  -4.4936  -4.1315  -3.7596  -3.4522  -2.9816  -2.6812
    -2.2675  -1.9281  -1.5351  -1.3633  -1.1474  -0.8414  -0.3839  -0.0460
     0.2139   0.5343   1.1010   1.3076   1.3407   1.5353   1.7336   1.9073
     2.1544   2.1998   2.5031   2.6529   2.7789   2.7813   3.1299   3.2210
     3.3127   3.4583   3.7955   3.9951   4.0686   4.2086   4.4400   4.4827
     4.6095   4.7445   4.9444   5.0178   5.3704   5.4113   5.4125   5.6858
     5.8423   6.2634  10.1733  10.5973  11.1984  11.5086  12.0755  12.2315
    12.3310  12.4302  12.6183  12.9888  13.1191  13.2391  13.4078

          k = 0.1111-0.0000 0.0000 ( 29137 PWs)   bands (ev):

   -14.1063 -13.7745 -13.2220 -12.4278 -11.3880 -10.1323  -9.6501  -9.6467
    -9.3021  -9.2755  -8.9001  -8.7908  -8.5014  -8.1435  -8.1379  -6.9982
    -5.6798  -5.6521  -5.4065  -4.6164  -4.6105  -3.7118  -3.3577  -3.3577
    -2.1034  -2.0004  -1.9829  -0.7146  -0.3834  -0.3210  -0.2093   0.2595
     0.2700   1.0320   1.0925   1.1055   1.2705   1.3870   1.4525   2.0539
     2.3692   2.4052   2.5367   2.6177   2.9428   3.1001   3.1079   3.1155
     3.1470   3.2924   3.2955   3.5446   3.6833   3.7083   3.7808   3.9448
     3.9617   4.0702   4.0915   4.3745   5.1245   5.1406   5.3778   6.0204
     6.1426   6.3655   9.5538  10.0261  11.8529  11.8533  11.9215  12.0120
    12.3330  12.4665  12.6530  12.8630  12.9832  13.1150  13.1392

          k = 0.1111-0.1000 0.0000 ( 29122 PWs)   bands (ev):

   -13.9271 -13.6070 -13.0710 -12.2992 -11.3212 -11.1568 -10.7325 -10.2460
    -9.8908  -9.2861  -8.6311  -8.2072  -7.9685  -7.6859  -7.6511  -6.8114
    -5.4462  -5.2560  -5.1671  -4.3961  -4.2801  -3.6791  -3.2189  -3.0008
    -2.1845  -1.9700  -1.4782  -0.7489  -0.4266  -0.1905  -0.0249   0.1073
     0.3075   0.3509   0.6407   0.9437   1.1228   1.2761   1.4153   1.6295
     2.0133   2.1495   2.1733   2.2005   2.5368   2.7034   2.8436   3.0013
     3.0425   3.1455   3.3532   3.5948   3.7445   3.9054   3.9649   4.0389
     4.1214   4.1945   4.2940   4.3601   4.5529   5.2314   5.2691   5.3303
     6.0767   6.2092   9.7728  10.2347  11.9601  12.3925  12.4233  12.7439
    12.7909  12.8222  12.8934  12.9481  13.0824  13.3198  13.3615

          k = 0.1111-0.2000 0.0000 ( 29082 PWs)   bands (ev):

   -13.4057 -13.1582 -12.7442 -12.3931 -12.0927 -11.7473 -11.3017 -10.8468
   -10.3106  -9.6828  -9.0598  -8.3346  -7.7136  -7.1221  -6.5336  -6.3299
    -4.8552  -4.4332  -4.3452  -4.0001  -3.6141  -3.3031  -2.8230  -2.5426
    -2.0889  -1.7864  -1.3767  -1.2541  -1.0286  -0.7413  -0.4043  -0.0883
     0.1582   0.2570   0.3148   0.6121   0.9005   0.9405   1.1797   1.2823
     1.4331   1.6591   1.8420   2.0282   2.2240   2.3715   2.4903   2.8099
     2.8290   3.1040   3.2433   3.2859   3.6666   3.7099   3.9608   4.0611
     4.3052   4.5017   4.6265   4.6649   4.7734   4.8337   5.0491   5.2434
     5.5624   5.5994  10.3971  10.7888  11.4048  11.6745  12.0859  12.3020
    12.8813  13.0234  13.2702  13.5811  13.7120  13.7644  13.8939

          k = 0.2222-0.0000 0.0000 ( 29090 PWs)   bands (ev):

   -13.4297 -13.1004 -12.5529 -11.7674 -10.7425  -9.5106  -9.0064  -9.0035
    -8.6682  -8.6429  -8.2890  -8.1766  -7.9239  -7.5350  -7.5308  -6.4867
    -5.4811  -5.0880  -5.0862  -4.1231  -4.1220  -3.9053  -3.0944  -2.9883
    -2.9543  -2.2964  -2.0918  -1.8507  -1.8475  -1.5239  -1.1233  -0.4163
    -0.1302  -0.0848   0.1013   0.5860   0.5948   0.9776   0.9882   1.1347
     1.1752   1.2073   1.4442   1.5699   1.7116   1.7155   1.9419   2.0591
     2.0621   2.3862   2.4435   2.5296   2.5989   2.7042   2.9411   3.2133
     3.2985   3.3429   3.6596   4.0520   4.3920   4.4517   5.0819   5.1255
     5.3431   6.0726  10.1933  10.5425  12.5130  12.5639  12.7471  12.8734
    13.0685  13.2177  13.3018  13.4093  13.4848  13.5092  13.5661

          k = 0.2222-0.1000 0.0000 ( 29080 PWs)   bands (ev):

   -13.2516 -12.9340 -12.4029 -11.6395 -10.6729 -10.5016 -10.0832  -9.6109
    -9.2683  -8.6726  -8.0412  -7.6330  -7.3566  -7.0861  -7.0434  -6.2961
    -5.3414  -4.7897  -4.7040  -3.9913  -3.9130  -3.7226  -3.1026  -2.8480
    -2.5801  -2.1408  -1.9489  -1.8691  -1.4564  -1.1645  -1.0138  -0.6658
    -0.4258  -0.3516   0.0830   0.2238   0.3258   0.6530   0.7137   0.9031
     0.9233   1.1537   1.3134   1.5407   1.6079   1.6871   1.8711   1.9782
     2.0433   2.2481   2.4495   2.5528   2.6573   2.8532   2.9032   3.0753
     3.2172   3.3360   3.5434   3.7070   4.2193   4.2527   4.5009   5.0933
     5.4057   5.4803  10.3987  10.7328  12.3228  12.5088  12.7696  12.7787
    12.8166  13.0118  13.4622  13.7179  13.7355  13.8519  13.9330

          k = 0.2222-0.2000 0.0000 ( 29067 PWs)   bands (ev):

   -12.7333 -12.4880 -12.0777 -11.7281 -11.4314 -11.0898 -10.6508 -10.2054
    -9.6800  -9.0673  -8.4612  -7.7569  -7.1618  -6.5767  -5.9816  -5.7673
    -4.8666  -4.2659  -4.0681  -3.7636  -3.3915  -3.0072  -2.6728  -2.2981
    -1.9252  -1.7192  -1.6150  -1.5468  -1.3588  -1.2685  -1.2243  -0.9134
    -0.7066  -0.6963  -0.6107  -0.2658  -0.2099   0.0557   0.1616   0.3390
     0.5485   0.7276   0.8878   1.1039   1.2364   1.4655   1.6935   1.9298
     2.1175   2.3175   2.4550   2.5218   2.7904   2.8995   3.0422   3.1443
     3.2101   3.4846   3.6021   3.7812   3.9640   4.1192   4.3133   4.4770
     4.8421   4.8604  10.9488  11.2228  11.6040  11.7815  11.9193  12.1556
    12.4336  12.9689  13.1328  13.4337  13.9113  14.1632  14.6047

          k = 0.3333-0.0000 0.0000 ( 29134 PWs)   bands (ev):

   -12.3152 -11.9917 -11.4560 -10.6934  -9.7144  -8.5831  -7.9494  -7.9478
    -7.6467  -7.6124  -7.4873  -7.1886  -7.1572  -6.5524  -6.5477  -6.5010
    -6.4575  -5.0124  -4.7723  -4.4883  -4.3429  -4.2477  -3.7298  -3.6192
    -3.4761  -3.1500  -3.1391  -2.4079  -2.3933  -2.3920  -2.3388  -1.4438
    -1.0430  -0.9185  -0.8459  -0.8081  -0.8071  -0.4227  -0.4205   0.0979
     0.1221   0.1840   0.4031   0.9794   0.9870   1.1938   1.2349   1.3929
     1.4025   1.5875   2.1660   2.1745   2.2993   2.4281   2.4595   2.6167
     2.8335   3.3225   3.3375   3.3711   3.9332   4.2626   4.2873   4.5531
     5.1037   5.4660  11.2009  11.3916  12.3188  12.3288  12.8021  12.8257
    13.1452  13.1606  13.4331  13.6582  13.7345  13.7396  13.8015

          k = 0.3333-0.1000 0.0000 ( 29139 PWs)   bands (ev):

   -12.1390 -11.8271 -11.3075 -10.5660  -9.6341  -9.4270  -9.0227  -8.6100
    -8.2987  -7.7239  -7.2938  -6.9125  -6.4890  -6.3168  -6.2853  -6.0425
    -6.0222  -4.8833  -4.6442  -4.5046  -4.4306  -4.2184  -3.9191  -3.5548
    -3.2765  -2.8829  -2.4187  -2.3119  -2.2659  -1.8672  -1.8279  -1.7099
    -1.4324  -1.4048  -1.0676  -1.0066  -0.7397  -0.3552  -0.2640   0.0978
     0.3782   0.5116   0.5574   1.0965   1.1401   1.3393   1.4584   1.5505
     1.6459   1.7035   1.7582   1.8034   2.1387   2.2116   2.3305   2.4219
     2.6968   2.8330   2.8881   3.4608   3.5209   3.5526   4.2000   4.4487
     4.5097   4.6998  11.3583  11.5095  11.7484  12.4345  12.7046  12.9661
    13.0860  13.2256  13.4619  13.8145  13.8299  14.0184  14.1972

          k = 0.3333-0.2000 0.0000 ( 29094 PWs)   bands (ev):

   -11.6261 -11.3855 -10.9837 -10.6357 -10.3491 -10.0160  -9.5937  -9.1736
    -8.6777  -8.1154  -7.5741  -6.9740  -6.6221  -6.1835  -5.9740  -5.8001
    -4.8854  -4.8171  -4.5350  -4.3540  -4.2885  -3.9685  -3.6327  -3.2266
    -2.8193  -2.3597  -2.1873  -2.0330  -1.8986  -1.8485  -1.5334  -1.3699
    -1.2565  -1.0892  -0.8952  -0.6683  -0.5577  -0.4198  -0.2012  -0.0784
     0.0950   0.1641   0.4379   0.5195   0.7320   0.8610   1.1268   1.4038
     1.5811   1.6600   2.0144   2.0448   2.1607   2.2950   2.3190   2.5180
     2.5439   2.7383   2.8405   2.8875   3.0358   3.2343   3.4737   3.5150
     3.8191   3.8214  11.3362  11.6007  11.7479  11.9362  12.3924  12.7253
    12.8012  13.1314  13.4952  13.6284  13.9000  14.0132  14.2144

          k = 0.4444-0.0000 0.0000 ( 29202 PWs)   bands (ev):

   -10.7929 -10.4868  -9.9934  -9.3451  -8.9577  -8.7401  -8.7358  -7.5280
    -7.4086  -6.5072  -6.5071  -6.2173  -6.2089  -5.9612  -5.8628  -5.7676
    -5.6358  -5.2599  -5.2581  -4.9749  -4.7816  -4.7681  -4.6874  -4.5762
    -4.5692  -4.3680  -4.3599  -3.5066  -3.5065  -3.4596  -3.1790  -1.8517
    -1.5244  -1.5071  -1.3628  -0.9345  -0.9239  -0.4928  -0.3645  -0.2678
    -0.1840  -0.1381   0.2153   0.2582   0.2841   0.4948   0.5501   0.8355
     0.8418   1.2901   1.4640   1.7203   1.7205   2.0469   2.1405   2.8503
     2.8690   3.4653   3.6823   3.8241   3.8285   3.9499   4.2136   4.4143
     4.5404   4.5608  11.9712  11.9761  12.2811  12.2828  12.5296  12.5947
    13.1257  13.1292  13.3063  13.3099  14.0761  14.1318  14.4437

          k = 0.4444-0.1000 0.0000 ( 29157 PWs)   bands (ev):

   -10.6195 -10.3250  -9.8467  -9.2127  -8.7919  -8.5980  -8.5749  -7.9753
    -7.6643  -7.4723  -7.3234  -6.9821  -6.5042  -6.2261  -6.1405  -6.0641
    -5.6023  -5.4916  -4.8663  -4.6971  -4.6457  -4.6080  -4.4910  -4.3612
    -4.0560  -3.5940  -3.4352  -3.2560  -3.0900  -2.9846  -2.9476  -1.8912
    -1.7914  -1.6638  -1.3198  -1.0797  -0.9968  -0.5019  -0.3368  -0.1216
     0.2017   0.3426   0.4161   0.4516   0.6000   0.7364   0.8084   1.0551
     1.1207   1.3740   1.4274   1.6743   1.7250   2.1761   2.1872   2.5855
     2.6921   2.7442   3.0851   3.2732   3.3163   3.6549   3.6868   3.6928
     3.8097   3.8476  11.5765  12.1687  12.3354  12.5336  12.6474  12.8909
    13.0248  13.1352  13.5093  13.8609  13.9808  14.0945  14.4102

          k = 0.4444-0.2000 0.0000 ( 29103 PWs)   bands (ev):

   -10.1153  -9.8898  -9.5152  -9.1588  -8.9242  -8.6153  -8.3597  -8.2196
    -8.1149  -8.0205  -7.6033  -7.4075  -7.1774  -7.1268  -7.0467  -6.9806
    -5.2542  -5.2107  -4.8926  -4.7100  -4.5606  -4.2356  -4.1935  -3.8712
    -3.6689  -3.4869  -3.1858  -3.0281  -2.5730  -2.1789  -1.7881  -1.5184
    -1.1531  -1.0132  -0.9258  -0.6725  -0.4726  -0.2933  -0.0320   0.0397
     0.2101   0.3163   0.4757   0.7399   0.8991   1.0023   1.1985   1.3167
     1.5040   1.5854   1.6076   1.6773   1.7633   1.7866   1.8464   1.9116
     1.9893   2.1861   2.2325   2.2598   2.4826   2.5670   2.6780   2.7058
     3.0030   3.0070  11.8429  12.0124  12.4135  12.6258  12.8193  12.9223
    13.1344  13.2125  13.4526  13.5096  13.7980  13.8614  13.9116

     the Fermi energy is     8.0506 ev

!    total energy              =    -594.55212086 Ry
     estimated scf accuracy    <          7.4E-11 Ry
     smearing contrib. (-TS)   =       0.00000000 Ry
     internal energy E=F+TS    =    -594.55212086 Ry

     The total energy is F=E-TS. E is the sum of the following terms:
     one-electron contribution =   -4690.35527921 Ry
     hartree contribution      =    2415.94860702 Ry
     xc contribution           =    -152.43329017 Ry
     ewald contribution        =    2029.50268992 Ry
     one-center paw contrib.   =    -197.21484842 Ry

     convergence has been achieved in   8 iterations

     negative rho (up, down):  5.784E-06 0.000E+00

     Forces acting on atoms (cartesian axes, Ry/au):

     atom    1 type  1   force =     0.00000000    0.00064580   -0.00074339
     atom    2 type  1   force =     0.00000000    0.00058599   -0.00071681
     atom    3 type  1   force =     0.00000000   -0.00009529   -0.00010354
     atom    4 type  1   force =     0.00000000   -0.00008216    0.00019986
     atom    5 type  1   force =     0.00000000   -0.00055450   -0.00021087
     atom    6 type  1   force =     0.00000000   -0.00064095   -0.00008603
     atom    7 type  1   force =     0.00000000    0.00022342    0.00085624
     atom    8 type  1   force =     0.00000000    0.00017053    0.00053347
     atom    9 type  1   force =     0.00000000   -0.00017053   -0.00053347
     atom   10 type  1   force =     0.00000000   -0.00022342   -0.00085624
     atom   11 type  1   force =    -0.00000000    0.00064095    0.00008603
     atom   12 type  1   force =     0.00000000    0.00055450    0.00021087
     atom   13 type  1   force =     0.00000000    0.00008216   -0.00019986
     atom   14 type  1   force =    -0.00000000    0.00009529    0.00010354
     atom   15 type  1   force =    -0.00000000   -0.00058599    0.00071681
     atom   16 type  1   force =     0.00000000   -0.00064580    0.00074339
     atom   17 type  1   force =     0.00000000   -0.00063172   -0.00064262
     atom   18 type  1   force =     0.00000000   -0.00061009   -0.00068203
     atom   19 type  1   force =    -0.00000000    0.00008649   -0.00014928
     atom   20 type  1   force =     0.00000000    0.00011495   -0.00004933
     atom   21 type  1   force =     0.00000000    0.00053520    0.00052885
     atom   22 type  1   force =     0.00000000    0.00065309    0.00073555
     atom   23 type  1   force =     0.00000000   -0.00018605   -0.00030059
     atom   24 type  1   force =     0.00000000   -0.00016855   -0.00018285
     atom   25 type  1   force =     0.00000000    0.00016855    0.00018285
     atom   26 type  1   force =    -0.00000000    0.00018605    0.00030059
     atom   27 type  1   force =     0.00000000   -0.00065309   -0.00073555
     atom   28 type  1   force =     0.00000000   -0.00053520   -0.00052885
     atom   29 type  1   force =     0.00000000   -0.00011495    0.00004933
     atom   30 type  1   force =     0.00000000   -0.00008649    0.00014928
     atom   31 type  1   force =     0.00000000    0.00061009    0.00068203
     atom   32 type  1   force =     0.00000000    0.00063172    0.00064262
     atom   33 type  2   force =     0.00000000   -0.00094441   -0.00050338
     atom   34 type  2   force =     0.00000000    0.00093861   -0.00041254
     atom   35 type  2   force =     0.00000000    0.00094441    0.00050338
     atom   36 type  2   force =     0.00000000   -0.00093861    0.00041254

     Total force =     0.004329     Total SCF correction =     0.000019
     Energy error            =      3.1E-05 Ry
     Gradient error          =      9.4E-04 Ry/Bohr

     number of scf cycles    =  15
     number of bfgs steps    =  14

     energy             old  =    -594.5520903574 Ry
     energy             new  =    -594.5521208605 Ry

     CASE: energy            _new < energy            _old

     new trust radius        =       0.0055183686 bohr
     new conv_thr            =       0.0000000003 Ry


ATOMIC_POSITIONS (angstrom)
C                0.0000000000       -1.7152883701       18.3491749336
C                1.2634728900       -1.3543501396       17.5374038296
C                1.2634728900        0.0002270129       16.7269762620
C                0.0000000000        0.0002602734       15.7962173458
C                0.0000000000       -1.2470359890       14.8450733585
C                1.2634728900       -1.2470451600       13.9512453462
C                1.2634728900        0.0016289506       13.0486310805
C                0.0000000000        0.0014453582       12.1582991450
C                0.0000000000       -1.2649182482       11.2771034450
C                1.2634728900       -1.2651018406       10.3867715095
C                1.2634728900       -0.0164277300        9.4841572438
C               -0.0000000000       -0.0164369010        8.5903292315
C                0.0000000000       -1.2637331634        7.6391852442
C                1.2634728900       -1.2636999029        6.7084263280
C                1.2634728900        0.0908772496        5.8979987604
C                0.0000000000        0.4518154801        5.0862276564
C               -0.0000000000       -3.3384417703       18.3490969417
C                1.2634728900       -3.6993476855       17.5374367403
C                1.2634728900       -2.5269883120       16.5404652084
C               -0.0000000000       -2.5270218659       15.6852575373
C                0.0000000000       -3.8066817725       14.8450089514
C                1.2634728900       -3.8066596450       13.9518738508
C                1.2634728900       -2.5284972449       13.0668944689
C                0.0000000000       -2.5283199430       12.1706213789
C                0.0000000000       -3.7890445170       11.2647812111
C                1.2634728900       -3.7888672151       10.3685081211
C                1.2634728900       -2.5107048150        9.4835287392
C                0.0000000000       -2.5106826875        8.5903936386
C                0.0000000000       -3.7903425941        7.7501450527
C                1.2634728900       -3.7903761480        6.8949373816
C                1.2634728900       -2.6180167745        5.8979658497
C                0.0000000000       -2.9789226897        5.0863056483
H                0.0000000000       -1.2839279488       19.3616185298
H               -0.0000000000       -3.7702333720       19.3612332670
H               -0.0000000000        0.0204550588        4.0737840502
H               -0.0000000000       -2.5471310880        4.0741693130



     Writing config-only to output data dir /tmp/qe/slab.save/ :
     XML data file
     NEW-OLD atomic charge density approx. for the potential

     Check: negative core charge=   -0.000001

     negative rho (up, down):  5.933E-06 0.000E+00

     total cpu time spent up to now is      987.6 secs

     Self-consistent Calculation

     iteration #  1     ecut=    90.00 Ry     beta= 0.30
     Davidson diagonalization with overlap
     ethr =  1.00E-06,  avg # of iterations =  3.1

     Threshold (ethr) on eigenvalues was too large:
     Diagonalizing with lowered threshold

     Davidson diagonalization with overlap
     ethr =  2.18E-08,  avg # of iterations =  4.3

     negative rho (up, down):  5.904E-06 0.000E+00

     total cpu time spent up to now is     1003.7 secs

     total energy              =    -594.55215091 Ry
     estimated scf accuracy    <       0.00003427 Ry

     iteration #  2     ecut=    90.00 Ry     beta= 0.30
     Davidson diagonalization with overlap
     ethr =  2.60E-08,  avg # of iterations =  1.7

     negative rho (up, down):  5.832E-06 0.000E+00

     total cpu time spent up to now is     1009.5 secs

     total energy              =    -594.55215076 Ry
     estimated scf accuracy    <       0.00001124 Ry

     iteration #  3     ecut=    90.00 Ry     beta= 0.30
     Davidson diagonalization with overlap
     ethr =  8.51E-09,  avg # of iterations =  1.6

     negative rho (up, down):  5.792E-06 0.000E+00

     total cpu time spent up to now is     1015.4 secs

     total energy              =    -594.55215105 Ry
     estimated scf accuracy    <       0.00000269 Ry

     iteration #  4     ecut=    90.00 Ry     beta= 0.30
     Davidson diagonalization with overlap
     ethr =  2.04E-09,  avg # of iterations =  2.0

     negative rho (up, down):  5.786E-06 0.000E+00

     total cpu time spent up to now is     1021.5 secs

     total energy              =    -594.55215128 Ry
     estimated scf accuracy    <       0.00000025 Ry

     iteration #  5     ecut=    90.00 Ry     beta= 0.30
     Davidson diagonalization with overlap
     ethr =  1.92E-10,  avg # of iterations =  2.5

     negative rho (up, down):  5.790E-06 0.000E+00

     total cpu time spent up to now is     1028.1 secs

     total energy              =    -594.55215131 Ry
     estimated scf accuracy    <       0.00000005 Ry

     iteration #  6     ecut=    90.00 Ry     beta= 0.30
     Davidson diagonalization with overlap
     ethr =  4.04E-11,  avg # of iterations =  2.7

     negative rho (up, down):  5.795E-06 0.000E+00

     total cpu time spent up to now is     1034.6 secs

     total energy              =    -594.55215132 Ry
     estimated scf accuracy    <          8.2E-09 Ry

     iteration #  7     ecut=    90.00 Ry     beta= 0.30
     Davidson diagonalization with overlap
     ethr =  6.24E-12,  avg # of iterations =  2.7

     negative rho (up, down):  5.796E-06 0.000E+00

     total cpu time spent up to now is     1041.4 secs

     total energy              =    -594.55215132 Ry
     estimated scf accuracy    <          7.5E-10 Ry

     iteration #  8     ecut=    90.00 Ry     beta= 0.30
     Davidson diagonalization with overlap
     ethr =  5.68E-13,  avg # of iterations =  3.4

     negative rho (up, down):  5.797E-06 0.000E+00

     total cpu time spent up to now is     1049.1 secs

     End of self-consistent calculation

          k = 0.0000-0.0000 0.0000 ( 29123 PWs)   bands (ev):

   -14.3384 -14.0050 -13.4497 -12.6526 -11.6081 -10.3458  -9.8715  -9.8678
    -9.5200  -9.4927  -9.1100  -9.0011  -8.7033  -8.3498  -8.3438  -7.1882
    -5.8779  -5.8545  -5.4971  -4.8010  -4.7926  -3.7950  -3.5136  -3.5133
    -2.1272  -2.1076  -2.0203  -0.4380  -0.4230  -0.2427   0.7754   0.8404
     1.0740   1.1293   1.1306   1.2771   1.4771   1.6002   1.9225   2.3543
     2.5113   2.6358   2.9373   3.1312   3.2983   3.6392   3.8310   3.9910
     3.9933   4.0729   4.0830   4.0871   4.1603   4.1677   4.2058   4.3826
     4.4058   4.6065   4.8015   4.8015   5.3632   5.5445   5.8052   6.4415
     6.5291   6.6337   9.3254   9.8217  11.1479  11.1878  11.3699  11.4179
    11.6276  11.8080  12.1508  12.2185  12.3240  12.4387  12.5270

          k = 0.0000-0.1000 0.0000 ( 29153 PWs)   bands (ev):

   -14.1589 -13.8371 -13.2982 -12.5237 -11.5423 -11.3821 -10.9558 -10.4635
   -10.1038  -9.4971  -8.8352  -8.4072  -8.1788  -7.8908  -7.8582  -7.0013
    -5.6149  -5.4486  -5.2899  -4.5671  -4.4579  -3.7741  -3.3511  -3.1560
    -2.2600  -1.9971  -1.6145  -0.6084  -0.4134  -0.1572   0.0530   0.4740
     0.8858   0.9220   1.1943   1.2042   1.3200   1.4946   1.7088   2.2483
     2.4183   2.4344   2.7310   2.9107   3.0327   3.2894   3.3671   3.5287
     3.6833   3.6951   3.9822   4.0725   4.1188   4.3277   4.3357   4.4804
     4.5230   4.8050   5.0251   5.1355   5.2018   5.2494   5.6341   6.1028
     6.1901   6.4728   9.5455  10.0346  11.5954  11.7799  11.7838  12.0292
    12.1139  12.2781  12.3697  12.5635  12.6051  12.8158  12.8926

          k = 0.0000-0.2000 0.0000 ( 29117 PWs)   bands (ev):

   -13.6362 -13.3869 -12.9706 -12.6216 -12.3184 -11.9733 -11.5245 -11.0658
   -10.5261  -9.8942  -9.2667  -8.5346  -7.9080  -7.3144  -6.7299  -6.5252
    -4.9510  -4.5846  -4.4963  -4.1325  -3.7621  -3.4550  -2.9844  -2.6832
    -2.2684  -1.9310  -1.5367  -1.3635  -1.1492  -0.8432  -0.3852  -0.0456
     0.2128   0.5344   1.1015   1.3070   1.3345   1.5304   1.7341   1.9030
     2.1566   2.1934   2.4982   2.6545   2.7728   2.7816   3.1249   3.2238
     3.3142   3.4548   3.7916   3.9976   4.0709   4.2047   4.4418   4.4852
     4.6057   4.7466   4.9486   5.0147   5.3726   5.4097   5.4148   5.6828
     5.8388   6.2602  10.1736  10.5974  11.1977  11.5076  12.0756  12.2316
    12.3279  12.4275  12.6156  12.9854  13.1162  13.2352  13.4052

          k = 0.1111-0.0000 0.0000 ( 29137 PWs)   bands (ev):

   -14.1118 -13.7791 -13.2252 -12.4307 -11.3901 -10.1339  -9.6556  -9.6520
    -9.3070  -9.2802  -8.9027  -8.7945  -8.5027  -8.1453  -8.1397  -6.9984
    -5.6832  -5.6554  -5.4063  -4.6182  -4.6121  -3.7111  -3.3580  -3.3577
    -2.1024  -1.9999  -1.9832  -0.7163  -0.3826  -0.3192  -0.2132   0.2578
     0.2662   1.0254   1.0939   1.1069   1.2678   1.3877   1.4463   2.0498
     2.3690   2.4049   2.5363   2.6175   2.9403   3.0956   3.1031   3.1106
     3.1422   3.2888   3.2924   3.5435   3.6824   3.7094   3.7825   3.9431
     3.9616   4.0701   4.0938   4.3725   5.1248   5.1415   5.3747   6.0215
     6.1457   6.3633   9.5540  10.0258  11.8475  11.8496  11.9203  12.0081
    12.3296  12.4651  12.6550  12.8613  12.9848  13.1177  13.1406

          k = 0.1111-0.1000 0.0000 ( 29122 PWs)   bands (ev):

   -13.9326 -13.6116 -13.0741 -12.3020 -11.3238 -11.1623 -10.7377 -10.2489
    -9.8928  -9.2893  -8.6330  -8.2087  -7.9724  -7.6881  -7.6537  -6.8114
    -5.4491  -5.2590  -5.1678  -4.3978  -4.2823  -3.6788  -3.2195  -3.0008
    -2.1844  -1.9694  -1.4776  -0.7501  -0.4262  -0.1938  -0.0259   0.1020
     0.3039   0.3475   0.6358   0.9443   1.1185   1.2772   1.4152   1.6268
     2.0098   2.1446   2.1710   2.1989   2.5349   2.7015   2.8424   3.0001
     3.0416   3.1443   3.3511   3.5936   3.7446   3.9028   3.9656   4.0377
     4.1198   4.1940   4.2943   4.3592   4.5537   5.2299   5.2708   5.3305
     6.0780   6.2093   9.7730  10.2343  11.9624  12.3943  12.4252  12.7392
    12.7876  12.8188  12.8917  12.9438  13.0792  13.3180  13.3618

          k = 0.1111-0.2000 0.0000 ( 29082 PWs)   bands (ev):

   -13.4110 -13.1623 -12.7472 -12.3986 -12.0964 -11.7524 -11.3056 -10.8496
   -10.3129  -9.6852  -9.0622  -8.3355  -7.7140  -7.1223  -6.5355  -6.3304
    -4.8548  -4.4359  -4.3477  -4.0015  -3.6167  -3.3059  -2.8260  -2.5444
    -2.0898  -1.7892  -1.3782  -1.2546  -1.0305  -0.7435  -0.4066  -0.0896
     0.1566   0.2540   0.3107   0.6096   0.8979   0.9379   1.1773   1.2785
     1.4305   1.6554   1.8398   2.0249   2.2223   2.3722   2.4890   2.8087
     2.8284   3.1045   3.2417   3.2861   3.6669   3.7089   3.9619   4.0617
     4.3060   4.5017   4.6269   4.6638   4.7734   4.8317   5.0521   5.2423
     5.5625   5.6000  10.3974  10.7890  11.4042  11.6736  12.0869  12.3024
    12.8842  13.0238  13.2730  13.5838  13.7106  13.7618  13.8954

          k = 0.2222-0.0000 0.0000 ( 29090 PWs)   bands (ev):

   -13.4352 -13.1051 -12.5561 -11.7702 -10.7446  -9.5122  -9.0119  -9.0089
    -8.6730  -8.6477  -8.2915  -8.1803  -7.9253  -7.5368  -7.5326  -6.4870
    -5.4821  -5.0913  -5.0894  -4.1249  -4.1239  -3.9065  -3.0962  -2.9889
    -2.9558  -2.3006  -2.0961  -1.8510  -1.8477  -1.5258  -1.1253  -0.4168
    -0.1289  -0.0842   0.0999   0.5839   0.5922   0.9745   0.9847   1.1324
     1.1706   1.2040   1.4434   1.5636   1.7102   1.7142   1.9360   2.0574
     2.0605   2.3844   2.4434   2.5282   2.6010   2.7040   2.9398   3.2121
     3.3031   3.3456   3.6565   4.0527   4.3948   4.4483   5.0837   5.1278
     5.3396   6.0698  10.1936  10.5424  12.5079  12.5648  12.7433  12.8736
    13.0688  13.2204  13.3031  13.4121  13.4889  13.5117  13.5680

          k = 0.2222-0.1000 0.0000 ( 29080 PWs)   bands (ev):

   -13.2571 -12.9386 -12.4060 -11.6423 -10.6754 -10.5071 -10.0885  -9.6138
    -9.2703  -8.6757  -8.0431  -7.6346  -7.3605  -7.0883  -7.0461  -6.2962
    -5.3425  -4.7927  -4.7076  -3.9933  -3.9139  -3.7249  -3.1044  -2.8502
    -2.5808  -2.1445  -1.9531  -1.8694  -1.4585  -1.1648  -1.0157  -0.6679
    -0.4275  -0.3543   0.0812   0.2214   0.3223   0.6495   0.7117   0.8994
     0.9210   1.1498   1.3104   1.5405   1.6080   1.6849   1.8686   1.9750
     2.0417   2.2459   2.4477   2.5526   2.6589   2.8525   2.9015   3.0755
     3.2182   3.3363   3.5427   3.7099   4.2195   4.2527   4.5033   5.0935
     5.4054   5.4792  10.3990  10.7327  12.3251  12.5124  12.7709  12.7810
    12.8189  13.0123  13.4663  13.7138  13.7360  13.8534  13.9289

          k = 0.2222-0.2000 0.0000 ( 29067 PWs)   bands (ev):

   -12.7385 -12.4920 -12.0807 -11.7336 -11.4351 -11.0949 -10.6547 -10.2081
    -9.6823  -9.0697  -8.4635  -7.7579  -7.1624  -6.5769  -5.9832  -5.7682
    -4.8672  -4.2672  -4.0705  -3.7664  -3.3944  -3.0107  -2.6756  -2.3004
    -1.9283  -1.7228  -1.6179  -1.5490  -1.3624  -1.2733  -1.2280  -0.9158
    -0.7114  -0.6987  -0.6127  -0.2691  -0.2130   0.0537   0.1586   0.3367
     0.5463   0.7259   0.8857   1.1025   1.2347   1.4645   1.6923   1.9294
     2.1169   2.3169   2.4540   2.5222   2.7902   2.8971   3.0435   3.1435
     3.2095   3.4858   3.6028   3.7815   3.9639   4.1216   4.3130   4.4798
     4.8423   4.8616  10.9494  11.2232  11.6057  11.7831  11.9204  12.1572
    12.4357  12.9708  13.1354  13.4350  13.9119  14.1662  14.6060

          k = 0.3333-0.0000 0.0000 ( 29134 PWs)   bands (ev):

   -12.3207 -11.9963 -11.4591 -10.6961  -9.7165  -8.5848  -7.9549  -7.9531
    -7.6511  -7.6172  -7.4896  -7.1924  -7.1610  -6.5544  -6.5497  -6.5032
    -6.4594  -5.0158  -4.7751  -4.4918  -4.3462  -4.2500  -3.7327  -3.6222
    -3.4790  -3.1534  -3.1424  -2.4100  -2.3945  -2.3931  -2.3402  -1.4443
    -1.0438  -0.9219  -0.8503  -0.8117  -0.8111  -0.4249  -0.4227   0.0980
     0.1214   0.1831   0.4030   0.9790   0.9864   1.1924   1.2337   1.3922
     1.4018   1.5894   2.1643   2.1730   2.3012   2.4327   2.4544   2.6208
     2.8280   3.3242   3.3332   3.3733   3.9291   4.2647   4.2896   4.5495
     5.0997   5.4623  11.2015  11.3919  12.3237  12.3336  12.8069  12.8306
    13.1471  13.1629  13.4288  13.6598  13.7348  13.7442  13.8028

          k = 0.3333-0.1000 0.0000 ( 29139 PWs)   bands (ev):

   -12.1444 -11.8316 -11.3106 -10.5688  -9.6365  -9.4325  -9.0280  -8.6126
    -8.3012  -7.7271  -7.2959  -6.9155  -6.4917  -6.3190  -6.2887  -6.0447
    -6.0250  -4.8865  -4.6468  -4.5081  -4.4340  -4.2221  -3.9223  -3.5578
    -3.2793  -2.8849  -2.4211  -2.3137  -2.2674  -1.8702  -1.8309  -1.7136
    -1.4349  -1.4069  -1.0693  -1.0093  -0.7422  -0.3571  -0.2651   0.0969
     0.3782   0.5098   0.5564   1.0959   1.1404   1.3389   1.4571   1.5494
     1.6423   1.7014   1.7559   1.8017   2.1372   2.2106   2.3304   2.4236
     2.6990   2.8337   2.8873   3.4617   3.5201   3.5529   4.2003   4.4485
     4.5074   4.6964  11.3590  11.5103  11.7522  12.4380  12.7086  12.9698
    13.0901  13.2288  13.4645  13.8174  13.8339  14.0202  14.1995

          k = 0.3333-0.2000 0.0000 ( 29094 PWs)   bands (ev):

   -11.6313 -11.3895 -10.9866 -10.6412 -10.3528 -10.0212  -9.5976  -9.1763
    -8.6801  -8.1178  -7.5766  -6.9755  -6.6246  -6.1850  -5.9757  -5.8025
    -4.8874  -4.8194  -4.5380  -4.3563  -4.2924  -3.9725  -3.6366  -3.2295
    -2.8220  -2.3630  -2.1905  -2.0367  -1.9019  -1.8511  -1.5356  -1.3719
    -1.2596  -1.0920  -0.8988  -0.6709  -0.5602  -0.4212  -0.2028  -0.0820
     0.0918   0.1631   0.4366   0.5169   0.7307   0.8587   1.1257   1.4028
     1.5800   1.6583   2.0146   2.0443   2.1605   2.2949   2.3187   2.5169
     2.5440   2.7377   2.8394   2.8873   3.0391   3.2335   3.4771   3.5146
     3.8189   3.8223  11.3393  11.6022  11.7492  11.9394  12.3952  12.7286
    12.8020  13.1327  13.4966  13.6295  13.9037  14.0164  14.2178

          k = 0.4444-0.0000 0.0000 ( 29202 PWs)   bands (ev):

   -10.7982 -10.4914  -9.9964  -9.3478  -8.9626  -8.7428  -8.7401  -7.5296
    -7.4098  -6.5125  -6.5124  -6.2222  -6.2137  -5.9647  -5.8664  -5.7715
    -5.6393  -5.2620  -5.2603  -4.9772  -4.7866  -4.7730  -4.6911  -4.5805
    -4.5730  -4.3713  -4.3630  -3.5071  -3.5070  -3.4601  -3.1803  -1.8527
    -1.5276  -1.5108  -1.3640  -0.9371  -0.9262  -0.4945  -0.3673  -0.2700
    -0.1857  -0.1393   0.2154   0.2572   0.2826   0.4943   0.5499   0.8352
     0.8413   1.2922   1.4665   1.7192   1.7194   2.0523   2.1459   2.8522
     2.8710   3.4598   3.6766   3.8264   3.8307   3.9454   4.2092   4.4105
     4.5359   4.5562  11.9761  11.9811  12.2855  12.2875  12.5311  12.5960
    13.1303  13.1340  13.3120  13.3156  14.0794  14.1350  14.4398

          k = 0.4444-0.1000 0.0000 ( 29157 PWs)   bands (ev):

   -10.6249 -10.3294  -9.8496  -9.2154  -8.7967  -8.6007  -8.5791  -7.9807
    -7.6689  -7.4745  -7.3252  -6.9850  -6.5073  -6.2310  -6.1437  -6.0684
    -5.6062  -5.4952  -4.8711  -4.6998  -4.6493  -4.6099  -4.4926  -4.3634
    -4.0590  -3.5968  -3.4361  -3.2599  -3.0922  -2.9870  -2.9492  -1.8938
    -1.7953  -1.6657  -1.3209  -1.0822  -1.0000  -0.5028  -0.3385  -0.1223
     0.2018   0.3405   0.4136   0.4512   0.5992   0.7358   0.8067   1.0552
     1.1202   1.3752   1.4279   1.6736   1.7253   2.1804   2.1917   2.5856
     2.6922   2.7396   3.0823   3.2712   3.3146   3.6513   3.6876   3.6901
     3.8055   3.8457  11.5810  12.1720  12.3399  12.5367  12.6485  12.8947
    13.0293  13.1395  13.5141  13.8646  13.9831  14.0995  14.4125

          k = 0.4444-0.2000 0.0000 ( 29103 PWs)   bands (ev):

   -10.1204  -9.8937  -9.5180  -9.1641  -8.9276  -8.6205  -8.3635  -8.2241
    -8.1190  -8.0238  -7.6063  -7.4118  -7.1807  -7.1296  -7.0494  -6.9830
    -5.2583  -5.2142  -4.8953  -4.7117  -4.5634  -4.2379  -4.1954  -3.8729
    -3.6718  -3.4897  -3.1870  -3.0298  -2.5743  -2.1803  -1.7911  -1.5198
    -1.1560  -1.0161  -0.9297  -0.6745  -0.4755  -0.2968  -0.0351   0.0377
     0.2076   0.3153   0.4733   0.7394   0.8963   1.0013   1.1968   1.3132
     1.5022   1.5835   1.6069   1.6762   1.7613   1.7862   1.8451   1.9122
     1.9883   2.1857   2.2307   2.2579   2.4854   2.5680   2.6816   2.7063
     3.0029   3.0078  11.8460  12.0144  12.4166  12.6290  12.8215  12.9265
    13.1382  13.2164  13.4532  13.5122  13.8006  13.8652  13.9150

     the Fermi energy is     8.0502 ev

!    total energy              =    -594.55215132 Ry
     estimated scf accuracy    <          1.6E-10 Ry
     smearing contrib. (-TS)   =       0.00000000 Ry
     internal energy E=F+TS    =    -594.55215132 Ry

     The total energy is F=E-TS. E is the sum of the following terms:
     one-electron contribution =   -4697.20405332 Ry
     hartree contribution      =    2419.37067225 Ry
     xc contribution           =    -152.44364514 Ry
     ewald contribution        =    2032.93997840 Ry
     one-center paw contrib.   =    -197.21510351 Ry

     convergence has been achieved in   8 iterations

     negative rho (up, down):  5.797E-06 0.000E+00

     Forces acting on atoms (cartesian axes, Ry/au):

     atom    1 type  1   force =     0.00000000    0.00031584   -0.00049697
     atom    2 type  1   force =    -0.00000000    0.00034886   -0.00039258
     atom    3 type  1   force =     0.00000000   -0.00017610    0.00007261
     atom    4 type  1   force =     0.00000000   -0.00018041    0.00027963
     atom    5 type  1   force =     0.00000000   -0.00051865   -0.00023641
     atom    6 type  1   force =     0.00000000   -0.00062428   -0.00015734
     atom    7 type  1   force =     0.00000000   -0.00002934    0.00120879
     atom    8 type  1   force =     0.00000000   -0.00008055    0.00078627
     atom    9 type  1   force =     0.00000000    0.00008055   -0.00078627
     atom   10 type  1   force =     0.00000000    0.00002934   -0.00120879
     atom   11 type  1   force =     0.00000000    0.00062428    0.00015734
     atom   12 type  1   force =     0.00000000    0.00051865    0.00023641
     atom   13 type  1   force =     0.00000000    0.00018041   -0.00027963
     atom   14 type  1   force =     0.00000000    0.00017610   -0.00007261
     atom   15 type  1   force =    -0.00000000   -0.00034886    0.00039258
     atom   16 type  1   force =    -0.00000000   -0.00031584    0.00049697
     atom   17 type  1   force =     0.00000000   -0.00032680   -0.00050217
     atom   18 type  1   force =     0.00000000   -0.00036120   -0.00045406
     atom   19 type  1   force =     0.00000000    0.00019456   -0.00004771
     atom   20 type  1   force =     0.00000000    0.00021209    0.00012985
     atom   21 type  1   force =     0.00000000    0.00049056    0.00064893
     atom   22 type  1   force =     0.00000000    0.00060111    0.00063383
     atom   23 type  1   force =     0.00000000    0.00005155   -0.00069352
     atom   24 type  1   force =     0.00000000    0.00007057   -0.00075913
     atom   25 type  1   force =     0.00000000   -0.00007057    0.00075913
     atom   26 type  1   force =     0.00000000   -0.00005155    0.00069352
     atom   27 type  1   force =     0.00000000   -0.00060111   -0.00063383
     atom   28 type  1   force =     0.00000000   -0.00049056   -0.00064893
     atom   29 type  1   force =     0.00000000   -0.00021209   -0.00012985
     atom   30 type  1   force =     0.00000000   -0.00019456    0.00004771
     atom   31 type  1   force =     0.00000000    0.00036120    0.00045406
     atom   32 type  1   force =     0.00000000    0.00032680    0.00050217
     atom   33 type  2   force =     0.00000000   -0.00056992   -0.00050117
     atom   34 type  2   force =     0.00000000    0.00059155   -0.00033715
     atom   35 type  2   force =     0.00000000    0.00056992    0.00050117
     atom   36 type  2   force =     0.00000000   -0.00059155    0.00033715

     Total force =     0.003981     Total SCF correction =     0.000029
     Energy error            =      3.0E-05 Ry
     Gradient error          =      1.2E-03 Ry/Bohr

     number of scf cycles    =  16
     number of bfgs steps    =  15

     energy             old  =    -594.5521208605 Ry
     energy             new  =    -594.5521513202 Ry

     CASE: energy            _new < energy            _old

     new trust radius        =       0.0052242795 bohr
     new conv_thr            =       0.0000000003 Ry


ATOMIC_POSITIONS (angstrom)
C                0.0000000000       -1.7150910561       18.3464891384
C                1.2634728900       -1.3540448802       17.5351132151
C                1.2634728900        0.0001685658       16.7250855201
C                0.0000000000        0.0002105482       15.7947910976
C                0.0000000000       -1.2472164779       14.8437938980
C                1.2634728900       -1.2472617210       13.9503139469
C                1.2634728900        0.0018393931       13.0485273591
C                0.0000000000        0.0016277586       12.1581983701
C                0.0000000000       -1.2651006486       11.2772042199
C                1.2634728900       -1.2653122831       10.3868752309
C                1.2634728900       -0.0162111690        9.4850886431
C               -0.0000000000       -0.0162564121        8.5916086920
C                0.0000000000       -1.2636834382        7.6406114924
C                1.2634728900       -1.2636414558        6.7103170699
C                1.2634728900        0.0905719902        5.9002893749
C               -0.0000000000        0.4516181661        5.0889134516
C               -0.0000000000       -3.3385988634       18.3464697017
C                1.2634728900       -3.6996625105       17.5352219872
C                1.2634728900       -2.5269302016       16.5386528839
C               -0.0000000000       -2.5269367415       15.6838636056
C                0.0000000000       -3.8064956371       14.8442668416
C                1.2634728900       -3.8064097276       13.9515503112
C                1.2634728900       -2.5286599481       13.0664680738
C                0.0000000000       -2.5284946791       12.1704613945
C                0.0000000000       -3.7888697809       11.2649411955
C                1.2634728900       -3.7887045119       10.3689345162
C                1.2634728900       -2.5109547324        9.4838522788
C                0.0000000000       -2.5108688229        8.5911357484
C                0.0000000000       -3.7904277185        7.7515389844
C                1.2634728900       -3.7904342584        6.8967497061
C                1.2634728900       -2.6177019495        5.9001806028
C                0.0000000000       -2.9787655966        5.0889328883
H                0.0000000000       -1.2857441128       19.3595342089
H               -0.0000000000       -3.7684574442       19.3592696344
H               -0.0000000000        0.0222712228        4.0758683711
H               -0.0000000000       -2.5489070158        4.0761329456



     Writing config-only to output data dir /tmp/qe/slab.save/ :
     XML data file
     NEW-OLD atomic charge density approx. for the potential

     Check: negative core charge=   -0.000001

     negative rho (up, down):  5.940E-06 0.000E+00

     total cpu time spent up to now is     1051.3 secs

     Self-consistent Calculation

     iteration #  1     ecut=    90.00 Ry     beta= 0.30
     Davidson diagonalization with overlap
     ethr =  1.00E-06,  avg # of iterations =  3.0
