
     Program PWSCF v.7.3.1 starts on  1Aug2026 at 12:48:22 

     This program is part of the open-source Quantum ESPRESSO suite
     for quantum simulation of materials; please cite
         "P. Giannozzi et al., J. Phys.:Condens. Matter 21 395502 (2009);
         "P. Giannozzi et al., J. Phys.:Condens. Matter 29 465901 (2017);
         "P. Giannozzi et al., J. Chem. Phys. 152 154105 (2020);
          URL http://www.quantum-espresso.org", 
     in publications or presentations arising from this work. More details at
     http://www.quantum-espresso.org/quote

     Parallel version (MPI), running on     8 processors

     MPI processes distributed on     1 nodes
     183228 MiB available memory on the printing compute node when the environment starts

     Reading input from pw.in

     Current dimensions of program PWSCF are:
     Max number of different atomic species (ntypx) = 10
     Max number of k-points (npk) =  40000
     Max angular momentum in pseudopotentials (lmaxx) =  4
     file C.pbe-n-kjpaw_psl.1.0.0.UPF: wavefunction(s)  2S 2P renormalized
     Message from routine setup:
     using ibrav=0 with symmetry is DISCOURAGED, use correct ibrav instead

     R & G space division:  proc/nbgrp/npool/nimage =       8
     Subspace diagonalization in iterative solution of the eigenvalue problem:
     a serial algorithm will be used


     Parallelization info
     --------------------
     sticks:   dense  smooth     PW     G-vecs:    dense   smooth      PW
     Min         141      69     20                28649    10089    1642
     Max         142      70     21                28678    10128    1675
     Sum        1135     559    163               229365    80945   13227

     Using Slab Decomposition



     bravais-lattice index     =            0
     lattice parameter (alat)  =       4.7752  a.u.
     unit-cell volume          =     702.4116 (a.u.)^3
     number of atoms/cell      =            8
     number of atomic types    =            2
     number of electrons       =        26.00
     number of Kohn-Sham states=           17
     kinetic-energy cutoff     =      90.0000  Ry
     charge density cutoff     =     720.0000  Ry
     scf convergence threshold =      1.0E-08
     mixing beta               =       0.3000
     number of iterations used =            8  plain     mixing
     Exchange-correlation= PBE
                           (   1   4   3   4   0   0   0)

     celldm(1)=   4.775235  celldm(2)=   0.000000  celldm(3)=   0.000000
     celldm(4)=   0.000000  celldm(5)=   0.000000  celldm(6)=   0.000000

     crystal axes: (cart. coord. in units of alat)
               a(1) = (   1.000000   0.000000   0.000000 )  
               a(2) = (   0.500000   0.866025   0.000000 )  
               a(3) = (   0.000000   0.000000   7.448635 )  

     reciprocal axes: (cart. coord. in units 2 pi/alat)
               b(1) = (  1.000000 -0.577350  0.000000 )  
               b(2) = (  0.000000  1.154701  0.000000 )  
               b(3) = (  0.000000  0.000000  0.134253 )  


     PseudoPot. # 1 for C  read from file:
     ./C.pbe-n-kjpaw_psl.1.0.0.UPF
     MD5 check sum: 5d2aebdfa2cae82b50a7e79e9516da0f
     Pseudo is Projector augmented-wave + core cor, Zval =  4.0
     Generated using "atomic" code by A. Dal Corso  v.5.1
     Shape of augmentation charge: PSQ
     Using radial grid of 1073 points,  4 beta functions with: 
                l(1) =   0
                l(2) =   0
                l(3) =   1
                l(4) =   1
     Q(r) pseudized with 0 coefficients 


     PseudoPot. # 2 for H  read from file:
     ./H_ONCV_PBE-1.0.oncvpsp.upf
     MD5 check sum: 1790becc920ee074925cf490c71280fe
     Pseudo is Norm-conserving, Zval =  1.0
     Generated using ONCVPSP code by D. R. Hamann
     Using radial grid of 1166 points,  2 beta functions with: 
                l(1) =   0
                l(2) =   0

     atomic species   valence    mass     pseudopotential
     C                 4.00    12.01100     C ( 1.00)
     H                 1.00     1.00800     H ( 1.00)

      6 Sym. Ops. (no inversion) found



   Cartesian axes

     site n.     atom                  positions (alat units)
         1        C      tau(   1) = (   0.5000000   0.2886751   3.8425963  )
         2        C      tau(   2) = (   1.0000000   0.5773503   3.6495395  )
         3        C      tau(   3) = (   1.0000000   0.5773503   3.0344995  )
         4        C      tau(   4) = (  -0.0000000   0.0000000   2.8311966  )
         5        C      tau(   5) = (   0.0000000   0.0000000   2.2161565  )
         6        C      tau(   6) = (   0.5000000   0.2886751   2.0230997  )
         7        H      tau(   7) = (   0.5000000   0.2886751   4.2814431  )
         8        H      tau(   8) = (   0.5000000   0.2886751   1.5842529  )

     number of k points=    12  Marzari-Vanderbilt smearing, width (Ry)=  0.0100
                       cart. coord. in units 2pi/alat
        k(    1) = (   0.0000000   0.0000000   0.0000000), wk =   0.0246914
        k(    2) = (   0.0000000   0.1283001   0.0000000), wk =   0.1481481
        k(    3) = (   0.0000000   0.2566001   0.0000000), wk =   0.1481481
        k(    4) = (   0.0000000   0.3849002   0.0000000), wk =   0.1481481
        k(    5) = (   0.0000000   0.5132002   0.0000000), wk =   0.1481481
        k(    6) = (   0.1111111   0.1924501   0.0000000), wk =   0.1481481
        k(    7) = (   0.1111111   0.3207501   0.0000000), wk =   0.2962963
        k(    8) = (   0.1111111   0.4490502   0.0000000), wk =   0.2962963
        k(    9) = (   0.1111111  -0.5773503   0.0000000), wk =   0.1481481
        k(   10) = (   0.2222222   0.3849002   0.0000000), wk =   0.1481481
        k(   11) = (   0.2222222  -0.6415003   0.0000000), wk =   0.2962963
        k(   12) = (   0.3333333  -0.5773503   0.0000000), wk =   0.0493827

     Dense  grid:   229365 G-vectors     FFT dimensions: (  45,  45, 320)

     Smooth grid:    80945 G-vectors     FFT dimensions: (  30,  30, 216)

     Estimated max dynamical RAM per process >      50.76 MB

     Estimated total dynamical RAM >     406.08 MB

     Initial potential from superposition of free atoms

     starting charge      25.9997, renormalised to      26.0000

     negative rho (up, down):  1.332E-05 0.000E+00
     Starting wfcs are   26 randomized atomic wfcs
     Checking if some PAW data can be deallocated... 

     total cpu time spent up to now is       86.1 secs

     Self-consistent Calculation

     iteration #  1     ecut=    90.00 Ry     beta= 0.30
     Davidson diagonalization with overlap
     ethr =  1.00E-02,  avg # of iterations =  2.9

     negative rho (up, down):  1.413E-05 0.000E+00

     total cpu time spent up to now is      179.1 secs

     total energy              =    -113.01859490 Ry
     estimated scf accuracy    <       0.60358944 Ry

     iteration #  2     ecut=    90.00 Ry     beta= 0.30
     Davidson diagonalization with overlap
     ethr =  2.32E-03,  avg # of iterations =  3.2

     negative rho (up, down):  1.669E-05 0.000E+00

     total cpu time spent up to now is      258.4 secs

     total energy              =    -112.97893286 Ry
     estimated scf accuracy    <       0.18564998 Ry

     iteration #  3     ecut=    90.00 Ry     beta= 0.30
     Davidson diagonalization with overlap
     ethr =  7.14E-04,  avg # of iterations =  5.1

     negative rho (up, down):  1.705E-05 0.000E+00

     total cpu time spent up to now is      351.4 secs

     total energy              =    -112.98516651 Ry
     estimated scf accuracy    <       0.02646943 Ry

     iteration #  4     ecut=    90.00 Ry     beta= 0.30
     Davidson diagonalization with overlap
     ethr =  1.02E-04,  avg # of iterations =  3.8

     negative rho (up, down):  1.898E-05 0.000E+00

     total cpu time spent up to now is      433.0 secs

     total energy              =    -112.98629901 Ry
     estimated scf accuracy    <       0.00318205 Ry

     iteration #  5     ecut=    90.00 Ry     beta= 0.30
     Davidson diagonalization with overlap
     ethr =  1.22E-05,  avg # of iterations =  6.3

     negative rho (up, down):  1.868E-05 0.000E+00

     total cpu time spent up to now is      541.8 secs

     total energy              =    -112.98674482 Ry
     estimated scf accuracy    <       0.00020758 Ry

     iteration #  6     ecut=    90.00 Ry     beta= 0.30
     Davidson diagonalization with overlap
     ethr =  7.98E-07,  avg # of iterations =  3.3

     negative rho (up, down):  1.975E-05 0.000E+00

     total cpu time spent up to now is      630.9 secs

     total energy              =    -112.98677024 Ry
     estimated scf accuracy    <       0.00006871 Ry

     iteration #  7     ecut=    90.00 Ry     beta= 0.30
     Davidson diagonalization with overlap
     ethr =  2.64E-07,  avg # of iterations =  2.2

     negative rho (up, down):  1.961E-05 0.000E+00

     total cpu time spent up to now is      715.4 secs

     total energy              =    -112.98678353 Ry
     estimated scf accuracy    <       0.00001846 Ry

     iteration #  8     ecut=    90.00 Ry     beta= 0.30
     Davidson diagonalization with overlap
     ethr =  7.10E-08,  avg # of iterations =  1.8

     negative rho (up, down):  1.982E-05 0.000E+00

     total cpu time spent up to now is      784.6 secs

     total energy              =    -112.98678488 Ry
     estimated scf accuracy    <       0.00000253 Ry

     iteration #  9     ecut=    90.00 Ry     beta= 0.30
     Davidson diagonalization with overlap
     ethr =  9.72E-09,  avg # of iterations =  2.4

     negative rho (up, down):  1.990E-05 0.000E+00

     total cpu time spent up to now is      870.9 secs

     total energy              =    -112.98678530 Ry
     estimated scf accuracy    <       0.00000071 Ry

     iteration # 10     ecut=    90.00 Ry     beta= 0.30
     Davidson diagonalization with overlap
     ethr =  2.73E-09,  avg # of iterations =  2.0

     negative rho (up, down):  1.994E-05 0.000E+00

     total cpu time spent up to now is      945.5 secs

     total energy              =    -112.98678538 Ry
     estimated scf accuracy    <       0.00000007 Ry

     iteration # 11     ecut=    90.00 Ry     beta= 0.30
     Davidson diagonalization with overlap
     ethr =  2.84E-10,  avg # of iterations =  2.8

     negative rho (up, down):  1.998E-05 0.000E+00

     total cpu time spent up to now is     1026.4 secs

     total energy              =    -112.98678539 Ry
     estimated scf accuracy    <       0.00000002 Ry

     iteration # 12     ecut=    90.00 Ry     beta= 0.30
     Davidson diagonalization with overlap
     ethr =  9.44E-11,  avg # of iterations =  2.1

     negative rho (up, down):  2.010E-05 0.000E+00

     total cpu time spent up to now is     1105.7 secs

     End of self-consistent calculation

          k = 0.0000 0.0000 0.0000 ( 10073 PWs)   bands (ev):

   -18.4482 -16.9606 -14.7292  -9.9060  -6.8271  -2.9335  -0.0283  -0.0283
     0.5547   0.8289   0.8289   1.9144   1.9144   4.8270   5.0210   6.3741
     7.3524

          k = 0.0000 0.1283 0.0000 ( 10147 PWs)   bands (ev):

   -18.1476 -16.6660 -14.4473  -9.6362  -6.6010  -2.8097  -1.4366  -0.6500
    -0.5195   0.3015   0.4448   0.7737   1.4741   5.1658   5.2753   6.6288
     7.7346

          k = 0.0000 0.2566 0.0000 ( 10111 PWs)   bands (ev):

   -17.2518 -15.7901 -13.6112  -8.8854  -6.0167  -4.4066  -3.2936  -2.4705
    -1.8695  -1.8201  -0.7766   0.2392   0.4981   5.9884   6.1218   7.4629
     8.1660

          k = 0.0000 0.3849 0.0000 ( 10138 PWs)   bands (ev):

   -15.7860 -14.3664 -12.2728  -8.3809  -7.3202  -6.0630  -5.4227  -4.1965
    -2.8138  -2.3966  -1.7298  -0.4576  -0.4062   6.9720   7.4167   8.0034
     8.8951

          k = 0.0000 0.5132 0.0000 ( 10148 PWs)   bands (ev):

   -13.8502 -12.6331 -11.2401  -9.7698  -9.5696  -7.7268  -5.4267  -4.1451
    -3.3551  -2.9883  -2.2560  -0.9917  -0.9136   7.3850   8.1105   8.7585
     9.2467

          k = 0.1111 0.1925 0.0000 ( 10121 PWs)   bands (ev):

   -17.5493 -16.0807 -13.8880  -9.1219  -6.1865  -3.2110  -2.6152  -2.5245
    -1.6098  -1.3212  -0.2158  -0.1993   0.7671   5.8061   5.8089   7.2463
     8.4503

          k = 0.1111 0.3208 0.0000 ( 10100 PWs)   bands (ev):

   -16.3673 -14.9283 -12.7938  -8.3037  -6.0430  -5.4933  -4.6385  -3.8861
    -2.7629  -2.3422  -2.1057  -1.1409   0.1473   6.8352   6.9678   8.4989
     8.8037

          k = 0.1111 0.4491 0.0000 ( 10118 PWs)   bands (ev):

   -14.6492 -13.2832 -11.3186  -9.1723  -8.2658  -6.4706  -5.8861  -4.2113
    -3.9939  -3.2169  -2.5253  -1.7066  -0.7196   7.7797   8.4526   9.0988
     9.9076

          k = 0.1111-0.5774 0.0000 ( 10158 PWs)   bands (ev):

   -12.8718 -12.3360 -11.1174 -10.1840  -9.0541  -8.4971  -4.8896  -4.5937
    -4.1587  -3.2305  -3.1733  -1.7489  -1.2171   8.0833   8.9588   9.8141
    10.0906

          k = 0.2222 0.3849 0.0000 ( 10105 PWs)   bands (ev):

   -14.9266 -13.5371 -11.4977  -8.3679  -7.1648  -6.3920  -5.5299  -4.9686
    -4.2911  -3.4715  -3.2485  -2.1978  -0.6290   7.9408   8.3543   9.6280
    10.0626

          k = 0.2222-0.6415 0.0000 ( 10155 PWs)   bands (ev):

   -13.0428 -11.8725 -10.4997  -9.5362  -8.9757  -7.6958  -6.0084  -5.6341
    -4.5892  -4.1946  -3.2901  -2.4702  -1.6123   8.6144   9.2645  10.4743
    10.6399

          k = 0.3333-0.5774 0.0000 ( 10191 PWs)   bands (ev):

   -11.4365 -11.4365 -10.3277 -10.0238  -8.5983  -8.5983  -6.4788  -6.1811
    -6.1811  -3.4393  -2.8583  -2.8583  -2.5506   9.2180   9.2180   9.8688
    11.5666

     the Fermi energy is     2.6971 ev

!    total energy              =    -112.98678538 Ry
     estimated scf accuracy    <          8.7E-09 Ry
     smearing contrib. (-TS)   =       0.00000000 Ry
     internal energy E=F+TS    =    -112.98678538 Ry

     The total energy is F=E-TS. E is the sum of the following terms:
     one-electron contribution =   -1044.77159949 Ry
     hartree contribution      =     531.89798106 Ry
     xc contribution           =     -29.50876285 Ry
     ewald contribution        =     466.37397547 Ry
     one-center paw contrib.   =     -36.97837958 Ry

     convergence has been achieved in  12 iterations

     negative rho (up, down):  2.010E-05 0.000E+00

     Forces acting on atoms (cartesian axes, Ry/au):

     atom    1 type  1   force =     0.00000000    0.00000000   -0.00003267
     atom    2 type  1   force =     0.00000000    0.00000000   -0.00001412
     atom    3 type  1   force =     0.00000000    0.00000000    0.00001570
     atom    4 type  1   force =     0.00000000    0.00000000   -0.00001573
     atom    5 type  1   force =     0.00000000    0.00000000    0.00001416
     atom    6 type  1   force =     0.00000000    0.00000000    0.00003273
     atom    7 type  2   force =     0.00000000    0.00000000   -0.00000643
     atom    8 type  2   force =     0.00000000    0.00000000    0.00000635

     Total force =     0.000056     Total SCF correction =     0.000374
     SCF correction compared to forces is large: reduce conv_thr to get better values


     Computing stress (Cartesian axis) and pressure


     negative rho (up, down):  2.010E-05 0.000E+00
          total   stress  (Ry/bohr**3)                   (kbar)     P=        2.89
   0.00003024   0.00000000   0.00000000            4.45        0.00        0.00
   0.00000000   0.00003024   0.00000000            0.00        4.45        0.00
   0.00000000   0.00000000  -0.00000152            0.00        0.00       -0.22


     Writing all to output data dir /tmp/qe/slab.save/ :
     XML data file, charge density, pseudopotentials, collected wavefunctions

     init_run     :      4.57s CPU     42.30s WALL (       1 calls)
     electrons    :    110.40s CPU   1021.96s WALL (       1 calls)
     forces       :      0.91s CPU      8.32s WALL (       1 calls)
     stress       :      0.98s CPU      8.85s WALL (       1 calls)

     Called by init_run:
     wfcinit      :      3.30s CPU     30.80s WALL (       1 calls)
     potinit      :      0.44s CPU      3.95s WALL (       1 calls)
     hinit0       :      0.20s CPU      1.92s WALL (       1 calls)

     Called by electrons:
     c_bands      :     88.97s CPU    820.54s WALL (      12 calls)
     sum_band     :     13.14s CPU    124.11s WALL (      12 calls)
     v_of_rho     :      1.93s CPU     17.50s WALL (      13 calls)
     newd         :      0.51s CPU      4.76s WALL (      13 calls)
     PAW_pot      :      1.24s CPU     11.32s WALL (      13 calls)
     mix_rho      :      3.76s CPU     35.92s WALL (      12 calls)

     Called by c_bands:
     init_us_2    :      0.13s CPU      0.13s WALL (     324 calls)
     cegterg      :     86.36s CPU    797.04s WALL (     144 calls)

     Called by *egterg:
     cdiaghg      :      2.82s CPU     27.89s WALL (     599 calls)
     h_psi        :     64.96s CPU    597.99s WALL (     611 calls)
     s_psi        :      0.10s CPU      0.10s WALL (     611 calls)
     g_psi        :      0.02s CPU      0.02s WALL (     455 calls)

     Called by h_psi:
     h_psi:calbec :      8.27s CPU     75.94s WALL (     611 calls)
     vloc_psi     :     56.53s CPU    521.90s WALL (     611 calls)
     add_vuspsi   :      0.14s CPU      0.14s WALL (     611 calls)

     General routines
     calbec       :     11.04s CPU    102.24s WALL (     815 calls)
     fft          :      1.18s CPU     11.89s WALL (     192 calls)
     ffts         :      0.22s CPU      2.17s WALL (      25 calls)
     fftw         :     65.83s CPU    619.06s WALL (   15724 calls)
     interpolate  :      0.23s CPU      2.20s WALL (      13 calls)

     Parallel routines

     PWSCF        :   2m16.17s CPU  20m59.18s WALL


   This run was terminated on:  13: 9:21   1Aug2026            

=------------------------------------------------------------------------------=
   JOB DONE.
=------------------------------------------------------------------------------=
Note: The following floating-point exceptions are signalling: IEEE_UNDERFLOW_FLAG IEEE_DENORMAL
Note: The following floating-point exceptions are signalling: IEEE_UNDERFLOW_FLAG IEEE_DENORMAL
Note: The following floating-point exceptions are signalling: IEEE_UNDERFLOW_FLAG IEEE_DENORMAL
Note: The following floating-point exceptions are signalling: IEEE_UNDERFLOW_FLAG IEEE_DENORMAL
Note: The following floating-point exceptions are signalling: IEEE_UNDERFLOW_FLAG IEEE_DENORMAL
Note: The following floating-point exceptions are signalling: IEEE_UNDERFLOW_FLAG IEEE_DENORMAL
Note: The following floating-point exceptions are signalling: IEEE_UNDERFLOW_FLAG IEEE_DENORMAL
Note: The following floating-point exceptions are signalling: IEEE_UNDERFLOW_FLAG IEEE_DENORMAL
