
     Program PWSCF v.7.3.1 starts on  2Aug2026 at 15:43:25 

     This program is part of the open-source Quantum ESPRESSO suite
     for quantum simulation of materials; please cite
         "P. Giannozzi et al., J. Phys.:Condens. Matter 21 395502 (2009);
         "P. Giannozzi et al., J. Phys.:Condens. Matter 29 465901 (2017);
         "P. Giannozzi et al., J. Chem. Phys. 152 154105 (2020);
          URL http://www.quantum-espresso.org", 
     in publications or presentations arising from this work. More details at
     http://www.quantum-espresso.org/quote

     Parallel version (MPI), running on     8 processors

     MPI processes distributed on     1 nodes
     766721 MiB available memory on the printing compute node when the environment starts

     Reading input from pw.in

     Current dimensions of program PWSCF are:
     Max number of different atomic species (ntypx) = 10
     Max number of k-points (npk) =  40000
     Max angular momentum in pseudopotentials (lmaxx) =  4
     file C.pbe-n-kjpaw_psl.1.0.0.UPF: wavefunction(s)  2S 2P renormalized
     Message from routine volume:
     axis vectors are left-handed
     Message from routine setup:
     using ibrav=0 with symmetry is DISCOURAGED, use correct ibrav instead

     R & G space division:  proc/nbgrp/npool/nimage =       8
     Subspace diagonalization in iterative solution of the eigenvalue problem:
     a serial algorithm will be used


     Parallelization info
     --------------------
     sticks:   dense  smooth     PW     G-vecs:    dense   smooth      PW
     Min         230     115     32                40002    14149    2180
     Max         231     116     33                40021    14166    2199
     Sum        1845     921    263               320103   113231   17537

     Using Slab Decomposition



     bravais-lattice index     =            0
     lattice parameter (alat)  =       4.7752  a.u.
     unit-cell volume          =     980.9734 (a.u.)^3
     number of atoms/cell      =           16
     number of atomic types    =            2
     number of electrons       =        52.00
     number of Kohn-Sham states=           31
     kinetic-energy cutoff     =      90.0000  Ry
     charge density cutoff     =     720.0000  Ry
     scf convergence threshold =      1.0E-08
     mixing beta               =       0.3000
     number of iterations used =            8  plain     mixing
     Exchange-correlation= PBE
                           (   1   4   3   4   0   0   0)

     celldm(1)=   4.775235  celldm(2)=   0.000000  celldm(3)=   0.000000
     celldm(4)=   0.000000  celldm(5)=   0.000000  celldm(6)=   0.000000

     crystal axes: (cart. coord. in units of alat)
               a(1) = (   1.000000   0.000000   0.000000 )  
               a(2) = (   0.000000  -1.414214   0.000000 )  
               a(3) = (   0.000000   0.000000   6.370270 )  

     reciprocal axes: (cart. coord. in units 2 pi/alat)
               b(1) = (  1.000000 -0.000000 -0.000000 )  
               b(2) = ( -0.000000 -0.707107 -0.000000 )  
               b(3) = ( -0.000000 -0.000000  0.156979 )  


     PseudoPot. # 1 for C  read from file:
     ./C.pbe-n-kjpaw_psl.1.0.0.UPF
     MD5 check sum: 5d2aebdfa2cae82b50a7e79e9516da0f
     Pseudo is Projector augmented-wave + core cor, Zval =  4.0
     Generated using "atomic" code by A. Dal Corso  v.5.1
     Shape of augmentation charge: PSQ
     Using radial grid of 1073 points,  4 beta functions with: 
                l(1) =   0
                l(2) =   0
                l(3) =   1
                l(4) =   1
     Q(r) pseudized with 0 coefficients 


     PseudoPot. # 2 for H  read from file:
     ./H_ONCV_PBE-1.0.oncvpsp.upf
     MD5 check sum: 1790becc920ee074925cf490c71280fe
     Pseudo is Norm-conserving, Zval =  1.0
     Generated using ONCVPSP code by D. R. Hamann
     Using radial grid of 1166 points,  2 beta functions with: 
                l(1) =   0
                l(2) =   0

     atomic species   valence    mass     pseudopotential
     C                 4.00    12.01100     C ( 1.00)
     H                 1.00     1.00800     H ( 1.00)

      8 Sym. Ops., with inversion, found ( 6 have fractional translation)



   Cartesian axes

     site n.     atom                  positions (alat units)
         1        C      tau(   1) = (  -0.0000000  -0.3611404   4.4247609  )
         2        C      tau(   2) = (   0.5000000  -0.6995197   4.4247609  )
         3        C      tau(   3) = (   0.0000000   0.0011500   3.9360405  )
         4        C      tau(   4) = (   0.5000000  -1.0618102   3.9360405  )
         5        C      tau(   5) = (   0.0000000  -0.3533013   3.4350066  )
         6        C      tau(   6) = (   0.5000000  -0.7073588   3.4350066  )
         7        C      tau(   7) = (   0.0000000  -0.0002520   2.9352634  )
         8        C      tau(   8) = (   0.5000000  -1.0604081   2.9352634  )
         9        C      tau(   9) = (  -0.0000000  -0.3547034   2.4342296  )
        10        C      tau(  10) = (   0.5000000  -0.7059567   2.4342296  )
        11        C      tau(  11) = (  -0.0000000   0.0075871   1.9455091  )
        12        C      tau(  12) = (   0.5000000  -1.0682472   1.9455091  )
        13        H      tau(  13) = (   0.0000000  -0.1238861   4.7893624  )
        14        H      tau(  14) = (   0.5000000  -0.9367741   4.7893624  )
        15        H      tau(  15) = (   0.0000000  -0.2296673   1.5809076  )
        16        H      tau(  16) = (   0.5000000  -0.8309929   1.5809076  )

     number of k points=     9  Marzari-Vanderbilt smearing, width (Ry)=  0.0100
                       cart. coord. in units 2pi/alat
        k(    1) = (   0.0000000  -0.0000000   0.0000000), wk =   0.1000000
        k(    2) = (   0.0000000  -0.1767767   0.0000000), wk =   0.2000000
        k(    3) = (   0.0000000   0.3535534   0.0000000), wk =   0.1000000
        k(    4) = (   0.2000000  -0.0000000   0.0000000), wk =   0.2000000
        k(    5) = (   0.2000000  -0.1767767   0.0000000), wk =   0.4000000
        k(    6) = (   0.2000000   0.3535534   0.0000000), wk =   0.2000000
        k(    7) = (   0.4000000  -0.0000000   0.0000000), wk =   0.2000000
        k(    8) = (   0.4000000  -0.1767767   0.0000000), wk =   0.4000000
        k(    9) = (   0.4000000   0.3535534   0.0000000), wk =   0.2000000

     Dense  grid:   320103 G-vectors     FFT dimensions: (  48,  60, 270)

     Smooth grid:   113231 G-vectors     FFT dimensions: (  30,  48, 192)

     Estimated max dynamical RAM per process >      84.12 MB

     Estimated total dynamical RAM >     672.99 MB

     Initial potential from superposition of free atoms

     starting charge      51.9995, renormalised to      52.0000
     Starting wfcs are   52 randomized atomic wfcs
     Checking if some PAW data can be deallocated... 

     total cpu time spent up to now is        0.8 secs

     Self-consistent Calculation

     iteration #  1     ecut=    90.00 Ry     beta= 0.30
     Davidson diagonalization with overlap
     ethr =  1.00E-02,  avg # of iterations =  2.8

     total cpu time spent up to now is        1.7 secs

     total energy              =    -226.01154818 Ry
     estimated scf accuracy    <       1.19732188 Ry

     iteration #  2     ecut=    90.00 Ry     beta= 0.30
     Davidson diagonalization with overlap
     ethr =  2.30E-03,  avg # of iterations =  4.3

     negative rho (up, down):  1.713E-07 0.000E+00

     total cpu time spent up to now is        2.5 secs

     total energy              =    -225.92367259 Ry
     estimated scf accuracy    <       0.37544241 Ry

     iteration #  3     ecut=    90.00 Ry     beta= 0.30
     Davidson diagonalization with overlap
     ethr =  7.22E-04,  avg # of iterations =  5.8

     negative rho (up, down):  9.321E-07 0.000E+00

     total cpu time spent up to now is        3.5 secs

     total energy              =    -225.93682215 Ry
     estimated scf accuracy    <       0.05210608 Ry

     iteration #  4     ecut=    90.00 Ry     beta= 0.30
     Davidson diagonalization with overlap
     ethr =  1.00E-04,  avg # of iterations =  3.9

     negative rho (up, down):  1.805E-06 0.000E+00

     total cpu time spent up to now is        4.3 secs

     total energy              =    -225.93993386 Ry
     estimated scf accuracy    <       0.00507066 Ry

     iteration #  5     ecut=    90.00 Ry     beta= 0.30
     Davidson diagonalization with overlap
     ethr =  9.75E-06,  avg # of iterations =  9.0

     negative rho (up, down):  1.699E-06 0.000E+00

     total cpu time spent up to now is        5.3 secs

     total energy              =    -225.94051309 Ry
     estimated scf accuracy    <       0.00055446 Ry

     iteration #  6     ecut=    90.00 Ry     beta= 0.30
     Davidson diagonalization with overlap
     ethr =  1.07E-06,  avg # of iterations =  5.1

     negative rho (up, down):  1.826E-06 0.000E+00

     total cpu time spent up to now is        6.3 secs

     total energy              =    -225.94062711 Ry
     estimated scf accuracy    <       0.00007429 Ry

     iteration #  7     ecut=    90.00 Ry     beta= 0.30
     Davidson diagonalization with overlap
     ethr =  1.43E-07,  avg # of iterations =  2.6

     negative rho (up, down):  1.777E-06 0.000E+00

     total cpu time spent up to now is        7.1 secs

     total energy              =    -225.94063308 Ry
     estimated scf accuracy    <       0.00001963 Ry

     iteration #  8     ecut=    90.00 Ry     beta= 0.30
     Davidson diagonalization with overlap
     ethr =  3.77E-08,  avg # of iterations =  2.1

     negative rho (up, down):  1.794E-06 0.000E+00

     total cpu time spent up to now is        7.9 secs

     total energy              =    -225.94063578 Ry
     estimated scf accuracy    <       0.00000298 Ry

     iteration #  9     ecut=    90.00 Ry     beta= 0.30
     Davidson diagonalization with overlap
     ethr =  5.72E-09,  avg # of iterations =  2.8

     negative rho (up, down):  1.788E-06 0.000E+00

     total cpu time spent up to now is        8.8 secs

     total energy              =    -225.94063658 Ry
     estimated scf accuracy    <       0.00000255 Ry

     iteration # 10     ecut=    90.00 Ry     beta= 0.30
     Davidson diagonalization with overlap
     ethr =  4.91E-09,  avg # of iterations =  2.0

     negative rho (up, down):  1.799E-06 0.000E+00

     total cpu time spent up to now is        9.6 secs

     total energy              =    -225.94063673 Ry
     estimated scf accuracy    <       0.00000032 Ry

     iteration # 11     ecut=    90.00 Ry     beta= 0.30
     Davidson diagonalization with overlap
     ethr =  6.08E-10,  avg # of iterations =  3.1

     negative rho (up, down):  1.811E-06 0.000E+00

     total cpu time spent up to now is       10.5 secs

     total energy              =    -225.94063685 Ry
     estimated scf accuracy    <       0.00000007 Ry

     iteration # 12     ecut=    90.00 Ry     beta= 0.30
     Davidson diagonalization with overlap
     ethr =  1.25E-10,  avg # of iterations =  2.4

     negative rho (up, down):  1.819E-06 0.000E+00

     total cpu time spent up to now is       11.4 secs

     total energy              =    -225.94063685 Ry
     estimated scf accuracy    <       0.00000004 Ry

     iteration # 13     ecut=    90.00 Ry     beta= 0.30
     Davidson diagonalization with overlap
     ethr =  6.94E-11,  avg # of iterations =  2.0

     negative rho (up, down):  1.844E-06 0.000E+00

     total cpu time spent up to now is       12.2 secs

     End of self-consistent calculation

          k = 0.0000-0.0000 0.0000 ( 14193 PWs)   bands (ev):

   -15.9390 -14.8685 -13.1166 -10.9217  -8.7387  -7.6325  -7.3125  -6.3794
    -4.7959  -4.4567  -4.0221  -2.9529  -2.7205  -2.1117  -0.8896  -0.7085
    -0.3982  -0.0858   1.2046   1.7508   2.1436   2.7023   3.9690   3.9828
     4.3085   4.8256   6.9574   7.2298   9.7278  10.1528  10.8770

          k = 0.0000-0.1768 0.0000 ( 14138 PWs)   bands (ev):

   -15.3705 -14.3190 -12.6287 -11.0243 -10.6217 -10.2159  -7.0606  -6.8104
    -5.1044  -4.6051  -2.9187  -2.0353  -1.9396  -1.1659  -0.3553   0.0001
     0.0804   0.3665   1.4627   1.7860   2.3019   2.5486   3.1877   3.3487
     3.3872   3.8275   7.6065   7.8796  10.2094  10.2784  10.9700

          k = 0.0000 0.3536 0.0000 ( 14112 PWs)   bands (ev):

   -13.6987 -13.6987 -12.7112 -12.7112 -11.2586 -11.2586  -7.4819  -7.4819
    -5.2236  -5.2236  -2.4684  -2.4684   0.0762   0.0762   1.1596   1.1596
     1.3039   1.3039   1.5935   1.5935   2.0032   2.0032   2.1145   2.1145
     2.5264   2.5264   9.2766   9.2766   9.7119   9.7119  11.1047

          k = 0.2000-0.0000 0.0000 ( 14165 PWs)   bands (ev):

   -15.2086 -14.1465 -12.4079 -10.2305  -8.0734  -7.2754  -6.9828  -6.3596
    -4.8099  -3.8442  -3.3584  -3.3218  -2.7893  -2.4764  -2.4498  -1.4775
    -1.0916  -0.5432  -0.5180   0.3910   1.3265   1.4882   1.8839   2.0461
     2.4672   3.9025   7.7000   7.9591  10.0719  10.2170  10.9202

          k = 0.2000-0.1768 0.0000 ( 14129 PWs)   bands (ev):

   -14.6458 -13.6042 -11.9301 -10.3852  -9.9614  -9.5932  -6.5375  -6.2508
    -4.7090  -4.6989  -3.3723  -3.0595  -2.3076  -1.5749  -1.1776  -1.0465
    -0.4178  -0.2812   0.0763   0.2803   0.4222   0.4956   1.1971   2.0328
     2.9514   3.5405   8.4185   8.6577  11.0167  11.7268  11.8873

          k = 0.2000 0.3536 0.0000 ( 14130 PWs)   bands (ev):

   -12.9966 -12.9966 -12.0235 -12.0235 -10.5957 -10.5957  -6.8568  -6.8568
    -4.6912  -4.6912  -2.7730  -2.7730  -1.8301  -1.8301  -1.4537  -1.4537
    -0.6535  -0.6535   0.5601   0.5601   1.4815   1.4815   2.1299   2.1299
     2.2527   2.2527  10.0727  10.0727  10.6958  10.6958  12.7215

          k = 0.4000-0.0000 0.0000 ( 14136 PWs)   bands (ev):

   -13.0601 -12.0253 -10.3285  -9.7521  -8.7713  -8.2038  -7.1500  -6.1123
    -5.0985  -5.0537  -3.4540  -3.0267  -2.7286  -2.2502  -1.9325  -1.7110
    -1.5882  -1.4280  -0.8973  -0.7698  -0.6154  -0.5418  -0.4990   0.2499
     0.6081   2.4027   9.4931   9.8162  10.4051  10.4633  11.2065

          k = 0.4000-0.1768 0.0000 ( 14160 PWs)   bands (ev):

   -12.5268 -11.5173  -9.8948  -9.6584  -8.7367  -8.1132  -7.1851  -6.8476
    -6.7028  -5.2234  -4.4097  -4.1259  -3.7813  -3.4984  -2.0349  -1.9742
    -1.5291  -1.1514  -0.5196  -0.1481  -0.1090   0.2358   0.3076   0.7148
     1.3610   2.1588  10.4813  10.4831  11.0144  11.3950  11.5061

          k = 0.4000 0.3536 0.0000 ( 14196 PWs)   bands (ev):

   -11.0392 -11.0392 -10.1100 -10.1100  -8.7292  -8.7292  -6.8387  -6.8387
    -6.1358  -6.1358  -5.8722  -5.8722  -3.6996  -3.6996  -2.7948  -2.7948
    -1.2152  -1.2152  -0.5220  -0.5220   0.5024   0.5024   1.5037   1.5037
     1.8872   1.8872  11.2579  11.2579  12.3352  12.3354  13.2638

     the Fermi energy is     5.6458 ev

!    total energy              =    -225.94063686 Ry
     estimated scf accuracy    <          2.2E-09 Ry
     smearing contrib. (-TS)   =       0.00000000 Ry
     internal energy E=F+TS    =    -225.94063686 Ry

     The total energy is F=E-TS. E is the sum of the following terms:
     one-electron contribution =   -1231.92243779 Ry
     hartree contribution      =     640.04973550 Ry
     xc contribution           =     -59.14186209 Ry
     ewald contribution        =     499.03024464 Ry
     one-center paw contrib.   =     -73.95631711 Ry

     convergence has been achieved in  13 iterations

     negative rho (up, down):  1.844E-06 0.000E+00

     Forces acting on atoms (cartesian axes, Ry/au):

     atom    1 type  1   force =     0.00000000   -0.00043790   -0.00003676
     atom    2 type  1   force =     0.00000000    0.00043790   -0.00003676
     atom    3 type  1   force =     0.00000000    0.00044749   -0.00000528
     atom    4 type  1   force =     0.00000000   -0.00044749   -0.00000528
     atom    5 type  1   force =     0.00000000   -0.00042956    0.00000296
     atom    6 type  1   force =     0.00000000    0.00042956    0.00000296
     atom    7 type  1   force =     0.00000000    0.00042956   -0.00000296
     atom    8 type  1   force =     0.00000000   -0.00042956   -0.00000296
     atom    9 type  1   force =     0.00000000   -0.00044749    0.00000528
     atom   10 type  1   force =     0.00000000    0.00044749    0.00000528
     atom   11 type  1   force =     0.00000000    0.00043790    0.00003676
     atom   12 type  1   force =     0.00000000   -0.00043790    0.00003676
     atom   13 type  2   force =     0.00000000   -0.00002864   -0.00014742
     atom   14 type  2   force =     0.00000000    0.00002864   -0.00014742
     atom   15 type  2   force =     0.00000000    0.00002864    0.00014742
     atom   16 type  2   force =     0.00000000   -0.00002864    0.00014742

     Total force =     0.001550     Total SCF correction =     0.000162
     SCF correction compared to forces is large: reduce conv_thr to get better values


     Computing stress (Cartesian axis) and pressure


     negative rho (up, down):  1.844E-06 0.000E+00
          total   stress  (Ry/bohr**3)                   (kbar)     P=       26.43
   0.00018838   0.00000000   0.00000000           27.71        0.00        0.00
   0.00000000   0.00035756   0.00000000            0.00       52.60        0.00
   0.00000000   0.00000000  -0.00000695            0.00        0.00       -1.02


     Writing all to output data dir /tmp/qe/slab.save/ :
     XML data file, charge density, pseudopotentials, collected wavefunctions

     init_run     :      0.63s CPU      0.68s WALL (       1 calls)
     electrons    :     11.24s CPU     11.42s WALL (       1 calls)
     forces       :      0.23s CPU      0.24s WALL (       1 calls)
     stress       :      1.70s CPU      1.71s WALL (       1 calls)

     Called by init_run:
     wfcinit      :      0.36s CPU      0.37s WALL (       1 calls)
     potinit      :      0.12s CPU      0.14s WALL (       1 calls)
     hinit0       :      0.05s CPU      0.07s WALL (       1 calls)

     Called by electrons:
     c_bands      :      7.55s CPU      7.65s WALL (      13 calls)
     sum_band     :      1.79s CPU      1.83s WALL (      13 calls)
     v_of_rho     :      0.67s CPU      0.70s WALL (      14 calls)
     newd         :      0.39s CPU      0.40s WALL (      14 calls)
     PAW_pot      :      0.86s CPU      0.87s WALL (      14 calls)
     mix_rho      :      0.06s CPU      0.06s WALL (      13 calls)

     Called by c_bands:
     init_us_2    :      0.22s CPU      0.23s WALL (     261 calls)
     cegterg      :      7.19s CPU      7.28s WALL (     117 calls)

     Called by *egterg:
     cdiaghg      :      0.46s CPU      0.46s WALL (     548 calls)
     h_psi        :      5.66s CPU      5.74s WALL (     557 calls)
     s_psi        :      0.30s CPU      0.31s WALL (     557 calls)
     g_psi        :      0.04s CPU      0.04s WALL (     431 calls)

     Called by h_psi:
     h_psi:calbec :      0.34s CPU      0.35s WALL (     557 calls)
     vloc_psi     :      4.91s CPU      4.97s WALL (     557 calls)
     add_vuspsi   :      0.37s CPU      0.37s WALL (     557 calls)

     General routines
     calbec       :      0.52s CPU      0.53s WALL (     719 calls)
     fft          :      0.32s CPU      0.35s WALL (     205 calls)
     ffts         :      0.01s CPU      0.02s WALL (      27 calls)
     fftw         :      4.33s CPU      4.38s WALL (   23539 calls)
     interpolate  :      0.03s CPU      0.04s WALL (      14 calls)

     Parallel routines

     PWSCF        :     13.90s CPU     14.22s WALL


   This run was terminated on:  15:43:39   2Aug2026            

=------------------------------------------------------------------------------=
   JOB DONE.
=------------------------------------------------------------------------------=
Note: The following floating-point exceptions are signalling: IEEE_UNDERFLOW_FLAG IEEE_DENORMAL
Note: The following floating-point exceptions are signalling: IEEE_UNDERFLOW_FLAG IEEE_DENORMAL
Note: The following floating-point exceptions are signalling: IEEE_UNDERFLOW_FLAG IEEE_DENORMAL
Note: The following floating-point exceptions are signalling: IEEE_UNDERFLOW_FLAG IEEE_DENORMAL
Note: The following floating-point exceptions are signalling: IEEE_UNDERFLOW_FLAG IEEE_DENORMAL
Note: The following floating-point exceptions are signalling: IEEE_UNDERFLOW_FLAG IEEE_DENORMAL
Note: The following floating-point exceptions are signalling: IEEE_UNDERFLOW_FLAG IEEE_DENORMAL
Note: The following floating-point exceptions are signalling: IEEE_UNDERFLOW_FLAG IEEE_DENORMAL
