
     Program PWSCF v.7.3.1 starts on  1Aug2026 at 12:48: 4 

     This program is part of the open-source Quantum ESPRESSO suite
     for quantum simulation of materials; please cite
         "P. Giannozzi et al., J. Phys.:Condens. Matter 21 395502 (2009);
         "P. Giannozzi et al., J. Phys.:Condens. Matter 29 465901 (2017);
         "P. Giannozzi et al., J. Chem. Phys. 152 154105 (2020);
          URL http://www.quantum-espresso.org", 
     in publications or presentations arising from this work. More details at
     http://www.quantum-espresso.org/quote

     Parallel version (MPI), running on     8 processors

     MPI processes distributed on     1 nodes
     186871 MiB available memory on the printing compute node when the environment starts

     Reading input from pw.in

     Current dimensions of program PWSCF are:
     Max number of different atomic species (ntypx) = 10
     Max number of k-points (npk) =  40000
     Max angular momentum in pseudopotentials (lmaxx) =  4
     file C.pbe-n-kjpaw_psl.1.0.0.UPF: wavefunction(s)  2S 2P renormalized
     Message from routine setup:
     using ibrav=0 with symmetry is DISCOURAGED, use correct ibrav instead

     R & G space division:  proc/nbgrp/npool/nimage =       8
     Subspace diagonalization in iterative solution of the eigenvalue problem:
     a serial algorithm will be used


     Parallelization info
     --------------------
     sticks:   dense  smooth     PW     G-vecs:    dense   smooth      PW
     Min         141      69     20                22561     7947    1290
     Max         142      70     21                22584     7978    1315
     Sum        1135     559    163               180617    63763   10395

     Using Slab Decomposition



     bravais-lattice index     =            0
     lattice parameter (alat)  =       4.7752  a.u.
     unit-cell volume          =     553.1394 (a.u.)^3
     number of atoms/cell      =            8
     number of atomic types    =            2
     number of electrons       =        26.00
     number of Kohn-Sham states=           17
     kinetic-energy cutoff     =      90.0000  Ry
     charge density cutoff     =     720.0000  Ry
     scf convergence threshold =      1.0E-08
     mixing beta               =       0.3000
     number of iterations used =            8  plain     mixing
     Exchange-correlation= PBE
                           (   1   4   3   4   0   0   0)

     celldm(1)=   4.775235  celldm(2)=   0.000000  celldm(3)=   0.000000
     celldm(4)=   0.000000  celldm(5)=   0.000000  celldm(6)=   0.000000

     crystal axes: (cart. coord. in units of alat)
               a(1) = (   1.000000   0.000000   0.000000 )  
               a(2) = (   0.500000   0.866025   0.000000 )  
               a(3) = (   0.000000   0.000000   5.865696 )  

     reciprocal axes: (cart. coord. in units 2 pi/alat)
               b(1) = (  1.000000 -0.577350  0.000000 )  
               b(2) = (  0.000000  1.154701  0.000000 )  
               b(3) = (  0.000000  0.000000  0.170483 )  


     PseudoPot. # 1 for C  read from file:
     ./C.pbe-n-kjpaw_psl.1.0.0.UPF
     MD5 check sum: 5d2aebdfa2cae82b50a7e79e9516da0f
     Pseudo is Projector augmented-wave + core cor, Zval =  4.0
     Generated using "atomic" code by A. Dal Corso  v.5.1
     Shape of augmentation charge: PSQ
     Using radial grid of 1073 points,  4 beta functions with: 
                l(1) =   0
                l(2) =   0
                l(3) =   1
                l(4) =   1
     Q(r) pseudized with 0 coefficients 


     PseudoPot. # 2 for H  read from file:
     ./H_ONCV_PBE-1.0.oncvpsp.upf
     MD5 check sum: 1790becc920ee074925cf490c71280fe
     Pseudo is Norm-conserving, Zval =  1.0
     Generated using ONCVPSP code by D. R. Hamann
     Using radial grid of 1166 points,  2 beta functions with: 
                l(1) =   0
                l(2) =   0

     atomic species   valence    mass     pseudopotential
     C                 4.00    12.01100     C ( 1.00)
     H                 1.00     1.00800     H ( 1.00)

     12 Sym. Ops., with inversion, found ( 6 have fractional translation)



   Cartesian axes

     site n.     atom                  positions (alat units)
         1        C      tau(   1) = (   0.5000000   0.2886751   3.8425963  )
         2        C      tau(   2) = (   1.0000000   0.5773503   3.6495395  )
         3        C      tau(   3) = (   1.0000000   0.5773503   3.0344995  )
         4        C      tau(   4) = (  -0.0000000   0.0000000   2.8311966  )
         5        C      tau(   5) = (   0.0000000   0.0000000   2.2161565  )
         6        C      tau(   6) = (   0.5000000   0.2886751   2.0230997  )
         7        H      tau(   7) = (   0.5000000   0.2886751   4.2814431  )
         8        H      tau(   8) = (   0.5000000   0.2886751   1.5842529  )

     number of k points=    12  Marzari-Vanderbilt smearing, width (Ry)=  0.0100
                       cart. coord. in units 2pi/alat
        k(    1) = (   0.0000000   0.0000000   0.0000000), wk =   0.0246914
        k(    2) = (   0.0000000   0.1283001   0.0000000), wk =   0.1481481
        k(    3) = (   0.0000000   0.2566001   0.0000000), wk =   0.1481481
        k(    4) = (   0.0000000   0.3849002   0.0000000), wk =   0.1481481
        k(    5) = (   0.0000000   0.5132002   0.0000000), wk =   0.1481481
        k(    6) = (   0.1111111   0.1924501   0.0000000), wk =   0.1481481
        k(    7) = (   0.1111111   0.3207501   0.0000000), wk =   0.2962963
        k(    8) = (   0.1111111   0.4490502   0.0000000), wk =   0.2962963
        k(    9) = (   0.1111111  -0.5773503   0.0000000), wk =   0.1481481
        k(   10) = (   0.2222222   0.3849002   0.0000000), wk =   0.1481481
        k(   11) = (   0.2222222  -0.6415003   0.0000000), wk =   0.2962963
        k(   12) = (   0.3333333  -0.5773503   0.0000000), wk =   0.0493827

     Dense  grid:   180617 G-vectors     FFT dimensions: (  45,  45, 240)

     Smooth grid:    63763 G-vectors     FFT dimensions: (  30,  30, 180)

     Estimated max dynamical RAM per process >      40.02 MB

     Estimated total dynamical RAM >     320.20 MB

     Initial potential from superposition of free atoms

     starting charge      25.9997, renormalised to      26.0000
     Starting wfcs are   26 randomized atomic wfcs
     Checking if some PAW data can be deallocated... 

     total cpu time spent up to now is        0.4 secs

     Self-consistent Calculation

     iteration #  1     ecut=    90.00 Ry     beta= 0.30
     Davidson diagonalization with overlap
     ethr =  1.00E-02,  avg # of iterations =  2.8

     total cpu time spent up to now is        0.8 secs

     total energy              =    -113.01805325 Ry
     estimated scf accuracy    <       0.60600963 Ry

     iteration #  2     ecut=    90.00 Ry     beta= 0.30
     Davidson diagonalization with overlap
     ethr =  2.33E-03,  avg # of iterations =  3.3

     negative rho (up, down):  1.110E-07 0.000E+00

     total cpu time spent up to now is        1.2 secs

     total energy              =    -112.97929705 Ry
     estimated scf accuracy    <       0.18525277 Ry

     iteration #  3     ecut=    90.00 Ry     beta= 0.30
     Davidson diagonalization with overlap
     ethr =  7.13E-04,  avg # of iterations =  4.6

     negative rho (up, down):  5.911E-08 0.000E+00

     total cpu time spent up to now is        1.6 secs

     total energy              =    -112.98524621 Ry
     estimated scf accuracy    <       0.02655937 Ry

     iteration #  4     ecut=    90.00 Ry     beta= 0.30
     Davidson diagonalization with overlap
     ethr =  1.02E-04,  avg # of iterations =  4.8

     negative rho (up, down):  2.642E-08 0.000E+00

     total cpu time spent up to now is        2.0 secs

     total energy              =    -112.98632525 Ry
     estimated scf accuracy    <       0.00318404 Ry

     iteration #  5     ecut=    90.00 Ry     beta= 0.30
     Davidson diagonalization with overlap
     ethr =  1.22E-05,  avg # of iterations =  5.5

     negative rho (up, down):  1.148E-08 0.000E+00

     total cpu time spent up to now is        2.4 secs

     total energy              =    -112.98676358 Ry
     estimated scf accuracy    <       0.00021692 Ry

     iteration #  6     ecut=    90.00 Ry     beta= 0.30
     Davidson diagonalization with overlap
     ethr =  8.34E-07,  avg # of iterations =  3.0

     total cpu time spent up to now is        2.8 secs

     total energy              =    -112.98678888 Ry
     estimated scf accuracy    <       0.00006949 Ry

     iteration #  7     ecut=    90.00 Ry     beta= 0.30
     Davidson diagonalization with overlap
     ethr =  2.67E-07,  avg # of iterations =  2.0

     total cpu time spent up to now is        3.2 secs

     total energy              =    -112.98680163 Ry
     estimated scf accuracy    <       0.00001871 Ry

     iteration #  8     ecut=    90.00 Ry     beta= 0.30
     Davidson diagonalization with overlap
     ethr =  7.20E-08,  avg # of iterations =  1.7

     total cpu time spent up to now is        3.5 secs

     total energy              =    -112.98680330 Ry
     estimated scf accuracy    <       0.00000225 Ry

     iteration #  9     ecut=    90.00 Ry     beta= 0.30
     Davidson diagonalization with overlap
     ethr =  8.65E-09,  avg # of iterations =  2.2

     total cpu time spent up to now is        3.9 secs

     total energy              =    -112.98680358 Ry
     estimated scf accuracy    <       0.00000053 Ry

     iteration # 10     ecut=    90.00 Ry     beta= 0.30
     Davidson diagonalization with overlap
     ethr =  2.05E-09,  avg # of iterations =  2.0

     total cpu time spent up to now is        4.2 secs

     total energy              =    -112.98680364 Ry
     estimated scf accuracy    <       0.00000003 Ry

     iteration # 11     ecut=    90.00 Ry     beta= 0.30
     Davidson diagonalization with overlap
     ethr =  1.23E-10,  avg # of iterations =  3.2

     total cpu time spent up to now is        4.6 secs

     End of self-consistent calculation

          k = 0.0000 0.0000 0.0000 (  7951 PWs)   bands (ev):

   -16.9007 -15.4126 -13.1814  -8.3581  -5.2789  -1.3851   1.5192   1.5192
     2.1011   2.3769   2.3769   3.4620   3.4620   6.4011   6.6360   9.2022
    10.3602

          k = 0.0000 0.1283 0.0000 (  7977 PWs)   bands (ev):

   -16.6000 -15.1181 -12.8995  -8.0883  -5.0528  -1.2613   0.1109   0.8976
     1.0285   1.8495   1.9921   2.3212   3.0217   6.6528   6.9638   9.2053
    10.4093

          k = 0.0000 0.2566 0.0000 (  7959 PWs)   bands (ev):

   -15.7043 -14.2421 -12.0634  -7.3375  -4.4685  -2.8590  -1.7456  -0.9223
    -0.3218  -0.2725   0.7714   1.7869   2.0457   7.4129   7.8488   9.3350
    10.2787

          k = 0.0000 0.3849 0.0000 (  7984 PWs)   bands (ev):

   -14.2384 -12.8185 -10.7250  -6.8331  -5.7724  -4.5151  -3.8747  -2.6486
    -1.2662  -0.8485  -0.1818   1.0902   1.1414   8.5256   8.9149   9.6270
    10.4388

          k = 0.0000 0.5132 0.0000 (  7990 PWs)   bands (ev):

   -12.3027 -11.0852  -9.6923  -8.2222  -8.0216  -6.1790  -3.8787  -2.5972
    -1.8076  -1.4401  -0.7080   0.5561   0.6340   8.9333   9.6573  10.3037
    10.8048

          k = 0.1111 0.1925 0.0000 (  7975 PWs)   bands (ev):

   -16.0017 -14.5327 -12.3402  -7.5740  -4.6383  -1.6634  -1.0674  -0.9763
    -0.0620   0.2266   1.3321   1.3483   2.3146   7.1956   7.5750   9.6430
    10.4942

          k = 0.1111 0.3208 0.0000 (  7952 PWs)   bands (ev):

   -14.8197 -13.3803 -11.2460  -6.7558  -4.4952  -3.9455  -3.0905  -2.3383
    -1.2152  -0.7943  -0.5576   0.4068   1.6950   8.3040   8.6065  10.1905
    10.9549

          k = 0.1111 0.4491 0.0000 (  7968 PWs)   bands (ev):

   -13.1016 -11.7352  -9.7708  -7.6247  -6.7179  -4.9227  -4.3382  -2.6635
    -2.4460  -1.6688  -0.9772  -0.1589   0.8282   9.3406   9.9477  10.6992
    11.4624

          k = 0.1111-0.5774 0.0000 (  7994 PWs)   bands (ev):

   -11.3243 -10.7882  -9.5694  -8.6360  -7.5064  -6.9492  -3.3415  -3.0461
    -2.6110  -1.6825  -1.6251  -0.2012   0.3307   9.6311  10.5068  11.3693
    11.6404

          k = 0.2222 0.3849 0.0000 (  7965 PWs)   bands (ev):

   -13.3790 -11.9891  -9.9499  -6.8202  -5.6169  -4.8443  -3.9819  -3.4208
    -2.7430  -1.9236  -1.7009  -0.6497   0.9187   9.5294   9.8245  11.1745
    11.7597

          k = 0.2222-0.6415 0.0000 (  7997 PWs)   bands (ev):

   -11.4952 -10.3246  -8.9518  -7.9883  -7.4280  -6.1481  -4.4608  -4.0862
    -3.0413  -2.6467  -1.7421  -0.9222  -0.0646  10.1621  10.8190  12.0193
    12.1523

          k = 0.3333-0.5774 0.0000 (  8007 PWs)   bands (ev):

    -9.8890  -9.8890  -8.7797  -8.4757  -7.0506  -7.0506  -4.9313  -4.6331
    -4.6331  -1.8909  -1.3107  -1.3107  -1.0023  10.7660  10.7660  11.4177
    13.1183

     the Fermi energy is     4.2476 ev

!    total energy              =    -112.98680365 Ry
     estimated scf accuracy    <          6.5E-09 Ry
     smearing contrib. (-TS)   =       0.00000000 Ry
     internal energy E=F+TS    =    -112.98680365 Ry

     The total energy is F=E-TS. E is the sum of the following terms:
     one-electron contribution =    -588.52378288 Ry
     hartree contribution      =     305.25315791 Ry
     xc contribution           =     -29.50864716 Ry
     ewald contribution        =     236.77085212 Ry
     one-center paw contrib.   =     -36.97838363 Ry

     convergence has been achieved in  11 iterations

     Forces acting on atoms (cartesian axes, Ry/au):

     atom    1 type  1   force =     0.00000000    0.00000000   -0.00004824
     atom    2 type  1   force =     0.00000000    0.00000000    0.00001013
     atom    3 type  1   force =     0.00000000    0.00000000   -0.00001431
     atom    4 type  1   force =    -0.00000000   -0.00000000    0.00001431
     atom    5 type  1   force =    -0.00000000   -0.00000000   -0.00001013
     atom    6 type  1   force =     0.00000000    0.00000000    0.00004824
     atom    7 type  2   force =     0.00000000    0.00000000    0.00000533
     atom    8 type  2   force =     0.00000000    0.00000000   -0.00000533

     Total force =     0.000073     Total SCF correction =     0.000269
     SCF correction compared to forces is large: reduce conv_thr to get better values


     Computing stress (Cartesian axis) and pressure

          total   stress  (Ry/bohr**3)                   (kbar)     P=        3.65
   0.00003838  -0.00000000   0.00000000            5.65       -0.00        0.00
  -0.00000000   0.00003838   0.00000000           -0.00        5.65        0.00
   0.00000000   0.00000000  -0.00000227            0.00        0.00       -0.33


     Writing all to output data dir /tmp/qe/slab.save/ :
     XML data file, charge density, pseudopotentials, collected wavefunctions

     init_run     :      0.32s CPU      0.34s WALL (       1 calls)
     electrons    :      4.10s CPU      4.19s WALL (       1 calls)
     forces       :      0.09s CPU      0.09s WALL (       1 calls)
     stress       :      0.48s CPU      0.48s WALL (       1 calls)

     Called by init_run:
     wfcinit      :      0.14s CPU      0.15s WALL (       1 calls)
     potinit      :      0.08s CPU      0.08s WALL (       1 calls)
     hinit0       :      0.05s CPU      0.05s WALL (       1 calls)

     Called by electrons:
     c_bands      :      2.51s CPU      2.57s WALL (      11 calls)
     sum_band     :      0.71s CPU      0.73s WALL (      11 calls)
     v_of_rho     :      0.35s CPU      0.36s WALL (      12 calls)
     newd         :      0.18s CPU      0.19s WALL (      12 calls)
     PAW_pot      :      0.38s CPU      0.38s WALL (      12 calls)
     mix_rho      :      0.03s CPU      0.03s WALL (      11 calls)

     Called by c_bands:
     init_us_2    :      0.08s CPU      0.08s WALL (     300 calls)
     cegterg      :      2.39s CPU      2.44s WALL (     132 calls)

     Called by *egterg:
     cdiaghg      :      0.15s CPU      0.15s WALL (     553 calls)
     h_psi        :      2.07s CPU      2.11s WALL (     565 calls)
     s_psi        :      0.05s CPU      0.05s WALL (     565 calls)
     g_psi        :      0.01s CPU      0.01s WALL (     421 calls)

     Called by h_psi:
     h_psi:calbec :      0.08s CPU      0.08s WALL (     565 calls)
     vloc_psi     :      1.92s CPU      1.96s WALL (     565 calls)
     add_vuspsi   :      0.06s CPU      0.06s WALL (     565 calls)

     General routines
     calbec       :      0.12s CPU      0.13s WALL (     757 calls)
     fft          :      0.17s CPU      0.18s WALL (     179 calls)
     ffts         :      0.01s CPU      0.01s WALL (      23 calls)
     fftw         :      1.75s CPU      1.78s WALL (   14572 calls)
     interpolate  :      0.01s CPU      0.02s WALL (      12 calls)

     Parallel routines

     PWSCF        :      5.08s CPU      5.23s WALL


   This run was terminated on:  12:48:10   1Aug2026            

=------------------------------------------------------------------------------=
   JOB DONE.
=------------------------------------------------------------------------------=
Note: The following floating-point exceptions are signalling: IEEE_UNDERFLOW_FLAG IEEE_DENORMAL
Note: The following floating-point exceptions are signalling: IEEE_UNDERFLOW_FLAG IEEE_DENORMAL
Note: The following floating-point exceptions are signalling: IEEE_UNDERFLOW_FLAG IEEE_DENORMAL
Note: The following floating-point exceptions are signalling: IEEE_UNDERFLOW_FLAG IEEE_DENORMAL
Note: The following floating-point exceptions are signalling: IEEE_UNDERFLOW_FLAG IEEE_DENORMAL
Note: The following floating-point exceptions are signalling: IEEE_UNDERFLOW_FLAG IEEE_DENORMAL
Note: The following floating-point exceptions are signalling: IEEE_UNDERFLOW_FLAG IEEE_DENORMAL
Note: The following floating-point exceptions are signalling: IEEE_UNDERFLOW_FLAG IEEE_DENORMAL
