
     Program PWSCF v.7.3.1 starts on  1Aug2026 at 12:41:25 

     This program is part of the open-source Quantum ESPRESSO suite
     for quantum simulation of materials; please cite
         "P. Giannozzi et al., J. Phys.:Condens. Matter 21 395502 (2009);
         "P. Giannozzi et al., J. Phys.:Condens. Matter 29 465901 (2017);
         "P. Giannozzi et al., J. Chem. Phys. 152 154105 (2020);
          URL http://www.quantum-espresso.org", 
     in publications or presentations arising from this work. More details at
     http://www.quantum-espresso.org/quote

     Parallel version (MPI), running on     8 processors

     MPI processes distributed on     1 nodes
     186202 MiB available memory on the printing compute node when the environment starts

     Reading input from pw.in

     Current dimensions of program PWSCF are:
     Max number of different atomic species (ntypx) = 10
     Max number of k-points (npk) =  40000
     Max angular momentum in pseudopotentials (lmaxx) =  4
     file C.pbe-n-kjpaw_psl.1.0.0.UPF: wavefunction(s)  2S 2P renormalized
     Message from routine volume:
     axis vectors are left-handed
     Found identity + (  0.5000  0.0000  0.0000) symmetry
     This is a supercell, fractional translations are disabled
     Message from routine setup:
     using ibrav=0 with symmetry is DISCOURAGED, use correct ibrav instead

     R & G space division:  proc/nbgrp/npool/nimage =       8
     Subspace diagonalization in iterative solution of the eigenvalue problem:
     a serial algorithm will be used


     Parallelization info
     --------------------
     sticks:   dense  smooth     PW     G-vecs:    dense   smooth      PW
     Min         651     325     89               101891    36013    5191
     Max         652     326     90               101904    36021    5200
     Sum        5209    2601    717               815155   288125   41579

     Using Slab Decomposition



     bravais-lattice index     =            0
     lattice parameter (alat)  =       9.5505  a.u.
     unit-cell volume          =    2499.5129 (a.u.)^3
     number of atoms/cell      =           32
     number of atomic types    =            2
     number of electrons       =       104.00
     number of Kohn-Sham states=           62
     kinetic-energy cutoff     =      90.0000  Ry
     charge density cutoff     =     720.0000  Ry
     scf convergence threshold =      1.0E-08
     mixing beta               =       0.3000
     number of iterations used =            8  plain     mixing
     Exchange-correlation= PBE
                           (   1   4   3   4   0   0   0)

     celldm(1)=   9.550471  celldm(2)=   0.000000  celldm(3)=   0.000000
     celldm(4)=   0.000000  celldm(5)=   0.000000  celldm(6)=   0.000000

     crystal axes: (cart. coord. in units of alat)
               a(1) = (   1.000000   0.000000   0.000000 )  
               a(2) = (   0.000000  -1.000000   0.000000 )  
               a(3) = (   0.000000   0.000000   2.869333 )  

     reciprocal axes: (cart. coord. in units 2 pi/alat)
               b(1) = (  1.000000 -0.000000 -0.000000 )  
               b(2) = ( -0.000000 -1.000000 -0.000000 )  
               b(3) = ( -0.000000 -0.000000  0.348513 )  


     PseudoPot. # 1 for C  read from file:
     ./C.pbe-n-kjpaw_psl.1.0.0.UPF
     MD5 check sum: 5d2aebdfa2cae82b50a7e79e9516da0f
     Pseudo is Projector augmented-wave + core cor, Zval =  4.0
     Generated using "atomic" code by A. Dal Corso  v.5.1
     Shape of augmentation charge: PSQ
     Using radial grid of 1073 points,  4 beta functions with: 
                l(1) =   0
                l(2) =   0
                l(3) =   1
                l(4) =   1
     Q(r) pseudized with 0 coefficients 


     PseudoPot. # 2 for H  read from file:
     ./H_ONCV_PBE-1.0.oncvpsp.upf
     MD5 check sum: 1790becc920ee074925cf490c71280fe
     Pseudo is Norm-conserving, Zval =  1.0
     Generated using ONCVPSP code by D. R. Hamann
     Using radial grid of 1166 points,  2 beta functions with: 
                l(1) =   0
                l(2) =   0

     atomic species   valence    mass     pseudopotential
     C                 4.00    12.01100     C ( 1.00)
     H                 1.00     1.00800     H ( 1.00)

      4 Sym. Ops. (no inversion) found



   Cartesian axes

     site n.     atom                  positions (alat units)
         1        C      tau(   1) = (   0.0000000  -0.1582087   1.8592812  )
         2        C      tau(   2) = (   0.2500000  -0.2299149   1.6998931  )
         3        C      tau(   3) = (   0.2500000   0.0000000   1.4936626  )
         4        C      tau(   4) = (   0.0000000   0.0000000   1.3178300  )
         5        C      tau(   5) = (   0.0000000  -0.2700851   1.1694404  )
         6        C      tau(   6) = (   0.2500000  -0.3417913   1.0100523  )
         7        C      tau(   7) = (   0.0000000  -0.8417913   1.8592812  )
         8        C      tau(   8) = (   0.2500000  -0.7700851   1.6998931  )
         9        C      tau(   9) = (   0.2500000  -0.5000000   1.5515034  )
        10        C      tau(  10) = (   0.0000000  -0.5000000   1.3756708  )
        11        C      tau(  11) = (   0.0000000  -0.7299149   1.1694404  )
        12        C      tau(  12) = (   0.2500000  -0.6582087   1.0100523  )
        13        H      tau(  13) = (   0.0000000  -0.2449080   2.0590044  )
        14        H      tau(  14) = (   0.0000000  -0.7550920   2.0590044  )
        15        H      tau(  15) = (   0.2500000  -0.2550919   0.8103291  )
        16        H      tau(  16) = (   0.2500000  -0.7449081   0.8103291  )
        17        C      tau(  17) = (   0.5000000  -0.1582087   1.8592812  )
        18        C      tau(  18) = (   0.7500000  -0.2299149   1.6998931  )
        19        C      tau(  19) = (   0.7500000   0.0000000   1.4936626  )
        20        C      tau(  20) = (   0.5000000   0.0000000   1.3178300  )
        21        C      tau(  21) = (   0.5000000  -0.2700851   1.1694404  )
        22        C      tau(  22) = (   0.7500000  -0.3417913   1.0100523  )
        23        C      tau(  23) = (   0.5000000  -0.8417913   1.8592812  )
        24        C      tau(  24) = (   0.7500000  -0.7700851   1.6998931  )
        25        C      tau(  25) = (   0.7500000  -0.5000000   1.5515034  )
        26        C      tau(  26) = (   0.5000000  -0.5000000   1.3756708  )
        27        C      tau(  27) = (   0.5000000  -0.7299149   1.1694404  )
        28        C      tau(  28) = (   0.7500000  -0.6582087   1.0100523  )
        29        H      tau(  29) = (   0.5000000  -0.2449080   2.0590044  )
        30        H      tau(  30) = (   0.5000000  -0.7550920   2.0590044  )
        31        H      tau(  31) = (   0.7500000  -0.2550919   0.8103291  )
        32        H      tau(  32) = (   0.7500000  -0.7449081   0.8103291  )

     number of k points=     9  Marzari-Vanderbilt smearing, width (Ry)=  0.0100
                       cart. coord. in units 2pi/alat
        k(    1) = (   0.0000000  -0.0000000   0.0000000), wk =   0.1250000
        k(    2) = (   0.0000000  -0.2500000   0.0000000), wk =   0.2500000
        k(    3) = (   0.0000000   0.5000000   0.0000000), wk =   0.1250000
        k(    4) = (   0.2500000  -0.2500000   0.0000000), wk =   0.5000000
        k(    5) = (   0.2500000   0.5000000   0.0000000), wk =   0.2500000
        k(    6) = (  -0.5000000   0.5000000   0.0000000), wk =   0.1250000
        k(    7) = (  -0.2500000   0.0000000   0.0000000), wk =   0.2500000
        k(    8) = (   0.5000000  -0.0000000   0.0000000), wk =   0.1250000
        k(    9) = (   0.5000000   0.2500000   0.0000000), wk =   0.2500000

     Dense  grid:   815155 G-vectors     FFT dimensions: (  81,  81, 240)

     Smooth grid:   288125 G-vectors     FFT dimensions: (  60,  60, 180)

     Estimated max dynamical RAM per process >     293.12 MB

     Estimated total dynamical RAM >       2.29 GB

     Initial potential from superposition of free atoms

     starting charge     103.9989, renormalised to     104.0000
     Starting wfcs are  104 randomized atomic wfcs
     Checking if some PAW data can be deallocated... 

     total cpu time spent up to now is        2.5 secs

     Self-consistent Calculation

     iteration #  1     ecut=    90.00 Ry     beta= 0.30
     Davidson diagonalization with overlap
     ethr =  1.00E-02,  avg # of iterations =  2.9

     negative rho (up, down):  1.826E-07 0.000E+00

     total cpu time spent up to now is        6.8 secs

     total energy              =    -451.91428821 Ry
     estimated scf accuracy    <       2.44615331 Ry

     iteration #  2     ecut=    90.00 Ry     beta= 0.30
     Davidson diagonalization with overlap
     ethr =  2.35E-03,  avg # of iterations =  3.8

     negative rho (up, down):  2.936E-06 0.000E+00

     total cpu time spent up to now is       10.4 secs

     total energy              =    -451.75685791 Ry
     estimated scf accuracy    <       0.72235759 Ry

     iteration #  3     ecut=    90.00 Ry     beta= 0.30
     Davidson diagonalization with overlap
     ethr =  6.95E-04,  avg # of iterations =  7.3

     negative rho (up, down):  4.247E-06 0.000E+00

     total cpu time spent up to now is       14.8 secs

     total energy              =    -451.78382591 Ry
     estimated scf accuracy    <       0.10818091 Ry

     iteration #  4     ecut=    90.00 Ry     beta= 0.30
     Davidson diagonalization with overlap
     ethr =  1.04E-04,  avg # of iterations =  3.7

     negative rho (up, down):  8.312E-06 0.000E+00

     total cpu time spent up to now is       18.7 secs

     total energy              =    -451.79314566 Ry
     estimated scf accuracy    <       0.01121007 Ry

     iteration #  5     ecut=    90.00 Ry     beta= 0.30
     Davidson diagonalization with overlap
     ethr =  1.08E-05,  avg # of iterations =  9.2

     negative rho (up, down):  6.221E-06 0.000E+00

     total cpu time spent up to now is       23.9 secs

     total energy              =    -451.79520174 Ry
     estimated scf accuracy    <       0.00317429 Ry

     iteration #  6     ecut=    90.00 Ry     beta= 0.30
     Davidson diagonalization with overlap
     ethr =  3.05E-06,  avg # of iterations =  6.2

     negative rho (up, down):  6.710E-06 0.000E+00

     total cpu time spent up to now is       28.1 secs

     total energy              =    -451.79557978 Ry
     estimated scf accuracy    <       0.00034813 Ry

     iteration #  7     ecut=    90.00 Ry     beta= 0.30
     Davidson diagonalization with overlap
     ethr =  3.35E-07,  avg # of iterations =  2.7

     negative rho (up, down):  6.765E-06 0.000E+00

     total cpu time spent up to now is       32.0 secs

     total energy              =    -451.79562936 Ry
     estimated scf accuracy    <       0.00005181 Ry

     iteration #  8     ecut=    90.00 Ry     beta= 0.30
     Davidson diagonalization with overlap
     ethr =  4.98E-08,  avg # of iterations =  3.1

     negative rho (up, down):  6.696E-06 0.000E+00

     total cpu time spent up to now is       36.1 secs

     total energy              =    -451.79564202 Ry
     estimated scf accuracy    <       0.00001633 Ry

     iteration #  9     ecut=    90.00 Ry     beta= 0.30
     Davidson diagonalization with overlap
     ethr =  1.57E-08,  avg # of iterations =  2.0

     negative rho (up, down):  6.733E-06 0.000E+00

     total cpu time spent up to now is       40.0 secs

     total energy              =    -451.79564520 Ry
     estimated scf accuracy    <       0.00000210 Ry

     iteration # 10     ecut=    90.00 Ry     beta= 0.30
     Davidson diagonalization with overlap
     ethr =  2.01E-09,  avg # of iterations =  3.8

     negative rho (up, down):  6.715E-06 0.000E+00

     total cpu time spent up to now is       44.2 secs

     total energy              =    -451.79564532 Ry
     estimated scf accuracy    <       0.00000141 Ry

     iteration # 11     ecut=    90.00 Ry     beta= 0.30
     Davidson diagonalization with overlap
     ethr =  1.36E-09,  avg # of iterations =  2.9

     negative rho (up, down):  6.747E-06 0.000E+00

     total cpu time spent up to now is       48.1 secs

     total energy              =    -451.79564569 Ry
     estimated scf accuracy    <       0.00000006 Ry

     iteration # 12     ecut=    90.00 Ry     beta= 0.30
     Davidson diagonalization with overlap
     ethr =  6.01E-11,  avg # of iterations =  3.2

     negative rho (up, down):  6.774E-06 0.000E+00

     total cpu time spent up to now is       51.8 secs

     total energy              =    -451.79564567 Ry
     estimated scf accuracy    <       0.00000003 Ry

     iteration # 13     ecut=    90.00 Ry     beta= 0.30
     Davidson diagonalization with overlap
     ethr =  3.32E-11,  avg # of iterations =  4.0

     negative rho (up, down):  6.789E-06 0.000E+00

     total cpu time spent up to now is       56.4 secs

     total energy              =    -451.79564568 Ry
     estimated scf accuracy    <       0.00000004 Ry

     iteration # 14     ecut=    90.00 Ry     beta= 0.30
     Davidson diagonalization with overlap
     ethr =  3.32E-11,  avg # of iterations =  2.3

     negative rho (up, down):  6.842E-06 0.000E+00

     total cpu time spent up to now is       60.0 secs

     End of self-consistent calculation

          k = 0.0000-0.0000 0.0000 ( 36075 PWs)   bands (ev):

   -17.7362 -16.0423 -13.3841 -13.3841 -13.1650 -12.9576 -12.8588 -11.8373
   -11.5616 -11.5616  -9.2933  -9.2933  -9.0373  -8.8359  -8.8359  -8.7014
    -8.1485  -8.1485  -7.8477  -7.7723  -7.7723  -5.4172  -5.3762  -5.1804
    -4.8114  -4.8114  -3.9139  -3.9139  -3.4815  -3.4815  -2.6856  -2.2172
    -2.2141  -2.2141  -2.1211  -2.1211  -1.9099  -1.7691  -1.6570  -1.2005
    -1.1737  -1.1737   0.2228   0.4052   0.4052   0.4341   0.5395   0.8086
     0.8625   0.9924   1.3438   1.6797   5.4378   5.8930   7.4678   7.7478
     7.7860   8.3924   8.6204   8.9960   8.9963   9.1664

          k = 0.0000-0.2500 0.0000 ( 36049 PWs)   bands (ev):

   -17.4797 -16.0988 -14.4483 -13.5411 -13.1411 -13.1411 -11.6460 -11.6203
   -11.6203 -11.2732 -10.5395 -10.5395  -9.1189  -8.6876  -8.6876  -7.9745
    -7.6973  -7.4462  -7.4462  -7.2495  -7.2495  -6.0355  -5.0054  -4.9333
    -4.9333  -4.6349  -3.7886  -3.7886  -3.5438  -3.2140  -3.2140  -2.4694
    -2.3172  -2.3172  -2.1064  -1.8992  -1.7661  -1.7661  -1.2646  -1.2480
    -1.2480  -1.1959  -0.6199  -0.6199  -0.5263  -0.3262   0.3346   0.4578
     1.1761   1.2858   1.4543   1.6973   5.7982   6.2053   7.7907   8.1685
     8.3872   8.4615   8.5946   8.8311   8.8312   9.0298

          k = 0.0000 0.5000 0.0000 ( 35968 PWs)   bands (ev):

   -16.7722 -16.7722 -14.4110 -14.4110 -12.6244 -12.6244 -12.1626 -12.1626
   -11.1408 -11.1408 -10.8518 -10.8518  -9.0734  -9.0734  -8.1131  -8.1131
    -7.0253  -7.0253  -6.7992  -6.7992  -6.7778  -6.7778  -4.7096  -4.7096
    -4.3099  -4.3099  -3.8225  -3.8224  -3.7301  -3.7301  -3.1660  -3.1660
    -2.3108  -2.3108  -1.8766  -1.8766  -1.6560  -1.6560  -1.6243  -1.6243
    -1.3661  -1.3661  -1.3260  -1.3260  -0.2301  -0.2301  -0.1689  -0.1689
     1.0466   1.0466   1.8264   1.8265   6.7478   6.7479   7.1799   7.1800
     8.4060   8.4060   8.5533   8.5533   8.9557   8.9557

          k = 0.2500-0.2500 0.0000 ( 36022 PWs)   bands (ev):

   -17.1944 -15.8176 -14.9531 -14.1764 -13.6309 -13.2738 -12.1048 -11.3914
   -11.2629 -11.0171 -10.6388  -9.9067  -8.9910  -8.9619  -8.6031  -7.7709
    -7.6240  -7.4822  -7.0767  -5.9546  -5.9031  -5.7346  -5.6362  -5.0622
    -4.9169  -4.5264  -4.3080  -3.8552  -3.6591  -3.3750  -3.0735  -2.8367
    -2.6458  -2.2463  -2.1146  -2.0673  -1.7894  -1.7475  -1.6093  -1.5608
    -1.0300  -1.0174  -0.9430  -0.8636  -0.5626  -0.5113  -0.0024   0.1972
     0.3241   0.4817   1.0657   1.3634   6.0546   6.4983   8.0057   8.0259
     8.0717   8.4718   8.6042   8.6569   8.9035   9.2668

          k = 0.2500 0.5000 0.0000 ( 36042 PWs)   bands (ev):

   -16.4886 -16.4886 -14.2620 -14.2620 -14.1401 -14.1401 -12.0841 -12.0841
   -10.8921 -10.8921 -10.2025 -10.2025  -8.6161  -8.6161  -7.9738  -7.9738
    -7.3532  -7.3532  -6.5385  -6.5385  -5.4749  -5.4749  -4.8421  -4.8421
    -4.5640  -4.5640  -4.2299  -4.2299  -3.6881  -3.6881  -3.3124  -3.3124
    -2.9288  -2.9288  -2.3743  -2.3743  -1.6541  -1.6541  -1.5130  -1.5130
    -1.1984  -1.1984  -0.8874  -0.8874  -0.8315  -0.8315  -0.3914  -0.3914
     0.7861   0.7861   1.0661   1.0661   7.0027   7.0028   7.4470   7.4470
     7.8590   7.8590   8.4266   8.4266   9.0450   9.0451

          k =-0.5000 0.5000 0.0000 ( 36040 PWs)   bands (ev):

   -15.6436 -15.6436 -15.6436 -15.6436 -13.3395 -13.3395 -13.3395 -13.3395
   -10.1914 -10.1914 -10.1914 -10.1914  -8.0173  -8.0173  -8.0173  -8.0173
    -5.9900  -5.9900  -5.9900  -5.9900  -5.3616  -5.3616  -5.3616  -5.3616
    -4.8353  -4.8353  -4.8353  -4.8353  -3.7839  -3.7839  -3.7839  -3.7839
    -2.6970  -2.6970  -2.6970  -2.6970  -1.9383  -1.9383  -1.9383  -1.9383
    -1.1422  -1.1422  -1.1422  -1.1422  -0.3104  -0.3104  -0.3104  -0.3104
     0.3857   0.3857   0.3857   0.3857   7.4205   7.4206   7.4206   7.4206
     7.9905   7.9906   7.9906   7.9907   8.5982   8.5983

          k =-0.2500 0.0000 0.0000 ( 36049 PWs)   bands (ev):

   -17.4502 -15.7623 -15.2039 -13.6042 -12.9005 -12.6919 -12.5879 -11.5828
   -11.0357 -10.8133 -10.6647 -10.4740  -9.6139  -8.9128  -8.8256  -8.4632
    -7.6150  -7.3019  -6.5897  -6.5882  -6.5684  -5.3827  -5.3647  -5.2681
    -5.2422  -4.9857  -4.1238  -4.1219  -3.7605  -3.4129  -2.8657  -2.7686
    -2.2207  -2.0350  -2.0216  -1.7111  -1.6822  -1.6694  -1.6501  -1.4280
    -1.1483  -0.8253  -0.7038  -0.4125  -0.2907  -0.2411  -0.1445   0.4706
     0.6359   0.8804   0.8921   1.3822   5.7008   6.1757   7.7978   7.8313
     7.9741   8.3253   8.5846   8.8564   9.1962   9.4246

          k = 0.5000-0.0000 0.0000 ( 35968 PWs)   bands (ev):

   -16.5982 -16.5982 -14.9313 -14.9313 -12.1165 -12.1165 -11.9144 -11.9144
   -11.7827 -11.7827 -10.8275 -10.8275  -9.0619  -9.0618  -7.8793  -7.8793
    -6.9893  -6.9893  -6.2510  -6.2510  -6.1913  -6.1913  -5.2735  -5.2735
    -4.2863  -4.2863  -4.2598  -4.2598  -3.3700  -3.3700  -3.3664  -3.3664
    -2.4790  -2.4790  -2.3245  -2.3245  -1.5910  -1.5910  -1.5221  -1.5221
    -1.2190  -1.2190  -1.1340  -1.1340  -0.2001  -0.2001  -0.1236  -0.1236
     0.1707   0.1707   0.9875   0.9875   6.5121   6.5121   6.8180   6.8180
     8.8052   8.8052   8.9463   8.9463   9.5234   9.5234

          k = 0.5000 0.2500 0.0000 ( 36042 PWs)   bands (ev):

   -16.3442 -16.3442 -14.9817 -14.9817 -13.3713 -13.3713 -12.4852 -12.4852
   -10.6541 -10.6541 -10.2601 -10.2601  -8.9484  -8.9484  -7.4759  -7.4759
    -7.0303  -7.0303  -6.0770  -6.0770  -5.9049  -5.9049  -5.3160  -5.3160
    -4.5292  -4.5292  -4.2728  -4.2728  -3.4637  -3.4637  -3.3727  -3.3727
    -2.7615  -2.7615  -2.3603  -2.3603  -1.9094  -1.9094  -1.6698  -1.6698
    -1.1295  -1.1295  -0.9473  -0.9473  -0.6227  -0.6227  -0.3429  -0.3429
     0.2182   0.2182   0.7951   0.7951   6.7853   6.7853   7.1615   7.1615
     8.4453   8.4453   8.5715   8.5715   8.9895   8.9895

     the Fermi energy is     3.3888 ev

!    total energy              =    -451.79564568 Ry
     estimated scf accuracy    <          1.5E-09 Ry
     smearing contrib. (-TS)   =       0.00000000 Ry
     internal energy E=F+TS    =    -451.79564568 Ry

     The total energy is F=E-TS. E is the sum of the following terms:
     one-electron contribution =   -2320.03560213 Ry
     hartree contribution      =    1200.83899886 Ry
     xc contribution           =    -117.68327433 Ry
     ewald contribution        =     933.00259135 Ry
     one-center paw contrib.   =    -147.91835942 Ry

     convergence has been achieved in  14 iterations

     negative rho (up, down):  6.842E-06 0.000E+00

     Forces acting on atoms (cartesian axes, Ry/au):

     atom    1 type  1   force =     0.00000000    0.00009550    0.00000500
     atom    2 type  1   force =    -0.00000359    0.00002021   -0.00006592
     atom    3 type  1   force =    -0.00000372    0.00000000    0.00005098
     atom    4 type  1   force =     0.00000000   -0.00000000    0.00003474
     atom    5 type  1   force =     0.00000000   -0.00002312    0.00006627
     atom    6 type  1   force =    -0.00000379   -0.00009904   -0.00000490
     atom    7 type  1   force =     0.00000000   -0.00009550    0.00000500
     atom    8 type  1   force =    -0.00000359   -0.00002021   -0.00006592
     atom    9 type  1   force =    -0.00000387    0.00000000   -0.00003450
     atom   10 type  1   force =     0.00000000    0.00000000   -0.00005199
     atom   11 type  1   force =     0.00000000    0.00002312    0.00006627
     atom   12 type  1   force =    -0.00000379    0.00009904   -0.00000490
     atom   13 type  2   force =     0.00000000    0.00004651   -0.00005885
     atom   14 type  2   force =     0.00000000   -0.00004651   -0.00005885
     atom   15 type  2   force =    -0.00000000   -0.00004653    0.00005896
     atom   16 type  2   force =    -0.00000000    0.00004653    0.00005896
     atom   17 type  1   force =     0.00000000    0.00009528    0.00000416
     atom   18 type  1   force =     0.00000359    0.00002021   -0.00006592
     atom   19 type  1   force =     0.00000372   -0.00000000    0.00005098
     atom   20 type  1   force =     0.00000000   -0.00000000    0.00003598
     atom   21 type  1   force =     0.00000000   -0.00002347    0.00006543
     atom   22 type  1   force =     0.00000379   -0.00009904   -0.00000490
     atom   23 type  1   force =     0.00000000   -0.00009528    0.00000416
     atom   24 type  1   force =     0.00000359   -0.00002021   -0.00006592
     atom   25 type  1   force =     0.00000387    0.00000000   -0.00003450
     atom   26 type  1   force =     0.00000000    0.00000000   -0.00005069
     atom   27 type  1   force =     0.00000000    0.00002347    0.00006543
     atom   28 type  1   force =     0.00000379    0.00009904   -0.00000490
     atom   29 type  2   force =     0.00000000    0.00004644   -0.00005878
     atom   30 type  2   force =     0.00000000   -0.00004644   -0.00005878
     atom   31 type  2   force =     0.00000000   -0.00004653    0.00005896
     atom   32 type  2   force =     0.00000000    0.00004653    0.00005896

     Total force =     0.000418     Total SCF correction =     0.000102
     SCF correction compared to forces is large: reduce conv_thr to get better values


     Computing stress (Cartesian axis) and pressure


     negative rho (up, down):  6.842E-06 0.000E+00
          total   stress  (Ry/bohr**3)                   (kbar)     P=      -13.54
   0.00005638   0.00000000   0.00000000            8.29        0.00        0.00
   0.00000000  -0.00033023   0.00000000            0.00      -48.58        0.00
   0.00000000   0.00000000  -0.00000224            0.00        0.00       -0.33


     Writing all to output data dir /tmp/qe/slab.save/ :
     XML data file, charge density, pseudopotentials, collected wavefunctions

     init_run     :      2.31s CPU      2.44s WALL (       1 calls)
     electrons    :     55.47s CPU     57.52s WALL (       1 calls)
     forces       :      1.03s CPU      1.09s WALL (       1 calls)
     stress       :     14.09s CPU     14.28s WALL (       1 calls)

     Called by init_run:
     wfcinit      :      1.71s CPU      1.77s WALL (       1 calls)
     potinit      :      0.25s CPU      0.27s WALL (       1 calls)
     hinit0       :      0.07s CPU      0.09s WALL (       1 calls)

     Called by electrons:
     c_bands      :     42.81s CPU     44.01s WALL (      14 calls)
     sum_band     :      8.03s CPU      8.42s WALL (      14 calls)
     v_of_rho     :      1.57s CPU      1.73s WALL (      15 calls)
     newd         :      1.19s CPU      1.43s WALL (      15 calls)
     PAW_pot      :      1.85s CPU      1.88s WALL (      15 calls)
     mix_rho      :      0.19s CPU      0.22s WALL (      14 calls)

     Called by c_bands:
     init_us_2    :      1.32s CPU      1.34s WALL (     279 calls)
     cegterg      :     40.78s CPU     41.89s WALL (     126 calls)

     Called by *egterg:
     cdiaghg      :      1.87s CPU      1.90s WALL (     640 calls)
     h_psi        :     29.16s CPU     29.86s WALL (     649 calls)
     s_psi        :      3.05s CPU      3.09s WALL (     649 calls)
     g_psi        :      0.21s CPU      0.21s WALL (     514 calls)

     Called by h_psi:
     h_psi:calbec :      2.77s CPU      2.83s WALL (     649 calls)
     vloc_psi     :     23.07s CPU     23.46s WALL (     649 calls)
     add_vuspsi   :      3.11s CPU      3.13s WALL (     649 calls)

     General routines
     calbec       :      3.98s CPU      4.04s WALL (     820 calls)
     fft          :      0.92s CPU      1.03s WALL (     218 calls)
     ffts         :      0.03s CPU      0.04s WALL (      29 calls)
     fftw         :     19.36s CPU     19.68s WALL (   51680 calls)
     interpolate  :      0.07s CPU      0.08s WALL (      15 calls)

     Parallel routines

     PWSCF        :   1m13.12s CPU   1m15.75s WALL


   This run was terminated on:  12:42:41   1Aug2026            

=------------------------------------------------------------------------------=
   JOB DONE.
=------------------------------------------------------------------------------=
Note: The following floating-point exceptions are signalling: IEEE_UNDERFLOW_FLAG IEEE_DENORMAL
Note: The following floating-point exceptions are signalling: IEEE_UNDERFLOW_FLAG IEEE_DENORMAL
Note: The following floating-point exceptions are signalling: IEEE_UNDERFLOW_FLAG IEEE_DENORMAL
Note: The following floating-point exceptions are signalling: IEEE_UNDERFLOW_FLAG IEEE_DENORMAL
Note: The following floating-point exceptions are signalling: IEEE_UNDERFLOW_FLAG IEEE_DENORMAL
Note: The following floating-point exceptions are signalling: IEEE_UNDERFLOW_FLAG IEEE_DENORMAL
Note: The following floating-point exceptions are signalling: IEEE_UNDERFLOW_FLAG IEEE_DENORMAL
Note: The following floating-point exceptions are signalling: IEEE_UNDERFLOW_FLAG IEEE_DENORMAL
