
     Program PWSCF v.7.3.1 starts on  1Aug2026 at 13: 7:11 

     This program is part of the open-source Quantum ESPRESSO suite
     for quantum simulation of materials; please cite
         "P. Giannozzi et al., J. Phys.:Condens. Matter 21 395502 (2009);
         "P. Giannozzi et al., J. Phys.:Condens. Matter 29 465901 (2017);
         "P. Giannozzi et al., J. Chem. Phys. 152 154105 (2020);
          URL http://www.quantum-espresso.org", 
     in publications or presentations arising from this work. More details at
     http://www.quantum-espresso.org/quote

     Parallel version (MPI), running on     8 processors

     MPI processes distributed on     1 nodes
     180522 MiB available memory on the printing compute node when the environment starts

     Reading input from pw.in

     Current dimensions of program PWSCF are:
     Max number of different atomic species (ntypx) = 10
     Max number of k-points (npk) =  40000
     Max angular momentum in pseudopotentials (lmaxx) =  4
     file C.pbe-n-kjpaw_psl.1.0.0.UPF: wavefunction(s)  2S 2P renormalized
     Message from routine volume:
     axis vectors are left-handed
     Message from routine setup:
     using ibrav=0 with symmetry is DISCOURAGED, use correct ibrav instead

     R & G space division:  proc/nbgrp/npool/nimage =       8
     Subspace diagonalization in iterative solution of the eigenvalue problem:
     a serial algorithm will be used


     Parallelization info
     --------------------
     sticks:   dense  smooth     PW     G-vecs:    dense   smooth      PW
     Min         230     115     32                40002    14149    2184
     Max         231     116     33                40021    14166    2203
     Sum        1845     921    263               320103   113231   17569

     Using Slab Decomposition



     bravais-lattice index     =            0
     lattice parameter (alat)  =       4.7752  a.u.
     unit-cell volume          =     980.9734 (a.u.)^3
     number of atoms/cell      =           16
     number of atomic types    =            2
     number of electrons       =        52.00
     number of Kohn-Sham states=           31
     kinetic-energy cutoff     =      90.0000  Ry
     charge density cutoff     =     720.0000  Ry
     scf convergence threshold =      1.0E-08
     mixing beta               =       0.3000
     number of iterations used =            8  plain     mixing
     energy convergence thresh.=      1.0E-05
     force convergence thresh. =      1.0E-04
     Exchange-correlation= PBE
                           (   1   4   3   4   0   0   0)
     nstep                     =           50


     celldm(1)=   4.775235  celldm(2)=   0.000000  celldm(3)=   0.000000
     celldm(4)=   0.000000  celldm(5)=   0.000000  celldm(6)=   0.000000

     crystal axes: (cart. coord. in units of alat)
               a(1) = (   1.000000   0.000000   0.000000 )  
               a(2) = (   0.000000  -1.414214   0.000000 )  
               a(3) = (   0.000000   0.000000   6.370270 )  

     reciprocal axes: (cart. coord. in units 2 pi/alat)
               b(1) = (  1.000000 -0.000000 -0.000000 )  
               b(2) = ( -0.000000 -0.707107 -0.000000 )  
               b(3) = ( -0.000000 -0.000000  0.156979 )  


     PseudoPot. # 1 for C  read from file:
     ./C.pbe-n-kjpaw_psl.1.0.0.UPF
     MD5 check sum: 5d2aebdfa2cae82b50a7e79e9516da0f
     Pseudo is Projector augmented-wave + core cor, Zval =  4.0
     Generated using "atomic" code by A. Dal Corso  v.5.1
     Shape of augmentation charge: PSQ
     Using radial grid of 1073 points,  4 beta functions with: 
                l(1) =   0
                l(2) =   0
                l(3) =   1
                l(4) =   1
     Q(r) pseudized with 0 coefficients 


     PseudoPot. # 2 for H  read from file:
     ./H_ONCV_PBE-1.0.oncvpsp.upf
     MD5 check sum: 1790becc920ee074925cf490c71280fe
     Pseudo is Norm-conserving, Zval =  1.0
     Generated using ONCVPSP code by D. R. Hamann
     Using radial grid of 1166 points,  2 beta functions with: 
                l(1) =   0
                l(2) =   0

     atomic species   valence    mass     pseudopotential
     C                 4.00    12.01100     C ( 1.00)
     H                 1.00     1.00800     H ( 1.00)

      8 Sym. Ops., with inversion, found ( 6 have fractional translation)



   Cartesian axes

     site n.     atom                  positions (alat units)
         1        C      tau(   1) = (   0.0000000  -0.3535534   4.4351350  )
         2        C      tau(   2) = (   0.5000000  -0.7071068   4.4351350  )
         3        C      tau(   3) = (   0.5000000  -1.0606602   3.9351350  )
         4        C      tau(   4) = (   0.0000000   0.0000000   3.9351350  )
         5        C      tau(   5) = (   0.0000000  -0.3535534   3.4351350  )
         6        C      tau(   6) = (   0.5000000  -0.7071068   3.4351350  )
         7        C      tau(   7) = (   0.0000000   0.0000000   2.9351350  )
         8        C      tau(   8) = (   0.5000000  -1.0606602   2.9351350  )
         9        C      tau(   9) = (   0.0000000  -0.3535534   2.4351350  )
        10        C      tau(  10) = (   0.5000000  -0.7071068   2.4351350  )
        11        C      tau(  11) = (   0.0000000   0.0000000   1.9351350  )
        12        C      tau(  12) = (   0.5000000  -1.0606602   1.9351350  )
        13        H      tau(  13) = (   0.0000000  -0.1045129   4.7873315  )
        14        H      tau(  14) = (   0.5000000  -0.9561473   4.7873315  )
        15        H      tau(  15) = (   0.0000000  -0.2490405   1.5829386  )
        16        H      tau(  16) = (   0.5000000  -0.8116197   1.5829386  )

     number of k points=    20  Marzari-Vanderbilt smearing, width (Ry)=  0.0100
                       cart. coord. in units 2pi/alat
        k(    1) = (   0.0000000  -0.0000000   0.0000000), wk =   0.0317460
        k(    2) = (   0.0000000  -0.1010153   0.0000000), wk =   0.0634921
        k(    3) = (   0.0000000  -0.2020305   0.0000000), wk =   0.0634921
        k(    4) = (   0.0000000  -0.3030458   0.0000000), wk =   0.0634921
        k(    5) = (   0.1111111  -0.0000000   0.0000000), wk =   0.0634921
        k(    6) = (   0.1111111  -0.1010153   0.0000000), wk =   0.1269841
        k(    7) = (   0.1111111  -0.2020305   0.0000000), wk =   0.1269841
        k(    8) = (   0.1111111  -0.3030458   0.0000000), wk =   0.1269841
        k(    9) = (   0.2222222  -0.0000000   0.0000000), wk =   0.0634921
        k(   10) = (   0.2222222  -0.1010153   0.0000000), wk =   0.1269841
        k(   11) = (   0.2222222  -0.2020305   0.0000000), wk =   0.1269841
        k(   12) = (   0.2222222  -0.3030458   0.0000000), wk =   0.1269841
        k(   13) = (   0.3333333  -0.0000000   0.0000000), wk =   0.0634921
        k(   14) = (   0.3333333  -0.1010153   0.0000000), wk =   0.1269841
        k(   15) = (   0.3333333  -0.2020305   0.0000000), wk =   0.1269841
        k(   16) = (   0.3333333  -0.3030458   0.0000000), wk =   0.1269841
        k(   17) = (   0.4444444  -0.0000000   0.0000000), wk =   0.0634921
        k(   18) = (   0.4444444  -0.1010153   0.0000000), wk =   0.1269841
        k(   19) = (   0.4444444  -0.2020305   0.0000000), wk =   0.1269841
        k(   20) = (   0.4444444  -0.3030458   0.0000000), wk =   0.1269841

     Dense  grid:   320103 G-vectors     FFT dimensions: (  48,  60, 270)

     Smooth grid:   113231 G-vectors     FFT dimensions: (  30,  48, 192)

     Estimated max dynamical RAM per process >      93.32 MB

     Estimated total dynamical RAM >     746.59 MB

     Initial potential from superposition of free atoms

     starting charge      51.9995, renormalised to      52.0000
     Starting wfcs are   52 randomized atomic wfcs
     Checking if some PAW data can be deallocated... 

     total cpu time spent up to now is        1.5 secs

     Self-consistent Calculation

     iteration #  1     ecut=    90.00 Ry     beta= 0.30
     Davidson diagonalization with overlap
     ethr =  1.00E-02,  avg # of iterations =  2.8

     total cpu time spent up to now is        3.4 secs

     total energy              =    -226.01308679 Ry
     estimated scf accuracy    <       1.15855887 Ry

     iteration #  2     ecut=    90.00 Ry     beta= 0.30
     Davidson diagonalization with overlap
     ethr =  2.23E-03,  avg # of iterations =  4.3

     negative rho (up, down):  1.676E-07 0.000E+00

     total cpu time spent up to now is        5.0 secs

     total energy              =    -225.91828893 Ry
     estimated scf accuracy    <       0.37330171 Ry

     iteration #  3     ecut=    90.00 Ry     beta= 0.30
     Davidson diagonalization with overlap
     ethr =  7.18E-04,  avg # of iterations =  5.0

     negative rho (up, down):  1.310E-06 0.000E+00

     total cpu time spent up to now is        6.6 secs

     total energy              =    -225.93323772 Ry
     estimated scf accuracy    <       0.04737172 Ry

     iteration #  4     ecut=    90.00 Ry     beta= 0.30
     Davidson diagonalization with overlap
     ethr =  9.11E-05,  avg # of iterations =  4.5

     negative rho (up, down):  2.762E-06 0.000E+00

     total cpu time spent up to now is        8.3 secs

     total energy              =    -225.93620562 Ry
     estimated scf accuracy    <       0.00485196 Ry

     iteration #  5     ecut=    90.00 Ry     beta= 0.30
     Davidson diagonalization with overlap
     c_bands:  1 eigenvalues not converged
     ethr =  9.33E-06,  avg # of iterations =  6.8

     negative rho (up, down):  2.792E-06 0.000E+00

     total cpu time spent up to now is       10.3 secs

     total energy              =    -225.93677683 Ry
     estimated scf accuracy    <       0.00051310 Ry

     iteration #  6     ecut=    90.00 Ry     beta= 0.30
     Davidson diagonalization with overlap
     c_bands:  1 eigenvalues not converged
     ethr =  9.87E-07,  avg # of iterations =  5.5

     negative rho (up, down):  3.110E-06 0.000E+00

     total cpu time spent up to now is       12.3 secs

     total energy              =    -225.93687702 Ry
     estimated scf accuracy    <       0.00008031 Ry

     iteration #  7     ecut=    90.00 Ry     beta= 0.30
     Davidson diagonalization with overlap
     ethr =  1.54E-07,  avg # of iterations =  2.6

     negative rho (up, down):  3.097E-06 0.000E+00

     total cpu time spent up to now is       13.8 secs

     total energy              =    -225.93688311 Ry
     estimated scf accuracy    <       0.00002405 Ry

     iteration #  8     ecut=    90.00 Ry     beta= 0.30
     Davidson diagonalization with overlap
     ethr =  4.62E-08,  avg # of iterations =  2.2

     negative rho (up, down):  3.120E-06 0.000E+00

     total cpu time spent up to now is       15.5 secs

     total energy              =    -225.93688681 Ry
     estimated scf accuracy    <       0.00000280 Ry

     iteration #  9     ecut=    90.00 Ry     beta= 0.30
     Davidson diagonalization with overlap
     ethr =  5.38E-09,  avg # of iterations =  2.6

     negative rho (up, down):  3.132E-06 0.000E+00

     total cpu time spent up to now is       17.2 secs

     total energy              =    -225.93688749 Ry
     estimated scf accuracy    <       0.00000229 Ry

     iteration # 10     ecut=    90.00 Ry     beta= 0.30
     Davidson diagonalization with overlap
     ethr =  4.41E-09,  avg # of iterations =  2.0

     negative rho (up, down):  3.145E-06 0.000E+00

     total cpu time spent up to now is       18.7 secs

     total energy              =    -225.93688765 Ry
     estimated scf accuracy    <       0.00000031 Ry

     iteration # 11     ecut=    90.00 Ry     beta= 0.30
     Davidson diagonalization with overlap
     ethr =  6.04E-10,  avg # of iterations =  3.1

     negative rho (up, down):  3.160E-06 0.000E+00

     total cpu time spent up to now is       20.5 secs

     total energy              =    -225.93688776 Ry
     estimated scf accuracy    <       0.00000007 Ry

     iteration # 12     ecut=    90.00 Ry     beta= 0.30
     Davidson diagonalization with overlap
     ethr =  1.37E-10,  avg # of iterations =  2.9

     negative rho (up, down):  3.170E-06 0.000E+00

     total cpu time spent up to now is       22.1 secs

     total energy              =    -225.93688774 Ry
     estimated scf accuracy    <       0.00000008 Ry

     iteration # 13     ecut=    90.00 Ry     beta= 0.30
     Davidson diagonalization with overlap
     ethr =  1.37E-10,  avg # of iterations =  2.4

     negative rho (up, down):  3.202E-06 0.000E+00

     total cpu time spent up to now is       23.8 secs

     End of self-consistent calculation

          k = 0.0000-0.0000 0.0000 ( 14193 PWs)   bands (ev):

   -15.8850 -14.7480 -13.0233 -10.8785  -8.6766  -7.6011  -7.2695  -6.2895
    -4.7758  -4.3961  -3.9671  -2.9836  -2.8027  -2.1174  -0.8385  -0.8127
    -0.4495   0.1218   1.4461   1.6267   2.0921   2.9025   3.9415   4.1506
     4.2613   4.8939   6.9855   7.2882   9.8113  10.2234  10.7229

          k = 0.0000-0.1010 0.0000 ( 14153 PWs)   bands (ev):

   -15.6987 -14.5666 -12.8567 -10.7786  -9.4797  -9.1642  -6.7845  -5.9996
    -5.5205  -4.0828  -3.4991  -2.9969  -1.8843  -1.8827  -1.1140  -0.6368
     0.1491   0.2722   1.4241   1.5357   2.2819   2.8606   3.6915   3.8690
     4.1070   4.3287   7.1965   7.5162  10.0004  10.1750  11.2371

          k = 0.0000-0.2020 0.0000 ( 14130 PWs)   bands (ev):

   -15.1420 -14.0268 -12.3749 -11.3667 -10.5746 -10.4821  -7.3830  -6.6824
    -5.5674  -4.3212  -3.1174  -1.7508  -1.6751  -0.7508  -0.2446  -0.1162
     0.4119   0.7113   1.7828   1.9347   2.0139   2.7191   3.1232   3.1538
     3.2666   3.6167   7.8501   8.0989  10.3082  10.4516  10.9343

          k = 0.0000-0.3030 0.0000 ( 14124 PWs)   bands (ev):

   -14.2230 -13.1639 -12.9305 -12.0048 -11.5288 -10.8228  -7.7924  -7.0879
    -5.7333  -4.6785  -3.0523  -1.9307  -0.4808   0.1924   0.7256   0.7280
     1.2375   1.3994   1.8389   1.9948   2.1203   2.2080   2.2627   2.4652
     2.5661   2.7160   8.8925   8.9398   9.9778  10.3851  10.7899

          k = 0.1111-0.0000 0.0000 ( 14169 PWs)   bands (ev):

   -15.6589 -14.5242 -12.8031 -10.6637  -8.4700  -7.3999  -7.2041  -6.2336
    -4.7351  -4.2040  -3.7604  -2.8289  -2.7836  -1.9191  -1.8343  -0.8677
    -0.7582  -0.4624   0.4949   1.5402   1.9349   2.0602   3.1592   3.4747
     3.8058   4.1543   7.2165   7.5276   9.8490  10.8831  10.9372

          k = 0.1111-0.1010 0.0000 ( 14133 PWs)   bands (ev):

   -15.4731 -14.3434 -12.6375 -10.5657  -9.2974  -8.9696  -6.6325  -5.8667
    -5.4419  -3.9794  -3.3883  -2.9761  -1.8630  -1.7127  -1.5554  -1.1026
    -0.6128   0.1080   0.6487   1.3969   1.9287   2.0414   2.7902   2.8993
     3.6541   4.1552   7.4469   7.7579  10.1739  11.1620  11.3510

          k = 0.1111-0.2020 0.0000 ( 14132 PWs)   bands (ev):

   -14.9181 -13.8057 -12.1588 -11.1631 -10.3682 -10.2835  -7.2005  -6.4910
    -5.4118  -4.1926  -3.0478  -2.1336  -1.6679  -1.0714  -0.5726  -0.2571
    -0.0095   0.3147   1.1700   1.5161   1.7041   1.7443   1.7798   2.1418
     3.2800   3.9420   8.1102   8.3733  10.7704  11.2340  11.5286

          k = 0.1111-0.3030 0.0000 ( 14139 PWs)   bands (ev):

   -14.0024 -12.9469 -12.7162 -11.7938 -11.3202 -10.6193  -7.5924  -6.8950
    -5.5527  -4.5089  -2.9337  -1.8207  -1.0439  -0.4061  -0.1276   0.2246
     0.6012   0.8392   0.9981   1.1651   1.4320   1.7603   1.9930   2.2494
     2.8179   2.9216   9.1543   9.2729  10.4670  10.6758  11.5822

          k = 0.2222-0.0000 0.0000 ( 14152 PWs)   bands (ev):

   -14.9839 -13.8561 -12.1465 -10.0233  -7.8531  -7.3153  -6.7980  -6.3533
    -4.8692  -3.6478  -3.5295  -3.1572  -2.9441  -2.5397  -2.3982  -1.3401
    -1.1767  -0.6618  -0.5879   0.2292   1.1503   1.2401   1.6423   1.7665
     2.1573   3.7479   7.9521   8.2019  10.0477  10.2131  10.7513

          k = 0.2222-0.1010 0.0000 ( 14114 PWs)   bands (ev):

   -14.7998 -13.6775 -11.9840  -9.9316  -8.8186  -8.4121  -6.3432  -5.6904
    -5.5924  -3.8713  -3.4920  -3.4439  -2.3436  -2.2475  -1.6733  -1.2979
    -1.0731  -0.4475  -0.3681   0.3232   0.5305   0.7261   1.3582   1.6079
     2.9976   3.3720   8.1931   8.4456  10.6502  10.6994  10.9327

          k = 0.2222-0.2020 0.0000 ( 14117 PWs)   bands (ev):

   -14.2506 -13.1470 -11.5152 -10.5751  -9.7547  -9.7071  -6.7118  -5.9879
    -5.0261  -4.7062  -3.2213  -3.1720  -2.5719  -1.7083  -1.1072  -0.8620
    -0.5345  -0.3284  -0.2471   0.1792   0.2810   0.6357   1.0085   1.8558
     2.6639   3.3674   8.8585   9.0807  11.3628  11.8703  11.9484

          k = 0.2222-0.3030 0.0000 ( 14151 PWs)   bands (ev):

   -13.3466 -12.3022 -12.0832 -11.1703 -10.7012 -10.0154  -7.0275  -6.3513
    -5.0791  -4.0685  -3.6924  -2.5479  -2.3872  -2.1855  -1.3658  -1.1939
    -1.1396  -0.6426   0.1475   1.0073   1.1821   1.2257   1.4091   1.6922
     2.3954   2.8037   9.8448   9.9624  11.2558  11.3689  12.6896

          k = 0.3333-0.0000 0.0000 ( 14106 PWs)   bands (ev):

   -13.8718 -12.7565 -11.0670  -8.9710  -8.5440  -7.5290  -6.8360  -5.9803
    -5.8012  -4.0140  -3.8788  -2.9819  -2.7966  -2.2162  -1.9059  -1.8032
    -1.7261  -0.7648  -0.5819  -0.5392  -0.4315  -0.0694   0.2701   0.3965
     1.1571   2.9881   9.1000   9.1338   9.9347  10.1885  11.2810

          k = 0.3333-0.1010 0.0000 ( 14126 PWs)   bands (ev):

   -13.6916 -12.5826 -10.9108  -8.9045  -8.7484  -7.9068  -6.6324  -6.5303
    -6.0584  -4.2084  -3.9830  -3.0750  -2.9781  -2.2456  -1.8565  -1.6359
    -1.4785  -1.1791  -0.6269  -0.5849  -0.3641  -0.1975   0.5428   0.9406
     1.4007   2.7994   9.3503   9.4685  10.3880  10.5808  11.1782

          k = 0.3333-0.2020 0.0000 ( 14157 PWs)   bands (ev):

   -13.1558 -12.0681 -10.4627  -9.7770  -8.8965  -8.7603  -6.6793  -6.3283
    -6.1145  -4.8466  -4.1543  -3.5322  -3.4416  -3.1519  -2.3911  -1.9805
    -1.5374  -0.4725  -0.2053  -0.0639   0.0538   0.4168   0.5063   0.8563
     2.2580   2.3021   9.9792  10.0735  11.3548  11.6322  11.9338

          k = 0.3333-0.3030 0.0000 ( 14183 PWs)   bands (ev):

   -12.2816 -11.2600 -11.0851 -10.1839  -9.7032  -9.0429  -6.3293  -5.9781
    -5.6840  -5.3293  -4.8548  -4.3239  -3.6932  -3.2554  -2.7485  -2.5677
    -1.4506  -0.7484  -0.2120  -0.0388   0.5878   0.9845   1.2722   1.5143
     1.7331   2.3592  10.7127  10.7908  12.0718  12.1787  12.4142

          k = 0.4444-0.0000 0.0000 ( 14102 PWs)   bands (ev):

   -12.3512 -11.2555 -10.4951  -9.5965  -9.4298  -7.8152  -7.5380  -5.8013
    -5.4400  -4.4212  -3.7153  -2.9214  -2.6822  -2.2027  -1.7929  -1.4069
    -1.3937  -1.3005  -1.0269  -0.9368  -0.9359  -0.8371  -0.8059   0.1698
     0.7074   1.9165   9.6447  10.3330  10.4074  10.7096  10.8078

          k = 0.4444-0.1010 0.0000 ( 14146 PWs)   bands (ev):

   -12.1809 -11.0931 -10.3655  -9.4554  -9.3119  -7.7579  -7.4145  -5.7744
    -5.7172  -5.6576  -4.0568  -3.9514  -3.0445  -2.3824  -1.9223  -1.6889
    -1.3957  -1.1010  -0.7850  -0.6786  -0.6013  -0.3634  -0.1630   0.3276
     0.8175   1.8992  10.2649  10.2750  10.4419  10.9786  11.4119

          k = 0.4444-0.2020 0.0000 ( 14173 PWs)   bands (ev):

   -11.6830 -10.6217 -10.0748  -9.1052  -9.0124  -7.7033  -7.1690  -7.0061
    -6.4741  -5.7916  -5.5545  -5.0123  -3.3503  -3.2734  -2.2898  -2.0838
    -1.5759  -1.2920  -0.7950  -0.1033   0.0854   0.1228   0.6070   1.0669
     1.2510   1.8224  10.8431  11.0107  11.2769  11.4507  12.0029

          k = 0.4444-0.3030 0.0000 ( 14184 PWs)   bands (ev):

   -10.9195 -10.1633  -9.9023  -9.2045  -8.4532  -7.9162  -7.6904  -6.9581
    -6.7768  -6.5271  -6.0759  -5.9865  -3.7000  -3.3414  -2.7724  -2.3973
    -1.7723  -1.4813  -0.6307  -0.2761   0.1971   0.3087   1.3767   1.5559
     1.6742   1.7956  11.4412  11.4451  11.9724  12.0794  13.1847

     the Fermi energy is     5.6041 ev

!    total energy              =    -225.93688776 Ry
     estimated scf accuracy    <          1.9E-09 Ry
     smearing contrib. (-TS)   =       0.00000000 Ry
     internal energy E=F+TS    =    -225.93688776 Ry

     The total energy is F=E-TS. E is the sum of the following terms:
     one-electron contribution =   -1220.79520157 Ry
     hartree contribution      =     634.52541901 Ry
     xc contribution           =     -59.07712857 Ry
     ewald contribution        =     493.36524187 Ry
     one-center paw contrib.   =     -73.95521849 Ry

     convergence has been achieved in  13 iterations

     negative rho (up, down):  3.202E-06 0.000E+00

     Forces acting on atoms (cartesian axes, Ry/au):

     atom    1 type  1   force =     0.00000000   -0.04625436   -0.02091708
     atom    2 type  1   force =     0.00000000    0.04625436   -0.02091708
     atom    3 type  1   force =     0.00000000   -0.00264652    0.00941821
     atom    4 type  1   force =     0.00000000    0.00264652    0.00941821
     atom    5 type  1   force =     0.00000000   -0.00082811    0.00065380
     atom    6 type  1   force =     0.00000000    0.00082811    0.00065380
     atom    7 type  1   force =     0.00000000    0.00082811   -0.00065380
     atom    8 type  1   force =     0.00000000   -0.00082811   -0.00065380
     atom    9 type  1   force =     0.00000000   -0.00264652   -0.00941821
     atom   10 type  1   force =     0.00000000    0.00264652   -0.00941821
     atom   11 type  1   force =     0.00000000    0.04625436    0.02091708
     atom   12 type  1   force =     0.00000000   -0.04625436    0.02091708
     atom   13 type  2   force =     0.00000000   -0.00339816    0.00974561
     atom   14 type  2   force =     0.00000000    0.00339816    0.00974561
     atom   15 type  2   force =     0.00000000    0.00339816   -0.00974561
     atom   16 type  2   force =     0.00000000   -0.00339816   -0.00974561

     Total force =     0.105458     Total SCF correction =     0.000125

     BFGS Geometry Optimization
     Energy error            =      0.0E+00 Ry
     Gradient error          =      4.6E-02 Ry/Bohr

     number of scf cycles    =   1
     number of bfgs steps    =   0

     energy             new  =    -225.9368877598 Ry

     new trust radius        =       0.0507640645 bohr
     new conv_thr            =       0.0000000100 Ry


ATOMIC_POSITIONS (angstrom)
C                0.0000000000       -0.9178870044       11.1962768881
C                1.2634728900       -1.7623437456       11.1962768881
C                1.2634728900       -2.6816312294        9.9488567417
C                0.0000000000        0.0014004794        9.9488567417
C                0.0000000000       -0.8938484647        8.6807459272
C                1.2634728900       -1.7863822853        8.6807459272
C                0.0000000000        0.0004382147        7.4165810828
C                1.2634728900       -2.6806689647        7.4165810828
C                0.0000000000       -0.8948107294        6.1484702683
C                1.2634728900       -1.7854200206        6.1484702683
C                0.0000000000        0.0244767544        4.9010501119
C                1.2634728900       -2.7047075044        4.9010501119
H                0.0000000000       -0.2658966878       12.1024841626
H                1.2634728900       -2.4143340622       12.1024841626
H                0.0000000000       -0.6275135622        3.9948428474
H                1.2634728900       -2.0527171878        3.9948428474



     Writing config-only to output data dir /tmp/qe/slab.save/ :
     XML data file
     NEW-OLD atomic charge density approx. for the potential

     negative rho (up, down):  2.996E-06 0.000E+00

     total cpu time spent up to now is       24.4 secs

     Self-consistent Calculation

     iteration #  1     ecut=    90.00 Ry     beta= 0.30
     Davidson diagonalization with overlap
     c_bands:  1 eigenvalues not converged
     c_bands:  1 eigenvalues not converged
     c_bands:  1 eigenvalues not converged
     ethr =  1.00E-06,  avg # of iterations = 11.4

     negative rho (up, down):  2.654E-06 0.000E+00

     total cpu time spent up to now is       27.8 secs

     total energy              =    -225.93983759 Ry
     estimated scf accuracy    <       0.00141374 Ry

     iteration #  2     ecut=    90.00 Ry     beta= 0.30
     Davidson diagonalization with overlap
     ethr =  2.72E-06,  avg # of iterations =  1.4

     negative rho (up, down):  2.459E-06 0.000E+00

     total cpu time spent up to now is       29.1 secs

     total energy              =    -225.93970477 Ry
     estimated scf accuracy    <       0.00051884 Ry

     iteration #  3     ecut=    90.00 Ry     beta= 0.30
     Davidson diagonalization with overlap
     ethr =  9.98E-07,  avg # of iterations =  2.2

     negative rho (up, down):  2.469E-06 0.000E+00

     total cpu time spent up to now is       30.7 secs

     total energy              =    -225.93976979 Ry
     estimated scf accuracy    <       0.00002474 Ry

     iteration #  4     ecut=    90.00 Ry     beta= 0.30
     Davidson diagonalization with overlap
     ethr =  4.76E-08,  avg # of iterations =  1.9

     negative rho (up, down):  2.544E-06 0.000E+00

     total cpu time spent up to now is       32.1 secs

     total energy              =    -225.93977259 Ry
     estimated scf accuracy    <       0.00000634 Ry

     iteration #  5     ecut=    90.00 Ry     beta= 0.30
     Davidson diagonalization with overlap
     ethr =  1.22E-08,  avg # of iterations =  2.2

     negative rho (up, down):  2.545E-06 0.000E+00

     total cpu time spent up to now is       33.8 secs

     total energy              =    -225.93977351 Ry
     estimated scf accuracy    <       0.00000116 Ry

     iteration #  6     ecut=    90.00 Ry     beta= 0.30
     Davidson diagonalization with overlap
     ethr =  2.23E-09,  avg # of iterations =  2.7

     negative rho (up, down):  2.559E-06 0.000E+00

     total cpu time spent up to now is       35.4 secs

     total energy              =    -225.93977367 Ry
     estimated scf accuracy    <       0.00000047 Ry

     iteration #  7     ecut=    90.00 Ry     beta= 0.30
     Davidson diagonalization with overlap
     ethr =  8.96E-10,  avg # of iterations =  2.3

     negative rho (up, down):  2.549E-06 0.000E+00

     total cpu time spent up to now is       37.1 secs

     total energy              =    -225.93977377 Ry
     estimated scf accuracy    <       0.00000003 Ry

     iteration #  8     ecut=    90.00 Ry     beta= 0.30
     Davidson diagonalization with overlap
     ethr =  5.07E-11,  avg # of iterations =  2.4

     negative rho (up, down):  2.555E-06 0.000E+00

     total cpu time spent up to now is       38.7 secs

     End of self-consistent calculation

          k = 0.0000-0.0000 0.0000 ( 14193 PWs)   bands (ev):

   -15.9404 -14.8599 -13.1355 -10.9542  -8.7424  -7.6529  -7.2914  -6.3285
    -4.7682  -4.4601  -3.9732  -3.0079  -2.7012  -2.1048  -0.9054  -0.8206
    -0.3006  -0.1077   1.1215   1.6059   2.2992   2.5828   3.8692   3.8970
     4.3874   4.7638   7.0084   7.2677   9.7472  10.1321  10.6046

          k = 0.0000-0.1010 0.0000 ( 14153 PWs)   bands (ev):

   -15.7542 -14.6794 -12.9721 -10.8656  -9.5185  -9.2468  -6.8025  -5.9931
    -5.5393  -4.0361  -3.5287  -3.0340  -1.8709  -1.8320  -1.0625  -0.7306
     0.0399   0.2285   1.2070   1.5340   2.3322   2.5383   3.6244   3.7593
     4.0982   4.2127   7.2135   7.5089   9.9326  10.1017  11.0197

          k = 0.0000-0.2020 0.0000 ( 14130 PWs)   bands (ev):

   -15.1984 -14.1438 -12.5051 -11.4255 -10.6677 -10.5629  -7.3511  -6.7081
    -5.4869  -4.3415  -3.0526  -1.7433  -1.7071  -0.7567  -0.2139  -0.1214
     0.4183   0.4683   1.4388   1.9802   2.1145   2.3893   2.9343   3.0337
     3.2626   3.6197   7.8592   8.0851  10.2587  10.3391  10.9263

          k = 0.0000-0.3030 0.0000 ( 14124 PWs)   bands (ev):

   -14.2823 -13.3153 -12.9536 -12.1797 -11.5730 -10.9395  -7.7436  -7.0717
    -5.6885  -4.6722  -2.9839  -1.8982  -0.4028   0.1717   0.6160   0.8035
     1.1129   1.2085   1.6927   1.7472   2.0099   2.1411   2.1839   2.2069
     2.6169   2.7243   8.8765   8.8924   9.9148  10.3694  10.7557

          k = 0.1111-0.0000 0.0000 ( 14169 PWs)   bands (ev):

   -15.7143 -14.6363 -12.9161 -10.7404  -8.5368  -7.4525  -7.2247  -6.2693
    -4.7229  -4.2660  -3.7634  -2.8542  -2.6790  -1.9266  -1.9051  -1.0921
    -0.7458  -0.3141   0.1826   1.5136   1.6594   2.2335   2.9282   3.4143
     3.6925   4.2733   7.2211   7.4975   9.7377  10.8353  10.9435

          k = 0.1111-0.1010 0.0000 ( 14133 PWs)   bands (ev):

   -15.5287 -14.4565 -12.7536 -10.6538  -9.3355  -9.0525  -6.6484  -5.8568
    -5.4628  -3.9303  -3.4129  -3.0142  -1.8219  -1.7038  -1.6499  -1.0463
    -0.8333   0.1765   0.3404   1.5021   1.6325   2.0495   2.7148   2.7255
     3.7168   4.1078   7.4537   7.7389  10.0823  11.1498  11.3752

          k = 0.1111-0.2020 0.0000 ( 14132 PWs)   bands (ev):

   -14.9745 -13.9230 -12.2898 -11.2216 -10.4624 -10.3641  -7.1665  -6.5156
    -5.3292  -4.2109  -3.0086  -2.1155  -1.7322  -1.1230  -0.6574  -0.1327
    -0.1079   0.1420   0.9420   1.4190   1.5165   1.6456   1.7539   2.1854
     3.2293   3.9134   8.1147   8.3542  10.6815  11.2164  11.5142

          k = 0.1111-0.3030 0.0000 ( 14139 PWs)   bands (ev):

   -14.0618 -13.0986 -12.7391 -11.9690 -11.3647 -10.7365  -7.5422  -6.8769
    -5.5068  -4.4993  -2.8721  -1.7917  -1.0975  -0.3819  -0.2764   0.1949
     0.4571   0.6339   0.9504   1.1411   1.1713   1.6652   1.9301   2.2880
     2.7868   2.8790   9.1402   9.2289  10.4098  10.6604  11.5646

          k = 0.2222-0.0000 0.0000 ( 14152 PWs)   bands (ev):

   -15.0393 -13.9690 -12.2615 -10.1025  -7.9230  -7.3372  -6.8528  -6.3914
    -4.8625  -3.7030  -3.6177  -3.1505  -2.8505  -2.7499  -2.4264  -1.4545
    -1.3215  -0.5926  -0.5327  -0.0304   1.0442   1.1058   1.5462   1.9490
     2.1091   3.8568   7.9218   8.1359  10.0717  10.0842  10.7443

          k = 0.2222-0.1010 0.0000 ( 14114 PWs)   bands (ev):

   -14.8554 -13.7913 -12.1022 -10.0227  -8.8533  -8.4947  -6.3617  -5.7300
    -5.5810  -3.9042  -3.5235  -3.4470  -2.3933  -2.3782  -1.8193  -1.2079
    -1.0749  -0.6192  -0.4897   0.2643   0.4228   0.5788   1.4796   1.5690
     2.9552   3.4587   8.1734   8.3924  10.5345  10.7082  10.9167

          k = 0.2222-0.2020 0.0000 ( 14117 PWs)   bands (ev):

   -14.3070 -13.2649 -11.6484 -10.6315  -9.8524  -9.7859  -6.6718  -6.0120
    -4.9477  -4.7596  -3.3122  -3.2604  -2.4894  -1.9016  -1.1661  -0.9250
    -0.6275  -0.5131  -0.3485   0.1444   0.3171   0.5501   1.0309   1.8965
     2.6666   3.3278   8.8447   9.0383  11.2785  11.8487  11.9482

          k = 0.2222-0.3030 0.0000 ( 14151 PWs)   bands (ev):

   -13.4058 -12.4545 -12.1054 -11.3450 -10.7474 -10.1337  -6.9732  -6.3267
    -5.0380  -4.0546  -3.7546  -2.7229  -2.4269  -2.1455  -1.5910  -1.3339
    -1.0943  -0.9050   0.2249   1.0290   1.1568   1.2008   1.3966   1.6472
     2.3489   2.7666   9.8061   9.8958  11.2000  11.3460  12.5735

          k = 0.3333-0.0000 0.0000 ( 14106 PWs)   bands (ev):

   -13.9272 -12.8702 -11.1845  -9.0534  -8.5846  -7.6110  -6.9103  -6.0472
    -5.8596  -4.0261  -3.9446  -3.1342  -2.8391  -2.1919  -1.9928  -1.8476
    -1.8347  -0.8611  -0.7026  -0.5706  -0.4051  -0.1070   0.2003   0.3479
     1.3034   3.0754   9.0268   9.0514   9.9249  10.2241  11.1873

          k = 0.3333-0.1010 0.0000 ( 14126 PWs)   bands (ev):

   -13.7471 -12.6971 -11.0314  -9.0022  -8.7783  -7.9810  -6.7283  -6.6032
    -6.0993  -4.2696  -3.9876  -3.1485  -3.0772  -2.2714  -1.9292  -1.6733
    -1.6613  -1.2174  -0.7206  -0.5736  -0.3855  -0.1949   0.4635   1.0854
     1.3338   2.8834   9.2997   9.3751  10.3769  10.5586  11.2880

          k = 0.3333-0.2020 0.0000 ( 14157 PWs)   bands (ev):

   -13.2117 -12.1861 -10.5979  -9.8240  -8.9669  -8.8659  -6.7576  -6.3092
    -6.2315  -4.8673  -4.1379  -3.7543  -3.5054  -3.1877  -2.3827  -2.1982
    -1.5014  -0.4621  -0.2213  -0.1709   0.0416   0.4359   0.5684   0.8070
     2.1955   2.3714   9.9222   9.9929  11.3363  11.5499  11.8927

          k = 0.3333-0.3030 0.0000 ( 14183 PWs)   bands (ev):

   -12.3396 -11.4115 -11.1046 -10.3493  -9.7561  -9.1605  -6.3062  -6.0348
    -5.6654  -5.4694  -4.9045  -4.4662  -3.6792  -3.3763  -2.7948  -2.7881
    -1.3655  -0.6689  -0.2281  -0.0939   0.6401   0.9682   1.2233   1.4770
     1.7555   2.3081  10.5881  10.6531  12.0510  12.1615  12.3736

          k = 0.4444-0.0000 0.0000 ( 14102 PWs)   bands (ev):

   -12.4057 -11.3686 -10.5465  -9.7144  -9.5369  -7.9242  -7.6212  -5.8729
    -5.5179  -4.4843  -3.7881  -2.9726  -2.7499  -2.3140  -1.8179  -1.5133
    -1.4461  -1.3320  -1.0541  -1.0057  -0.9550  -0.8854  -0.8399   0.2686
     0.7487   1.9783   9.6555  10.2224  10.4199  10.6914  10.8206

          k = 0.4444-0.1010 0.0000 ( 14146 PWs)   bands (ev):

   -12.2353 -11.2065 -10.4156  -9.5766  -9.4151  -7.8625  -7.5104  -5.8517
    -5.8238  -5.7180  -4.1584  -4.0116  -3.0679  -2.4556  -1.9291  -1.6787
    -1.4524  -1.1792  -0.8574  -0.7397  -0.6044  -0.3786  -0.2192   0.3771
     0.8602   1.9612  10.2628  10.2710  10.3454  10.9013  11.2976

          k = 0.4444-0.2020 0.0000 ( 14173 PWs)   bands (ev):

   -11.7369 -10.7363 -10.1196  -9.2380  -9.0999  -7.8076  -7.3092  -7.0441
    -6.6167  -5.9111  -5.5817  -5.1381  -3.4022  -3.2551  -2.3263  -2.0231
    -1.6358  -1.2521  -0.8462  -0.0715  -0.0128   0.1314   0.5807   1.0500
     1.2339   1.8863  10.7542  10.8823  11.2227  11.2971  11.9729

          k = 0.4444-0.3030 0.0000 ( 14184 PWs)   bands (ev):

   -10.9723 -10.2276  -9.9936  -9.3120  -8.5599  -8.0258  -7.7758  -7.0802
    -6.8933  -6.6597  -6.1805  -6.0667  -3.7328  -3.3627  -2.7380  -2.3377
    -1.8129  -1.5081  -0.5810  -0.2047   0.1272   0.2665   1.4078   1.4968
     1.7337   1.7377  11.2461  11.2481  11.8387  11.9304  13.0920

     the Fermi energy is     5.5219 ev

!    total energy              =    -225.93977377 Ry
     estimated scf accuracy    <          1.6E-09 Ry
     smearing contrib. (-TS)   =       0.00000000 Ry
     internal energy E=F+TS    =    -225.93977377 Ry

     The total energy is F=E-TS. E is the sum of the following terms:
     one-electron contribution =   -1223.71201373 Ry
     hartree contribution      =     635.88082685 Ry
     xc contribution           =     -59.06943605 Ry
     ewald contribution        =     494.91627952 Ry
     one-center paw contrib.   =     -73.95543037 Ry

     convergence has been achieved in   8 iterations

     negative rho (up, down):  2.555E-06 0.000E+00

     Forces acting on atoms (cartesian axes, Ry/au):

     atom    1 type  1   force =     0.00000000    0.02518489    0.00648671
     atom    2 type  1   force =     0.00000000   -0.02518489    0.00648671
     atom    3 type  1   force =     0.00000000    0.00103584    0.00289947
     atom    4 type  1   force =     0.00000000   -0.00103584    0.00289947
     atom    5 type  1   force =     0.00000000    0.00278781    0.00040776
     atom    6 type  1   force =     0.00000000   -0.00278781    0.00040776
     atom    7 type  1   force =     0.00000000   -0.00278781   -0.00040776
     atom    8 type  1   force =     0.00000000    0.00278781   -0.00040776
     atom    9 type  1   force =     0.00000000    0.00103584   -0.00289947
     atom   10 type  1   force =     0.00000000   -0.00103584   -0.00289947
     atom   11 type  1   force =     0.00000000   -0.02518489   -0.00648671
     atom   12 type  1   force =     0.00000000    0.02518489   -0.00648671
     atom   13 type  2   force =     0.00000000   -0.01925434   -0.01138682
     atom   14 type  2   force =     0.00000000    0.01925434   -0.01138682
     atom   15 type  2   force =     0.00000000    0.01925434    0.01138682
     atom   16 type  2   force =     0.00000000   -0.01925434    0.01138682

     Total force =     0.069113     Total SCF correction =     0.000055
     Energy error            =      2.9E-03 Ry
     Gradient error          =      2.5E-02 Ry/Bohr

     number of scf cycles    =   2
     number of bfgs steps    =   1

     energy             old  =    -225.9368877598 Ry
     energy             new  =    -225.9397737730 Ry

     CASE: energy            _new < energy            _old

     new trust radius        =       0.0149948273 bohr
     new conv_thr            =       0.0000000100 Ry


ATOMIC_POSITIONS (angstrom)
C                0.0000000000       -0.9111371451       11.1975717718
C                1.2634728900       -1.7690936049       11.1975717718
C                1.2634728900       -2.6813902758        9.9503602793
C                0.0000000000        0.0011595258        9.9503602793
C                0.0000000000       -0.8928898216        8.6809243256
C                1.2634728900       -1.7873409284        8.6809243256
C                0.0000000000       -0.0005204284        7.4164026844
C                1.2634728900       -2.6797103216        7.4164026844
C                0.0000000000       -0.8945697758        6.1469667307
C                1.2634728900       -1.7856609742        6.1469667307
C                0.0000000000        0.0177268951        4.8997552282
C                1.2634728900       -2.6979576451        4.8997552282
H                0.0000000000       -0.2729669203       12.0988821100
H                1.2634728900       -2.4072638297       12.0988821100
H                0.0000000000       -0.6204433297        3.9984449000
H                1.2634728900       -2.0597874203        3.9984449000



     Writing config-only to output data dir /tmp/qe/slab.save/ :
     XML data file
     NEW-OLD atomic charge density approx. for the potential

     negative rho (up, down):  2.702E-06 0.000E+00

     total cpu time spent up to now is       39.3 secs

     Self-consistent Calculation

     iteration #  1     ecut=    90.00 Ry     beta= 0.30
     Davidson diagonalization with overlap
     ethr =  1.00E-06,  avg # of iterations =  5.8

     negative rho (up, down):  2.753E-06 0.000E+00

     total cpu time spent up to now is       41.7 secs

     total energy              =    -225.94152917 Ry
     estimated scf accuracy    <       0.00022855 Ry

     iteration #  2     ecut=    90.00 Ry     beta= 0.30
     Davidson diagonalization with overlap
     ethr =  4.40E-07,  avg # of iterations =  1.4

     negative rho (up, down):  2.726E-06 0.000E+00

     total cpu time spent up to now is       43.1 secs

     total energy              =    -225.94150935 Ry
     estimated scf accuracy    <       0.00007726 Ry

     iteration #  3     ecut=    90.00 Ry     beta= 0.30
     Davidson diagonalization with overlap
     ethr =  1.49E-07,  avg # of iterations =  2.0

     negative rho (up, down):  2.667E-06 0.000E+00

     total cpu time spent up to now is       44.6 secs

     total energy              =    -225.94151769 Ry
     estimated scf accuracy    <       0.00000594 Ry

     iteration #  4     ecut=    90.00 Ry     beta= 0.30
     Davidson diagonalization with overlap
     ethr =  1.14E-08,  avg # of iterations =  2.2

     negative rho (up, down):  2.629E-06 0.000E+00

     total cpu time spent up to now is       46.2 secs

     total energy              =    -225.94151853 Ry
     estimated scf accuracy    <       0.00000108 Ry

     iteration #  5     ecut=    90.00 Ry     beta= 0.30
     Davidson diagonalization with overlap
     ethr =  2.07E-09,  avg # of iterations =  2.1

     negative rho (up, down):  2.611E-06 0.000E+00

     total cpu time spent up to now is       47.7 secs

     total energy              =    -225.94151858 Ry
     estimated scf accuracy    <       0.00000028 Ry

     iteration #  6     ecut=    90.00 Ry     beta= 0.30
     Davidson diagonalization with overlap
     ethr =  5.36E-10,  avg # of iterations =  3.4

     negative rho (up, down):  2.603E-06 0.000E+00

     total cpu time spent up to now is       49.6 secs

     total energy              =    -225.94151858 Ry
     estimated scf accuracy    <       0.00000028 Ry

     iteration #  7     ecut=    90.00 Ry     beta= 0.30
     Davidson diagonalization with overlap
     ethr =  5.29E-10,  avg # of iterations =  2.6

     negative rho (up, down):  2.601E-06 0.000E+00

     total cpu time spent up to now is       51.4 secs

     total energy              =    -225.94151866 Ry
     estimated scf accuracy    <       0.00000004 Ry

     iteration #  8     ecut=    90.00 Ry     beta= 0.30
     Davidson diagonalization with overlap
     ethr =  6.83E-11,  avg # of iterations =  2.1

     negative rho (up, down):  2.600E-06 0.000E+00

     total cpu time spent up to now is       52.8 secs

     End of self-consistent calculation

          k = 0.0000-0.0000 0.0000 ( 14193 PWs)   bands (ev):

   -15.9116 -14.8345 -13.1104 -10.9256  -8.7255  -7.6260  -7.2755  -6.3344
    -4.7907  -4.4428  -3.9773  -2.9957  -2.7315  -2.1093  -0.8613  -0.8065
    -0.3640  -0.0425   1.2174   1.6348   2.2156   2.6920   3.9077   3.9772
     4.3383   4.8184   6.9971   7.2718   9.7701  10.1746  10.6944

          k = 0.0000-0.1010 0.0000 ( 14153 PWs)   bands (ev):

   -15.7254 -14.6537 -12.9461 -10.8351  -9.4941  -9.2280  -6.8052  -6.0075
    -5.5275  -4.0553  -3.5256  -3.0184  -1.8737  -1.8519  -1.0775  -0.6860
     0.1065   0.2059   1.3050   1.5017   2.3195   2.6468   3.6997   3.7374
     4.1060   4.2624   7.2038   7.5087   9.9572  10.1371  11.0816

          k = 0.0000-0.2020 0.0000 ( 14130 PWs)   bands (ev):

   -15.1694 -14.1171 -12.4752 -11.3984 -10.6352 -10.5463  -7.3655  -6.7043
    -5.5068  -4.3460  -3.0732  -1.7317  -1.7043  -0.7543  -0.1676  -0.1620
     0.4126   0.5404   1.5446   1.9752   2.0772   2.4955   2.9964   3.0746
     3.2675   3.6231   7.8525   8.0898  10.2812  10.3870  10.9273

          k = 0.0000-0.3030 0.0000 ( 14124 PWs)   bands (ev):

   -14.2527 -13.2780 -12.9360 -12.1400 -11.5633 -10.9086  -7.7550  -7.0718
    -5.7061  -4.6861  -3.0000  -1.9156  -0.4184   0.1888   0.6679   0.7778
     1.2073   1.2137   1.7866   1.8264   2.0069   2.1685   2.2083   2.2652
     2.6057   2.7145   8.8846   8.9162   9.9410  10.3733  10.7660

          k = 0.1111-0.0000 0.0000 ( 14169 PWs)   bands (ev):

   -15.6855 -14.6108 -12.8908 -10.7115  -8.5195  -7.4253  -7.2092  -6.2762
    -4.7468  -4.2495  -3.7688  -2.8417  -2.7106  -1.9102  -1.8828  -1.0286
    -0.7312  -0.3778   0.2749   1.5410   1.7603   2.1552   3.0014   3.4474
     3.7409   4.2270   7.2156   7.5052   9.7813  10.9085  10.9436

          k = 0.1111-0.1010 0.0000 ( 14133 PWs)   bands (ev):

   -15.4999 -14.4308 -12.7275 -10.6230  -9.3113  -9.0337  -6.6520  -5.8731
    -5.4492  -3.9508  -3.4121  -2.9985  -1.8380  -1.7059  -1.6063  -1.0636
    -0.7701   0.1581   0.4325   1.4711   1.7311   2.0496   2.7558   2.7708
     3.6952   4.1297   7.4474   7.7429  10.1165  11.1692  11.3876

          k = 0.1111-0.2020 0.0000 ( 14132 PWs)   bands (ev):

   -14.9455 -13.8962 -12.2597 -11.1946 -10.4296 -10.3476  -7.1818  -6.5122
    -5.3505  -4.2136  -3.0253  -2.1055  -1.7197  -1.1084  -0.6164  -0.1688
    -0.0779   0.1905   1.0095   1.4802   1.5708   1.6737   1.7560   2.1607
     3.2492   3.9283   8.1098   8.3606  10.7201  11.2268  11.5214

          k = 0.1111-0.3030 0.0000 ( 14139 PWs)   bands (ev):

   -14.0321 -13.0612 -12.7216 -11.9292 -11.3549 -10.7054  -7.5543  -6.8776
    -5.5253  -4.5143  -2.8867  -1.8080  -1.0679  -0.3749  -0.2348   0.2118
     0.5699   0.6265   0.9681   1.1730   1.2316   1.6895   1.9498   2.2727
     2.8070   2.8874   9.1470   9.2513  10.4348  10.6612  11.5706

          k = 0.2222-0.0000 0.0000 ( 14152 PWs)   bands (ev):

   -15.0105 -13.9434 -12.2357 -10.0728  -7.9047  -7.3211  -6.8247  -6.3964
    -4.8837  -3.6894  -3.5757  -3.1601  -2.8783  -2.6922  -2.4128  -1.3728
    -1.3285  -0.5910  -0.5767   0.0589   1.1060   1.1291   1.5901   1.8728
     2.1356   3.8147   7.9291   8.1582  10.0712  10.1436  10.7457

          k = 0.2222-0.1010 0.0000 ( 14114 PWs)   bands (ev):

   -14.8266 -13.7655 -12.0756  -9.9910  -8.8304  -8.4765  -6.3655  -5.7154
    -5.5905  -3.8985  -3.5132  -3.4447  -2.3730  -2.3421  -1.7784  -1.2381
    -1.0743  -0.5700  -0.4376   0.2921   0.4547   0.6217   1.4361   1.5830
     2.9749   3.4270   8.1770   8.4102  10.5853  10.7152  10.9260

          k = 0.2222-0.2020 0.0000 ( 14117 PWs)   bands (ev):

   -14.2780 -13.2381 -11.6177 -10.6051  -9.8187  -9.7702  -6.6904  -6.0091
    -4.9708  -4.7320  -3.2723  -3.2678  -2.5055  -1.8432  -1.1383  -0.9063
    -0.5892  -0.4457  -0.3224   0.1566   0.2899   0.5776   1.0291   1.8766
     2.6695   3.3463   8.8477   9.0546  11.3189  11.8653  11.9633

          k = 0.2222-0.3030 0.0000 ( 14151 PWs)   bands (ev):

   -13.3761 -12.4169 -12.0883 -11.3053 -10.7374 -10.1023  -6.9877  -6.3298
    -5.0574  -4.0709  -3.7234  -2.6659  -2.4109  -2.1574  -1.5060  -1.3131
    -1.1119  -0.8281   0.2054   1.0316   1.1721   1.2011   1.4089   1.6546
     2.3635   2.7855   9.8238   9.9278  11.2218  11.3482  12.5754

          k = 0.3333-0.0000 0.0000 ( 14106 PWs)   bands (ev):

   -13.8984 -12.8446 -11.1582  -9.0226  -8.5613  -7.5984  -6.8904  -6.0403
    -5.8299  -4.0161  -3.9117  -3.0994  -2.8307  -2.2096  -1.9379  -1.8535
    -1.8188  -0.8168  -0.6630  -0.5532  -0.4153  -0.1041   0.2197   0.3723
     1.2422   3.0416   9.0709   9.0750   9.9278  10.2235  11.2414

          k = 0.3333-0.1010 0.0000 ( 14126 PWs)   bands (ev):

   -13.7183 -12.6713 -11.0043  -8.9700  -8.7561  -7.9692  -6.7038  -6.5676
    -6.0996  -4.2450  -3.9947  -3.1118  -3.0580  -2.2705  -1.8910  -1.6562
    -1.6239  -1.1939  -0.6955  -0.5840  -0.3766  -0.2022   0.4910   1.0264
     1.3653   2.8512   9.3202   9.4154  10.3863  10.5821  11.2596

          k = 0.3333-0.2020 0.0000 ( 14157 PWs)   bands (ev):

   -13.1828 -12.1594 -10.5668  -9.8000  -8.9548  -8.8310  -6.7228  -6.3211
    -6.2021  -4.8599  -4.1475  -3.6897  -3.4721  -3.1815  -2.3972  -2.1250
    -1.5154  -0.4682  -0.2206  -0.1440   0.0628   0.4343   0.5358   0.8248
     2.2243   2.3462   9.9463  10.0299  11.3538  11.5873  11.9416

          k = 0.3333-0.3030 0.0000 ( 14183 PWs)   bands (ev):

   -12.3104 -11.3739 -11.0889 -10.3120  -9.7451  -9.1295  -6.3153  -6.0026
    -5.6703  -5.4325  -4.8760  -4.4292  -3.6900  -3.3385  -2.7961  -2.7193
    -1.3943  -0.7035  -0.2166  -0.0698   0.6195   0.9689   1.2414   1.5021
     1.7473   2.3322  10.6428  10.7137  12.0658  12.1744  12.4005

          k = 0.4444-0.0000 0.0000 ( 14102 PWs)   bands (ev):

   -12.3772 -11.3436 -10.5191  -9.6885  -9.5145  -7.9019  -7.5899  -5.8450
    -5.4966  -4.4526  -3.7676  -2.9455  -2.7153  -2.2908  -1.8165  -1.4856
    -1.4204  -1.3188  -1.0409  -0.9840  -0.9738  -0.8674  -0.8489   0.2257
     0.7332   1.9545   9.6670  10.2816  10.4383  10.7142  10.8371

          k = 0.4444-0.1010 0.0000 ( 14146 PWs)   bands (ev):

   -12.2069 -11.1814 -10.3888  -9.5498  -9.3939  -7.8402  -7.4776  -5.8200
    -5.7982  -5.6858  -4.1306  -3.9791  -3.0687  -2.4380  -1.9217  -1.6916
    -1.4374  -1.1537  -0.8457  -0.7268  -0.6017  -0.3699  -0.2018   0.3534
     0.8460   1.9374  10.2820  10.2873  10.3993  10.9387  11.3500

          k = 0.4444-0.2020 0.0000 ( 14173 PWs)   bands (ev):

   -11.7088 -10.7111 -10.0949  -9.2095  -9.0824  -7.7838  -7.2645  -7.0203
    -6.5778  -5.8768  -5.5550  -5.1048  -3.3888  -3.2676  -2.3168  -2.0536
    -1.6121  -1.2731  -0.8289  -0.0925   0.0235   0.1233   0.5981   1.0510
     1.2532   1.8627  10.8031  10.9471  11.2551  11.3729  11.9926

          k = 0.4444-0.3030 0.0000 ( 14184 PWs)   bands (ev):

   -10.9449 -10.1980  -9.9756  -9.2909  -8.5366  -8.0005  -7.7368  -7.0317
    -6.8630  -6.6220  -6.1524  -6.0401  -3.7227  -3.3569  -2.7564  -2.3675
    -1.7938  -1.4958  -0.6096  -0.2436   0.1605   0.2859   1.3924   1.5158
     1.7220   1.7720  11.3347  11.3367  11.9143  12.0145  13.1226

     the Fermi energy is     5.5520 ev

!    total energy              =    -225.94151866 Ry
     estimated scf accuracy    <          3.3E-09 Ry
     smearing contrib. (-TS)   =       0.00000000 Ry
     internal energy E=F+TS    =    -225.94151866 Ry

     The total energy is F=E-TS. E is the sum of the following terms:
     one-electron contribution =   -1223.27783738 Ry
     hartree contribution      =     635.70447525 Ry
     xc contribution           =     -59.08715279 Ry
     ewald contribution        =     494.67461891 Ry
     one-center paw contrib.   =     -73.95562265 Ry

     convergence has been achieved in   8 iterations

     negative rho (up, down):  2.600E-06 0.000E+00

     Forces acting on atoms (cartesian axes, Ry/au):

     atom    1 type  1   force =     0.00000000    0.00205381   -0.00241385
     atom    2 type  1   force =     0.00000000   -0.00205381   -0.00241385
     atom    3 type  1   force =     0.00000000   -0.00036100    0.00093124
     atom    4 type  1   force =     0.00000000    0.00036100    0.00093124
     atom    5 type  1   force =     0.00000000    0.00009191    0.00114001
     atom    6 type  1   force =     0.00000000   -0.00009191    0.00114001
     atom    7 type  1   force =     0.00000000   -0.00009191   -0.00114001
     atom    8 type  1   force =     0.00000000    0.00009191   -0.00114001
     atom    9 type  1   force =     0.00000000   -0.00036100   -0.00093124
     atom   10 type  1   force =     0.00000000    0.00036100   -0.00093124
     atom   11 type  1   force =     0.00000000   -0.00205381    0.00241385
     atom   12 type  1   force =     0.00000000    0.00205381    0.00241385
     atom   13 type  2   force =     0.00000000   -0.01107212   -0.00184866
     atom   14 type  2   force =     0.00000000    0.01107212   -0.00184866
     atom   15 type  2   force =     0.00000000    0.01107212    0.00184866
     atom   16 type  2   force =     0.00000000   -0.01107212    0.00184866

     Total force =     0.023525     Total SCF correction =     0.000211
     Energy error            =      1.7E-03 Ry
     Gradient error          =      1.1E-02 Ry/Bohr

     number of scf cycles    =   3
     number of bfgs steps    =   2

     energy             old  =    -225.9397737730 Ry
     energy             new  =    -225.9415186583 Ry

     CASE: energy            _new < energy            _old

     new trust radius        =       0.0187834704 bohr
     new conv_thr            =       0.0000000100 Ry


ATOMIC_POSITIONS (angstrom)
C                0.0000000000       -0.9102698439       11.1951427639
C                1.2634728900       -1.7699609061       11.1951427639
C                1.2634728900       -2.6817200464        9.9518217111
C                0.0000000000        0.0014892964        9.9518217111
C                0.0000000000       -0.8926415957        8.6818202927
C                1.2634728900       -1.7875891543        8.6818202927
C                0.0000000000       -0.0007686543        7.4155067173
C                1.2634728900       -2.6794620957        7.4155067173
C                0.0000000000       -0.8948995464        6.1455052989
C                1.2634728900       -1.7853312036        6.1455052989
C                0.0000000000        0.0168595939        4.9021842361
C                1.2634728900       -2.6970903439        4.9021842361
H                0.0000000000       -0.2827588272       12.0971739316
H                1.2634728900       -2.3974719228       12.0971739316
H                0.0000000000       -0.6106514228        4.0001530784
H                1.2634728900       -2.0695793272        4.0001530784



     Writing config-only to output data dir /tmp/qe/slab.save/ :
     XML data file
     NEW-OLD atomic charge density approx. for the potential

     negative rho (up, down):  2.751E-06 0.000E+00

     total cpu time spent up to now is       53.5 secs

     Self-consistent Calculation

     iteration #  1     ecut=    90.00 Ry     beta= 0.30
     Davidson diagonalization with overlap
     ethr =  1.00E-06,  avg # of iterations =  3.6

     negative rho (up, down):  2.715E-06 0.000E+00

     total cpu time spent up to now is       55.5 secs

     total energy              =    -225.94220614 Ry
     estimated scf accuracy    <       0.00011833 Ry

     iteration #  2     ecut=    90.00 Ry     beta= 0.30
     Davidson diagonalization with overlap
     ethr =  2.28E-07,  avg # of iterations =  2.0

     negative rho (up, down):  2.601E-06 0.000E+00

     total cpu time spent up to now is       56.9 secs

     total energy              =    -225.94220355 Ry
     estimated scf accuracy    <       0.00003417 Ry

     iteration #  3     ecut=    90.00 Ry     beta= 0.30
     Davidson diagonalization with overlap
     ethr =  6.57E-08,  avg # of iterations =  2.2

     negative rho (up, down):  2.551E-06 0.000E+00

     total cpu time spent up to now is       58.5 secs

     total energy              =    -225.94220810 Ry
     estimated scf accuracy    <       0.00000543 Ry

     iteration #  4     ecut=    90.00 Ry     beta= 0.30
     Davidson diagonalization with overlap
     ethr =  1.04E-08,  avg # of iterations =  2.0

     negative rho (up, down):  2.492E-06 0.000E+00

     total cpu time spent up to now is       60.0 secs

     total energy              =    -225.94220856 Ry
     estimated scf accuracy    <       0.00000144 Ry

     iteration #  5     ecut=    90.00 Ry     beta= 0.30
     Davidson diagonalization with overlap
     ethr =  2.78E-09,  avg # of iterations =  2.1

     negative rho (up, down):  2.495E-06 0.000E+00

     total cpu time spent up to now is       61.6 secs

     total energy              =    -225.94220861 Ry
     estimated scf accuracy    <       0.00000043 Ry

     iteration #  6     ecut=    90.00 Ry     beta= 0.30
     Davidson diagonalization with overlap
     ethr =  8.24E-10,  avg # of iterations =  2.1

     negative rho (up, down):  2.492E-06 0.000E+00

     total cpu time spent up to now is       63.2 secs

     total energy              =    -225.94220871 Ry
     estimated scf accuracy    <       0.00000004 Ry

     iteration #  7     ecut=    90.00 Ry     beta= 0.30
     Davidson diagonalization with overlap
     ethr =  7.01E-11,  avg # of iterations =  2.2

     negative rho (up, down):  2.496E-06 0.000E+00

     total cpu time spent up to now is       64.8 secs

     End of self-consistent calculation

          k = 0.0000-0.0000 0.0000 ( 14193 PWs)   bands (ev):

   -15.9023 -14.8401 -13.1087 -10.9203  -8.7255  -7.6185  -7.2693  -6.3526
    -4.8020  -4.4436  -3.9856  -2.9837  -2.7411  -2.1105  -0.8507  -0.7832
    -0.3889  -0.0421   1.2325   1.6646   2.1799   2.7163   3.9311   3.9961
     4.3242   4.8306   6.9887   7.2685   9.7723  10.1858  10.7516

          k = 0.0000-0.1010 0.0000 ( 14153 PWs)   bands (ev):

   -15.7162 -14.6595 -12.9445 -10.8306  -9.4849  -9.2312  -6.8142  -6.0127
    -5.5249  -4.0655  -3.5322  -3.0130  -1.8730  -1.8595  -1.0692  -0.6755
     0.1073   0.2017   1.3206   1.4981   2.3208   2.6705   3.7159   3.7383
     4.1128   4.2742   7.1956   7.5046   9.9605  10.1466  11.0823

          k = 0.0000-0.2020 0.0000 ( 14130 PWs)   bands (ev):

   -15.1603 -14.1230 -12.4739 -11.3911 -10.6295 -10.5517  -7.3653  -6.7105
    -5.5044  -4.3612  -3.0738  -1.7212  -1.7099  -0.7561  -0.1725  -0.1569
     0.4176   0.5429   1.5620   1.9873   2.0633   2.5166   3.0066   3.0862
     3.2784   3.6258   7.8452   8.0882  10.2861  10.4028  10.9241

          k = 0.0000-0.3030 0.0000 ( 14124 PWs)   bands (ev):

   -14.2438 -13.2832 -12.9282 -12.1447 -11.5628 -10.9062  -7.7525  -7.0714
    -5.7090  -4.6995  -2.9974  -1.9262  -0.4147   0.1942   0.6791   0.7751
     1.2117   1.2146   1.7951   1.8479   2.0124   2.1714   2.2076   2.2841
     2.6144   2.7122   8.8849   8.9245   9.9489  10.3700  10.7627

          k = 0.1111-0.0000 0.0000 ( 14169 PWs)   bands (ev):

   -15.6762 -14.6165 -12.8891 -10.7061  -8.5195  -7.4177  -7.2030  -6.2945
    -4.7585  -4.2506  -3.7776  -2.8298  -2.7207  -1.9116  -1.8722  -1.0279
    -0.7086  -0.4032   0.2898   1.5674   1.7814   2.1227   3.0182   3.4669
     3.7519   4.2143   7.2080   7.5027   9.7962  10.9358  10.9632

          k = 0.1111-0.1010 0.0000 ( 14133 PWs)   bands (ev):

   -15.4906 -14.4365 -12.7258 -10.6184  -9.3022  -9.0369  -6.6615  -5.8792
    -5.4453  -3.9618  -3.4198  -2.9933  -1.8445  -1.7055  -1.5962  -1.0573
    -0.7687   0.1556   0.4478   1.4653   1.7538   2.0523   2.7649   2.7823
     3.6959   4.1369   7.4396   7.7396  10.1250  11.1798  11.4112

          k = 0.1111-0.2020 0.0000 ( 14132 PWs)   bands (ev):

   -14.9364 -13.9021 -12.2583 -11.1873 -10.4239 -10.3530  -7.1820  -6.5186
    -5.3490  -4.2268  -3.0303  -2.0941  -1.7261  -1.1087  -0.6065  -0.1797
    -0.0696   0.1927   1.0243   1.4865   1.5904   1.6738   1.7703   2.1507
     3.2642   3.9322   8.1029   8.3592  10.7339  11.2306  11.5237

          k = 0.1111-0.3030 0.0000 ( 14139 PWs)   bands (ev):

   -14.0232 -13.0663 -12.7138 -11.9340 -11.3545 -10.7030  -7.5521  -6.8773
    -5.5289  -4.5280  -2.8850  -1.8190  -1.0595  -0.3734  -0.2314   0.2189
     0.5854   0.6235   0.9702   1.1770   1.2491   1.6919   1.9598   2.2754
     2.8150   2.8908   9.1467   9.2594  10.4431  10.6547  11.5691

          k = 0.2222-0.0000 0.0000 ( 14152 PWs)   bands (ev):

   -15.0013 -13.9493 -12.2340 -10.0674  -7.9044  -7.3146  -6.8170  -6.4136
    -4.8949  -3.6916  -3.5652  -3.1707  -2.8887  -2.6917  -2.4011  -1.3589
    -1.3305  -0.6162  -0.5564   0.0804   1.1210   1.1457   1.6002   1.8402
     2.1488   3.8032   7.9252   8.1601  10.0756  10.1767  10.7502

          k = 0.2222-0.1010 0.0000 ( 14114 PWs)   bands (ev):

   -14.8174 -13.7714 -12.0739  -9.9864  -8.8214  -8.4804  -6.3758  -5.7182
    -5.5874  -3.9095  -3.5173  -3.4412  -2.3738  -2.3350  -1.7789  -1.2442
    -1.0733  -0.5575  -0.4226   0.3033   0.4631   0.6286   1.4213   1.5912
     2.9813   3.4209   8.1721   8.4111  10.6088  10.7238  10.9363

          k = 0.2222-0.2020 0.0000 ( 14117 PWs)   bands (ev):

   -14.2689 -13.2441 -11.6164 -10.5979  -9.8130  -9.7760  -6.6924  -6.0157
    -4.9735  -4.7247  -3.2903  -3.2719  -2.5028  -1.8287  -1.1330  -0.9082
    -0.5807  -0.4307  -0.3203   0.1585   0.2789   0.5891   1.0404   1.8652
     2.6813   3.3510   8.8437   9.0569  11.3375  11.8758  11.9700

          k = 0.2222-0.3030 0.0000 ( 14151 PWs)   bands (ev):

   -13.3674 -12.4221 -12.0807 -11.3102 -10.7370 -10.0998  -6.9867  -6.3300
    -5.0638  -4.0852  -3.7146  -2.6637  -2.4062  -2.1633  -1.4917  -1.3095
    -1.1221  -0.8142   0.2059   1.0345   1.1821   1.1979   1.4171   1.6569
     2.3733   2.7909   9.8284   9.9405  11.2277  11.3414  12.5764

          k = 0.3333-0.0000 0.0000 ( 14106 PWs)   bands (ev):

   -13.8892 -12.8507 -11.1567  -9.0172  -8.5533  -7.6099  -6.8900  -6.0450
    -5.8221  -4.0182  -3.9025  -3.1040  -2.8348  -2.2240  -1.9318  -1.8595
    -1.8071  -0.8044  -0.6532  -0.5390  -0.4166  -0.1066   0.2246   0.3819
     1.2143   3.0323   9.0754   9.0918   9.9311  10.2314  11.2800

          k = 0.3333-0.1010 0.0000 ( 14126 PWs)   bands (ev):

   -13.7091 -12.6775 -11.0028  -8.9663  -8.7468  -7.9786  -6.7058  -6.5581
    -6.1046  -4.2464  -4.0010  -3.1124  -3.0482  -2.2784  -1.8800  -1.6604
    -1.6208  -1.1826  -0.6887  -0.5891  -0.3677  -0.2055   0.5032   1.0003
     1.3766   2.8427   9.3243   9.4280  10.3941  10.5987  11.2577

          k = 0.3333-0.2020 0.0000 ( 14157 PWs)   bands (ev):

   -13.1738 -12.1658 -10.5656  -9.7927  -8.9623  -8.8259  -6.7153  -6.3230
    -6.2058  -4.8645  -4.1517  -3.6801  -3.4615  -3.1859  -2.4149  -2.1058
    -1.5150  -0.4675  -0.2266  -0.1433   0.0766   0.4255   0.5341   0.8349
     2.2339   2.3418   9.9525  10.0441  11.3644  11.6023  11.9745

          k = 0.3333-0.3030 0.0000 ( 14183 PWs)   bands (ev):

   -12.3017 -11.3790 -11.0820 -10.3176  -9.7449  -9.1271  -6.3193  -5.9903
    -5.6737  -5.4358  -4.8657  -4.4331  -3.6978  -3.3319  -2.8042  -2.7023
    -1.4018  -0.7197  -0.2072  -0.0578   0.6116   0.9656   1.2521   1.5103
     1.7535   2.3401  10.6647  10.7396  12.0754  12.1810  12.4138

          k = 0.4444-0.0000 0.0000 ( 14102 PWs)   bands (ev):

   -12.3682 -11.3503 -10.5104  -9.6874  -9.5225  -7.9022  -7.5849  -5.8415
    -5.4963  -4.4444  -3.7685  -2.9368  -2.7068  -2.2970  -1.8236  -1.4795
    -1.4095  -1.3166  -1.0501  -0.9775  -0.9761  -0.8596  -0.8569   0.2046
     0.7293   1.9481   9.6821  10.3048  10.4594  10.7277  10.8562

          k = 0.4444-0.1010 0.0000 ( 14146 PWs)   bands (ev):

   -12.1979 -11.1882 -10.3801  -9.5490  -9.4020  -7.8406  -7.4733  -5.8172
    -5.7978  -5.6759  -4.1311  -3.9691  -3.0771  -2.4323  -1.9236  -1.7025
    -1.4319  -1.1456  -0.8473  -0.7284  -0.6021  -0.3693  -0.1947   0.3415
     0.8436   1.9311  10.2977  10.3027  10.4282  10.9545  11.3646

          k = 0.4444-0.2020 0.0000 ( 14173 PWs)   bands (ev):

   -11.7000 -10.7182 -10.0866  -9.2143  -9.0864  -7.7844  -7.2591  -7.0119
    -6.5773  -5.8765  -5.5432  -5.1056  -3.3821  -3.2788  -2.3102  -2.0709
    -1.5993  -1.2902  -0.8190  -0.1176   0.0392   0.1263   0.6054   1.0502
     1.2654   1.8569  10.8285  10.9782  11.2759  11.4129  12.0037

          k = 0.4444-0.3030 0.0000 ( 14184 PWs)   bands (ev):

   -10.9365 -10.1919  -9.9815  -9.2999  -8.5368  -8.0005  -7.7273  -7.0248
    -6.8610  -6.6204  -6.1522  -6.0371  -3.7167  -3.3577  -2.7624  -2.3836
    -1.7815  -1.4893  -0.6281  -0.2701   0.1818   0.2997   1.3890   1.5196
     1.7240   1.7872  11.3778  11.3783  11.9589  12.0652  13.1403

     the Fermi energy is     5.5673 ev

!    total energy              =    -225.94220872 Ry
     estimated scf accuracy    <          1.5E-09 Ry
     smearing contrib. (-TS)   =       0.00000000 Ry
     internal energy E=F+TS    =    -225.94220872 Ry

     The total energy is F=E-TS. E is the sum of the following terms:
     one-electron contribution =   -1224.24712007 Ry
     hartree contribution      =     636.20458002 Ry
     xc contribution           =     -59.10549556 Ry
     ewald contribution        =     495.16184234 Ry
     one-center paw contrib.   =     -73.95601545 Ry

     convergence has been achieved in   7 iterations

     negative rho (up, down):  2.496E-06 0.000E+00

     Forces acting on atoms (cartesian axes, Ry/au):

     atom    1 type  1   force =     0.00000000   -0.00383736   -0.00508531
     atom    2 type  1   force =     0.00000000    0.00383736   -0.00508531
     atom    3 type  1   force =     0.00000000   -0.00062439   -0.00139513
     atom    4 type  1   force =     0.00000000    0.00062439   -0.00139513
     atom    5 type  1   force =     0.00000000   -0.00012647    0.00017459
     atom    6 type  1   force =     0.00000000    0.00012647    0.00017459
     atom    7 type  1   force =     0.00000000    0.00012647   -0.00017459
     atom    8 type  1   force =     0.00000000   -0.00012647   -0.00017459
     atom    9 type  1   force =     0.00000000   -0.00062439    0.00139513
     atom   10 type  1   force =     0.00000000    0.00062439    0.00139513
     atom   11 type  1   force =     0.00000000    0.00383736    0.00508531
     atom   12 type  1   force =     0.00000000   -0.00383736    0.00508531
     atom   13 type  2   force =     0.00000000   -0.00595060    0.00279930
     atom   14 type  2   force =     0.00000000    0.00595060    0.00279930
     atom   15 type  2   force =     0.00000000    0.00595060   -0.00279930
     atom   16 type  2   force =     0.00000000   -0.00595060   -0.00279930

     Total force =     0.018570     Total SCF correction =     0.000084
     Energy error            =      6.9E-04 Ry
     Gradient error          =      6.0E-03 Ry/Bohr

     number of scf cycles    =   4
     number of bfgs steps    =   3

     energy             old  =    -225.9415186583 Ry
     energy             new  =    -225.9422087164 Ry

     CASE: energy            _new < energy            _old

     new trust radius        =       0.0304243952 bohr
     new conv_thr            =       0.0000000060 Ry


ATOMIC_POSITIONS (angstrom)
C                0.0000000000       -0.9111469831       11.1885645103
C                1.2634728900       -1.7690837669       11.1885645103
C                1.2634728900       -2.6825009412        9.9522988009
C                0.0000000000        0.0022701912        9.9522988009
C                0.0000000000       -0.8921028283        8.6826422181
C                1.2634728900       -1.7881279217        8.6826422181
C                0.0000000000       -0.0013074217        7.4146847919
C                1.2634728900       -2.6789233283        7.4146847919
C                0.0000000000       -0.8956804412        6.1450282091
C                1.2634728900       -1.7845503088        6.1450282091
C                0.0000000000        0.0177367331        4.9087624897
C                1.2634728900       -2.6979674831        4.9087624897
H                0.0000000000       -0.2988579693       12.0973298013
H                1.2634728900       -2.3813727807       12.0973298013
H                0.0000000000       -0.5945522807        3.9999972087
H                1.2634728900       -2.0856784693        3.9999972087



     Writing config-only to output data dir /tmp/qe/slab.save/ :
     XML data file
     NEW-OLD atomic charge density approx. for the potential

     negative rho (up, down):  2.646E-06 0.000E+00

     total cpu time spent up to now is       65.4 secs

     Self-consistent Calculation

     iteration #  1     ecut=    90.00 Ry     beta= 0.30
     Davidson diagonalization with overlap
     ethr =  1.00E-06,  avg # of iterations =  5.5

     negative rho (up, down):  2.574E-06 0.000E+00

     total cpu time spent up to now is       67.8 secs

     total energy              =    -225.94286578 Ry
     estimated scf accuracy    <       0.00025545 Ry

     iteration #  2     ecut=    90.00 Ry     beta= 0.30
     Davidson diagonalization with overlap
     ethr =  4.91E-07,  avg # of iterations =  2.0

     negative rho (up, down):  2.404E-06 0.000E+00

     total cpu time spent up to now is       69.3 secs

     total energy              =    -225.94287392 Ry
     estimated scf accuracy    <       0.00006616 Ry

     iteration #  3     ecut=    90.00 Ry     beta= 0.30
     Davidson diagonalization with overlap
     ethr =  1.27E-07,  avg # of iterations =  2.0

     negative rho (up, down):  2.314E-06 0.000E+00

     total cpu time spent up to now is       70.8 secs

     total energy              =    -225.94288216 Ry
     estimated scf accuracy    <       0.00001336 Ry

     iteration #  4     ecut=    90.00 Ry     beta= 0.30
     Davidson diagonalization with overlap
     ethr =  2.57E-08,  avg # of iterations =  1.3

     negative rho (up, down):  2.261E-06 0.000E+00

     total cpu time spent up to now is       72.2 secs

     total energy              =    -225.94288345 Ry
     estimated scf accuracy    <       0.00000249 Ry

     iteration #  5     ecut=    90.00 Ry     beta= 0.30
     Davidson diagonalization with overlap
     ethr =  4.79E-09,  avg # of iterations =  2.0

     negative rho (up, down):  2.268E-06 0.000E+00

     total cpu time spent up to now is       73.7 secs

     total energy              =    -225.94288358 Ry
     estimated scf accuracy    <       0.00000032 Ry

     iteration #  6     ecut=    90.00 Ry     beta= 0.30
     Davidson diagonalization with overlap
     ethr =  6.18E-10,  avg # of iterations =  3.3

     negative rho (up, down):  2.269E-06 0.000E+00

     total cpu time spent up to now is       75.4 secs

     total energy              =    -225.94288362 Ry
     estimated scf accuracy    <       0.00000021 Ry

     iteration #  7     ecut=    90.00 Ry     beta= 0.30
     Davidson diagonalization with overlap
     ethr =  3.96E-10,  avg # of iterations =  2.5

     negative rho (up, down):  2.273E-06 0.000E+00

     total cpu time spent up to now is       77.1 secs

     total energy              =    -225.94288368 Ry
     estimated scf accuracy    <       0.00000003 Ry

     iteration #  8     ecut=    90.00 Ry     beta= 0.30
     Davidson diagonalization with overlap
     ethr =  5.63E-11,  avg # of iterations =  2.0

     negative rho (up, down):  2.282E-06 0.000E+00

     total cpu time spent up to now is       78.5 secs

     End of self-consistent calculation

          k = 0.0000-0.0000 0.0000 ( 14193 PWs)   bands (ev):

   -15.9067 -14.8621 -13.1141 -10.9190  -8.7316  -7.6166  -7.2782  -6.3840
    -4.8105  -4.4532  -4.0031  -2.9682  -2.7399  -2.1135  -0.8551  -0.7445
    -0.4063  -0.0681   1.2258   1.7109   2.1479   2.7219   3.9564   3.9989
     4.3097   4.8386   6.9749   7.2539   9.7587  10.1840  10.8294

          k = 0.0000-0.1010 0.0000 ( 14153 PWs)   bands (ev):

   -15.7206 -14.6816 -12.9504 -10.8317  -9.4861  -9.2449  -6.8300  -6.0141
    -5.5300  -4.0697  -3.5504  -3.0110  -1.8731  -1.8606  -1.0508  -0.6798
     0.0819   0.2066   1.3143   1.5043   2.3313   2.6748   3.7152   3.7410
     4.1178   4.2805   7.1810   7.4902   9.9484  10.1470  11.0571

          k = 0.0000-0.2020 0.0000 ( 14130 PWs)   bands (ev):

   -15.1649 -14.1457 -12.4819 -11.3981 -10.6293 -10.5696  -7.3581  -6.7260
    -5.4826  -4.3878  -3.0606  -1.7211  -1.7140  -0.7625  -0.1745  -0.1610
     0.4263   0.5189   1.5565   2.0121   2.0508   2.5158   2.9990   3.0922
     3.2935   3.6219   7.8304   8.0763  10.2853  10.4058  10.9121

          k = 0.0000-0.3030 0.0000 ( 14124 PWs)   bands (ev):

   -14.2490 -13.3083 -12.9312 -12.1697 -11.5656 -10.9123  -7.7422  -7.0722
    -5.6993  -4.7148  -2.9813  -1.9347  -0.4023   0.1923   0.6753   0.7752
     1.1935   1.2013   1.7894   1.8380   2.0179   2.1641   2.2018   2.2896
     2.6300   2.7118   8.8768   8.9226   9.9466  10.3571  10.7529

          k = 0.1111-0.0000 0.0000 ( 14169 PWs)   bands (ev):

   -15.6806 -14.6387 -12.8946 -10.7048  -8.5256  -7.4157  -7.2119  -6.3258
    -4.7671  -4.2605  -3.7956  -2.8146  -2.7200  -1.9148  -1.8762  -1.0527
    -0.6712  -0.4215   0.2841   1.6080   1.7841   2.0945   3.0198   3.4858
     3.7585   4.2016   7.1925   7.4876   9.7959  10.9541  10.9914

          k = 0.1111-0.1010 0.0000 ( 14133 PWs)   bands (ev):

   -15.4951 -14.4588 -12.7319 -10.6196  -9.3035  -9.0508  -6.6776  -5.8814
    -5.4495  -3.9671  -3.4389  -2.9918  -1.8458  -1.7064  -1.6010  -1.0405
    -0.7919   0.1619   0.4428   1.4676   1.7594   2.0600   2.7676   2.7807
     3.6986   4.1422   7.4242   7.7247  10.1181  11.1922  11.4418

          k = 0.1111-0.2020 0.0000 ( 14132 PWs)   bands (ev):

   -14.9410 -13.9250 -12.2665 -11.1943 -10.4237 -10.3711  -7.1751  -6.5341
    -5.3283  -4.2509  -3.0282  -2.0819  -1.7421  -1.1181  -0.6101  -0.1814
    -0.0657   0.1752   1.0262   1.4777   1.6028   1.6620   1.7932   2.1391
     3.2814   3.9316   8.0881   8.3465  10.7356  11.2345  11.5198

          k = 0.1111-0.3030 0.0000 ( 14139 PWs)   bands (ev):

   -14.0285 -13.0914 -12.7169 -11.9589 -11.3574 -10.7090  -7.5421  -6.8780
    -5.5203  -4.5432  -2.8718  -1.8292  -1.0622  -0.3727  -0.2432   0.2185
     0.5690   0.6241   0.9629   1.1796   1.2490   1.6808   1.9665   2.2898
     2.8159   2.8934   9.1382   9.2568  10.4407  10.6372  11.5655

          k = 0.2222-0.0000 0.0000 ( 14152 PWs)   bands (ev):

   -15.0057 -13.9717 -12.2398 -10.0663  -7.9106  -7.3230  -6.8149  -6.4439
    -4.9040  -3.7022  -3.5691  -3.1897  -2.8897  -2.7154  -2.3866  -1.3627
    -1.3346  -0.6364  -0.5233   0.0882   1.1237   1.1693   1.6049   1.8106
     2.1562   3.7918   7.9098   8.1463  10.0869  10.2045  10.7536

          k = 0.2222-0.1010 0.0000 ( 14114 PWs)   bands (ev):

   -14.8219 -13.7940 -12.0802  -9.9879  -8.8233  -8.4953  -6.3934  -5.7280
    -5.5835  -3.9284  -3.5312  -3.4336  -2.3852  -2.3387  -1.7968  -1.2388
    -1.0749  -0.5548  -0.4126   0.3141   0.4659   0.6235   1.4103   1.6028
     2.9842   3.4161   8.1566   8.3972  10.6228  10.7393  10.9466

          k = 0.2222-0.2020 0.0000 ( 14117 PWs)   bands (ev):

   -14.2736 -13.2672 -11.6247 -10.6049  -9.8131  -9.7943  -6.6872  -6.0315
    -4.9602  -4.7291  -3.3269  -3.2875  -2.4875  -1.8239  -1.1397  -0.9187
    -0.5812  -0.4264  -0.3307   0.1596   0.2661   0.5970   1.0616   1.8540
     2.6970   3.3522   8.8301   9.0461  11.3480  11.8857  11.9759

          k = 0.2222-0.3030 0.0000 ( 14151 PWs)   bands (ev):

   -13.3727 -12.4473 -12.0841 -11.3353 -10.7402 -10.1057  -6.9778  -6.3302
    -5.0606  -4.1014  -3.7171  -2.6830  -2.4108  -2.1674  -1.4964  -1.3115
    -1.1299  -0.8167   0.2129   1.0425   1.1870   1.1899   1.4210   1.6607
     2.3855   2.7915   9.8240   9.9421  11.2224  11.3219  12.5727

          k = 0.3333-0.0000 0.0000 ( 14106 PWs)   bands (ev):

   -13.8938 -12.8736 -11.1629  -9.0164  -8.5598  -7.6370  -6.8964  -6.0538
    -5.8196  -4.0201  -3.9075  -3.1278  -2.8466  -2.2449  -1.9319  -1.8738
    -1.7944  -0.7936  -0.6501  -0.5213  -0.4149  -0.1116   0.2279   0.3823
     1.1861   3.0227   9.0697   9.0957   9.9326  10.2489  11.3241

          k = 0.3333-0.1010 0.0000 ( 14126 PWs)   bands (ev):

   -13.7138 -12.7005 -11.0094  -8.9711  -8.7485  -8.0015  -6.7190  -6.5586
    -6.1109  -4.2584  -4.0049  -3.1232  -3.0451  -2.2916  -1.8791  -1.6728
    -1.6336  -1.1697  -0.6807  -0.6003  -0.3529  -0.2102   0.5176   0.9750
     1.3825   2.8342   9.3174   9.4260  10.4014  10.6209  11.2678

          k = 0.3333-0.2020 0.0000 ( 14157 PWs)   bands (ev):

   -13.1787 -12.1893 -10.5743  -9.7994  -8.9824  -8.8276  -6.7211  -6.3201
    -6.2247  -4.8752  -4.1505  -3.6888  -3.4620  -3.1954  -2.4399  -2.0962
    -1.5043  -0.4615  -0.2390  -0.1532   0.0867   0.4114   0.5404   0.8509
     2.2409   2.3389   9.9479  10.0460  11.3751  11.6116  12.0120

          k = 0.3333-0.3030 0.0000 ( 14183 PWs)   bands (ev):

   -12.3071 -11.4041 -11.0861 -10.3430  -9.7487  -9.1331  -6.3206  -5.9879
    -5.6754  -5.4572  -4.8661  -4.4557  -3.7042  -3.3327  -2.8170  -2.6959
    -1.3999  -0.7300  -0.1989  -0.0469   0.6066   0.9624   1.2627   1.5141
     1.7639   2.3459  10.6764  10.7545  12.0800  12.1799  12.4297

          k = 0.4444-0.0000 0.0000 ( 14102 PWs)   bands (ev):

   -12.3730 -11.3739 -10.5157  -9.6942  -9.5474  -7.9099  -7.5846  -5.8421
    -5.5032  -4.4416  -3.7768  -2.9421  -2.7035  -2.3189  -1.8391  -1.4780
    -1.4098  -1.3200  -1.0708  -0.9772  -0.9652  -0.8651  -0.8473   0.1799
     0.7243   1.9407   9.7021  10.3242  10.4857  10.7431  10.8822

          k = 0.4444-0.1010 0.0000 ( 14146 PWs)   bands (ev):

   -12.2028 -11.2120 -10.3856  -9.5567  -9.4264  -7.8480  -7.4752  -5.8194
    -5.8086  -5.6748  -4.1429  -3.9680  -3.0926  -2.4274  -1.9331  -1.7181
    -1.4232  -1.1419  -0.8483  -0.7338  -0.6107  -0.3723  -0.1860   0.3256
     0.8411   1.9241  10.3179  10.3210  10.4559  10.9683  11.3660

          k = 0.4444-0.2020 0.0000 ( 14173 PWs)   bands (ev):

   -11.7052 -10.7425 -10.0925  -9.2341  -9.1000  -7.7925  -7.2711  -7.0042
    -6.5931  -5.8886  -5.5357  -5.1218  -3.3745  -3.2942  -2.2984  -2.0895
    -1.5825  -1.3107  -0.8058  -0.1540   0.0560   0.1367   0.6096   1.0451
     1.2786   1.8512  10.8536  11.0037  11.2982  11.4508  12.0115

          k = 0.4444-0.3030 0.0000 ( 14184 PWs)   bands (ev):

   -10.9423 -10.2023 -10.0021  -9.3256  -8.5448  -8.0086  -7.7315  -7.0364
    -6.8728  -6.6280  -6.1658  -6.0389  -3.7091  -3.3618  -2.7633  -2.4000
    -1.7628  -1.4778  -0.6506  -0.3033   0.2112   0.3210   1.3845   1.5184
     1.7298   1.8038  11.4128  11.4150  12.0077  12.1221  13.1460

     the Fermi energy is     5.5702 ev

!    total energy              =    -225.94288368 Ry
     estimated scf accuracy    <          5.2E-09 Ry
     smearing contrib. (-TS)   =       0.00000000 Ry
     internal energy E=F+TS    =    -225.94288368 Ry

     The total energy is F=E-TS. E is the sum of the following terms:
     one-electron contribution =   -1227.17752394 Ry
     hartree contribution      =     637.67803227 Ry
     xc contribution           =     -59.12951105 Ry
     ewald contribution        =     496.64276329 Ry
     one-center paw contrib.   =     -73.95664425 Ry

     convergence has been achieved in   8 iterations

     negative rho (up, down):  2.282E-06 0.000E+00

     Forces acting on atoms (cartesian axes, Ry/au):

     atom    1 type  1   force =     0.00000000   -0.00477174   -0.00399916
     atom    2 type  1   force =     0.00000000    0.00477174   -0.00399916
     atom    3 type  1   force =     0.00000000   -0.00065260   -0.00383592
     atom    4 type  1   force =     0.00000000    0.00065260   -0.00383592
     atom    5 type  1   force =     0.00000000   -0.00096816   -0.00128903
     atom    6 type  1   force =     0.00000000    0.00096816   -0.00128903
     atom    7 type  1   force =     0.00000000    0.00096816    0.00128903
     atom    8 type  1   force =     0.00000000   -0.00096816    0.00128903
     atom    9 type  1   force =     0.00000000   -0.00065260    0.00383592
     atom   10 type  1   force =     0.00000000    0.00065260    0.00383592
     atom   11 type  1   force =     0.00000000    0.00477174    0.00399916
     atom   12 type  1   force =     0.00000000   -0.00477174    0.00399916
     atom   13 type  2   force =     0.00000000   -0.00109017    0.00483248
     atom   14 type  2   force =     0.00000000    0.00109017    0.00483248
     atom   15 type  2   force =     0.00000000    0.00109017   -0.00483248
     atom   16 type  2   force =     0.00000000   -0.00109017   -0.00483248

     Total force =     0.018005     Total SCF correction =     0.000157
     Energy error            =      6.7E-04 Ry
     Gradient error          =      4.8E-03 Ry/Bohr

     number of scf cycles    =   5
     number of bfgs steps    =   4

     energy             old  =    -225.9422087164 Ry
     energy             new  =    -225.9428836837 Ry

     CASE: energy            _new < energy            _old

     new trust radius        =       0.0205713913 bohr
     new conv_thr            =       0.0000000048 Ry


ATOMIC_POSITIONS (angstrom)
C                0.0000000000       -0.9124227545       11.1833394908
C                1.2634728900       -1.7678079955       11.1833394908
C                1.2634728900       -2.6832491617        9.9502024830
C                0.0000000000        0.0030184117        9.9502024830
C                0.0000000000       -0.8923453306        8.6821661048
C                1.2634728900       -1.7878854194        8.6821661048
C                0.0000000000       -0.0010649194        7.4151609052
C                1.2634728900       -2.6791658306        7.4151609052
C                0.0000000000       -0.8964286617        6.1471245270
C                1.2634728900       -1.7838020883        6.1471245270
C                0.0000000000        0.0190125045        4.9139875092
C                1.2634728900       -2.6992432545        4.9139875092
H                0.0000000000       -0.3095264026       12.0994948878
H                1.2634728900       -2.3707043474       12.0994948878
H                0.0000000000       -0.5838838474        3.9978321222
H                1.2634728900       -2.0963469026        3.9978321222



     Writing config-only to output data dir /tmp/qe/slab.save/ :
     XML data file
     NEW-OLD atomic charge density approx. for the potential

     negative rho (up, down):  2.307E-06 0.000E+00

     total cpu time spent up to now is       79.2 secs

     Self-consistent Calculation

     iteration #  1     ecut=    90.00 Ry     beta= 0.30
     Davidson diagonalization with overlap
     ethr =  1.00E-06,  avg # of iterations =  4.5

     negative rho (up, down):  2.259E-06 0.000E+00

     total cpu time spent up to now is       81.3 secs

     total energy              =    -225.94316777 Ry
     estimated scf accuracy    <       0.00009295 Ry

     iteration #  2     ecut=    90.00 Ry     beta= 0.30
     Davidson diagonalization with overlap
     ethr =  1.79E-07,  avg # of iterations =  2.0

     negative rho (up, down):  2.156E-06 0.000E+00

     total cpu time spent up to now is       82.8 secs

     total energy              =    -225.94317125 Ry
     estimated scf accuracy    <       0.00003229 Ry

     iteration #  3     ecut=    90.00 Ry     beta= 0.30
     Davidson diagonalization with overlap
     ethr =  6.21E-08,  avg # of iterations =  2.1

     negative rho (up, down):  2.115E-06 0.000E+00

     total cpu time spent up to now is       84.3 secs

     total energy              =    -225.94317518 Ry
     estimated scf accuracy    <       0.00000496 Ry

     iteration #  4     ecut=    90.00 Ry     beta= 0.30
     Davidson diagonalization with overlap
     ethr =  9.55E-09,  avg # of iterations =  2.0

     negative rho (up, down):  2.121E-06 0.000E+00

     total cpu time spent up to now is       85.9 secs

     total energy              =    -225.94317588 Ry
     estimated scf accuracy    <       0.00000124 Ry

     iteration #  5     ecut=    90.00 Ry     beta= 0.30
     Davidson diagonalization with overlap
     ethr =  2.38E-09,  avg # of iterations =  2.0

     negative rho (up, down):  2.130E-06 0.000E+00

     total cpu time spent up to now is       87.3 secs

     total energy              =    -225.94317600 Ry
     estimated scf accuracy    <       0.00000021 Ry

     iteration #  6     ecut=    90.00 Ry     beta= 0.30
     Davidson diagonalization with overlap
     ethr =  4.01E-10,  avg # of iterations =  3.2

     negative rho (up, down):  2.136E-06 0.000E+00

     total cpu time spent up to now is       89.0 secs

     total energy              =    -225.94317600 Ry
     estimated scf accuracy    <       0.00000020 Ry

     iteration #  7     ecut=    90.00 Ry     beta= 0.30
     Davidson diagonalization with overlap
     ethr =  3.78E-10,  avg # of iterations =  2.1

     negative rho (up, down):  2.142E-06 0.000E+00

     total cpu time spent up to now is       90.6 secs

     total energy              =    -225.94317604 Ry
     estimated scf accuracy    <          5.2E-09 Ry

     iteration #  8     ecut=    90.00 Ry     beta= 0.30
     Davidson diagonalization with overlap
     ethr =  1.01E-11,  avg # of iterations =  3.4

     negative rho (up, down):  2.152E-06 0.000E+00

     total cpu time spent up to now is       92.3 secs

     End of self-consistent calculation

          k = 0.0000-0.0000 0.0000 ( 14193 PWs)   bands (ev):

   -15.9231 -14.8758 -13.1190 -10.9225  -8.7393  -7.6260  -7.2952  -6.3945
    -4.8061  -4.4598  -4.0160  -2.9589  -2.7302  -2.1140  -0.8751  -0.7196
    -0.4047  -0.0913   1.2081   1.7397   2.1408   2.7069   3.9668   3.9843
     4.3090   4.8271   6.9651   7.2399   9.7422  10.1668  10.8658

          k = 0.0000-0.1010 0.0000 ( 14153 PWs)   bands (ev):

   -15.7370 -14.6955 -12.9557 -10.8370  -9.4997  -9.2557  -6.8356  -6.0062
    -5.5415  -4.0638  -3.5652  -3.0091  -1.8724  -1.8567  -1.0332  -0.6996
     0.0587   0.2151   1.2965   1.5161   2.3426   2.6593   3.6997   3.7483
     4.1176   4.2680   7.1703   7.4771   9.9329  10.1348  11.0316

          k = 0.0000-0.2020 0.0000 ( 14130 PWs)   bands (ev):

   -15.1814 -14.1600 -12.4893 -11.4146 -10.6360 -10.5809  -7.3465  -6.7382
    -5.4569  -4.4043  -3.0464  -1.7280  -1.7171  -0.7638  -0.1805  -0.1681
     0.4350   0.4960   1.5383   2.0339   2.0487   2.4984   2.9819   3.0787
     3.3081   3.6135   7.8190   8.0638  10.2769  10.3973  10.8984

          k = 0.0000-0.3030 0.0000 ( 14124 PWs)   bands (ev):

   -14.2658 -13.3259 -12.9446 -12.1874 -11.5682 -10.9209  -7.7311  -7.0742
    -5.6825  -4.7185  -2.9670  -1.9366  -0.3909   0.1831   0.6561   0.7788
     1.1702   1.1970   1.7711   1.8159   2.0215   2.1494   2.1963   2.2755
     2.6425   2.7213   8.8671   8.9134   9.9364  10.3432  10.7424

          k = 0.1111-0.0000 0.0000 ( 14169 PWs)   bands (ev):

   -15.6971 -14.6524 -12.8996 -10.7084  -8.5333  -7.4252  -7.2288  -6.3360
    -4.7625  -4.2672  -3.8083  -2.8054  -2.7104  -1.9154  -1.8958  -1.0752
    -0.6471  -0.4206   0.2676   1.6337   1.7689   2.0887   3.0058   3.4913
     3.7471   4.2019   7.1804   7.4728   9.7858  10.9593  11.0051

          k = 0.1111-0.1010 0.0000 ( 14133 PWs)   bands (ev):

   -15.5115 -14.4727 -12.7373 -10.6250  -9.3171  -9.0617  -6.6832  -5.8733
    -5.4612  -3.9618  -3.4535  -2.9901  -1.8430  -1.7063  -1.6204  -1.0237
    -0.8134   0.1706   0.4267   1.4767   1.7466   2.0682   2.7568   2.7678
     3.7057   4.1380   7.4123   7.7103  10.1051  11.1956  11.4559

          k = 0.1111-0.2020 0.0000 ( 14132 PWs)   bands (ev):

   -14.9576 -13.9393 -12.2739 -11.2108 -10.4305 -10.3823  -7.1635  -6.5462
    -5.3031  -4.2667  -3.0230  -2.0808  -1.7518  -1.1251  -0.6272  -0.1755
    -0.0652   0.1592   1.0187   1.4631   1.5943   1.6505   1.8097   2.1339
     3.2932   3.9236   8.0762   8.3330  10.7274  11.2345  11.5110

          k = 0.1111-0.3030 0.0000 ( 14139 PWs)   bands (ev):

   -14.0453 -13.1090 -12.7304 -11.9766 -11.3601 -10.7177  -7.5309  -6.8796
    -5.5041  -4.5467  -2.8604  -1.8325  -1.0765  -0.3729  -0.2539   0.2083
     0.5466   0.6253   0.9515   1.1770   1.2354   1.6688   1.9666   2.3090
     2.8050   2.8985   9.1283   9.2471  10.4302  10.6210  11.5620

          k = 0.2222-0.0000 0.0000 ( 14152 PWs)   bands (ev):

   -15.0223 -13.9856 -12.2450 -10.0701  -7.9186  -7.3396  -6.8245  -6.4544
    -4.9005  -3.7090  -3.5882  -3.2021  -2.8821  -2.7363  -2.3785  -1.3763
    -1.3353  -0.6377  -0.5019   0.0785   1.1134   1.1859   1.5937   1.8031
     2.1524   3.7923   7.8959   8.1305  10.0977  10.2113  10.7544

          k = 0.2222-0.1010 0.0000 ( 14114 PWs)   bands (ev):

   -14.8384 -13.8080 -12.0858  -9.9936  -8.8371  -8.5063  -6.3997  -5.7351
    -5.5829  -3.9380  -3.5452  -3.4244  -2.4022  -2.3452  -1.8121  -1.2279
    -1.0755  -0.5589  -0.4147   0.3130   0.4619   0.6136   1.4101   1.6100
     2.9784   3.4197   8.1431   8.3815  10.6225  10.7512  10.9499

          k = 0.2222-0.2020 0.0000 ( 14117 PWs)   bands (ev):

   -14.2902 -13.2817 -11.6323 -10.6213  -9.8201  -9.8056  -6.6758  -6.0432
    -4.9403  -4.7446  -3.3474  -3.2998  -2.4769  -1.8261  -1.1554  -0.9275
    -0.5914  -0.4381  -0.3417   0.1606   0.2630   0.5969   1.0807   1.8501
     2.7103   3.3456   8.8175   9.0320  11.3466  11.8885  11.9787

          k = 0.2222-0.3030 0.0000 ( 14151 PWs)   bands (ev):

   -13.3895 -12.4649 -12.0977 -11.3528 -10.7431 -10.1143  -6.9668  -6.3306
    -5.0481  -4.1055  -3.7316  -2.7035  -2.4220  -2.1696  -1.5047  -1.3189
    -1.1324  -0.8302   0.2211   1.0489   1.1815   1.1910   1.4120   1.6697
     2.3957   2.7831   9.8153   9.9338  11.2109  11.3040  12.5662

          k = 0.3333-0.0000 0.0000 ( 14106 PWs)   bands (ev):

   -13.9105 -12.8877 -11.1682  -9.0205  -8.5767  -7.6501  -6.9048  -6.0561
    -5.8295  -4.0209  -3.9256  -3.1437  -2.8535  -2.2561  -1.9359  -1.8837
    -1.7890  -0.7925  -0.6610  -0.5092  -0.4120  -0.1140   0.2336   0.3729
     1.1768   3.0229   9.0606   9.0885   9.9326  10.2600  11.3446

          k = 0.3333-0.1010 0.0000 ( 14126 PWs)   bands (ev):

   -13.7305 -12.7147 -11.0152  -8.9793  -8.7618  -8.0132  -6.7306  -6.5729
    -6.1106  -4.2699  -4.0009  -3.1314  -3.0537  -2.2996  -1.8929  -1.6843
    -1.6457  -1.1664  -0.6727  -0.6097  -0.3427  -0.2076   0.5268   0.9677
     1.3758   2.8351   9.3069   9.4153  10.4037  10.6314  11.2809

          k = 0.3333-0.2020 0.0000 ( 14157 PWs)   bands (ev):

   -13.1954 -12.2039 -10.5819  -9.8156  -8.9932  -8.8353  -6.7374  -6.3139
    -6.2392  -4.8830  -4.1428  -3.7032  -3.4771  -3.2012  -2.4531  -2.1003
    -1.4914  -0.4545  -0.2477  -0.1613   0.0804   0.4104   0.5479   0.8617
     2.2366   2.3424   9.9383  10.0373  11.3805  11.6092  12.0314

          k = 0.3333-0.3030 0.0000 ( 14183 PWs)   bands (ev):

   -12.3240 -11.4217 -11.0997 -10.3599  -9.7522  -9.1415  -6.3158  -6.0013
    -5.6730  -5.4743  -4.8808  -4.4735  -3.7034  -3.3391  -2.8210  -2.7010
    -1.3925  -0.7293  -0.1955  -0.0429   0.6085   0.9625   1.2698   1.5067
     1.7738   2.3415  10.6741  10.7527  12.0745  12.1696  12.4392

          k = 0.4444-0.0000 0.0000 ( 14102 PWs)   bands (ev):

   -12.3898 -11.3882 -10.5326  -9.6997  -9.5616  -7.9149  -7.5890  -5.8461
    -5.5122  -4.4517  -3.7864  -2.9589  -2.7140  -2.3316  -1.8485  -1.4792
    -1.4231  -1.3255  -1.0789  -0.9729  -0.9574  -0.8644  -0.8352   0.1686
     0.7242   1.9407   9.7125  10.3272  10.4968  10.7482  10.8952

          k = 0.4444-0.1010 0.0000 ( 14146 PWs)   bands (ev):

   -12.2196 -11.2264 -10.4025  -9.5629  -9.4401  -7.8532  -7.4808  -5.8246
    -5.8205  -5.6881  -4.1552  -3.9814  -3.0994  -2.4232  -1.9456  -1.7242
    -1.4153  -1.1429  -0.8424  -0.7343  -0.6225  -0.3776  -0.1807   0.3149
     0.8423   1.9243  10.3273  10.3293  10.4655  10.9703  11.3567

          k = 0.4444-0.2020 0.0000 ( 14173 PWs)   bands (ev):

   -11.7219 -10.7570 -10.1090  -9.2463  -9.1079  -7.7990  -7.2883  -7.0092
    -6.6087  -5.9007  -5.5453  -5.1366  -3.3688  -3.3016  -2.2873  -2.0946
    -1.5720  -1.3209  -0.7946  -0.1706   0.0624   0.1437   0.6038   1.0422
     1.2797   1.8521  10.8636  11.0108  11.3074  11.4637  12.0092

          k = 0.4444-0.3030 0.0000 ( 14184 PWs)   bands (ev):

   -10.9590 -10.2198 -10.0153  -9.3396  -8.5513  -8.0160  -7.7492  -7.0562
    -6.8875  -6.6371  -6.1789  -6.0450  -3.7038  -3.3658  -2.7562  -2.4038
    -1.7500  -1.4693  -0.6581  -0.3168   0.2258   0.3321   1.3852   1.5130
     1.7335   1.8054  11.4217  11.4255  12.0276  12.1468  13.1349

     the Fermi energy is     5.5576 ev

!    total energy              =    -225.94317603 Ry
     estimated scf accuracy    <          1.4E-09 Ry
     smearing contrib. (-TS)   =       0.00000000 Ry
     internal energy E=F+TS    =    -225.94317603 Ry

     The total energy is F=E-TS. E is the sum of the following terms:
     one-electron contribution =   -1229.98114725 Ry
     hartree contribution      =     639.07709406 Ry
     xc contribution           =     -59.14067127 Ry
     ewald contribution        =     498.05854814 Ry
     one-center paw contrib.   =     -73.95699972 Ry

     convergence has been achieved in   8 iterations

     negative rho (up, down):  2.152E-06 0.000E+00

     Forces acting on atoms (cartesian axes, Ry/au):

     atom    1 type  1   force =     0.00000000   -0.00180528   -0.00142403
     atom    2 type  1   force =     0.00000000    0.00180528   -0.00142403
     atom    3 type  1   force =     0.00000000    0.00016360   -0.00323220
     atom    4 type  1   force =     0.00000000   -0.00016360   -0.00323220
     atom    5 type  1   force =     0.00000000   -0.00034527   -0.00165000
     atom    6 type  1   force =     0.00000000    0.00034527   -0.00165000
     atom    7 type  1   force =     0.00000000    0.00034527    0.00165000
     atom    8 type  1   force =     0.00000000   -0.00034527    0.00165000
     atom    9 type  1   force =     0.00000000    0.00016360    0.00323220
     atom   10 type  1   force =     0.00000000   -0.00016360    0.00323220
     atom   11 type  1   force =     0.00000000    0.00180528    0.00142403
     atom   12 type  1   force =     0.00000000   -0.00180528    0.00142403
     atom   13 type  2   force =     0.00000000    0.00048246    0.00308747
     atom   14 type  2   force =     0.00000000   -0.00048246    0.00308747
     atom   15 type  2   force =     0.00000000   -0.00048246   -0.00308747
     atom   16 type  2   force =     0.00000000    0.00048246   -0.00308747

     Total force =     0.010652     Total SCF correction =     0.000131
     Energy error            =      2.9E-04 Ry
     Gradient error          =      3.2E-03 Ry/Bohr

     number of scf cycles    =   6
     number of bfgs steps    =   5

     energy             old  =    -225.9428836837 Ry
     energy             new  =    -225.9431760350 Ry

     CASE: energy            _new < energy            _old

     new trust radius        =       0.0087000053 bohr
     new conv_thr            =       0.0000000029 Ry


ATOMIC_POSITIONS (angstrom)
C                0.0000000000       -0.9129013505       11.1810429948
C                1.2634728900       -1.7673293995       11.1810429948
C                1.2634728900       -2.6832831045        9.9475394071
C                0.0000000000        0.0030523545        9.9475394071
C                0.0000000000       -0.8925190257        8.6809528016
C                1.2634728900       -1.7877117243        8.6809528016
C                0.0000000000       -0.0008912243        7.4163742084
C                1.2634728900       -2.6793395257        7.4163742084
C                0.0000000000       -0.8964626045        6.1497876029
C                1.2634728900       -1.7837681455        6.1497876029
C                0.0000000000        0.0194911005        4.9162840052
C                1.2634728900       -2.6997218505        4.9162840052
H                0.0000000000       -0.3135911878       12.1016565782
H                1.2634728900       -2.3666395622       12.1016565782
H                0.0000000000       -0.5798190622        3.9956704318
H                1.2634728900       -2.1004116878        3.9956704318



     Writing config-only to output data dir /tmp/qe/slab.save/ :
     XML data file
     NEW-OLD atomic charge density approx. for the potential

     negative rho (up, down):  2.118E-06 0.000E+00

     total cpu time spent up to now is       92.9 secs

     Self-consistent Calculation

     iteration #  1     ecut=    90.00 Ry     beta= 0.30
     Davidson diagonalization with overlap
     ethr =  1.00E-06,  avg # of iterations =  3.0

     Threshold (ethr) on eigenvalues was too large:
     Diagonalizing with lowered threshold

     Davidson diagonalization with overlap
     ethr =  4.34E-08,  avg # of iterations =  3.7

     negative rho (up, down):  2.108E-06 0.000E+00

     total cpu time spent up to now is       96.5 secs

     total energy              =    -225.94326499 Ry
     estimated scf accuracy    <       0.00002822 Ry

     iteration #  2     ecut=    90.00 Ry     beta= 0.30
     Davidson diagonalization with overlap
     ethr =  5.43E-08,  avg # of iterations =  1.4

     negative rho (up, down):  2.080E-06 0.000E+00

     total cpu time spent up to now is       97.8 secs

     total energy              =    -225.94326485 Ry
     estimated scf accuracy    <       0.00000984 Ry

     iteration #  3     ecut=    90.00 Ry     beta= 0.30
     Davidson diagonalization with overlap
     ethr =  1.89E-08,  avg # of iterations =  1.7

     negative rho (up, down):  2.080E-06 0.000E+00

     total cpu time spent up to now is       99.2 secs

     total energy              =    -225.94326564 Ry
     estimated scf accuracy    <       0.00000141 Ry

     iteration #  4     ecut=    90.00 Ry     beta= 0.30
     Davidson diagonalization with overlap
     ethr =  2.71E-09,  avg # of iterations =  2.0

     negative rho (up, down):  2.091E-06 0.000E+00

     total cpu time spent up to now is      100.7 secs

     total energy              =    -225.94326580 Ry
     estimated scf accuracy    <       0.00000019 Ry

     iteration #  5     ecut=    90.00 Ry     beta= 0.30
     Davidson diagonalization with overlap
     ethr =  3.61E-10,  avg # of iterations =  2.1

     negative rho (up, down):  2.096E-06 0.000E+00

     total cpu time spent up to now is      102.2 secs

     total energy              =    -225.94326582 Ry
     estimated scf accuracy    <       0.00000002 Ry

     iteration #  6     ecut=    90.00 Ry     beta= 0.30
     Davidson diagonalization with overlap
     ethr =  2.97E-11,  avg # of iterations =  2.8

     negative rho (up, down):  2.105E-06 0.000E+00

     total cpu time spent up to now is      104.0 secs

     End of self-consistent calculation

          k = 0.0000-0.0000 0.0000 ( 14193 PWs)   bands (ev):

   -15.9371 -14.8764 -13.1203 -10.9245  -8.7416  -7.6322  -7.3110  -6.3906
    -4.8013  -4.4610  -4.0234  -2.9548  -2.7246  -2.1149  -0.8886  -0.7095
    -0.4017  -0.0952   1.2002   1.7505   2.1404   2.6986   3.9680   3.9787
     4.3057   4.8239   6.9599   7.2316   9.7318  10.1546  10.8782

          k = 0.0000-0.1010 0.0000 ( 14153 PWs)   bands (ev):

   -15.7510 -14.6961 -12.9573 -10.8397  -9.5120  -9.2573  -6.8346  -5.9993
    -5.5502  -4.0565  -3.5740  -3.0077  -1.8735  -1.8543  -1.0263  -0.7129
     0.0547   0.2210   1.2884   1.5211   2.3487   2.6511   3.6943   3.7476
     4.1145   4.2627   7.1647   7.4691   9.9231  10.1262  11.0226

          k = 0.0000-0.2020 0.0000 ( 14130 PWs)   bands (ev):

   -15.1954 -14.1609 -12.4918 -11.4273 -10.6408 -10.5808  -7.3396  -6.7447
    -5.4407  -4.4087  -3.0403  -1.7316  -1.7253  -0.7627  -0.1934  -0.1633
     0.4377   0.4916   1.5297   2.0432   2.0484   2.4907   2.9773   3.0699
     3.3139   3.6051   7.8127   8.0558  10.2718  10.3894  10.8901

          k = 0.0000-0.3030 0.0000 ( 14124 PWs)   bands (ev):

   -14.2797 -13.3291 -12.9561 -12.1914 -11.5674 -10.9249  -7.7257  -7.0768
    -5.6699  -4.7155  -2.9618  -1.9372  -0.3872   0.1735   0.6442   0.7788
     1.1648   1.1965   1.7621   1.8067   2.0193   2.1457   2.1915   2.2666
     2.6459   2.7306   8.8602   8.9052   9.9280  10.3344  10.7381

          k = 0.1111-0.0000 0.0000 ( 14169 PWs)   bands (ev):

   -15.7111 -14.6530 -12.9009 -10.7105  -8.5357  -7.4314  -7.2446  -6.3321
    -4.7577  -4.2684  -3.8156  -2.8016  -2.7048  -1.9162  -1.9092  -1.0790
    -0.6373  -0.4177   0.2602   1.6440   1.7608   2.0886   3.0005   3.4900
     3.7432   4.1992   7.1740   7.4640   9.7770  10.9676  11.0012

          k = 0.1111-0.1010 0.0000 ( 14133 PWs)   bands (ev):

   -15.5255 -14.4733 -12.7388 -10.6277  -9.3295  -9.0632  -6.6821  -5.8660
    -5.4709  -3.9548  -3.4617  -2.9885  -1.8412  -1.7077  -1.6334  -1.0168
    -0.8172   0.1763   0.4191   1.4811   1.7397   2.0737   2.7493   2.7632
     3.7054   4.1356   7.4059   7.7017  10.0960  11.1956  11.4531

          k = 0.1111-0.2020 0.0000 ( 14132 PWs)   bands (ev):

   -14.9716 -13.9402 -12.2764 -11.2235 -10.4353 -10.3822  -7.1566  -6.5527
    -5.2869  -4.2715  -3.0208  -2.0862  -1.7541  -1.1277  -0.6389  -0.1708
    -0.0656   0.1556   1.0144   1.4576   1.5867   1.6490   1.8153   2.1319
     3.2975   3.9182   8.0695   8.3243  10.7197  11.2343  11.5040

          k = 0.1111-0.3030 0.0000 ( 14139 PWs)   bands (ev):

   -14.0592 -13.1123 -12.7419 -11.9806 -11.3593 -10.7216  -7.5255  -6.8821
    -5.4917  -4.5436  -2.8565  -1.8336  -1.0881  -0.3708  -0.2582   0.2003
     0.5371   0.6264   0.9475   1.1737   1.2288   1.6636   1.9630   2.3215
     2.7948   2.9041   9.1213   9.2385  10.4210  10.6116  11.5617

          k = 0.2222-0.0000 0.0000 ( 14152 PWs)   bands (ev):

   -15.0363 -13.9862 -12.2463 -10.0722  -7.9211  -7.3554  -6.8306  -6.4510
    -4.8963  -3.7101  -3.6016  -3.2088  -2.8774  -2.7394  -2.3752  -1.3824
    -1.3361  -0.6356  -0.4932   0.0728   1.1100   1.1947   1.5890   1.8018
     2.1460   3.7900   7.8880   8.1206  10.1054  10.2080  10.7523

          k = 0.2222-0.1010 0.0000 ( 14114 PWs)   bands (ev):

   -14.8525 -13.8086 -12.0874  -9.9963  -8.8501  -8.5075  -6.3986  -5.7376
    -5.5853  -3.9382  -3.5519  -3.4177  -2.4134  -2.3477  -1.8157  -1.2221
    -1.0769  -0.5617  -0.4166   0.3091   0.4623   0.6118   1.4102   1.6146
     2.9745   3.4187   8.1354   8.3716  10.6178  10.7583  10.9482

          k = 0.2222-0.2020 0.0000 ( 14117 PWs)   bands (ev):

   -14.3042 -13.2825 -11.6348 -10.6341  -9.8250  -9.8053  -6.6686  -6.0491
    -4.9263  -4.7565  -3.3518  -3.3008  -2.4744  -1.8268  -1.1658  -0.9319
    -0.5988  -0.4460  -0.3434   0.1614   0.2656   0.5939   1.0893   1.8505
     2.7140   3.3420   8.8099   9.0222  11.3420  11.8881  11.9808

          k = 0.2222-0.3030 0.0000 ( 14151 PWs)   bands (ev):

   -13.4034 -12.4681 -12.1091 -11.3566 -10.7425 -10.1183  -6.9611  -6.3324
    -5.0371  -4.1028  -3.7430  -2.7112  -2.4281  -2.1707  -1.5067  -1.3203
    -1.1336  -0.8366   0.2242   1.0507   1.1804   1.1870   1.4014   1.6797
     2.4019   2.7773   9.8084   9.9251  11.2018  11.2937  12.5609

          k = 0.3333-0.0000 0.0000 ( 14106 PWs)   bands (ev):

   -13.9246 -12.8883 -11.1697  -9.0228  -8.5917  -7.6490  -6.9074  -6.0554
    -5.8355  -4.0210  -3.9394  -3.1438  -2.8547  -2.2610  -1.9388  -1.8847
    -1.7879  -0.7924  -0.6659  -0.5013  -0.4149  -0.1127   0.2408   0.3641
     1.1737   3.0208   9.0539   9.0815   9.9321  10.2638  11.3483

          k = 0.3333-0.1010 0.0000 ( 14126 PWs)   bands (ev):

   -13.7446 -12.7153 -11.0169  -8.9834  -8.7752  -8.0125  -6.7329  -6.5827
    -6.1088  -4.2759  -3.9936  -3.1320  -3.0621  -2.2996  -1.9033  -1.6912
    -1.6476  -1.1655  -0.6681  -0.6141  -0.3401  -0.2038   0.5335   0.9657
     1.3704   2.8334   9.2994   9.4066  10.4032  10.6338  11.2903

          k = 0.3333-0.2020 0.0000 ( 14157 PWs)   bands (ev):

   -13.2094 -12.2046 -10.5845  -9.8289  -8.9925  -8.8400  -6.7481  -6.3107
    -6.2415  -4.8869  -4.1347  -3.7098  -3.4891  -3.1993  -2.4554  -2.1024
    -1.4852  -0.4510  -0.2518  -0.1622   0.0692   0.4149   0.5496   0.8687
     2.2338   2.3419   9.9309  10.0284  11.3828  11.6043  12.0356

          k = 0.3333-0.3030 0.0000 ( 14183 PWs)   bands (ev):

   -12.3380 -11.4251 -11.1110 -10.3630  -9.7520  -9.1453  -6.3111  -6.0143
    -5.6711  -5.4778  -4.8930  -4.4775  -3.6992  -3.3405  -2.8193  -2.7035
    -1.3887  -0.7266  -0.1968  -0.0432   0.6112   0.9657   1.2728   1.5002
     1.7759   2.3386  10.6689  10.7465  12.0682  12.1596  12.4426

          k = 0.4444-0.0000 0.0000 ( 14102 PWs)   bands (ev):

   -12.4041 -11.3887 -10.5471  -9.7011  -9.5618  -7.9160  -7.5913  -5.8481
    -5.5150  -4.4576  -3.7893  -2.9728  -2.7196  -2.3308  -1.8505  -1.4801
    -1.4375  -1.3271  -1.0813  -0.9672  -0.9524  -0.8599  -0.8261   0.1632
     0.7224   1.9387   9.7157  10.3248  10.4973  10.7485  10.8995

          k = 0.4444-0.1010 0.0000 ( 14146 PWs)   bands (ev):

   -12.2338 -11.2268 -10.4169  -9.5645  -9.4402  -7.8544  -7.4835  -5.8278
    -5.8226  -5.6983  -4.1581  -3.9917  -3.0992  -2.4198  -1.9528  -1.7252
    -1.4103  -1.1428  -0.8335  -0.7300  -0.6322  -0.3808  -0.1768   0.3085
     0.8408   1.9223  10.3292  10.3310  10.4661  10.9683  11.3486

          k = 0.4444-0.2020 0.0000 ( 14173 PWs)   bands (ev):

   -11.7361 -10.7575 -10.1234  -9.2476  -9.1084  -7.8009  -7.2974  -7.0149
    -6.6117  -5.9050  -5.5559  -5.1392  -3.3654  -3.3040  -2.2808  -2.0952
    -1.5661  -1.3226  -0.7878  -0.1730   0.0655   0.1464   0.5978   1.0394
     1.2775   1.8502  10.8650  11.0100  11.3088  11.4634  12.0040

          k = 0.4444-0.3030 0.0000 ( 14184 PWs)   bands (ev):

   -10.9732 -10.2326 -10.0172  -9.3399  -8.5532  -8.0189  -7.7612  -7.0665
    -6.8921  -6.6404  -6.1813  -6.0488  -3.7009  -3.3679  -2.7510  -2.4041
    -1.7427  -1.4632  -0.6583  -0.3189   0.2310   0.3362   1.3836   1.5097
     1.7322   1.8047  11.4201  11.4240  12.0307  12.1512  13.1189

     the Fermi energy is     5.5421 ev

!    total energy              =    -225.94326582 Ry
     estimated scf accuracy    <          1.7E-09 Ry
     smearing contrib. (-TS)   =       0.00000000 Ry
     internal energy E=F+TS    =    -225.94326582 Ry

     The total energy is F=E-TS. E is the sum of the following terms:
     one-electron contribution =   -1231.61329272 Ry
     hartree contribution      =     639.88946103 Ry
     xc contribution           =     -59.14197356 Ry
     ewald contribution        =     498.87962925 Ry
     one-center paw contrib.   =     -73.95708982 Ry

     convergence has been achieved in   6 iterations

     negative rho (up, down):  2.105E-06 0.000E+00

     Forces acting on atoms (cartesian axes, Ry/au):

     atom    1 type  1   force =     0.00000000    0.00023650    0.00010201
     atom    2 type  1   force =     0.00000000   -0.00023650    0.00010201
     atom    3 type  1   force =     0.00000000    0.00004857   -0.00125702
     atom    4 type  1   force =     0.00000000   -0.00004857   -0.00125702
     atom    5 type  1   force =     0.00000000   -0.00035266   -0.00086914
     atom    6 type  1   force =     0.00000000    0.00035266   -0.00086914
     atom    7 type  1   force =     0.00000000    0.00035266    0.00086914
     atom    8 type  1   force =     0.00000000   -0.00035266    0.00086914
     atom    9 type  1   force =     0.00000000    0.00004857    0.00125702
     atom   10 type  1   force =     0.00000000   -0.00004857    0.00125702
     atom   11 type  1   force =     0.00000000   -0.00023650   -0.00010201
     atom   12 type  1   force =     0.00000000    0.00023650   -0.00010201
     atom   13 type  2   force =     0.00000000    0.00039744    0.00078621
     atom   14 type  2   force =     0.00000000   -0.00039744    0.00078621
     atom   15 type  2   force =     0.00000000   -0.00039744   -0.00078621
     atom   16 type  2   force =     0.00000000    0.00039744   -0.00078621

     Total force =     0.003636     Total SCF correction =     0.000090
     Energy error            =      9.0E-05 Ry
     Gradient error          =      1.3E-03 Ry/Bohr

     number of scf cycles    =   7
     number of bfgs steps    =   6

     energy             old  =    -225.9431760350 Ry
     energy             new  =    -225.9432658186 Ry

     CASE: energy            _new < energy            _old

     new trust radius        =       0.0021451826 bohr
     new conv_thr            =       0.0000000009 Ry


ATOMIC_POSITIONS (angstrom)
C                0.0000000000       -0.9127353251       11.1810092374
C                1.2634728900       -1.7674954249       11.1810092374
C                1.2634728900       -2.6832476028        9.9464047807
C                0.0000000000        0.0030168528        9.9464047807
C                0.0000000000       -0.8927988664        8.6802599734
C                1.2634728900       -1.7874318836        8.6802599734
C                0.0000000000       -0.0006113836        7.4170670366
C                1.2634728900       -2.6796193664        7.4170670366
C                0.0000000000       -0.8964271028        6.1509222293
C                1.2634728900       -1.7838036472        6.1509222293
C                0.0000000000        0.0193250751        4.9163177626
C                1.2634728900       -2.6995558251        4.9163177626
H                0.0000000000       -0.3134518715       12.1023908743
H                1.2634728900       -2.3667788785       12.1023908743
H                0.0000000000       -0.5799583785        3.9949361357
H                1.2634728900       -2.1002723715        3.9949361357



     Writing config-only to output data dir /tmp/qe/slab.save/ :
     XML data file
     NEW-OLD atomic charge density approx. for the potential

     negative rho (up, down):  2.082E-06 0.000E+00

     total cpu time spent up to now is      104.6 secs

     Self-consistent Calculation

     iteration #  1     ecut=    90.00 Ry     beta= 0.30
     Davidson diagonalization with overlap
     ethr =  1.00E-06,  avg # of iterations =  2.0

     Threshold (ethr) on eigenvalues was too large:
     Diagonalizing with lowered threshold

     Davidson diagonalization with overlap
     ethr =  5.62E-09,  avg # of iterations =  4.2

     negative rho (up, down):  2.087E-06 0.000E+00

     total cpu time spent up to now is      108.1 secs

     total energy              =    -225.94327779 Ry
     estimated scf accuracy    <       0.00000468 Ry

     iteration #  2     ecut=    90.00 Ry     beta= 0.30
     Davidson diagonalization with overlap
     ethr =  9.00E-09,  avg # of iterations =  2.0

     negative rho (up, down):  2.098E-06 0.000E+00

     total cpu time spent up to now is      109.6 secs

     total energy              =    -225.94327795 Ry
     estimated scf accuracy    <       0.00000104 Ry

     iteration #  3     ecut=    90.00 Ry     beta= 0.30
     Davidson diagonalization with overlap
     ethr =  2.01E-09,  avg # of iterations =  2.0

     negative rho (up, down):  2.110E-06 0.000E+00

     total cpu time spent up to now is      111.0 secs

     total energy              =    -225.94327802 Ry
     estimated scf accuracy    <       0.00000024 Ry

     iteration #  4     ecut=    90.00 Ry     beta= 0.30
     Davidson diagonalization with overlap
     ethr =  4.53E-10,  avg # of iterations =  1.6

     negative rho (up, down):  2.116E-06 0.000E+00

     total cpu time spent up to now is      112.4 secs

     total energy              =    -225.94327803 Ry
     estimated scf accuracy    <       0.00000003 Ry

     iteration #  5     ecut=    90.00 Ry     beta= 0.30
     Davidson diagonalization with overlap
     ethr =  6.42E-11,  avg # of iterations =  2.2

     negative rho (up, down):  2.116E-06 0.000E+00

     total cpu time spent up to now is      114.0 secs

     total energy              =    -225.94327803 Ry
     estimated scf accuracy    <          3.0E-09 Ry

     iteration #  6     ecut=    90.00 Ry     beta= 0.30
     Davidson diagonalization with overlap
     ethr =  5.74E-12,  avg # of iterations =  3.6

     negative rho (up, down):  2.117E-06 0.000E+00

     total cpu time spent up to now is      115.9 secs

     total energy              =    -225.94327803 Ry
     estimated scf accuracy    <          1.4E-09 Ry

     iteration #  7     ecut=    90.00 Ry     beta= 0.30
     Davidson diagonalization with overlap
     ethr =  2.65E-12,  avg # of iterations =  2.0

     negative rho (up, down):  2.118E-06 0.000E+00

     total cpu time spent up to now is      117.4 secs

     End of self-consistent calculation

          k = 0.0000-0.0000 0.0000 ( 14193 PWs)   bands (ev):

   -15.9415 -14.8725 -13.1194 -10.9244  -8.7416  -7.6354  -7.3154  -6.3842
    -4.7988  -4.4591  -4.0238  -2.9547  -2.7228  -2.1143  -0.8933  -0.7097
    -0.4001  -0.0914   1.2000   1.7497   2.1418   2.6975   3.9667   3.9775
     4.3067   4.8200   6.9592   7.2302   9.7301  10.1501  10.8754

          k = 0.0000-0.1010 0.0000 ( 14153 PWs)   bands (ev):

   -15.7555 -14.6922 -12.9564 -10.8394  -9.5166  -9.2556  -6.8316  -5.9968
    -5.5530  -4.0532  -3.5746  -3.0060  -1.8734  -1.8542  -1.0258  -0.7176
     0.0585   0.2219   1.2882   1.5218   2.3492   2.6501   3.6936   3.7483
     4.1131   4.2584   7.1639   7.4678   9.9215  10.1229  11.0244

          k = 0.0000-0.2020 0.0000 ( 14130 PWs)   bands (ev):

   -15.1998 -14.1569 -12.4909 -11.4308 -10.6420 -10.5778  -7.3379  -6.7447
    -5.4372  -4.4071  -3.0405  -1.7312  -1.7290  -0.7604  -0.1978  -0.1629
     0.4381   0.4953   1.5296   2.0446   2.0489   2.4907   2.9775   3.0642
     3.3159   3.6026   7.8118   8.0544  10.2700  10.3876  10.8886

          k = 0.0000-0.3030 0.0000 ( 14124 PWs)   bands (ev):

   -14.2839 -13.3255 -12.9600 -12.1881 -11.5667 -10.9250  -7.7246  -7.0771
    -5.6666  -4.7125  -2.9630  -1.9372  -0.3873   0.1708   0.6402   0.7781
     1.1683   1.1990   1.7593   1.8087   2.0187   2.1443   2.1902   2.2633
     2.6460   2.7350   8.8587   8.9032   9.9261  10.3328  10.7373

          k = 0.1111-0.0000 0.0000 ( 14169 PWs)   bands (ev):

   -15.7155 -14.6491 -12.9000 -10.7103  -8.5357  -7.4346  -7.2490  -6.3257
    -4.7551  -4.2665  -3.8159  -2.8014  -2.7029  -1.9157  -1.9139  -1.0753
    -0.6375  -0.4161   0.2601   1.6438   1.7597   2.0899   2.9994   3.4882
     3.7394   4.2002   7.1732   7.4627   9.7753  10.9696  10.9975

          k = 0.1111-0.1010 0.0000 ( 14133 PWs)   bands (ev):

   -15.5299 -14.4694 -12.7379 -10.6274  -9.3341  -9.0615  -6.6790  -5.8632
    -5.4740  -3.9515  -3.4621  -2.9867  -1.8412  -1.7077  -1.6378  -1.0162
    -0.8137   0.1771   0.4189   1.4819   1.7388   2.0750   2.7454   2.7623
     3.7061   4.1336   7.4051   7.7004  10.0945  11.1948  11.4500

          k = 0.1111-0.2020 0.0000 ( 14132 PWs)   bands (ev):

   -14.9759 -13.9362 -12.2755 -11.2270 -10.4365 -10.3792  -7.1548  -6.5527
    -5.2834  -4.2704  -3.0209  -2.0899  -1.7521  -1.1265  -0.6427  -0.1703
    -0.0653   0.1583   1.0144   1.4577   1.5826   1.6504   1.8155   2.1320
     3.2986   3.9158   8.0686   8.3229  10.7179  11.2339  11.5024

          k = 0.1111-0.3030 0.0000 ( 14139 PWs)   bands (ev):

   -14.0634 -13.1087 -12.7458 -11.9772 -11.3587 -10.7218  -7.5244  -6.8823
    -5.4883  -4.5406  -2.8578  -1.8336  -1.0921  -0.3692  -0.2571   0.1968
     0.5398   0.6261   0.9473   1.1709   1.2285   1.6642   1.9621   2.3249
     2.7905   2.9068   9.1198   9.2363  10.4188  10.6102  11.5620

          k = 0.2222-0.0000 0.0000 ( 14152 PWs)   bands (ev):

   -15.0407 -13.9822 -12.2454 -10.0721  -7.9211  -7.3597  -6.8339  -6.4449
    -4.8939  -3.7082  -3.6063  -3.2089  -2.8756  -2.7357  -2.3753  -1.3825
    -1.3355  -0.6339  -0.4933   0.0720   1.1094   1.1962   1.5854   1.8028
     2.1434   3.7910   7.8871   8.1194  10.1067  10.2061  10.7513

          k = 0.2222-0.1010 0.0000 ( 14114 PWs)   bands (ev):

   -14.8569 -13.8046 -12.0865  -9.9960  -8.8548  -8.5055  -6.3954  -5.7380
    -5.5862  -3.9354  -3.5529  -3.4154  -2.4157  -2.3479  -1.8131  -1.2216
    -1.0766  -0.5615  -0.4171   0.3057   0.4628   0.6127   1.4103   1.6152
     2.9723   3.4196   8.1344   8.3702  10.6164  10.7590  10.9467

          k = 0.2222-0.2020 0.0000 ( 14117 PWs)   bands (ev):

   -14.3086 -13.2784 -11.6339 -10.6376  -9.8261  -9.8022  -6.6665  -6.0488
    -4.9228  -4.7605  -3.3492  -3.2975  -2.4763  -1.8260  -1.1692  -0.9310
    -0.6013  -0.4489  -0.3419   0.1627   0.2670   0.5929   1.0909   1.8511
     2.7151   3.3399   8.8087   9.0204  11.3405  11.8874  11.9815

          k = 0.2222-0.3030 0.0000 ( 14151 PWs)   bands (ev):

   -13.4076 -12.4645 -12.1130 -11.3531 -10.7419 -10.1185  -6.9598  -6.3324
    -5.0337  -4.0998  -3.7470  -2.7101  -2.4299  -2.1712  -1.5041  -1.3208
    -1.1342  -0.8370   0.2243   1.0509   1.1821   1.1859   1.3962   1.6838
     2.4038   2.7744   9.8068   9.9226  11.2000  11.2924  12.5594

          k = 0.3333-0.0000 0.0000 ( 14106 PWs)   bands (ev):

   -13.9290 -12.8842 -11.1688  -9.0226  -8.5961  -7.6439  -6.9074  -6.0537
    -5.8388  -4.0201  -3.9439  -3.1393  -2.8529  -2.2604  -1.9382  -1.8842
    -1.7885  -0.7928  -0.6689  -0.4993  -0.4165  -0.1115   0.2443   0.3614
     1.1744   3.0217   9.0528   9.0802   9.9316  10.2625  11.3470

          k = 0.3333-0.1010 0.0000 ( 14126 PWs)   bands (ev):

   -13.7490 -12.7113 -11.0160  -8.9831  -8.7798  -8.0084  -6.7315  -6.5868
    -6.1073  -4.2750  -3.9906  -3.1304  -3.0651  -2.2985  -1.9077  -1.6922
    -1.6448  -1.1662  -0.6669  -0.6138  -0.3407  -0.2008   0.5352   0.9664
     1.3675   2.8342   9.2981   9.4050  10.4022  10.6327  11.2912

          k = 0.3333-0.2020 0.0000 ( 14157 PWs)   bands (ev):

   -13.2138 -12.2005 -10.5835  -9.8327  -8.9889  -8.8408  -6.7515  -6.3099
    -6.2390  -4.8861  -4.1320  -3.7092  -3.4939  -3.1977  -2.4537  -2.1024
    -1.4846  -0.4502  -0.2520  -0.1599   0.0635   0.4185   0.5495   0.8697
     2.2316   2.3426   9.9293  10.0261  11.3828  11.6027  12.0336

          k = 0.3333-0.3030 0.0000 ( 14183 PWs)   bands (ev):

   -12.3422 -11.4216 -11.1146 -10.3593  -9.7514  -9.1454  -6.3086  -6.0198
    -5.6697  -5.4750  -4.8979  -4.4748  -3.6971  -3.3407  -2.8163  -2.7035
    -1.3888  -0.7257  -0.1971  -0.0432   0.6122   0.9669   1.2742   1.4974
     1.7761   2.3362  10.6672  10.7443  12.0665  12.1570  12.4422

          k = 0.4444-0.0000 0.0000 ( 14102 PWs)   bands (ev):

   -12.4085 -11.3845 -10.5516  -9.7002  -9.5573  -7.9148  -7.5911  -5.8477
    -5.5150  -4.4610  -3.7893  -2.9772  -2.7232  -2.3264  -1.8486  -1.4798
    -1.4431  -1.3263  -1.0798  -0.9644  -0.9509  -0.8572  -0.8232   0.1632
     0.7229   1.9394   9.7147  10.3234  10.4952  10.7474  10.8982

          k = 0.4444-0.1010 0.0000 ( 14146 PWs)   bands (ev):

   -12.2383 -11.2226 -10.4214  -9.5634  -9.4358  -7.8533  -7.4831  -5.8273
    -5.8219  -5.7028  -4.1573  -3.9963  -3.0966  -2.4186  -1.9548  -1.7235
    -1.4089  -1.1422  -0.8292  -0.7272  -0.6351  -0.3819  -0.1757   0.3072
     0.8412   1.9229  10.3281  10.3298  10.4648  10.9669  11.3468

          k = 0.4444-0.2020 0.0000 ( 14173 PWs)   bands (ev):

   -11.7405 -10.7533 -10.1277  -9.2441  -9.1062  -7.7999  -7.2981  -7.0186
    -6.6099  -5.9037  -5.5617  -5.1373  -3.3646  -3.3030  -2.2790  -2.0935
    -1.5650  -1.3217  -0.7857  -0.1701   0.0654   0.1461   0.5945   1.0390
     1.2755   1.8507  10.8641  11.0089  11.3076  11.4614  12.0016

          k = 0.4444-0.3030 0.0000 ( 14184 PWs)   bands (ev):

   -10.9774 -10.2354 -10.0143  -9.3354  -8.5523  -8.0183  -7.7651  -7.0681
    -6.8919  -6.6397  -6.1798  -6.0495  -3.7003  -3.3680  -2.7489  -2.4026
    -1.7413  -1.4617  -0.6562  -0.3166   0.2299   0.3354   1.3838   1.5080
     1.7317   1.8024  11.4182  11.4219  12.0282  12.1486  13.1134

     the Fermi energy is     5.5369 ev

!    total energy              =    -225.94327804 Ry
     estimated scf accuracy    <          7.1E-11 Ry
     smearing contrib. (-TS)   =       0.00000000 Ry
     internal energy E=F+TS    =    -225.94327804 Ry

     The total energy is F=E-TS. E is the sum of the following terms:
     one-electron contribution =   -1231.90229176 Ry
     hartree contribution      =     640.03277476 Ry
     xc contribution           =     -59.14017248 Ry
     ewald contribution        =     499.02346835 Ry
     one-center paw contrib.   =     -73.95705691 Ry

     convergence has been achieved in   7 iterations

     negative rho (up, down):  2.118E-06 0.000E+00

     Forces acting on atoms (cartesian axes, Ry/au):

     atom    1 type  1   force =     0.00000000    0.00031554    0.00013457
     atom    2 type  1   force =     0.00000000   -0.00031554    0.00013457
     atom    3 type  1   force =     0.00000000    0.00015847   -0.00021169
     atom    4 type  1   force =     0.00000000   -0.00015847   -0.00021169
     atom    5 type  1   force =     0.00000000    0.00009813   -0.00020011
     atom    6 type  1   force =     0.00000000   -0.00009813   -0.00020011
     atom    7 type  1   force =     0.00000000   -0.00009813    0.00020011
     atom    8 type  1   force =     0.00000000    0.00009813    0.00020011
     atom    9 type  1   force =     0.00000000    0.00015847    0.00021169
     atom   10 type  1   force =     0.00000000   -0.00015847    0.00021169
     atom   11 type  1   force =     0.00000000   -0.00031554   -0.00013457
     atom   12 type  1   force =     0.00000000    0.00031554   -0.00013457
     atom   13 type  2   force =     0.00000000    0.00008264    0.00001619
     atom   14 type  2   force =     0.00000000   -0.00008264    0.00001619
     atom   15 type  2   force =     0.00000000   -0.00008264   -0.00001619
     atom   16 type  2   force =     0.00000000    0.00008264   -0.00001619

     Total force =     0.000989     Total SCF correction =     0.000008
     Energy error            =      1.2E-05 Ry
     Gradient error          =      3.2E-04 Ry/Bohr

     number of scf cycles    =   8
     number of bfgs steps    =   7

     energy             old  =    -225.9432658186 Ry
     energy             new  =    -225.9432780352 Ry

     CASE: energy            _new < energy            _old

     new trust radius        =       0.0007191887 bohr
     new conv_thr            =       0.0000000001 Ry


ATOMIC_POSITIONS (angstrom)
C                0.0000000000       -0.9126055795       11.1811686277
C                1.2634728900       -1.7676251705       11.1811686277
C                1.2634728900       -2.6831402683        9.9462185826
C                0.0000000000        0.0029095183        9.9462185826
C                0.0000000000       -0.8927660515        8.6801061505
C                1.2634728900       -1.7874646985        8.6801061505
C                0.0000000000       -0.0006441985        7.4172208595
C                1.2634728900       -2.6795865515        7.4172208595
C                0.0000000000       -0.8963197683        6.1511084274
C                1.2634728900       -1.7839109817        6.1511084274
C                0.0000000000        0.0191953295        4.9161583723
C                1.2634728900       -2.6994260795        4.9161583723
H                0.0000000000       -0.3130780671       12.1024623592
H                1.2634728900       -2.3671526829       12.1024623592
H                0.0000000000       -0.5803321829        3.9948646508
H                1.2634728900       -2.0998985671        3.9948646508



     Writing config-only to output data dir /tmp/qe/slab.save/ :
     XML data file
     NEW-OLD atomic charge density approx. for the potential

     negative rho (up, down):  2.113E-06 0.000E+00

     total cpu time spent up to now is      118.0 secs

     Self-consistent Calculation

     iteration #  1     ecut=    90.00 Ry     beta= 0.30
     Davidson diagonalization with overlap
     ethr =  1.00E-06,  avg # of iterations =  2.0

     Threshold (ethr) on eigenvalues was too large:
     Diagonalizing with lowered threshold

     Davidson diagonalization with overlap
     ethr =  2.70E-10,  avg # of iterations =  5.0

     negative rho (up, down):  2.116E-06 0.000E+00

     total cpu time spent up to now is      121.7 secs

     total energy              =    -225.94327872 Ry
     estimated scf accuracy    <       0.00000038 Ry

     iteration #  2     ecut=    90.00 Ry     beta= 0.30
     Davidson diagonalization with overlap
     ethr =  7.35E-10,  avg # of iterations =  2.0

     negative rho (up, down):  2.121E-06 0.000E+00

     total cpu time spent up to now is      123.1 secs

     total energy              =    -225.94327874 Ry
     estimated scf accuracy    <       0.00000008 Ry

     iteration #  3     ecut=    90.00 Ry     beta= 0.30
     Davidson diagonalization with overlap
     ethr =  1.52E-10,  avg # of iterations =  2.0

     negative rho (up, down):  2.126E-06 0.000E+00

     total cpu time spent up to now is      124.6 secs

     total energy              =    -225.94327875 Ry
     estimated scf accuracy    <       0.00000002 Ry

     iteration #  4     ecut=    90.00 Ry     beta= 0.30
     Davidson diagonalization with overlap
     ethr =  3.55E-11,  avg # of iterations =  1.7

     negative rho (up, down):  2.127E-06 0.000E+00

     total cpu time spent up to now is      126.0 secs

     total energy              =    -225.94327875 Ry
     estimated scf accuracy    <          1.7E-09 Ry

     iteration #  5     ecut=    90.00 Ry     beta= 0.30
     Davidson diagonalization with overlap
     ethr =  3.36E-12,  avg # of iterations =  2.2

     negative rho (up, down):  2.126E-06 0.000E+00

     total cpu time spent up to now is      127.6 secs

     total energy              =    -225.94327875 Ry
     estimated scf accuracy    <          2.1E-10 Ry

     iteration #  6     ecut=    90.00 Ry     beta= 0.30
     Davidson diagonalization with overlap
     ethr =  3.98E-13,  avg # of iterations =  2.8

     negative rho (up, down):  2.126E-06 0.000E+00

     total cpu time spent up to now is      129.3 secs

     End of self-consistent calculation

          k = 0.0000-0.0000 0.0000 ( 14193 PWs)   bands (ev):

   -15.9418 -14.8710 -13.1189 -10.9239  -8.7408  -7.6349  -7.3162  -6.3828
    -4.7991  -4.4585  -4.0238  -2.9549  -2.7234  -2.1146  -0.8927  -0.7103
    -0.4008  -0.0887   1.2017   1.7488   2.1413   2.6993   3.9663   3.9796
     4.3052   4.8221   6.9592   7.2303   9.7303  10.1506  10.8752

          k = 0.0000-0.1010 0.0000 ( 14153 PWs)   bands (ev):

   -15.7557 -14.6906 -12.9559 -10.8388  -9.5169  -9.2544  -6.8310  -5.9969
    -5.5530  -4.0529  -3.5746  -3.0059  -1.8739  -1.8545  -1.0269  -0.7170
     0.0612   0.2218   1.2900   1.5208   2.3489   2.6520   3.6958   3.7467
     4.1126   4.2600   7.1640   7.4679   9.9217  10.1234  11.0263

          k = 0.0000-0.2020 0.0000 ( 14130 PWs)   bands (ev):

   -15.2000 -14.1553 -12.4903 -11.4309 -10.6416 -10.5764  -7.3383  -6.7445
    -5.4375  -4.4062  -3.0412  -1.7311  -1.7300  -0.7602  -0.1971  -0.1633
     0.4374   0.4979   1.5314   2.0436   2.0484   2.4928   2.9797   3.0651
     3.3151   3.6020   7.8119   8.0544  10.2705  10.3877  10.8889

          k = 0.0000-0.3030 0.0000 ( 14124 PWs)   bands (ev):

   -14.2841 -13.3240 -12.9603 -12.1866 -11.5662 -10.9244  -7.7251  -7.0773
    -5.6666  -4.7119  -2.9639  -1.9374  -0.3882   0.1704   0.6411   0.7772
     1.1709   1.1992   1.7606   1.8110   2.0177   2.1460   2.1900   2.2646
     2.6449   2.7350   8.8586   8.9031   9.9261  10.3330  10.7380

          k = 0.1111-0.0000 0.0000 ( 14169 PWs)   bands (ev):

   -15.7158 -14.6475 -12.8995 -10.7099  -8.5349  -7.4340  -7.2499  -6.3244
    -4.7554  -4.2659  -3.8159  -2.8016  -2.7035  -1.9160  -1.9134  -1.0728
    -0.6381  -0.4168   0.2617   1.6432   1.7614   2.0895   3.0014   3.4877
     3.7412   4.1988   7.1733   7.4628   9.7752  10.9709  10.9953

          k = 0.1111-0.1010 0.0000 ( 14133 PWs)   bands (ev):

   -15.5302 -14.4678 -12.7374 -10.6269  -9.3345  -9.0603  -6.6785  -5.8633
    -5.4742  -3.9512  -3.4620  -2.9866  -1.8414  -1.7081  -1.6372  -1.0173
    -0.8113   0.1770   0.4205   1.4811   1.7404   2.0751   2.7459   2.7640
     3.7046   4.1341   7.4053   7.7005  10.0946  11.1947  11.4481

          k = 0.1111-0.2020 0.0000 ( 14132 PWs)   bands (ev):

   -14.9762 -13.9346 -12.2749 -11.2271 -10.4361 -10.3778  -7.1552  -6.5525
    -5.2837  -4.2696  -3.0212  -2.0909  -1.7514  -1.1262  -0.6422  -0.1706
    -0.0652   0.1599   1.0152   1.4590   1.5835   1.6518   1.8145   2.1319
     3.2981   3.9161   8.0687   8.3229  10.7178  11.2342  11.5025

          k = 0.1111-0.3030 0.0000 ( 14139 PWs)   bands (ev):

   -14.0636 -13.1071 -12.7460 -11.9757 -11.3581 -10.7212  -7.5248  -6.8825
    -5.4883  -4.5400  -2.8586  -1.8336  -1.0921  -0.3686  -0.2564   0.1968
     0.5417   0.6261   0.9483   1.1706   1.2300   1.6649   1.9616   2.3246
     2.7904   2.9071   9.1198   9.2361  10.4187  10.6104  11.5624

          k = 0.2222-0.0000 0.0000 ( 14152 PWs)   bands (ev):

   -15.0410 -13.9806 -12.2449 -10.0716  -7.9202  -7.3607  -6.8333  -6.4436
    -4.8941  -3.7077  -3.6058  -3.2089  -2.8760  -2.7333  -2.3754  -1.3811
    -1.3358  -0.6343  -0.4939   0.0734   1.1110   1.1961   1.5868   1.8023
     2.1430   3.7896   7.8873   8.1196  10.1068  10.2054  10.7508

          k = 0.2222-0.1010 0.0000 ( 14114 PWs)   bands (ev):

   -14.8572 -13.8031 -12.0859  -9.9954  -8.8552  -8.5043  -6.3947  -5.7375
    -5.5870  -3.9344  -3.5524  -3.4153  -2.4154  -2.3473  -1.8116  -1.2222
    -1.0770  -0.5611  -0.4163   0.3056   0.4638   0.6142   1.4096   1.6155
     2.9727   3.4183   8.1346   8.3704  10.6161  10.7589  10.9462

          k = 0.2222-0.2020 0.0000 ( 14117 PWs)   bands (ev):

   -14.3088 -13.2768 -11.6333 -10.6377  -9.8257  -9.8008  -6.6670  -6.0486
    -4.9229  -4.7604  -3.3479  -3.2960  -2.4770  -1.8253  -1.1689  -0.9306
    -0.6009  -0.4480  -0.3406   0.1631   0.2672   0.5927   1.0900   1.8513
     2.7140   3.3404   8.8088   9.0205  11.3402  11.8873  11.9817

          k = 0.2222-0.3030 0.0000 ( 14151 PWs)   bands (ev):

   -13.4078 -12.4630 -12.1132 -11.3516 -10.7413 -10.1178  -6.9603  -6.3327
    -5.0335  -4.0992  -3.7469  -2.7087  -2.4293  -2.1712  -1.5029  -1.3197
    -1.1344  -0.8356   0.2236   1.0506   1.1824   1.1853   1.3956   1.6845
     2.4039   2.7747   9.8067   9.9224  11.2001  11.2926  12.5592

          k = 0.3333-0.0000 0.0000 ( 14106 PWs)   bands (ev):

   -13.9293 -12.8827 -11.1682  -9.0221  -8.5967  -7.6424  -6.9065  -6.0535
    -5.8381  -4.0199  -3.9439  -3.1373  -2.8523  -2.2604  -1.9375  -1.8835
    -1.7887  -0.7923  -0.6676  -0.4992  -0.4175  -0.1109   0.2450   0.3612
     1.1740   3.0205   9.0528   9.0803   9.9315  10.2620  11.3461

          k = 0.3333-0.1010 0.0000 ( 14126 PWs)   bands (ev):

   -13.7493 -12.7097 -11.0154  -8.9825  -8.7804  -8.0071  -6.7303  -6.5862
    -6.1072  -4.2746  -3.9899  -3.1294  -3.0651  -2.2976  -1.9073  -1.6921
    -1.6433  -1.1659  -0.6667  -0.6137  -0.3413  -0.2008   0.5357   0.9659
     1.3679   2.8331   9.2981   9.4051  10.4021  10.6323  11.2911

          k = 0.3333-0.2020 0.0000 ( 14157 PWs)   bands (ev):

   -13.2141 -12.1989 -10.5829  -9.8330  -8.9876  -8.8403  -6.7510  -6.3103
    -6.2375  -4.8859  -4.1316  -3.7080  -3.4937  -3.1966  -2.4528  -2.1013
    -1.4852  -0.4504  -0.2519  -0.1588   0.0626   0.4189   0.5487   0.8701
     2.2322   2.3415   9.9293  10.0259  11.3827  11.6026  12.0326

          k = 0.3333-0.3030 0.0000 ( 14183 PWs)   bands (ev):

   -12.3424 -11.4201 -11.1148 -10.3577  -9.7509  -9.1448  -6.3084  -6.0201
    -5.6697  -5.4733  -4.8979  -4.4732  -3.6967  -3.3397  -2.8157  -2.7025
    -1.3894  -0.7258  -0.1976  -0.0434   0.6121   0.9675   1.2740   1.4976
     1.7752   2.3367  10.6670  10.7441  12.0664  12.1568  12.4419

          k = 0.4444-0.0000 0.0000 ( 14102 PWs)   bands (ev):

   -12.4088 -11.3829 -10.5519  -9.6996  -9.5557  -7.9143  -7.5906  -5.8472
    -5.5141  -4.4602  -3.7884  -2.9774  -2.7222  -2.3247  -1.8480  -1.4795
    -1.4439  -1.3257  -1.0796  -0.9641  -0.9507  -0.8567  -0.8228   0.1628
     0.7222   1.9385   9.7143  10.3233  10.4945  10.7473  10.8979

          k = 0.4444-0.1010 0.0000 ( 14146 PWs)   bands (ev):

   -12.2385 -11.2210 -10.4217  -9.5628  -9.4342  -7.8528  -7.4825  -5.8266
    -5.8207  -5.7025  -4.1560  -3.9959  -3.0960  -2.4183  -1.9545  -1.7233
    -1.4088  -1.1417  -0.8282  -0.7263  -0.6356  -0.3818  -0.1753   0.3070
     0.8404   1.9220  10.3277  10.3294  10.4645  10.9668  11.3468

          k = 0.4444-0.2020 0.0000 ( 14173 PWs)   bands (ev):

   -11.7408 -10.7517 -10.1281  -9.2429  -9.1053  -7.7994  -7.2972  -7.0185
    -6.6081  -5.9026  -5.5619  -5.1356  -3.3645  -3.3028  -2.2791  -2.0936
    -1.5648  -1.3212  -0.7856  -0.1693   0.0658   0.1459   0.5945   1.0386
     1.2755   1.8498  10.8638  11.0086  11.3072  11.4608  12.0013

          k = 0.4444-0.3030 0.0000 ( 14184 PWs)   bands (ev):

   -10.9777 -10.2355 -10.0130  -9.3339  -8.5518  -8.0177  -7.7646  -7.0671
    -6.8905  -6.6389  -6.1784  -6.0491  -3.7003  -3.3678  -2.7491  -2.4028
    -1.7412  -1.4614  -0.6560  -0.3162   0.2298   0.3353   1.3831   1.5083
     1.7311   1.8029  11.4178  11.4215  12.0275  12.1477  13.1121

     the Fermi energy is     5.5359 ev

!    total energy              =    -225.94327875 Ry
     estimated scf accuracy    <          4.8E-11 Ry
     smearing contrib. (-TS)   =       0.00000000 Ry
     internal energy E=F+TS    =    -225.94327875 Ry

     The total energy is F=E-TS. E is the sum of the following terms:
     one-electron contribution =   -1231.88220445 Ry
     hartree contribution      =     640.02305672 Ry
     xc contribution           =     -59.13948766 Ry
     ewald contribution        =     499.01239595 Ry
     one-center paw contrib.   =     -73.95703931 Ry

     convergence has been achieved in   6 iterations

     negative rho (up, down):  2.126E-06 0.000E+00

     Forces acting on atoms (cartesian axes, Ry/au):

     atom    1 type  1   force =     0.00000000    0.00007080    0.00003546
     atom    2 type  1   force =     0.00000000   -0.00007080    0.00003546
     atom    3 type  1   force =     0.00000000   -0.00005387   -0.00000903
     atom    4 type  1   force =     0.00000000    0.00005387   -0.00000903
     atom    5 type  1   force =     0.00000000   -0.00006803   -0.00001490
     atom    6 type  1   force =     0.00000000    0.00006803   -0.00001490
     atom    7 type  1   force =     0.00000000    0.00006803    0.00001490
     atom    8 type  1   force =     0.00000000   -0.00006803    0.00001490
     atom    9 type  1   force =     0.00000000   -0.00005387    0.00000903
     atom   10 type  1   force =     0.00000000    0.00005387    0.00000903
     atom   11 type  1   force =     0.00000000   -0.00007080   -0.00003546
     atom   12 type  1   force =     0.00000000    0.00007080   -0.00003546
     atom   13 type  2   force =     0.00000000   -0.00000713   -0.00006086
     atom   14 type  2   force =     0.00000000    0.00000713   -0.00006086
     atom   15 type  2   force =     0.00000000    0.00000713    0.00006086
     atom   16 type  2   force =     0.00000000   -0.00000713    0.00006086

     Total force =     0.000267     Total SCF correction =     0.000021
     Energy error            =      7.1E-07 Ry
     Gradient error          =      7.1E-05 Ry/Bohr

     bfgs converged in   9 scf cycles and   8 bfgs steps
     (criteria: energy <  1.0E-05 Ry, force <  1.0E-04 Ry/Bohr)

     End of BFGS Geometry Optimization

     Final energy             =    -225.9432787476 Ry

     File /tmp/qe/slab.bfgs deleted, as requested
Begin final coordinates

ATOMIC_POSITIONS (angstrom)
C                0.0000000000       -0.9126055795       11.1811686277
C                1.2634728900       -1.7676251705       11.1811686277
C                1.2634728900       -2.6831402683        9.9462185826
C                0.0000000000        0.0029095183        9.9462185826
C                0.0000000000       -0.8927660515        8.6801061505
C                1.2634728900       -1.7874646985        8.6801061505
C                0.0000000000       -0.0006441985        7.4172208595
C                1.2634728900       -2.6795865515        7.4172208595
C                0.0000000000       -0.8963197683        6.1511084274
C                1.2634728900       -1.7839109817        6.1511084274
C                0.0000000000        0.0191953295        4.9161583723
C                1.2634728900       -2.6994260795        4.9161583723
H                0.0000000000       -0.3130780671       12.1024623592
H                1.2634728900       -2.3671526829       12.1024623592
H                0.0000000000       -0.5803321829        3.9948646508
H                1.2634728900       -2.0998985671        3.9948646508
End final coordinates



     Writing all to output data dir /tmp/qe/slab.save/ :
     XML data file, charge density, pseudopotentials, collected wavefunctions

     init_run     :      1.06s CPU      1.31s WALL (       1 calls)
     electrons    :    121.50s CPU    123.27s WALL (       9 calls)
     update_pot   :      0.96s CPU      0.97s WALL (       8 calls)
     forces       :      2.61s CPU      2.78s WALL (       9 calls)

     Called by init_run:
     wfcinit      :      0.78s CPU      0.89s WALL (       1 calls)
     potinit      :      0.12s CPU      0.16s WALL (       1 calls)
     hinit0       :      0.06s CPU      0.11s WALL (       1 calls)

     Called by electrons:
     c_bands      :     91.93s CPU     93.02s WALL (      74 calls)
     sum_band     :     19.22s CPU     19.57s WALL (      74 calls)
     v_of_rho     :      3.83s CPU      3.92s WALL (      80 calls)
     newd         :      2.21s CPU      2.31s WALL (      80 calls)
     PAW_pot      :      5.42s CPU      5.44s WALL (      88 calls)
     mix_rho      :      0.28s CPU      0.29s WALL (      74 calls)

     Called by c_bands:
     init_us_2    :      2.72s CPU      2.80s WALL (    3320 calls)
     cegterg      :     87.39s CPU     88.37s WALL (    1480 calls)

     Called by *egterg:
     cdiaghg      :      4.72s CPU      4.84s WALL (    5403 calls)
     h_psi        :     67.35s CPU     68.20s WALL (    5643 calls)
     s_psi        :      3.46s CPU      3.49s WALL (    5643 calls)
     g_psi        :      0.45s CPU      0.45s WALL (    4143 calls)

     Called by h_psi:
     h_psi:calbec :      3.77s CPU      3.82s WALL (    5643 calls)
     vloc_psi     :     58.91s CPU     59.66s WALL (    5643 calls)
     add_vuspsi   :      4.23s CPU      4.26s WALL (    5643 calls)

     General routines
     calbec       :      5.65s CPU      5.72s WALL (    8003 calls)
     fft          :      1.83s CPU      2.00s WALL (    1132 calls)
     ffts         :      0.08s CPU      0.10s WALL (     154 calls)
     fftw         :     52.60s CPU     53.21s WALL (  287130 calls)
     interpolate  :      0.15s CPU      0.17s WALL (      80 calls)

     Parallel routines

     PWSCF        :   2m 7.36s CPU   2m 9.76s WALL


   This run was terminated on:  13: 9:21   1Aug2026            

=------------------------------------------------------------------------------=
   JOB DONE.
=------------------------------------------------------------------------------=
Note: The following floating-point exceptions are signalling: IEEE_UNDERFLOW_FLAG IEEE_DENORMAL
Note: The following floating-point exceptions are signalling: IEEE_UNDERFLOW_FLAG IEEE_DENORMAL
Note: The following floating-point exceptions are signalling: IEEE_UNDERFLOW_FLAG IEEE_DENORMAL
Note: The following floating-point exceptions are signalling: IEEE_UNDERFLOW_FLAG IEEE_DENORMAL
Note: The following floating-point exceptions are signalling: IEEE_UNDERFLOW_FLAG IEEE_DENORMAL
Note: The following floating-point exceptions are signalling: IEEE_UNDERFLOW_FLAG IEEE_DENORMAL
Note: The following floating-point exceptions are signalling: IEEE_UNDERFLOW_FLAG IEEE_DENORMAL
Note: The following floating-point exceptions are signalling: IEEE_UNDERFLOW_FLAG IEEE_DENORMAL
