
     Program PWSCF v.7.3.1 starts on  2Aug2026 at 15:14: 6 

     This program is part of the open-source Quantum ESPRESSO suite
     for quantum simulation of materials; please cite
         "P. Giannozzi et al., J. Phys.:Condens. Matter 21 395502 (2009);
         "P. Giannozzi et al., J. Phys.:Condens. Matter 29 465901 (2017);
         "P. Giannozzi et al., J. Chem. Phys. 152 154105 (2020);
          URL http://www.quantum-espresso.org", 
     in publications or presentations arising from this work. More details at
     http://www.quantum-espresso.org/quote

     Parallel version (MPI), running on     8 processors

     MPI processes distributed on     1 nodes
     171423 MiB available memory on the printing compute node when the environment starts

     Reading input from pw.in

     Current dimensions of program PWSCF are:
     Max number of different atomic species (ntypx) = 10
     Max number of k-points (npk) =  40000
     Max angular momentum in pseudopotentials (lmaxx) =  4
     file C.pbe-n-kjpaw_psl.1.0.0.UPF: wavefunction(s)  2S 2P renormalized
     Message from routine setup:
     using ibrav=0 with symmetry is DISCOURAGED, use correct ibrav instead

     R & G space division:  proc/nbgrp/npool/nimage =       8
     Subspace diagonalization in iterative solution of the eigenvalue problem:
     a serial algorithm will be used


     Parallelization info
     --------------------
     sticks:   dense  smooth     PW     G-vecs:    dense   smooth      PW
     Min         141      69     20                22545     7945    1290
     Max         142      70     21                22568     7972    1315
     Sum        1135     559    163               180497    63715   10395

     Using Slab Decomposition



     bravais-lattice index     =            0
     lattice parameter (alat)  =       4.7744  a.u.
     unit-cell volume          =     552.9088 (a.u.)^3
     number of atoms/cell      =            8
     number of atomic types    =            2
     number of electrons       =        26.00
     number of Kohn-Sham states=           17
     kinetic-energy cutoff     =      90.0000  Ry
     charge density cutoff     =     720.0000  Ry
     scf convergence threshold =      1.0E-08
     mixing beta               =       0.3000
     number of iterations used =            8  plain     mixing
     Exchange-correlation= PBE
                           (   1   4   3   4   0   0   0)

     celldm(1)=   4.774375  celldm(2)=   0.000000  celldm(3)=   0.000000
     celldm(4)=   0.000000  celldm(5)=   0.000000  celldm(6)=   0.000000

     crystal axes: (cart. coord. in units of alat)
               a(1) = (   1.000000   0.000000   0.000000 )  
               a(2) = (   0.500000   0.866025   0.000000 )  
               a(3) = (   0.000000   0.000000   5.866422 )  

     reciprocal axes: (cart. coord. in units 2 pi/alat)
               b(1) = (  1.000000 -0.577350  0.000000 )  
               b(2) = (  0.000000  1.154701  0.000000 )  
               b(3) = (  0.000000  0.000000  0.170462 )  


     PseudoPot. # 1 for C  read from file:
     ./C.pbe-n-kjpaw_psl.1.0.0.UPF
     MD5 check sum: 5d2aebdfa2cae82b50a7e79e9516da0f
     Pseudo is Projector augmented-wave + core cor, Zval =  4.0
     Generated using "atomic" code by A. Dal Corso  v.5.1
     Shape of augmentation charge: PSQ
     Using radial grid of 1073 points,  4 beta functions with: 
                l(1) =   0
                l(2) =   0
                l(3) =   1
                l(4) =   1
     Q(r) pseudized with 0 coefficients 


     PseudoPot. # 2 for H  read from file:
     ./H_ONCV_PBE-1.0.oncvpsp.upf
     MD5 check sum: 1790becc920ee074925cf490c71280fe
     Pseudo is Norm-conserving, Zval =  1.0
     Generated using ONCVPSP code by D. R. Hamann
     Using radial grid of 1166 points,  2 beta functions with: 
                l(1) =   0
                l(2) =   0

     atomic species   valence    mass     pseudopotential
     C                 4.00    12.01100     C ( 1.00)
     H                 1.00     1.00800     H ( 1.00)

     12 Sym. Ops., with inversion, found ( 6 have fractional translation)



   Cartesian axes

     site n.     atom                  positions (alat units)
         1        C      tau(   1) = (   0.5000000   0.2886751   3.8430974  )
         2        C      tau(   2) = (   1.0000000   0.5773503   3.6500074  )
         3        C      tau(   3) = (   1.0000000   0.5773503   3.0348889  )
         4        C      tau(   4) = (   0.0000000  -0.0000000   2.8315332  )
         5        C      tau(   5) = (   0.0000000  -0.0000000   2.2164147  )
         6        C      tau(   6) = (   0.5000000   0.2886751   2.0233247  )
         7        H      tau(   7) = (   0.5000000   0.2886751   4.2820103  )
         8        H      tau(   8) = (   0.5000000   0.2886751   1.5844119  )

     number of k points=    12  Marzari-Vanderbilt smearing, width (Ry)=  0.0100
                       cart. coord. in units 2pi/alat
        k(    1) = (   0.0000000   0.0000000   0.0000000), wk =   0.0246914
        k(    2) = (   0.0000000   0.1283001   0.0000000), wk =   0.1481481
        k(    3) = (   0.0000000   0.2566001   0.0000000), wk =   0.1481481
        k(    4) = (   0.0000000   0.3849002   0.0000000), wk =   0.1481481
        k(    5) = (   0.0000000   0.5132002   0.0000000), wk =   0.1481481
        k(    6) = (   0.1111111   0.1924501   0.0000000), wk =   0.1481481
        k(    7) = (   0.1111111   0.3207501   0.0000000), wk =   0.2962963
        k(    8) = (   0.1111111   0.4490502   0.0000000), wk =   0.2962963
        k(    9) = (   0.1111111  -0.5773503   0.0000000), wk =   0.1481481
        k(   10) = (   0.2222222   0.3849002   0.0000000), wk =   0.1481481
        k(   11) = (   0.2222222  -0.6415003   0.0000000), wk =   0.2962963
        k(   12) = (   0.3333333  -0.5773503   0.0000000), wk =   0.0493827

     Dense  grid:   180497 G-vectors     FFT dimensions: (  45,  45, 240)

     Smooth grid:    63715 G-vectors     FFT dimensions: (  30,  30, 180)

     Estimated max dynamical RAM per process >      40.00 MB

     Estimated total dynamical RAM >     320.03 MB

     Initial potential from superposition of free atoms

     starting charge      25.9997, renormalised to      26.0000
     Starting wfcs are   26 randomized atomic wfcs
     Checking if some PAW data can be deallocated... 

     total cpu time spent up to now is        0.7 secs

     Self-consistent Calculation

     iteration #  1     ecut=    90.00 Ry     beta= 0.30
     Davidson diagonalization with overlap
     ethr =  1.00E-02,  avg # of iterations =  2.8

     total cpu time spent up to now is        1.1 secs

     total energy              =    -113.01806984 Ry
     estimated scf accuracy    <       0.60645348 Ry

     iteration #  2     ecut=    90.00 Ry     beta= 0.30
     Davidson diagonalization with overlap
     ethr =  2.33E-03,  avg # of iterations =  3.3

     negative rho (up, down):  1.011E-07 0.000E+00

     total cpu time spent up to now is        1.5 secs

     total energy              =    -112.97932777 Ry
     estimated scf accuracy    <       0.18538462 Ry

     iteration #  3     ecut=    90.00 Ry     beta= 0.30
     Davidson diagonalization with overlap
     ethr =  7.13E-04,  avg # of iterations =  4.6

     negative rho (up, down):  4.992E-08 0.000E+00

     total cpu time spent up to now is        1.9 secs

     total energy              =    -112.98522253 Ry
     estimated scf accuracy    <       0.02662548 Ry

     iteration #  4     ecut=    90.00 Ry     beta= 0.30
     Davidson diagonalization with overlap
     ethr =  1.02E-04,  avg # of iterations =  4.6

     negative rho (up, down):  1.856E-08 0.000E+00

     total cpu time spent up to now is        2.3 secs

     total energy              =    -112.98632009 Ry
     estimated scf accuracy    <       0.00318372 Ry

     iteration #  5     ecut=    90.00 Ry     beta= 0.30
     Davidson diagonalization with overlap
     ethr =  1.22E-05,  avg # of iterations =  5.5

     total cpu time spent up to now is        2.7 secs

     total energy              =    -112.98675464 Ry
     estimated scf accuracy    <       0.00021919 Ry

     iteration #  6     ecut=    90.00 Ry     beta= 0.30
     Davidson diagonalization with overlap
     ethr =  8.43E-07,  avg # of iterations =  3.3

     total cpu time spent up to now is        3.2 secs

     total energy              =    -112.98678021 Ry
     estimated scf accuracy    <       0.00007020 Ry

     iteration #  7     ecut=    90.00 Ry     beta= 0.30
     Davidson diagonalization with overlap
     ethr =  2.70E-07,  avg # of iterations =  2.2

     total cpu time spent up to now is        3.6 secs

     total energy              =    -112.98679303 Ry
     estimated scf accuracy    <       0.00001982 Ry

     iteration #  8     ecut=    90.00 Ry     beta= 0.30
     Davidson diagonalization with overlap
     ethr =  7.62E-08,  avg # of iterations =  1.7

     total cpu time spent up to now is        3.9 secs

     total energy              =    -112.98679489 Ry
     estimated scf accuracy    <       0.00000224 Ry

     iteration #  9     ecut=    90.00 Ry     beta= 0.30
     Davidson diagonalization with overlap
     ethr =  8.61E-09,  avg # of iterations =  2.2

     total cpu time spent up to now is        4.3 secs

     total energy              =    -112.98679517 Ry
     estimated scf accuracy    <       0.00000049 Ry

     iteration # 10     ecut=    90.00 Ry     beta= 0.30
     Davidson diagonalization with overlap
     ethr =  1.88E-09,  avg # of iterations =  2.1

     total cpu time spent up to now is        4.6 secs

     total energy              =    -112.98679523 Ry
     estimated scf accuracy    <       0.00000003 Ry

     iteration # 11     ecut=    90.00 Ry     beta= 0.30
     Davidson diagonalization with overlap
     ethr =  1.22E-10,  avg # of iterations =  3.1

     total cpu time spent up to now is        5.0 secs

     total energy              =    -112.98679524 Ry
     estimated scf accuracy    <       0.00000002 Ry

     iteration # 12     ecut=    90.00 Ry     beta= 0.30
     Davidson diagonalization with overlap
     ethr =  6.07E-11,  avg # of iterations =  2.0

     total cpu time spent up to now is        5.4 secs

     End of self-consistent calculation

          k = 0.0000 0.0000 0.0000 (  7951 PWs)   bands (ev):

   -16.9021 -15.4140 -13.1825  -8.3583  -5.2787  -1.3842   1.5233   1.5233
     2.1029   2.3808   2.3808   3.4661   3.4661   6.4039   6.6383   9.2056
    10.3663

          k = 0.0000 0.1283 0.0000 (  7977 PWs)   bands (ev):

   -16.6014 -15.1194 -12.9005  -8.0884  -5.0525  -1.2602   0.1146   0.9014
     1.0320   1.8531   1.9944   2.3246   3.0255   6.6557   6.9664   9.2091
    10.4144

          k = 0.0000 0.2566 0.0000 (  7959 PWs)   bands (ev):

   -15.7053 -14.2431 -12.0641  -7.3369  -4.4675  -2.8564  -1.7432  -0.9205
    -0.3194  -0.2693   0.7743   1.7895   2.0489   7.4162   7.8519   9.3396
    10.2837

          k = 0.0000 0.3849 0.0000 (  7984 PWs)   bands (ev):

   -14.2388 -12.8188 -10.7250  -6.8310  -5.7710  -4.5144  -3.8727  -2.6479
    -1.2635  -0.8464  -0.1793   1.0928   1.1441   8.5299   8.9189   9.6317
    10.4448

          k = 0.0000 0.5132 0.0000 (  7990 PWs)   bands (ev):

   -12.3021 -11.0844  -9.6914  -8.2221  -8.0206  -6.1779  -3.8776  -2.5961
    -1.8051  -1.4378  -0.7058   0.5584   0.6364   8.9387   9.6616  10.3098
    10.8088

          k = 0.1111 0.1925 0.0000 (  7959 PWs)   bands (ev):

   -16.0028 -14.5338 -12.3410  -7.5736  -4.6376  -1.6603  -1.0644  -0.9747
    -0.0592   0.2297   1.3351   1.3510   2.3174   7.1988   7.5780   9.6467
    10.5000

          k = 0.1111 0.3208 0.0000 (  7952 PWs)   bands (ev):

   -14.8204 -13.3809 -11.2463  -6.7543  -4.4929  -3.9438  -3.0890  -2.3360
    -1.2130  -0.7925  -0.5555   0.4093   1.6977   8.3075   8.6102  10.1953
    10.9591

          k = 0.1111 0.4491 0.0000 (  7968 PWs)   bands (ev):

   -13.1015 -11.7350  -9.7703  -7.6231  -6.7163  -4.9210  -4.3375  -2.6616
    -2.4450  -1.6669  -0.9750  -0.1569   0.8306   9.3446   9.9517  10.7043
    11.4683

          k = 0.1111-0.5774 0.0000 (  7986 PWs)   bands (ev):

   -11.3230 -10.7872  -9.5686  -8.6358  -7.5052  -6.9489  -3.3395  -3.0446
    -2.6099  -1.6808  -1.6228  -0.1993   0.3329   9.6341  10.5134  11.3735
    11.6467

          k = 0.2222 0.3849 0.0000 (  7965 PWs)   bands (ev):

   -13.3790 -11.9891  -9.9496  -6.8174  -5.6148  -4.8427  -3.9811  -3.4193
    -2.7415  -1.9222  -1.6998  -0.6477   0.9212   9.5333   9.8284  11.1789
    11.7639

          k = 0.2222-0.6415 0.0000 (  7993 PWs)   bands (ev):

   -11.4943 -10.3234  -8.9505  -7.9865  -7.4273  -6.1466  -4.4599  -4.0853
    -3.0399  -2.6455  -1.7407  -0.9203  -0.0625  10.1655  10.8229  12.0232
    12.1568

          k = 0.3333-0.5774 0.0000 (  8007 PWs)   bands (ev):

    -9.8870  -9.8870  -8.7784  -8.4740  -7.0498  -7.0498  -4.9304  -4.6330
    -4.6330  -1.8886  -1.3093  -1.3093  -1.0005  10.7695  10.7695  11.4211
    13.1228

     the Fermi energy is     4.2502 ev

!    total energy              =    -112.98679523 Ry
     estimated scf accuracy    <          1.2E-09 Ry
     smearing contrib. (-TS)   =       0.00000000 Ry
     internal energy E=F+TS    =    -112.98679523 Ry

     The total energy is F=E-TS. E is the sum of the following terms:
     one-electron contribution =    -588.67067451 Ry
     hartree contribution      =     305.33004739 Ry
     xc contribution           =     -29.51067330 Ry
     ewald contribution        =     236.84294015 Ry
     one-center paw contrib.   =     -36.97843496 Ry

     convergence has been achieved in  12 iterations

     Forces acting on atoms (cartesian axes, Ry/au):

     atom    1 type  1   force =     0.00000000   -0.00000000   -0.00001052
     atom    2 type  1   force =     0.00000000    0.00000000    0.00001260
     atom    3 type  1   force =    -0.00000000    0.00000000   -0.00008268
     atom    4 type  1   force =     0.00000000   -0.00000000    0.00008268
     atom    5 type  1   force =    -0.00000000   -0.00000000   -0.00001260
     atom    6 type  1   force =     0.00000000    0.00000000    0.00001052
     atom    7 type  2   force =     0.00000000   -0.00000000    0.00004880
     atom    8 type  2   force =     0.00000000    0.00000000   -0.00004880

     Total force =     0.000138     Total SCF correction =     0.000081
     SCF correction compared to forces is large: reduce conv_thr to get better values


     Computing stress (Cartesian axis) and pressure

          total   stress  (Ry/bohr**3)                   (kbar)     P=        4.38
   0.00004493   0.00000000   0.00000000            6.61        0.00        0.00
   0.00000000   0.00004493   0.00000000            0.00        6.61        0.00
   0.00000000   0.00000000  -0.00000044            0.00        0.00       -0.06


     Writing all to output data dir /tmp/qe/slab.save/ :
     XML data file, charge density, pseudopotentials, collected wavefunctions

     init_run     :      0.31s CPU      0.50s WALL (       1 calls)
     electrons    :      4.59s CPU      4.73s WALL (       1 calls)
     forces       :      0.09s CPU      0.09s WALL (       1 calls)
     stress       :      0.47s CPU      0.47s WALL (       1 calls)

     Called by init_run:
     wfcinit      :      0.14s CPU      0.22s WALL (       1 calls)
     potinit      :      0.07s CPU      0.09s WALL (       1 calls)
     hinit0       :      0.05s CPU      0.11s WALL (       1 calls)

     Called by electrons:
     c_bands      :      2.82s CPU      2.91s WALL (      12 calls)
     sum_band     :      0.81s CPU      0.83s WALL (      12 calls)
     v_of_rho     :      0.37s CPU      0.39s WALL (      13 calls)
     newd         :      0.19s CPU      0.21s WALL (      13 calls)
     PAW_pot      :      0.40s CPU      0.41s WALL (      13 calls)
     mix_rho      :      0.04s CPU      0.04s WALL (      12 calls)

     Called by c_bands:
     init_us_2    :      0.09s CPU      0.09s WALL (     324 calls)
     cegterg      :      2.69s CPU      2.77s WALL (     144 calls)

     Called by *egterg:
     cdiaghg      :      0.16s CPU      0.26s WALL (     594 calls)
     h_psi        :      2.28s CPU      2.33s WALL (     606 calls)
     s_psi        :      0.06s CPU      0.06s WALL (     606 calls)
     g_psi        :      0.01s CPU      0.01s WALL (     450 calls)

     Called by h_psi:
     h_psi:calbec :      0.10s CPU      0.11s WALL (     606 calls)
     vloc_psi     :      2.11s CPU      2.15s WALL (     606 calls)
     add_vuspsi   :      0.06s CPU      0.06s WALL (     606 calls)

     General routines
     calbec       :      0.15s CPU      0.16s WALL (     810 calls)
     fft          :      0.17s CPU      0.25s WALL (     192 calls)
     ffts         :      0.01s CPU      0.01s WALL (      25 calls)
     fftw         :      1.96s CPU      1.99s WALL (   15766 calls)
     interpolate  :      0.01s CPU      0.02s WALL (      13 calls)

     Parallel routines

     PWSCF        :      5.56s CPU      6.02s WALL


   This run was terminated on:  15:14:12   2Aug2026            

=------------------------------------------------------------------------------=
   JOB DONE.
=------------------------------------------------------------------------------=
Note: The following floating-point exceptions are signalling: IEEE_UNDERFLOW_FLAG IEEE_DENORMAL
Note: The following floating-point exceptions are signalling: IEEE_UNDERFLOW_FLAG IEEE_DENORMAL
Note: The following floating-point exceptions are signalling: IEEE_UNDERFLOW_FLAG IEEE_DENORMAL
Note: The following floating-point exceptions are signalling: IEEE_UNDERFLOW_FLAG IEEE_DENORMAL
Note: The following floating-point exceptions are signalling: IEEE_UNDERFLOW_FLAG IEEE_DENORMAL
Note: The following floating-point exceptions are signalling: IEEE_UNDERFLOW_FLAG IEEE_DENORMALNote: The following floating-point exceptions are signalling: IEEE_UNDERFLOW_FLAG IEEE_DENORMAL

Note: The following floating-point exceptions are signalling: IEEE_UNDERFLOW_FLAG IEEE_DENORMAL
