
     Program PWSCF v.7.3.1 starts on  1Aug2026 at 18:41:45 

     This program is part of the open-source Quantum ESPRESSO suite
     for quantum simulation of materials; please cite
         "P. Giannozzi et al., J. Phys.:Condens. Matter 21 395502 (2009);
         "P. Giannozzi et al., J. Phys.:Condens. Matter 29 465901 (2017);
         "P. Giannozzi et al., J. Chem. Phys. 152 154105 (2020);
          URL http://www.quantum-espresso.org", 
     in publications or presentations arising from this work. More details at
     http://www.quantum-espresso.org/quote

     Parallel version (MPI), running on     8 processors

     MPI processes distributed on     1 nodes
     187571 MiB available memory on the printing compute node when the environment starts

     Reading input from pw.in

     Current dimensions of program PWSCF are:
     Max number of different atomic species (ntypx) = 10
     Max number of k-points (npk) =  40000
     Max angular momentum in pseudopotentials (lmaxx) =  4
     file C.pbe-n-kjpaw_psl.1.0.0.UPF: wavefunction(s)  2S 2P renormalized
     Message from routine setup:
     using ibrav=0 with symmetry is DISCOURAGED, use correct ibrav instead

     R & G space division:  proc/nbgrp/npool/nimage =       8
     Subspace diagonalization in iterative solution of the eigenvalue problem:
     a serial algorithm will be used


     Parallelization info
     --------------------
     sticks:   dense  smooth     PW     G-vecs:    dense   smooth      PW
     Min         141      69     20                25719     9057    1472
     Max         142      70     21                25746     9092    1499
     Sum        1135     559    163               205911    72679   11859

     Using Slab Decomposition



     bravais-lattice index     =            0
     lattice parameter (alat)  =       4.7752  a.u.
     unit-cell volume          =     630.1356 (a.u.)^3
     number of atoms/cell      =           10
     number of atomic types    =            2
     number of electrons       =        34.00
     number of Kohn-Sham states=           21
     kinetic-energy cutoff     =      90.0000  Ry
     charge density cutoff     =     720.0000  Ry
     scf convergence threshold =      1.0E-08
     mixing beta               =       0.3000
     number of iterations used =            8  plain     mixing
     Exchange-correlation= PBE
                           (   1   4   3   4   0   0   0)

     celldm(1)=   4.775235  celldm(2)=   0.000000  celldm(3)=   0.000000
     celldm(4)=   0.000000  celldm(5)=   0.000000  celldm(6)=   0.000000

     crystal axes: (cart. coord. in units of alat)
               a(1) = (   1.000000   0.000000   0.000000 )  
               a(2) = (   0.500000   0.866025   0.000000 )  
               a(3) = (   0.000000   0.000000   6.682193 )  

     reciprocal axes: (cart. coord. in units 2 pi/alat)
               b(1) = (  1.000000 -0.577350  0.000000 )  
               b(2) = (  0.000000  1.154701  0.000000 )  
               b(3) = (  0.000000  0.000000  0.149651 )  


     PseudoPot. # 1 for C  read from file:
     ./C.pbe-n-kjpaw_psl.1.0.0.UPF
     MD5 check sum: 5d2aebdfa2cae82b50a7e79e9516da0f
     Pseudo is Projector augmented-wave + core cor, Zval =  4.0
     Generated using "atomic" code by A. Dal Corso  v.5.1
     Shape of augmentation charge: PSQ
     Using radial grid of 1073 points,  4 beta functions with: 
                l(1) =   0
                l(2) =   0
                l(3) =   1
                l(4) =   1
     Q(r) pseudized with 0 coefficients 


     PseudoPot. # 2 for H  read from file:
     ./H_ONCV_PBE-1.0.oncvpsp.upf
     MD5 check sum: 1790becc920ee074925cf490c71280fe
     Pseudo is Norm-conserving, Zval =  1.0
     Generated using ONCVPSP code by D. R. Hamann
     Using radial grid of 1166 points,  2 beta functions with: 
                l(1) =   0
                l(2) =   0

     atomic species   valence    mass     pseudopotential
     C                 4.00    12.01100     C ( 1.00)
     H                 1.00     1.00800     H ( 1.00)

     12 Sym. Ops., with inversion, found



   Cartesian axes

     site n.     atom                  positions (alat units)
         1        C      tau(   1) = (   0.5000000   0.2886751   4.6589615  )
         2        C      tau(   2) = (   1.0000000   0.5773503   4.4659203  )
         3        C      tau(   3) = (   1.0000000   0.5773503   3.8509925  )
         4        C      tau(   4) = (   0.0000000   0.0000000   3.6473989  )
         5        C      tau(   5) = (   0.0000000   0.0000000   3.0347937  )
         6        C      tau(   6) = (   0.5000000   0.2886751   2.8312001  )
         7        C      tau(   7) = (   0.5000000   0.2886751   2.2162723  )
         8        C      tau(   8) = (   1.0000000   0.5773503   2.0232311  )
         9        H      tau(   9) = (   0.5000000   0.2886751   5.0978315  )
        10        H      tau(  10) = (   1.0000000   0.5773503   1.5843611  )

     number of k points=    12  Marzari-Vanderbilt smearing, width (Ry)=  0.0100
                       cart. coord. in units 2pi/alat
        k(    1) = (   0.0000000   0.0000000   0.0000000), wk =   0.0246914
        k(    2) = (   0.0000000   0.1283001   0.0000000), wk =   0.1481481
        k(    3) = (   0.0000000   0.2566001   0.0000000), wk =   0.1481481
        k(    4) = (   0.0000000   0.3849002   0.0000000), wk =   0.1481481
        k(    5) = (   0.0000000   0.5132002   0.0000000), wk =   0.1481481
        k(    6) = (   0.1111111   0.1924501   0.0000000), wk =   0.1481481
        k(    7) = (   0.1111111   0.3207501   0.0000000), wk =   0.2962963
        k(    8) = (   0.1111111   0.4490502   0.0000000), wk =   0.2962963
        k(    9) = (   0.1111111  -0.5773503   0.0000000), wk =   0.1481481
        k(   10) = (   0.2222222   0.3849002   0.0000000), wk =   0.1481481
        k(   11) = (   0.2222222  -0.6415003   0.0000000), wk =   0.2962963
        k(   12) = (   0.3333333  -0.5773503   0.0000000), wk =   0.0493827

     Dense  grid:   205911 G-vectors     FFT dimensions: (  45,  45, 288)

     Smooth grid:    72679 G-vectors     FFT dimensions: (  30,  30, 200)

     Estimated max dynamical RAM per process >      49.24 MB

     Estimated total dynamical RAM >     393.95 MB

     Initial potential from superposition of free atoms

     starting charge      33.9996, renormalised to      34.0000
     Starting wfcs are   34 randomized atomic wfcs
     Checking if some PAW data can be deallocated... 

     total cpu time spent up to now is        0.5 secs

     Self-consistent Calculation

     iteration #  1     ecut=    90.00 Ry     beta= 0.30
     Davidson diagonalization with overlap
     ethr =  1.00E-02,  avg # of iterations =  2.8

     total cpu time spent up to now is        1.1 secs

     total energy              =    -149.90036884 Ry
     estimated scf accuracy    <       0.71547698 Ry

     iteration #  2     ecut=    90.00 Ry     beta= 0.30
     Davidson diagonalization with overlap
     ethr =  2.10E-03,  avg # of iterations =  4.1

     negative rho (up, down):  9.610E-08 0.000E+00

     total cpu time spent up to now is        1.7 secs

     total energy              =    -149.84504792 Ry
     estimated scf accuracy    <       0.23252833 Ry

     iteration #  3     ecut=    90.00 Ry     beta= 0.30
     Davidson diagonalization with overlap
     ethr =  6.84E-04,  avg # of iterations =  3.9

     negative rho (up, down):  3.656E-08 0.000E+00

     total cpu time spent up to now is        2.2 secs

     total energy              =    -149.85275770 Ry
     estimated scf accuracy    <       0.03076041 Ry

     iteration #  4     ecut=    90.00 Ry     beta= 0.30
     Davidson diagonalization with overlap
     ethr =  9.05E-05,  avg # of iterations =  4.4

     total cpu time spent up to now is        2.7 secs

     total energy              =    -149.85449335 Ry
     estimated scf accuracy    <       0.00373007 Ry

     iteration #  5     ecut=    90.00 Ry     beta= 0.30
     Davidson diagonalization with overlap
     ethr =  1.10E-05,  avg # of iterations =  5.0

     total cpu time spent up to now is        3.3 secs

     total energy              =    -149.85495723 Ry
     estimated scf accuracy    <       0.00029211 Ry

     iteration #  6     ecut=    90.00 Ry     beta= 0.30
     Davidson diagonalization with overlap
     ethr =  8.59E-07,  avg # of iterations =  3.7

     total cpu time spent up to now is        3.9 secs

     total energy              =    -149.85500173 Ry
     estimated scf accuracy    <       0.00006776 Ry

     iteration #  7     ecut=    90.00 Ry     beta= 0.30
     Davidson diagonalization with overlap
     ethr =  1.99E-07,  avg # of iterations =  2.3

     total cpu time spent up to now is        4.4 secs

     total energy              =    -149.85500926 Ry
     estimated scf accuracy    <       0.00002151 Ry

     iteration #  8     ecut=    90.00 Ry     beta= 0.30
     Davidson diagonalization with overlap
     ethr =  6.33E-08,  avg # of iterations =  2.0

     total cpu time spent up to now is        4.9 secs

     total energy              =    -149.85501349 Ry
     estimated scf accuracy    <       0.00000129 Ry

     iteration #  9     ecut=    90.00 Ry     beta= 0.30
     Davidson diagonalization with overlap
     ethr =  3.81E-09,  avg # of iterations =  2.7

     total cpu time spent up to now is        5.4 secs

     total energy              =    -149.85501386 Ry
     estimated scf accuracy    <       0.00000098 Ry

     iteration # 10     ecut=    90.00 Ry     beta= 0.30
     Davidson diagonalization with overlap
     ethr =  2.90E-09,  avg # of iterations =  2.6

     total cpu time spent up to now is        6.0 secs

     total energy              =    -149.85501383 Ry
     estimated scf accuracy    <       0.00000106 Ry

     iteration # 11     ecut=    90.00 Ry     beta= 0.30
     Davidson diagonalization with overlap
     ethr =  2.90E-09,  avg # of iterations =  1.7

     total cpu time spent up to now is        6.4 secs

     total energy              =    -149.85501390 Ry
     estimated scf accuracy    <       0.00000022 Ry

     iteration # 12     ecut=    90.00 Ry     beta= 0.30
     Davidson diagonalization with overlap
     ethr =  6.46E-10,  avg # of iterations =  1.1

     total cpu time spent up to now is        6.9 secs

     total energy              =    -149.85501390 Ry
     estimated scf accuracy    <       0.00000021 Ry

     iteration # 13     ecut=    90.00 Ry     beta= 0.30
     Davidson diagonalization with overlap
     ethr =  6.13E-10,  avg # of iterations =  1.8

     total cpu time spent up to now is        7.3 secs

     total energy              =    -149.85501381 Ry
     estimated scf accuracy    <       0.00000020 Ry

     iteration # 14     ecut=    90.00 Ry     beta= 0.30
     Davidson diagonalization with overlap
     ethr =  5.99E-10,  avg # of iterations =  2.2

     total cpu time spent up to now is        7.8 secs

     End of self-consistent calculation

          k = 0.0000 0.0000 0.0000 (  9007 PWs)   bands (ev):

   -15.9722 -15.0368 -13.5345 -11.6810  -7.4543  -5.1296  -2.0861   1.0793
     2.5232   2.5232   3.0855   3.0855   3.7303   3.9138   3.9138   4.7473
     4.7473   7.4819   7.8715  10.2018  11.2428

          k = 0.0000 0.1283 0.0000 (  9099 PWs)   bands (ev):

   -15.6708 -14.7389 -13.2434 -11.4016  -7.1836  -4.8901  -1.9082   1.0383
     1.1693   1.7614   1.8901   2.5199   2.6047   3.4292   3.4303   3.7419
     4.3201   7.7380   8.1720  10.2555  11.2310

          k = 0.0000 0.2566 0.0000 (  9067 PWs)   bands (ev):

   -14.7728 -13.8520 -12.3785 -10.5737  -6.4289  -4.2522  -1.9878  -1.3676
    -1.1453  -0.0733   0.7096   0.9910   1.2999   1.4018   2.3993   3.1957
     3.3607   8.5563   8.9498  10.3536  11.0258

          k = 0.0000 0.3849 0.0000 (  9094 PWs)   bands (ev):

   -13.3025 -12.4053 -10.9805  -9.2553  -5.8681  -5.0642  -3.8849  -3.7131
    -2.4300  -1.9169  -0.6371  -0.2884   0.4304   0.9634   1.4677   2.4259
     2.4646   9.5874   9.9350  10.5897  11.0747

          k = 0.0000 0.5132 0.0000 (  9094 PWs)   bands (ev):

   -11.3521 -10.5590  -9.4755  -8.3885  -7.4330  -6.8838  -6.2338  -4.7596
    -2.8868  -1.5833  -1.2313  -0.8313  -0.1026   0.4084   0.9497   1.8795
     1.9603   9.8841  10.6629  10.8549  11.6163

          k = 0.1111 0.1925 0.0000 (  9093 PWs)   bands (ev):

   -15.0711 -14.1463 -12.6652 -10.8476  -6.6669  -4.4442  -1.6332  -0.5172
    -0.2856   0.3784   0.8677   1.3575   1.4878   1.9053   2.6299   2.7820
     3.7525   8.3083   8.7309  10.7770  11.3376

          k = 0.1111 0.3208 0.0000 (  9058 PWs)   bands (ev):

   -13.8858 -12.9777 -11.5297  -9.7657  -5.8389  -3.9694  -3.2094  -2.5989
    -1.8684  -1.2273  -0.7236  -0.3155   0.3498   0.7298   1.3686   1.7759
     3.0615   9.4750   9.6712  11.1052  11.8679

          k = 0.1111 0.4491 0.0000 (  9084 PWs)   bands (ev):

   -12.1606 -11.2934  -9.9383  -8.3475  -6.5580  -6.1397  -4.9200  -3.6791
    -3.2066  -1.9712  -1.4919  -1.0440  -0.6111   0.0246   0.7750   1.1834
     2.1505  10.3680  11.0012  11.5762  12.1783

          k = 0.1111-0.5774 0.0000 (  9082 PWs)   bands (ev):

   -10.3047 -10.0288  -9.3451  -8.3730  -7.3320  -7.1866  -5.8809  -5.6720
    -2.2849  -2.0524  -1.6023  -1.3366  -1.1164   0.0537   0.1224   1.1828
     1.6294  10.6061  11.4272  12.1085  12.2161

          k = 0.2222 0.3849 0.0000 (  9065 PWs)   bands (ev):

   -12.4399 -11.5600 -10.1700  -8.4932  -5.8470  -4.9226  -4.2700  -3.2873
    -3.2270  -2.6405  -1.5900  -1.5100  -1.0610  -0.4376  -0.0739   1.0134
     2.2259  10.7593  10.8109  11.9576  12.5177

          k = 0.2222-0.6415 0.0000 (  9111 PWs)   bands (ev):

   -10.5398  -9.7751  -8.7440  -7.6785  -7.0081  -6.5003  -5.7992  -4.9124
    -3.4856  -2.8987  -2.7963  -1.8570  -1.4347  -0.7178  -0.2925   0.5357
     1.1890  11.1350  12.0138  12.3364  13.1354

          k = 0.3333-0.5774 0.0000 (  9105 PWs)   bands (ev):

    -8.8375  -8.7700  -8.7700  -7.5136  -7.5136  -6.2361  -5.8939  -5.8939
    -3.9979  -3.5849  -3.5849  -3.1219  -0.6360  -0.6360  -0.1194   0.1343
     0.1343  11.5877  12.2627  12.2627  12.5280

     the Fermi energy is     6.5388 ev

!    total energy              =    -149.85501384 Ry
     estimated scf accuracy    <          6.8E-09 Ry
     smearing contrib. (-TS)   =      -0.00000000 Ry
     internal energy E=F+TS    =    -149.85501384 Ry

     The total energy is F=E-TS. E is the sum of the following terms:
     one-electron contribution =    -884.41957222 Ry
     hartree contribution      =     458.03472026 Ry
     xc contribution           =     -38.87569604 Ry
     ewald contribution        =     364.70956961 Ry
     one-center paw contrib.   =     -49.30403546 Ry

     convergence has been achieved in  14 iterations

     Forces acting on atoms (cartesian axes, Ry/au):

     atom    1 type  1   force =     0.00000000    0.00000000    0.00006819
     atom    2 type  1   force =     0.00000000    0.00000000   -0.00004283
     atom    3 type  1   force =     0.00000000   -0.00000000   -0.00004546
     atom    4 type  1   force =     0.00000000    0.00000000   -0.00009014
     atom    5 type  1   force =     0.00000000    0.00000000    0.00009014
     atom    6 type  1   force =     0.00000000    0.00000000    0.00004546
     atom    7 type  1   force =     0.00000000    0.00000000    0.00004283
     atom    8 type  1   force =     0.00000000   -0.00000000   -0.00006819
     atom    9 type  2   force =     0.00000000    0.00000000    0.00005374
     atom   10 type  2   force =     0.00000000    0.00000000   -0.00005374

     Total force =     0.000198     Total SCF correction =     0.000148
     SCF correction compared to forces is large: reduce conv_thr to get better values


     Computing stress (Cartesian axis) and pressure

          total   stress  (Ry/bohr**3)                   (kbar)     P=        2.99
   0.00003050   0.00000000   0.00000000            4.49        0.00        0.00
   0.00000000   0.00003050  -0.00000000            0.00        4.49       -0.00
   0.00000000   0.00000000  -0.00000005            0.00        0.00       -0.01


     Writing all to output data dir /tmp/qe/slab.save/ :
     XML data file, charge density, pseudopotentials, collected wavefunctions

     init_run     :      0.42s CPU      0.47s WALL (       1 calls)
     electrons    :      7.19s CPU      7.32s WALL (       1 calls)
     forces       :      0.12s CPU      0.12s WALL (       1 calls)
     stress       :      0.74s CPU      0.75s WALL (       1 calls)

     Called by init_run:
     wfcinit      :      0.20s CPU      0.22s WALL (       1 calls)
     potinit      :      0.11s CPU      0.12s WALL (       1 calls)
     hinit0       :      0.05s CPU      0.06s WALL (       1 calls)

     Called by electrons:
     c_bands      :      4.37s CPU      4.44s WALL (      14 calls)
     sum_band     :      1.15s CPU      1.19s WALL (      14 calls)
     v_of_rho     :      0.52s CPU      0.54s WALL (      15 calls)
     newd         :      0.25s CPU      0.27s WALL (      15 calls)
     PAW_pot      :      0.92s CPU      0.93s WALL (      15 calls)
     mix_rho      :      0.04s CPU      0.05s WALL (      14 calls)

     Called by c_bands:
     init_us_2    :      0.13s CPU      0.14s WALL (     372 calls)
     cegterg      :      4.15s CPU      4.21s WALL (     168 calls)

     Called by *egterg:
     cdiaghg      :      0.26s CPU      0.26s WALL (     650 calls)
     h_psi        :      3.50s CPU      3.56s WALL (     662 calls)
     s_psi        :      0.11s CPU      0.12s WALL (     662 calls)
     g_psi        :      0.02s CPU      0.02s WALL (     482 calls)

     Called by h_psi:
     h_psi:calbec :      0.15s CPU      0.15s WALL (     662 calls)
     vloc_psi     :      3.21s CPU      3.26s WALL (     662 calls)
     add_vuspsi   :      0.12s CPU      0.13s WALL (     662 calls)

     General routines
     calbec       :      0.23s CPU      0.23s WALL (     890 calls)
     fft          :      0.21s CPU      0.24s WALL (     218 calls)
     ffts         :      0.01s CPU      0.01s WALL (      29 calls)
     fftw         :      2.89s CPU      2.93s WALL (   22002 calls)
     interpolate  :      0.02s CPU      0.03s WALL (      15 calls)

     Parallel routines

     PWSCF        :      8.56s CPU      8.80s WALL


   This run was terminated on:  18:41:53   1Aug2026            

=------------------------------------------------------------------------------=
   JOB DONE.
=------------------------------------------------------------------------------=
Note: The following floating-point exceptions are signalling: IEEE_UNDERFLOW_FLAG IEEE_DENORMAL
Note: The following floating-point exceptions are signalling: IEEE_UNDERFLOW_FLAG IEEE_DENORMAL
Note: The following floating-point exceptions are signalling: IEEE_UNDERFLOW_FLAG IEEE_DENORMAL
Note: The following floating-point exceptions are signalling: IEEE_UNDERFLOW_FLAG IEEE_DENORMAL
Note: The following floating-point exceptions are signalling: IEEE_UNDERFLOW_FLAG IEEE_DENORMAL
Note: The following floating-point exceptions are signalling: IEEE_UNDERFLOW_FLAG IEEE_DENORMAL
Note: The following floating-point exceptions are signalling: IEEE_UNDERFLOW_FLAG IEEE_DENORMAL
Note: The following floating-point exceptions are signalling: IEEE_UNDERFLOW_FLAG IEEE_DENORMAL
