
     Program PWSCF v.7.3.1 starts on  2Aug2026 at 14:21:24 

     This program is part of the open-source Quantum ESPRESSO suite
     for quantum simulation of materials; please cite
         "P. Giannozzi et al., J. Phys.:Condens. Matter 21 395502 (2009);
         "P. Giannozzi et al., J. Phys.:Condens. Matter 29 465901 (2017);
         "P. Giannozzi et al., J. Chem. Phys. 152 154105 (2020);
          URL http://www.quantum-espresso.org", 
     in publications or presentations arising from this work. More details at
     http://www.quantum-espresso.org/quote

     Parallel version (MPI), running on     8 processors

     MPI processes distributed on     1 nodes
     768054 MiB available memory on the printing compute node when the environment starts

     Reading input from pw.in

     Current dimensions of program PWSCF are:
     Max number of different atomic species (ntypx) = 10
     Max number of k-points (npk) =  40000
     Max angular momentum in pseudopotentials (lmaxx) =  4
     file C.pbe-n-kjpaw_psl.1.0.0.UPF: wavefunction(s)  2S 2P renormalized
     Message from routine setup:
     using ibrav=0 with symmetry is DISCOURAGED, use correct ibrav instead

     R & G space division:  proc/nbgrp/npool/nimage =       8
     Subspace diagonalization in iterative solution of the eigenvalue problem:
     a serial algorithm will be used


     Parallelization info
     --------------------
     sticks:   dense  smooth     PW     G-vecs:    dense   smooth      PW
     Min         141      69     20                38229    13471    2214
     Max         142      70     21                38266    13520    2261
     Sum        1135     559    163               306051   108065   17863

     Using Slab Decomposition



     bravais-lattice index     =            0
     lattice parameter (alat)  =       4.7740  a.u.
     unit-cell volume          =     937.4795 (a.u.)^3
     number of atoms/cell      =           18
     number of atomic types    =            2
     number of electrons       =        66.00
     number of Kohn-Sham states=           40
     kinetic-energy cutoff     =      90.0000  Ry
     charge density cutoff     =     720.0000  Ry
     scf convergence threshold =      1.0E-09
     mixing beta               =       0.3000
     number of iterations used =            8  plain     mixing
     energy convergence thresh.=      1.0E-05
     force convergence thresh. =      1.0E-04
     press convergence thresh. =      1.0E-01
     Exchange-correlation= PBE
                           (   1   4   3   4   0   0   0)
     nstep                     =           50


     celldm(1)=   4.773978  celldm(2)=   0.000000  celldm(3)=   0.000000
     celldm(4)=   0.000000  celldm(5)=   0.000000  celldm(6)=   0.000000

     crystal axes: (cart. coord. in units of alat)
               a(1) = (   1.000000   0.000000   0.000000 )  
               a(2) = (   0.500000   0.866025   0.000000 )  
               a(3) = (   0.000000   0.000000   9.949240 )  

     reciprocal axes: (cart. coord. in units 2 pi/alat)
               b(1) = (  1.000000 -0.577350  0.000000 )  
               b(2) = (  0.000000  1.154701  0.000000 )  
               b(3) = (  0.000000  0.000000  0.100510 )  


     PseudoPot. # 1 for C  read from file:
     ./C.pbe-n-kjpaw_psl.1.0.0.UPF
     MD5 check sum: 5d2aebdfa2cae82b50a7e79e9516da0f
     Pseudo is Projector augmented-wave + core cor, Zval =  4.0
     Generated using "atomic" code by A. Dal Corso  v.5.1
     Shape of augmentation charge: PSQ
     Using radial grid of 1073 points,  4 beta functions with: 
                l(1) =   0
                l(2) =   0
                l(3) =   1
                l(4) =   1
     Q(r) pseudized with 0 coefficients 


     PseudoPot. # 2 for H  read from file:
     ./H_ONCV_PBE-1.0.oncvpsp.upf
     MD5 check sum: 1790becc920ee074925cf490c71280fe
     Pseudo is Norm-conserving, Zval =  1.0
     Generated using ONCVPSP code by D. R. Hamann
     Using radial grid of 1166 points,  2 beta functions with: 
                l(1) =   0
                l(2) =   0

     atomic species   valence    mass     pseudopotential
     C                 4.00    12.01100     C ( 1.00)
     H                 1.00     1.00800     H ( 1.00)

     12 Sym. Ops., with inversion, found ( 6 have fractional translation)



   Cartesian axes

     site n.     atom                  positions (alat units)
         1        C      tau(   1) = (   0.5000000   0.2886751   7.9344201  )
         2        C      tau(   2) = (   1.0000000   0.5773503   7.7302959  )
         3        C      tau(   3) = (   1.0000000   0.5773503   7.1179235  )
         4        C      tau(   4) = (   0.0000000   0.0000000   6.9137994  )
         5        C      tau(   5) = (   0.0000000   0.0000000   6.3014270  )
         6        C      tau(   6) = (   0.5000000   0.2886751   6.0973028  )
         7        C      tau(   7) = (   0.5000000   0.2886751   5.4849303  )
         8        C      tau(   8) = (   1.0000000   0.5773503   5.2808062  )
         9        C      tau(   9) = (   1.0000000   0.5773503   4.6684338  )
        10        C      tau(  10) = (   0.0000000   0.0000000   4.4643096  )
        11        C      tau(  11) = (   0.0000000   0.0000000   3.8519372  )
        12        C      tau(  12) = (   0.5000000   0.2886751   3.6478130  )
        13        C      tau(  13) = (   0.5000000   0.2886751   3.0354406  )
        14        C      tau(  14) = (   1.0000000   0.5773503   2.8313165  )
        15        C      tau(  15) = (   1.0000000   0.5773503   2.2189441  )
        16        C      tau(  16) = (   0.0000000   0.0000000   2.0148199  )
        17        H      tau(  17) = (   0.5000000   0.2886751   8.3658845  )
        18        H      tau(  18) = (   0.0000000   0.0000000   1.5833555  )

     number of k points=    14  Marzari-Vanderbilt smearing, width (Ry)=  0.0100
                       cart. coord. in units 2pi/alat
        k(    1) = (   0.0000000   0.0000000   0.0000000), wk =   0.0200000
        k(    2) = (   0.0000000   0.1154701   0.0000000), wk =   0.1200000
        k(    3) = (   0.0000000   0.2309401   0.0000000), wk =   0.1200000
        k(    4) = (   0.0000000   0.3464102   0.0000000), wk =   0.1200000
        k(    5) = (   0.0000000   0.4618802   0.0000000), wk =   0.1200000
        k(    6) = (   0.0000000  -0.5773503   0.0000000), wk =   0.0600000
        k(    7) = (   0.1000000   0.1732051   0.0000000), wk =   0.1200000
        k(    8) = (   0.1000000   0.2886751   0.0000000), wk =   0.2400000
        k(    9) = (   0.1000000   0.4041452   0.0000000), wk =   0.2400000
        k(   10) = (   0.1000000  -0.6350853   0.0000000), wk =   0.2400000
        k(   11) = (   0.2000000   0.3464102   0.0000000), wk =   0.1200000
        k(   12) = (   0.2000000  -0.6928203   0.0000000), wk =   0.2400000
        k(   13) = (   0.2000000  -0.5773503   0.0000000), wk =   0.1200000
        k(   14) = (   0.3000000  -0.6350853   0.0000000), wk =   0.1200000

     Dense  grid:   306051 G-vectors     FFT dimensions: (  45,  45, 405)

     Smooth grid:   108065 G-vectors     FFT dimensions: (  30,  30, 288)

     Estimated max dynamical RAM per process >      97.51 MB

     Estimated total dynamical RAM >     780.09 MB

     Check: negative core charge=   -0.000001

     Initial potential from superposition of free atoms

     starting charge      65.9993, renormalised to      66.0000
     Starting wfcs are   66 randomized atomic wfcs
     Checking if some PAW data can be deallocated... 

     total cpu time spent up to now is        1.6 secs

     Self-consistent Calculation

     iteration #  1     ecut=    90.00 Ry     beta= 0.30
     Davidson diagonalization with overlap
     ethr =  1.00E-02,  avg # of iterations =  2.4

     total cpu time spent up to now is        3.3 secs

     total energy              =    -297.43348661 Ry
     estimated scf accuracy    <       1.15446969 Ry

     iteration #  2     ecut=    90.00 Ry     beta= 0.30
     Davidson diagonalization with overlap
     ethr =  1.75E-03,  avg # of iterations =  4.1

     negative rho (up, down):  2.104E-07 0.000E+00

     total cpu time spent up to now is        4.8 secs

     total energy              =    -297.29596737 Ry
     estimated scf accuracy    <       0.42352138 Ry

     iteration #  3     ecut=    90.00 Ry     beta= 0.30
     Davidson diagonalization with overlap
     ethr =  6.42E-04,  avg # of iterations =  4.9

     negative rho (up, down):  1.337E-07 0.000E+00

     total cpu time spent up to now is        6.4 secs

     total energy              =    -297.32131545 Ry
     estimated scf accuracy    <       0.03378163 Ry

     iteration #  4     ecut=    90.00 Ry     beta= 0.30
     Davidson diagonalization with overlap
     ethr =  5.12E-05,  avg # of iterations =  7.5

     negative rho (up, down):  5.372E-08 0.000E+00

     total cpu time spent up to now is        8.3 secs

     total energy              =    -297.32451975 Ry
     estimated scf accuracy    <       0.00509834 Ry

     iteration #  5     ecut=    90.00 Ry     beta= 0.30
     Davidson diagonalization with overlap
     ethr =  7.72E-06,  avg # of iterations =  6.3

     negative rho (up, down):  4.119E-08 0.000E+00

     total cpu time spent up to now is       10.1 secs

     total energy              =    -297.32514107 Ry
     estimated scf accuracy    <       0.00079679 Ry

     iteration #  6     ecut=    90.00 Ry     beta= 0.30
     Davidson diagonalization with overlap
     c_bands:  1 eigenvalues not converged
     ethr =  1.21E-06,  avg # of iterations =  5.6

     negative rho (up, down):  2.659E-08 0.000E+00

     total cpu time spent up to now is       11.8 secs

     total energy              =    -297.32520863 Ry
     estimated scf accuracy    <       0.00020583 Ry

     iteration #  7     ecut=    90.00 Ry     beta= 0.30
     Davidson diagonalization with overlap
     ethr =  3.12E-07,  avg # of iterations =  2.0

     negative rho (up, down):  2.672E-08 0.000E+00

     total cpu time spent up to now is       13.2 secs

     total energy              =    -297.32522672 Ry
     estimated scf accuracy    <       0.00004917 Ry

     iteration #  8     ecut=    90.00 Ry     beta= 0.30
     Davidson diagonalization with overlap
     ethr =  7.45E-08,  avg # of iterations =  2.0

     negative rho (up, down):  2.288E-08 0.000E+00

     total cpu time spent up to now is       14.7 secs

     total energy              =    -297.32523601 Ry
     estimated scf accuracy    <       0.00001252 Ry

     iteration #  9     ecut=    90.00 Ry     beta= 0.30
     Davidson diagonalization with overlap
     ethr =  1.90E-08,  avg # of iterations =  2.1

     negative rho (up, down):  2.172E-08 0.000E+00

     total cpu time spent up to now is       16.1 secs

     total energy              =    -297.32523755 Ry
     estimated scf accuracy    <       0.00000120 Ry

     iteration # 10     ecut=    90.00 Ry     beta= 0.30
     Davidson diagonalization with overlap
     ethr =  1.82E-09,  avg # of iterations =  3.1

     negative rho (up, down):  2.197E-08 0.000E+00

     total cpu time spent up to now is       17.8 secs

     total energy              =    -297.32523790 Ry
     estimated scf accuracy    <       0.00000029 Ry

     iteration # 11     ecut=    90.00 Ry     beta= 0.30
     Davidson diagonalization with overlap
     ethr =  4.33E-10,  avg # of iterations =  2.3

     negative rho (up, down):  2.229E-08 0.000E+00

     total cpu time spent up to now is       19.2 secs

     total energy              =    -297.32523793 Ry
     estimated scf accuracy    <       0.00000004 Ry

     iteration # 12     ecut=    90.00 Ry     beta= 0.30
     Davidson diagonalization with overlap
     ethr =  5.70E-11,  avg # of iterations =  3.4

     negative rho (up, down):  2.248E-08 0.000E+00

     total cpu time spent up to now is       20.9 secs

     total energy              =    -297.32523795 Ry
     estimated scf accuracy    <       0.00000001 Ry

     iteration # 13     ecut=    90.00 Ry     beta= 0.30
     Davidson diagonalization with overlap
     ethr =  1.59E-11,  avg # of iterations =  2.0

     negative rho (up, down):  2.269E-08 0.000E+00

     total cpu time spent up to now is       22.4 secs

     total energy              =    -297.32523795 Ry
     estimated scf accuracy    <          1.3E-09 Ry

     iteration # 14     ecut=    90.00 Ry     beta= 0.30
     Davidson diagonalization with overlap
     ethr =  2.00E-12,  avg # of iterations =  3.5

     negative rho (up, down):  2.325E-08 0.000E+00

     total cpu time spent up to now is       24.2 secs

     End of self-consistent calculation

          k = 0.0000 0.0000 0.0000 ( 13421 PWs)   bands (ev):

   -13.5077 -13.2134 -12.7409 -12.0997 -11.3023 -10.3685  -9.3418  -8.3563
    -5.1729  -4.1138  -2.6343  -0.9574   0.8187   2.6231   4.3767   5.0812
     5.0812   5.2771   5.2771   5.5844   5.5844   5.9771   5.9870   5.9870
     6.4583   6.4583   6.9527   6.9527   7.2469   7.3970   7.3970   7.6993
     7.6993  10.0494  10.6490  12.7684  13.5788  13.5789  13.7242  14.0605

          k = 0.0000 0.1155 0.0000 ( 13535 PWs)   bands (ev):

   -13.2628 -12.9691 -12.4978 -11.8584 -11.0636 -10.1335  -9.1122  -8.1341
    -4.9519  -3.9044  -2.4425  -0.7900   0.9505   2.6986   3.8809   4.1000
     4.3257   4.4630   4.5400   4.7589   4.9126   5.0997   5.3464   5.5414
     5.7855   6.0271   6.0509   6.3382   6.5769   6.6791   7.0431   7.0918
     7.3585  10.2848  10.8516  12.9248  13.3697  13.9319  14.0747  14.5642

          k = 0.0000 0.2309 0.0000 ( 13503 PWs)   bands (ev):

   -12.5319 -12.2403 -11.7728 -11.1392 -10.3527  -9.4346  -8.4302  -7.4743
    -4.3218  -3.3128  -1.9152  -0.3653   1.0737   1.3677   1.6725   1.8409
     2.3589   2.9203   3.0237   3.4761   3.5652   3.7176   4.0934   4.1219
     4.4206   4.5315   4.5785   5.1347   5.6471   5.7037   6.2038   6.4694
     6.5414  11.0088  11.4456  12.7283  13.3014  13.5587  14.1869  14.5598

          k = 0.0000 0.3464 0.0000 ( 13492 PWs)   bands (ev):

   -11.3292 -11.0420 -10.5821  -9.9604  -9.1913  -8.2978  -7.3268  -6.4108
    -3.5285  -2.6595  -1.8666  -1.4434  -0.9994  -0.8464  -0.2625   0.0963
     0.4554   1.2212   1.3399   1.9246   2.3357   2.4945   2.7465   3.0553
     3.1389   3.6454   4.0557   4.2253   4.8177   5.0056   5.3375   5.6629
     5.6887  12.0652  12.1811  12.5587  12.9552  13.5390  13.9906  14.4888

          k = 0.0000 0.4619 0.0000 ( 13548 PWs)   bands (ev):

    -9.6942  -9.4180  -8.9788  -8.3917  -7.6792  -6.8786  -6.0502  -5.2869
    -4.2772  -4.1006  -3.9650  -3.5780  -2.9293  -2.1413  -1.3501  -1.0169
    -0.5590  -0.2585   0.6694   1.5172   1.8445   1.8693   2.1010   2.4582
     2.5006   3.0164   3.4717   3.6068   4.2097   4.3924   4.7386   5.0246
     5.0963  12.1647  12.6260  13.1027  13.5322  13.6505  13.8946  14.3162

          k = 0.0000-0.5774 0.0000 ( 13548 PWs)   bands (ev):

    -7.8832  -7.8657  -7.7468  -7.5230  -7.1743  -6.7055  -6.1218  -5.4902
    -5.2508  -4.9064  -4.4819  -4.1677  -3.5832  -3.3504  -2.7475  -2.6439
     0.3357   0.3361   0.8632   1.0698   1.3635   1.6196   1.8774   2.1410
     2.2791   2.7975   3.2186   3.3909   3.9968   4.1544   4.5284   4.7896
     4.8880  12.5901  12.7047  12.9123  13.1835  13.5611  13.7573  14.4097

          k = 0.1000 0.1732 0.0000 ( 13531 PWs)   bands (ev):

   -12.7749 -12.4826 -12.0137 -11.3781 -10.5887  -9.6665  -8.6562  -7.6929
    -4.5247  -3.5019  -2.0797  -0.4860   1.1563   2.4943   2.5614   2.6224
     2.7546   3.1792   3.2618   3.7443   3.9455   4.0280   4.3876   4.5681
     4.5691   4.8794   5.2696   5.4837   5.6198   5.7904   6.0892   6.3924
     7.0249  10.7807  11.2718  13.3859  13.7075  13.7347  14.1381  14.5840

          k = 0.1000 0.2887 0.0000 ( 13484 PWs)   bands (ev):

   -11.8077 -11.5185 -11.0552 -10.4281  -9.6512  -8.7465  -7.7604  -6.8271
    -3.7690  -2.8121  -1.5287  -0.3884   0.1057   0.2443   0.4824   0.9261
     1.3005   1.4602   2.0318   2.1132   2.5283   2.6414   2.9789   3.2119
     3.4359   3.7235   3.8468   4.1820   4.5208   4.7255   5.1749   5.7047
     6.3485  11.7491  12.0924  13.1815  13.8226  14.2643  14.6395  14.8355

          k = 0.1000 0.4041 0.0000 ( 13494 PWs)   bands (ev):

   -10.3851 -10.1026  -9.6512  -9.0430  -8.2939  -7.4296  -6.4980  -5.6230
    -3.4972  -3.0984  -2.8689  -2.3893  -1.7597  -1.1992  -1.0528  -0.4317
    -0.2126   0.4452   0.5119   1.2602   1.5125   1.7531   2.0028   2.2306
     2.3012   2.8104   3.0392   3.4647   3.9642   4.0810   4.4517   4.8919
     5.4683  12.7279  12.9409  13.3605  13.7888  14.3914  14.8896  15.3265

          k = 0.1000-0.6351 0.0000 ( 13524 PWs)   bands (ev):

    -8.5871  -8.3323  -7.9394  -7.4501  -6.9362  -6.4245  -5.8501  -5.1945
    -4.8770  -4.5403  -4.2787  -3.8626  -3.5171  -3.1260  -2.3401  -1.6233
    -0.3014   0.3298   0.8278   0.9706   1.0807   1.1725   1.6004   1.6997
     1.7735   2.3760   2.5671   3.1374   3.4135   3.8115   4.1319   4.3421
     4.7601  12.8683  13.4240  14.0137  14.1091  14.3716  14.7681  14.9064

          k = 0.2000 0.3464 0.0000 ( 13457 PWs)   bands (ev):

   -10.6188 -10.3347  -9.8803  -9.2671  -8.5103  -7.6339  -6.6848  -5.7904
    -3.2610  -2.5240  -1.8368  -1.4287  -1.0715  -0.7390  -0.6685  -0.2445
    -0.1801   0.2753   0.5835   0.8859   1.1129   1.5689   1.9543   2.0883
     2.1395   2.6682   2.7589   2.9966   3.1420   3.2910   4.1747   5.0392
     5.6213  12.8997  13.0770  14.1576  14.2578  14.8139  14.9193  15.8430

          k = 0.2000-0.6928 0.0000 ( 13537 PWs)   bands (ev):

    -9.0106  -8.7392  -8.3086  -7.7348  -7.0417  -6.2669  -5.4676  -4.7054
    -4.0219  -3.7372  -3.5862  -3.2310  -2.7048  -2.1660  -1.6159  -1.1183
    -0.6411  -0.3854  -0.1001   0.1177   0.4261   0.6970   0.8633   1.0105
     1.5453   1.7504   2.2202   2.4023   2.5945   3.1126   3.5412   4.1400
     4.6409  13.5127  13.9089  14.3005  14.7922  15.0436  15.5901  16.0667

          k = 0.2000-0.5774 0.0000 ( 13552 PWs)   bands (ev):

    -7.2374  -7.2236  -7.1122  -6.9024  -6.5754  -6.1383  -5.5964  -4.9255
    -4.6106  -4.5746  -4.0504  -3.6749  -3.3045  -2.9835  -2.6297  -2.4831
    -0.7998  -0.5016  -0.3927  -0.3560   0.0429   0.5853   1.1040   1.3826
     1.3912   1.5834   1.9388   2.1438   2.2779   2.9707   3.4949   3.8421
     3.8724  13.3902  13.9981  14.7413  15.2856  15.3268  15.3984  16.1047

          k = 0.3000-0.6351 0.0000 ( 13581 PWs)   bands (ev):

    -7.3063  -7.0758  -6.7300  -6.3209  -5.9327  -5.6371  -5.4349  -4.6235
    -4.6181  -3.7744  -3.7539  -3.4895  -3.4210  -3.2686  -2.8736  -2.4952
    -1.3565  -1.1794  -0.9599  -0.8220  -0.3746  -0.2789   0.3108   0.3194
     1.1158   1.6609   2.2710   2.4501   2.5871   2.7712   2.7727   3.1228
     3.5936  14.0172  14.2550  14.3929  14.8999  15.0740  15.4139  15.6592

     the Fermi energy is     9.3818 ev

!    total energy              =    -297.32523795 Ry
     estimated scf accuracy    <          6.1E-10 Ry
     smearing contrib. (-TS)   =      -0.00000000 Ry
     internal energy E=F+TS    =    -297.32523795 Ry

     The total energy is F=E-TS. E is the sum of the following terms:
     one-electron contribution =   -2235.57340472 Ry
     hartree contribution      =    1155.21314684 Ry
     xc contribution           =     -76.34863078 Ry
     ewald contribution        =     957.99025604 Ry
     one-center paw contrib.   =     -98.60660533 Ry

     convergence has been achieved in  14 iterations

     negative rho (up, down):  2.325E-08 0.000E+00

     Forces acting on atoms (cartesian axes, Ry/au):

     atom    1 type  1   force =     0.00000000    0.00000000   -0.05257565
     atom    2 type  1   force =     0.00000000   -0.00000000    0.03242897
     atom    3 type  1   force =     0.00000000   -0.00000000    0.00018692
     atom    4 type  1   force =    -0.00000000   -0.00000000    0.00079048
     atom    5 type  1   force =     0.00000000    0.00000000   -0.00010772
     atom    6 type  1   force =     0.00000000    0.00000000    0.00012339
     atom    7 type  1   force =    -0.00000000   -0.00000000   -0.00004391
     atom    8 type  1   force =    -0.00000000    0.00000000    0.00003708
     atom    9 type  1   force =    -0.00000000    0.00000000   -0.00003708
     atom   10 type  1   force =    -0.00000000    0.00000000    0.00004391
     atom   11 type  1   force =     0.00000000   -0.00000000   -0.00012339
     atom   12 type  1   force =     0.00000000    0.00000000    0.00010772
     atom   13 type  1   force =     0.00000000    0.00000000   -0.00079048
     atom   14 type  1   force =     0.00000000   -0.00000000   -0.00018692
     atom   15 type  1   force =     0.00000000   -0.00000000   -0.03242897
     atom   16 type  1   force =    -0.00000000   -0.00000000    0.05257565
     atom   17 type  2   force =     0.00000000    0.00000000    0.01930489
     atom   18 type  2   force =    -0.00000000    0.00000000   -0.01930489

     Total force =     0.091534     Total SCF correction =     0.000023


     Computing stress (Cartesian axis) and pressure


     negative rho (up, down):  2.325E-08 0.000E+00
          total   stress  (Ry/bohr**3)                   (kbar)     P=        2.25
   0.00001801   0.00000000   0.00000000            2.65        0.00        0.00
   0.00000000   0.00001801   0.00000000            0.00        2.65        0.00
   0.00000000   0.00000000   0.00000976            0.00        0.00        1.44


     BFGS Geometry Optimization
     Energy error            =      0.0E+00 Ry
     Gradient error          =      5.3E-02 Ry/Bohr
     Cell gradient error     =      2.6E+00 kbar

     number of scf cycles    =   1
     number of bfgs steps    =   0

     enthalpy           new  =    -297.3252379519 Ry

     new trust radius        =       0.0525756462 bohr
     new conv_thr            =       0.0000000010 Ry

     new unit-cell volume =    938.32409 a.u.^3 (   139.04528 Ang^3 )
     density =      2.31913 g/cm^3

CELL_PARAMETERS (angstrom)
   2.527418073   0.000000000   0.000000000
   1.263709036   2.188808254   0.000000000
   0.000000000   0.000000000  25.134569970

ATOMIC_POSITIONS (crystal)
C                0.3333333300        0.3333333300        0.7963831549
C                0.6666666700        0.6666666700        0.7776562618
C                0.6666666700        0.6666666700        0.7154277753
C               -0.0000000000       -0.0000000000        0.6949239326
C                0.0000000000        0.0000000000        0.6333553520
C                0.3333333300        0.3333333300        0.6128436579
C                0.3333333300        0.3333333300        0.5512904656
C                0.6666666700        0.6666666700        0.5307756106
C                0.6666666700        0.6666666700        0.4692243894
C               -0.0000000000        0.0000000000        0.4487095344
C                0.0000000000       -0.0000000000        0.3871563421
C                0.3333333300        0.3333333300        0.3666446480
C                0.3333333300        0.3333333300        0.3050760674
C                0.6666666700        0.6666666700        0.2845722247
C                0.6666666700        0.6666666700        0.2223437382
C               -0.0000000000       -0.0000000000        0.2036168451
H                0.3333333300        0.3333333300        0.8412630805
H               -0.0000000000        0.0000000000        0.1587369195



     Writing config-only to output data dir /tmp/qe/slab.save/ :
     XML data file
     NEW-OLD atomic charge density approx. for the potential

     Check: negative core charge=   -0.000001

     negative rho (up, down):  1.969E-08 0.000E+00

     total cpu time spent up to now is       28.4 secs

     Self-consistent Calculation

     iteration #  1     ecut=    90.00 Ry     beta= 0.30
     Davidson diagonalization with overlap
     c_bands:  1 eigenvalues not converged
     ethr =  1.00E-06,  avg # of iterations = 11.0

     total cpu time spent up to now is       31.4 secs

     total energy              =    -297.32634930 Ry
     estimated scf accuracy    <       0.00124733 Ry

     iteration #  2     ecut=    90.00 Ry     beta= 0.30
     Davidson diagonalization with overlap
     ethr =  1.89E-06,  avg # of iterations =  3.5

     total cpu time spent up to now is       32.8 secs

     total energy              =    -297.32630125 Ry
     estimated scf accuracy    <       0.00035820 Ry

     iteration #  3     ecut=    90.00 Ry     beta= 0.30
     Davidson diagonalization with overlap
     ethr =  5.43E-07,  avg # of iterations =  2.5

     total cpu time spent up to now is       34.2 secs

     total energy              =    -297.32633002 Ry
     estimated scf accuracy    <       0.00004635 Ry

     iteration #  4     ecut=    90.00 Ry     beta= 0.30
     Davidson diagonalization with overlap
     ethr =  7.02E-08,  avg # of iterations =  1.9

     negative rho (up, down):  1.182E-08 0.000E+00

     total cpu time spent up to now is       35.6 secs

     total energy              =    -297.32633193 Ry
     estimated scf accuracy    <       0.00001051 Ry

     iteration #  5     ecut=    90.00 Ry     beta= 0.30
     Davidson diagonalization with overlap
     ethr =  1.59E-08,  avg # of iterations =  2.0

     negative rho (up, down):  1.300E-08 0.000E+00

     total cpu time spent up to now is       37.2 secs

     total energy              =    -297.32633354 Ry
     estimated scf accuracy    <       0.00000087 Ry

     iteration #  6     ecut=    90.00 Ry     beta= 0.30
     Davidson diagonalization with overlap
     ethr =  1.31E-09,  avg # of iterations =  2.3

     negative rho (up, down):  1.427E-08 0.000E+00

     total cpu time spent up to now is       38.6 secs

     total energy              =    -297.32633367 Ry
     estimated scf accuracy    <       0.00000032 Ry

     iteration #  7     ecut=    90.00 Ry     beta= 0.30
     Davidson diagonalization with overlap
     ethr =  4.85E-10,  avg # of iterations =  1.3

     negative rho (up, down):  1.602E-08 0.000E+00

     total cpu time spent up to now is       39.9 secs

     total energy              =    -297.32633371 Ry
     estimated scf accuracy    <       0.00000009 Ry

     iteration #  8     ecut=    90.00 Ry     beta= 0.30
     Davidson diagonalization with overlap
     ethr =  1.31E-10,  avg # of iterations =  2.2

     negative rho (up, down):  1.610E-08 0.000E+00

     total cpu time spent up to now is       41.4 secs

     total energy              =    -297.32633372 Ry
     estimated scf accuracy    <          6.8E-09 Ry

     iteration #  9     ecut=    90.00 Ry     beta= 0.30
     Davidson diagonalization with overlap
     ethr =  1.02E-11,  avg # of iterations =  2.7

     negative rho (up, down):  1.622E-08 0.000E+00

     total cpu time spent up to now is       43.0 secs

     total energy              =    -297.32633372 Ry
     estimated scf accuracy    <          3.1E-09 Ry

     iteration # 10     ecut=    90.00 Ry     beta= 0.30
     Davidson diagonalization with overlap
     ethr =  4.62E-12,  avg # of iterations =  2.3

     negative rho (up, down):  1.630E-08 0.000E+00

     total cpu time spent up to now is       44.6 secs

     End of self-consistent calculation

          k = 0.0000 0.0000 0.0000 ( 13421 PWs)   bands (ev):

   -13.5571 -13.2746 -12.8236 -12.2034 -11.4131 -10.4652  -9.4077  -8.3977
    -5.1767  -4.0828  -2.6119  -0.9381   0.8660   2.7139   4.4765   5.0151
     5.0151   5.1886   5.1886   5.4539   5.4539   5.8093   5.8093   6.0185
     6.2514   6.2514   6.7527   6.7527   7.2115   7.2429   7.2429   7.6087
     7.6087  10.1378  10.6836  12.6976  13.5258  13.5258  13.6455  14.0281

          k =-0.0000 0.1154 0.0000 ( 13535 PWs)   bands (ev):

   -13.3124 -13.0306 -12.5809 -11.9626 -11.1750 -10.2309  -9.1786  -8.1759
    -4.9552  -3.8715  -2.4178  -0.7690   0.9985   2.7890   3.8153   4.0108
     4.3061   4.4278   4.4736   4.6679   4.7631   4.9655   5.1762   5.3609
     5.6510   5.8445   6.0059   6.1995   6.3811   6.5900   6.8947   7.0531
     7.2710  10.3591  10.8738  12.8511  13.3290  13.8707  14.0235  14.5388

          k =-0.0000 0.2308 0.0000 ( 13503 PWs)   bands (ev):

   -12.5822 -12.3025 -11.8568 -11.2447 -10.4659  -9.5339  -8.4980  -7.5169
    -4.3237  -3.2745  -1.8839  -0.3415   1.0766   1.3020   1.6290   1.7491
     2.1985   2.7731   3.0671   3.4038   3.4101   3.6246   3.9555   3.9999
     4.3952   4.4346   4.5292   4.9286   5.5123   5.6925   6.0614   6.4455
     6.4575  11.0434  11.4249  12.6788  13.2252  13.5232  14.1441  14.4565

          k =-0.0000 0.3463 0.0000 ( 13492 PWs)   bands (ev):

   -11.3806 -11.1052 -10.6674 -10.0679  -9.3072  -8.4000  -7.3968  -6.4545
    -3.5345  -2.6376  -1.9100  -1.4947  -1.0061  -0.9467  -0.4142   0.1031
     0.2970   1.0813   1.3418   1.8363   2.3211   2.4290   2.6528   2.9993
     3.1189   3.4606   4.0194   4.1523   4.6283   5.0668   5.1979   5.6069
     5.6484  12.0088  12.1425  12.4932  12.9231  13.4700  13.8846  14.4256

          k =-0.0000 0.4617 0.0000 ( 13548 PWs)   bands (ev):

    -9.7470  -9.4820  -9.0644  -8.4996  -7.7960  -6.9825  -6.1244  -5.3358
    -4.3357  -4.1709  -4.0245  -3.6986  -3.0548  -2.2515  -1.3975  -1.0717
    -0.5956  -0.2825   0.6802   1.5382   1.7794   1.8552   2.0070   2.3602
     2.5395   2.8309   3.4009   3.5670   4.0211   4.4540   4.6002   5.0117
     5.0155  12.1048  12.5531  13.0199  13.4885  13.5814  13.7492  14.2221

          k = 0.0000-0.5771 0.0000 ( 13548 PWs)   bands (ev):

    -7.9362  -7.9185  -7.8075  -7.6034  -7.2774  -6.8210  -6.2349  -5.5961
    -5.3139  -5.0405  -4.5403  -4.3217  -3.6246  -3.4842  -2.7872  -2.7257
     0.3408   0.3551   0.8788   1.1105   1.3596   1.5547   1.7834   2.1384
     2.2208   2.6118   3.1850   3.3053   3.8084   4.2096   4.3904   4.7749
     4.8075  12.5198  12.6322  12.8548  13.0573  13.5501  13.6002  14.2493

          k = 0.1000 0.1731 0.0000 ( 13531 PWs)   bands (ev):

   -12.8249 -12.5445 -12.0974 -11.4832 -10.7013  -9.7651  -8.7236  -7.7353
    -4.5270  -3.4652  -2.0504  -0.4620   1.2027   2.4350   2.4913   2.6350
     2.6507   3.0780   3.1354   3.6322   3.8547   3.8792   4.2445   4.4075
     4.6323   4.7301   5.0543   5.4149   5.5426   5.6881   5.9699   6.3248
     6.9805  10.8318  11.2699  13.3264  13.6474  13.6816  14.0838  14.5567

          k = 0.1000 0.2885 0.0000 ( 13484 PWs)   bands (ev):

   -11.8586 -11.5813 -11.1400 -10.5350  -9.7661  -8.8476  -7.8296  -6.8704
    -3.7707  -2.7715  -1.5006  -0.4099   0.0357   0.2351   0.3701   0.7892
     1.2645   1.3002   1.9080   2.0772   2.4214   2.5535   2.8497   3.2306
     3.3271   3.5607   3.7754   4.0539   4.5434   4.6107   5.0929   5.6949
     6.3137  11.7543  12.0502  13.1277  13.7897  14.1971  14.5975  14.7826

          k = 0.1000 0.4040 0.0000 ( 13494 PWs)   bands (ev):

   -10.4373 -10.1665  -9.7372  -9.1515  -8.4114  -7.5337  -6.5697  -5.6672
    -3.5272  -3.1504  -2.9371  -2.4770  -1.8479  -1.2502  -1.1149  -0.5317
    -0.2589   0.3617   0.4686   1.2292   1.4550   1.6630   1.9243   2.1084
     2.2804   2.6431   3.0855   3.3023   3.9228   4.0607   4.3782   4.9002
     5.4375  12.6770  12.8920  13.3064  13.7210  14.3135  14.7683  15.2473

          k = 0.1000-0.6348 0.0000 ( 13524 PWs)   bands (ev):

    -8.6408  -8.3956  -8.0215  -7.5495  -7.0395  -6.5246  -5.9417  -5.2782
    -4.9387  -4.6604  -4.3262  -4.0145  -3.5581  -3.2623  -2.4281  -1.6791
    -0.3187   0.3589   0.7657   0.9323   1.0569   1.1234   1.5082   1.6022
     1.8194   2.1824   2.5811   2.9935   3.3934   3.7441   4.0763   4.3513
     4.7262  12.8255  13.3986  13.9382  14.0788  14.2412  14.6915  14.7596

          k = 0.1999 0.3463 0.0000 ( 13457 PWs)   bands (ev):

   -10.6708 -10.3984  -9.9662  -9.3756  -8.6277  -7.7378  -6.7561  -5.8344
    -3.2760  -2.5277  -1.8856  -1.4956  -1.1306  -0.7660  -0.7585  -0.4087
    -0.1872   0.1126   0.5018   0.8490   1.0340   1.4027   1.9247   1.9430
     2.0271   2.5830   2.6408   2.9382   3.0794   3.3272   4.2318   5.0586
     5.5910  12.8651  13.0139  14.1089  14.1917  14.8091  14.8977  15.7331

          k = 0.1999-0.6925 0.0000 ( 13537 PWs)   bands (ev):

    -9.0640  -8.8035  -8.3943  -7.8428  -7.1588  -6.3717  -5.5434  -4.7549
    -4.0736  -3.7949  -3.6625  -3.3419  -2.8273  -2.2784  -1.7118  -1.1842
    -0.6891  -0.4528  -0.1087  -0.0269   0.3411   0.6536   0.7355   0.9072
     1.5132   1.6347   2.2267   2.3302   2.5737   3.1400   3.5923   4.1639
     4.6128  13.4760  13.8864  14.2610  14.7001  15.0643  15.4681  16.0474

          k = 0.1999-0.5771 0.0000 ( 13552 PWs)   bands (ev):

    -7.2910  -7.2770  -7.1730  -6.9816  -6.6751  -6.2485  -5.7033  -5.0478
    -4.7048  -4.6731  -4.1201  -3.8085  -3.3563  -3.1154  -2.6802  -2.5691
    -0.8617  -0.5671  -0.4746  -0.4423  -0.1364   0.4898   1.1283   1.3082
     1.3257   1.6196   1.8953   2.0799   2.2639   3.0068   3.5606   3.8157
     3.8423  13.3593  14.0221  14.8060  15.2370  15.2681  15.3296  16.0593

          k = 0.2999-0.6348 0.0000 ( 13581 PWs)   bands (ev):

    -7.3610  -7.1387  -6.8092  -6.4138  -6.0241  -5.7149  -5.4989  -4.7594
    -4.7539  -3.8415  -3.8105  -3.5478  -3.4980  -3.4015  -3.0151  -2.5888
    -1.4201  -1.2650  -1.0568  -0.9703  -0.4892  -0.4184   0.2441   0.2451
     1.0871   1.7010   2.3272   2.4780   2.5851   2.7459   2.7894   3.1615
     3.5706  14.0332  14.1946  14.5188  14.8815  15.0115  15.4404  15.5339

     the Fermi energy is     9.3355 ev

!    total energy              =    -297.32633371 Ry
     estimated scf accuracy    <          5.4E-10 Ry
     smearing contrib. (-TS)   =      -0.00000000 Ry
     internal energy E=F+TS    =    -297.32633371 Ry

     The total energy is F=E-TS. E is the sum of the following terms:
     one-electron contribution =   -2236.38973064 Ry
     hartree contribution      =    1155.43927424 Ry
     xc contribution           =     -76.31975310 Ry
     ewald contribution        =     958.55008303 Ry
     one-center paw contrib.   =     -98.60620724 Ry

     convergence has been achieved in  10 iterations

     negative rho (up, down):  1.630E-08 0.000E+00

     Forces acting on atoms (cartesian axes, Ry/au):

     atom    1 type  1   force =     0.00000000   -0.00000000    0.03572598
     atom    2 type  1   force =     0.00000000    0.00000000   -0.02242582
     atom    3 type  1   force =     0.00000000    0.00000000    0.00174715
     atom    4 type  1   force =     0.00000000   -0.00000000    0.00281681
     atom    5 type  1   force =    -0.00000000    0.00000000   -0.00017968
     atom    6 type  1   force =     0.00000000    0.00000000    0.00018075
     atom    7 type  1   force =     0.00000000    0.00000000   -0.00005345
     atom    8 type  1   force =    -0.00000000   -0.00000000    0.00005580
     atom    9 type  1   force =     0.00000000   -0.00000000   -0.00005580
     atom   10 type  1   force =     0.00000000    0.00000000    0.00005345
     atom   11 type  1   force =     0.00000000    0.00000000   -0.00018075
     atom   12 type  1   force =     0.00000000    0.00000000    0.00017968
     atom   13 type  1   force =     0.00000000    0.00000000   -0.00281681
     atom   14 type  1   force =     0.00000000    0.00000000   -0.00174715
     atom   15 type  1   force =     0.00000000    0.00000000    0.02242582
     atom   16 type  1   force =    -0.00000000    0.00000000   -0.03572598
     atom   17 type  2   force =    -0.00000000    0.00000000   -0.01782950
     atom   18 type  2   force =    -0.00000000    0.00000000    0.01782950

     Total force =     0.064934     Total SCF correction =     0.000068


     Computing stress (Cartesian axis) and pressure


     negative rho (up, down):  1.630E-08 0.000E+00
          total   stress  (Ry/bohr**3)                   (kbar)     P=       -3.17
   0.00000861   0.00000000   0.00000000            1.27        0.00        0.00
   0.00000000   0.00000861   0.00000000            0.00        1.27        0.00
   0.00000000  -0.00000000  -0.00008192            0.00       -0.00      -12.05

     Energy error            =      1.1E-03 Ry
     Gradient error          =      3.6E-02 Ry/Bohr
     Cell gradient error     =      1.3E+00 kbar

     number of scf cycles    =   2
     number of bfgs steps    =   1

     enthalpy           old  =    -297.3252379519 Ry
     enthalpy           new  =    -297.3263337133 Ry

     CASE: enthalpy          _new < enthalpy          _old

     new trust radius        =       0.0208016570 bohr
     new conv_thr            =       0.0000000010 Ry

     new unit-cell volume =    938.56466 a.u.^3 (   139.08093 Ang^3 )
     density =      2.31853 g/cm^3

CELL_PARAMETERS (angstrom)
   2.527742048   0.000000000   0.000000000
   1.263871024   2.189088824   0.000000000
   0.000000000   0.000000000  25.134569970

ATOMIC_POSITIONS (crystal)
C                0.3333333300        0.3333333300        0.7968211080
C                0.6666666700        0.6666666700        0.7773813058
C                0.6666666700        0.6666666700        0.7154494103
C               -0.0000000000       -0.0000000000        0.6949588517
C               -0.0000000000        0.0000000000        0.6333531200
C                0.3333333300        0.3333333300        0.6128459043
C                0.3333333300        0.3333333300        0.5512898007
C                0.6666666700        0.6666666700        0.5307763040
C                0.6666666700        0.6666666700        0.4692236960
C               -0.0000000000        0.0000000000        0.4487101993
C                0.0000000000       -0.0000000000        0.3871540957
C                0.3333333300        0.3333333300        0.3666468800
C                0.3333333300        0.3333333300        0.3050411483
C                0.6666666700        0.6666666700        0.2845505897
C                0.6666666700        0.6666666700        0.2226186942
C               -0.0000000000       -0.0000000000        0.2031788920
H                0.3333333300        0.3333333300        0.8410439684
H               -0.0000000000        0.0000000000        0.1589560316



     Writing config-only to output data dir /tmp/qe/slab.save/ :
     XML data file
     NEW-OLD atomic charge density approx. for the potential

     Check: negative core charge=   -0.000001

     negative rho (up, down):  1.187E-08 0.000E+00

     total cpu time spent up to now is       48.9 secs

     Self-consistent Calculation

     iteration #  1     ecut=    90.00 Ry     beta= 0.30
     Davidson diagonalization with overlap
     ethr =  1.00E-06,  avg # of iterations =  6.6

     negative rho (up, down):  1.591E-08 0.000E+00

     total cpu time spent up to now is       51.2 secs

     total energy              =    -297.32763190 Ry
     estimated scf accuracy    <       0.00022982 Ry

     iteration #  2     ecut=    90.00 Ry     beta= 0.30
     Davidson diagonalization with overlap
     ethr =  3.48E-07,  avg # of iterations =  1.4

     negative rho (up, down):  1.913E-08 0.000E+00

     total cpu time spent up to now is       52.5 secs

     total energy              =    -297.32762224 Ry
     estimated scf accuracy    <       0.00006732 Ry

     iteration #  3     ecut=    90.00 Ry     beta= 0.30
     Davidson diagonalization with overlap
     ethr =  1.02E-07,  avg # of iterations =  2.1

     negative rho (up, down):  1.804E-08 0.000E+00

     total cpu time spent up to now is       53.9 secs

     total energy              =    -297.32762871 Ry
     estimated scf accuracy    <       0.00000806 Ry

     iteration #  4     ecut=    90.00 Ry     beta= 0.30
     Davidson diagonalization with overlap
     ethr =  1.22E-08,  avg # of iterations =  1.6

     negative rho (up, down):  1.638E-08 0.000E+00

     total cpu time spent up to now is       55.2 secs

     total energy              =    -297.32762911 Ry
     estimated scf accuracy    <       0.00000165 Ry

     iteration #  5     ecut=    90.00 Ry     beta= 0.30
     Davidson diagonalization with overlap
     ethr =  2.49E-09,  avg # of iterations =  2.0

     negative rho (up, down):  1.602E-08 0.000E+00

     total cpu time spent up to now is       56.6 secs

     total energy              =    -297.32762937 Ry
     estimated scf accuracy    <       0.00000015 Ry

     iteration #  6     ecut=    90.00 Ry     beta= 0.30
     Davidson diagonalization with overlap
     ethr =  2.34E-10,  avg # of iterations =  2.4

     negative rho (up, down):  1.570E-08 0.000E+00

     total cpu time spent up to now is       58.0 secs

     total energy              =    -297.32762939 Ry
     estimated scf accuracy    <       0.00000005 Ry

     iteration #  7     ecut=    90.00 Ry     beta= 0.30
     Davidson diagonalization with overlap
     ethr =  8.01E-11,  avg # of iterations =  1.7

     negative rho (up, down):  1.529E-08 0.000E+00

     total cpu time spent up to now is       59.3 secs

     total energy              =    -297.32762940 Ry
     estimated scf accuracy    <       0.00000002 Ry

     iteration #  8     ecut=    90.00 Ry     beta= 0.30
     Davidson diagonalization with overlap
     ethr =  2.39E-11,  avg # of iterations =  2.0

     negative rho (up, down):  1.555E-08 0.000E+00

     total cpu time spent up to now is       60.8 secs

     End of self-consistent calculation

          k = 0.0000 0.0000 0.0000 ( 13421 PWs)   bands (ev):

   -13.5330 -13.2463 -12.7894 -12.1615 -11.3664 -10.4241  -9.3807  -8.3791
    -5.1734  -4.0957  -2.6228  -0.9448   0.8499   2.6774   4.4346   5.0364
     5.0364   5.2196   5.2196   5.5015   5.5015   5.8754   5.8754   6.0024
     6.3273   6.3273   6.8215   6.8215   7.2251   7.2910   7.2910   7.6358
     7.6358  10.0941  10.6643  12.7233  13.5392  13.5392  13.6709  14.0328

          k =-0.0000 0.1154 0.0000 ( 13535 PWs)   bands (ev):

   -13.2884 -13.0023 -12.5466 -11.9206 -11.1282 -10.1897  -9.1516  -8.1573
    -4.9522  -3.8854  -2.4299  -0.7767   0.9818   2.7522   3.8369   4.0424
     4.3354   4.4157   4.4955   4.7003   4.8158   5.0148   5.2394   5.4281
     5.7020   5.9205   6.0058   6.2431   6.4490   6.6173   6.9415   7.0662
     7.2976  10.3215  10.8595  12.8770  13.3377  13.8877  14.0359  14.5406

          k =-0.0000 0.2308 0.0000 ( 13503 PWs)   bands (ev):

   -12.5584 -12.2745 -11.8226 -11.2027 -10.4189  -9.4924  -8.4709  -7.4984
    -4.3220  -3.2913  -1.8998  -0.3516   1.0759   1.3260   1.6476   1.7784
     2.2575   2.8377   3.0376   3.4327   3.4618   3.6586   4.0067   4.0403
     4.4478   4.4639   4.5004   5.0051   5.5795   5.6708   6.1072   6.4521
     6.4839  11.0231  11.4288  12.6909  13.2493  13.5289  14.1517  14.4891

          k =-0.0000 0.3462 0.0000 ( 13492 PWs)   bands (ev):

   -11.3572 -11.0775 -10.6335 -10.0258  -9.2599  -8.3582  -7.3698  -6.4364
    -3.5330  -2.6493  -1.8960  -1.4766  -1.0043  -0.9105  -0.3564   0.0989
     0.3563   1.1325   1.3393   1.8662   2.3263   2.4522   2.6878   3.0519
     3.0909   3.5305   4.0965   4.1073   4.6956   5.0369   5.2436   5.6334
     5.6507  12.0275  12.1528  12.5148  12.9268  13.4877  13.9170  14.4443

          k =-0.0000 0.4616 0.0000 ( 13548 PWs)   bands (ev):

    -9.7242  -9.4552  -9.0315  -8.4585  -7.7497  -6.9416  -6.0974  -5.3177
    -4.3115  -4.1446  -4.0009  -3.6538  -3.0066  -2.2098  -1.3806  -1.0521
    -0.5817  -0.2777   0.6713   1.5290   1.8029   1.8602   2.0426   2.4135
     2.5028   2.9015   3.4785   3.5219   4.0886   4.4238   4.6460   5.0137
     5.0422  12.1227  12.5759  13.0456  13.5029  13.6023  13.8001  14.2550

          k = 0.0000-0.5770 0.0000 ( 13548 PWs)   bands (ev):

    -7.9155  -7.8969  -7.7841  -7.5740  -7.2388  -6.7774  -6.1934  -5.5554
    -5.2870  -4.9860  -4.5179  -4.2603  -3.6107  -3.4335  -2.7727  -2.6942
     0.3370   0.3474   0.8677   1.0951   1.3557   1.5783   1.8191   2.1834
     2.1920   2.6826   3.2627   3.2640   3.8760   4.1827   4.4362   4.7781
     4.8342  12.5391  12.6556  12.8740  13.0973  13.5562  13.6524  14.3044

          k = 0.0999 0.1731 0.0000 ( 13531 PWs)   bands (ev):

   -12.8011 -12.5164 -12.0632 -11.4411 -10.6544  -9.7237  -8.6965  -7.7167
    -4.5249  -3.4811  -2.0651  -0.4717   1.1859   2.4547   2.5164   2.6301
     2.6890   3.1148   3.1822   3.6696   3.8864   3.9321   4.2967   4.4678
     4.6014   4.7821   5.1343   5.4449   5.5666   5.7139   6.0078   6.3435
     6.9946  10.8041  11.2656  13.3463  13.6623  13.6964  14.0969  14.5578

          k = 0.0999 0.2885 0.0000 ( 13484 PWs)   bands (ev):

   -11.8350 -11.5535 -11.1060 -10.4928  -9.7189  -8.8059  -7.8025  -6.8520
    -3.7700  -2.7902  -1.5167  -0.4036   0.0623   0.2367   0.4118   0.8415
     1.2792   1.3583   1.9585   2.0805   2.4603   2.5838   2.8997   3.2389
     3.3501   3.6247   3.7963   4.1041   4.5224   4.6486   5.1181   5.6918
     6.3238  11.7467  12.0632  13.1421  13.7951  14.2177  14.6057  14.7968

          k = 0.0999 0.4039 0.0000 ( 13494 PWs)   bands (ev):

   -10.4143 -10.1392  -9.7036  -9.1096  -8.3642  -7.4919  -6.5428  -5.6497
    -3.5176  -3.1307  -2.9129  -2.4452  -1.8139  -1.2271  -1.0963  -0.4947
    -0.2449   0.3899   0.4819   1.2396   1.4764   1.6975   1.9577   2.1558
     2.2822   2.7109   3.0575   3.3638   3.9492   4.0426   4.4030   4.8890
     5.4460  12.6930  12.9083  13.3251  13.7413  14.3359  14.8077  15.2779

          k = 0.0999-0.6347 0.0000 ( 13524 PWs)   bands (ev):

    -8.6185  -8.3699  -7.9908  -7.5127  -6.9997  -6.4862  -5.9082  -5.2474
    -4.9123  -4.6142  -4.3078  -3.9553  -3.5419  -3.2102  -2.3968  -1.6588
    -0.3124   0.3437   0.7892   0.9492   1.0773   1.1235   1.5544   1.6291
     1.7966   2.2563   2.5737   3.0428   3.3975   3.7612   4.0914   4.3426
     4.7363  12.8402  13.4078  13.9625  14.0850  14.2844  14.7295  14.7997

          k = 0.1999 0.3462 0.0000 ( 13457 PWs)   bands (ev):

   -10.6476 -10.3710  -9.9325  -9.3336  -8.5803  -7.6959  -6.7291  -5.8167
    -3.2723  -2.5300  -1.8710  -1.4715  -1.1074  -0.7579  -0.7246  -0.3463
    -0.1865   0.1699   0.5333   0.8590   1.0632   1.4708   1.9442   2.0204
     2.0374   2.6134   2.6824   2.9564   3.1020   3.3073   4.2007   5.0444
     5.5994  12.8751  13.0364  14.1244  14.2135  14.8052  14.9032  15.7734

          k = 0.1999-0.6924 0.0000 ( 13537 PWs)   bands (ev):

    -9.0415  -8.7770  -8.3618  -7.8022  -7.1128  -6.3308  -5.5163  -4.7375
    -4.0561  -3.7718  -3.6336  -3.3008  -2.7807  -2.2364  -1.6776  -1.1602
    -0.6703  -0.4260  -0.1084   0.0316   0.3772   0.6676   0.7831   0.9422
     1.5250   1.6711   2.2235   2.3565   2.5776   3.1255   3.5648   4.1474
     4.6206  13.4892  13.8966  14.2744  14.7367  15.0523  15.5191  16.0503

          k = 0.1999-0.5770 0.0000 ( 13552 PWs)   bands (ev):

    -7.2704  -7.2554  -7.1498  -6.9533  -6.6384  -6.2071  -5.6642  -5.0023
    -4.6555  -4.6468  -4.0924  -3.7557  -3.3389  -3.0662  -2.6624  -2.5370
    -0.8364  -0.5348  -0.4344  -0.4216  -0.0678   0.5266   1.1149   1.3344
     1.3513   1.5968   1.9131   2.1019   2.2610   2.9860   3.5273   3.8369
     3.8381  13.3709  14.0153  14.7805  15.2747  15.2771  15.3549  16.0714

          k = 0.2998-0.6347 0.0000 ( 13581 PWs)   bands (ev):

    -7.3393  -7.1140  -6.7806  -6.3807  -5.9900  -5.6851  -5.4752  -4.7120
    -4.7066  -3.8135  -3.7887  -3.5241  -3.4697  -3.3499  -2.9621  -2.5540
    -1.3925  -1.2266  -1.0184  -0.9091  -0.4490  -0.3683   0.2681   0.2709
     1.0965   1.6806   2.2998   2.4662   2.5874   2.7534   2.7737   3.1371
     3.5764  14.0272  14.2187  14.4660  14.8918  15.0366  15.4201  15.5885

     the Fermi energy is     9.3506 ev

!    total energy              =    -297.32762940 Ry
     estimated scf accuracy    <          9.1E-10 Ry
     smearing contrib. (-TS)   =      -0.00000000 Ry
     internal energy E=F+TS    =    -297.32762940 Ry

     The total energy is F=E-TS. E is the sum of the following terms:
     one-electron contribution =   -2234.51446596 Ry
     hartree contribution      =    1154.56318597 Ry
     xc contribution           =     -76.32490464 Ry
     ewald contribution        =     957.55469678 Ry
     one-center paw contrib.   =     -98.60614155 Ry

     convergence has been achieved in   8 iterations

     negative rho (up, down):  1.555E-08 0.000E+00

     Forces acting on atoms (cartesian axes, Ry/au):

     atom    1 type  1   force =    -0.00000000    0.00000000    0.00075988
     atom    2 type  1   force =     0.00000000   -0.00000000   -0.00060463
     atom    3 type  1   force =     0.00000000    0.00000000    0.00117223
     atom    4 type  1   force =     0.00000000   -0.00000000    0.00063082
     atom    5 type  1   force =     0.00000000    0.00000000    0.00065447
     atom    6 type  1   force =     0.00000000    0.00000000    0.00019763
     atom    7 type  1   force =    -0.00000000   -0.00000000   -0.00000797
     atom    8 type  1   force =    -0.00000000   -0.00000000    0.00002712
     atom    9 type  1   force =    -0.00000000    0.00000000   -0.00002712
     atom   10 type  1   force =    -0.00000000    0.00000000    0.00000797
     atom   11 type  1   force =    -0.00000000   -0.00000000   -0.00019763
     atom   12 type  1   force =     0.00000000    0.00000000   -0.00065447
     atom   13 type  1   force =     0.00000000    0.00000000   -0.00063082
     atom   14 type  1   force =     0.00000000    0.00000000   -0.00117223
     atom   15 type  1   force =     0.00000000    0.00000000    0.00060463
     atom   16 type  1   force =     0.00000000   -0.00000000   -0.00075988
     atom   17 type  2   force =     0.00000000   -0.00000000   -0.00280678
     atom   18 type  2   force =     0.00000000   -0.00000000    0.00280678

     Total force =     0.004703     Total SCF correction =     0.000095


     Computing stress (Cartesian axis) and pressure


     negative rho (up, down):  1.555E-08 0.000E+00
          total   stress  (Ry/bohr**3)                   (kbar)     P=       -2.62
  -0.00000517   0.00000000   0.00000000           -0.76        0.00        0.00
   0.00000000  -0.00000517  -0.00000000            0.00       -0.76       -0.00
  -0.00000000   0.00000000  -0.00004309           -0.00        0.00       -6.34

     Energy error            =      1.3E-03 Ry
     Gradient error          =      2.8E-03 Ry/Bohr
     Cell gradient error     =      7.6E-01 kbar

     number of scf cycles    =   3
     number of bfgs steps    =   2

     enthalpy           old  =    -297.3263337133 Ry
     enthalpy           new  =    -297.3276293985 Ry

     CASE: enthalpy          _new < enthalpy          _old

     new trust radius        =       0.0026724473 bohr
     new conv_thr            =       0.0000000003 Ry

     new unit-cell volume =    938.30704 a.u.^3 (   139.04276 Ang^3 )
     density =      2.31917 g/cm^3

CELL_PARAMETERS (angstrom)
   2.527395121   0.000000000   0.000000000
   1.263697561   2.188788377   0.000000000
   0.000000000   0.000000000  25.134569970

ATOMIC_POSITIONS (crystal)
C                0.3333333300        0.3333333300        0.7968261712
C                0.6666666700        0.6666666700        0.7773752942
C                0.6666666700        0.6666666700        0.7154747666
C                0.0000000000       -0.0000000000        0.6949720118
C               -0.0000000000        0.0000000000        0.6333675833
C                0.3333333300        0.3333333300        0.6128502136
C                0.3333333300        0.3333333300        0.5512896381
C                0.6666666700        0.6666666700        0.5307768877
C                0.6666666700        0.6666666700        0.4692231123
C               -0.0000000000        0.0000000000        0.4487103619
C                0.0000000000       -0.0000000000        0.3871497864
C                0.3333333300        0.3333333300        0.3666324167
C                0.3333333300        0.3333333300        0.3050279882
C                0.6666666700        0.6666666700        0.2845252334
C                0.6666666700        0.6666666700        0.2226247058
C               -0.0000000000       -0.0000000000        0.2031738288
H                0.3333333300        0.3333333300        0.8409877034
H                0.0000000000       -0.0000000000        0.1590122966



     Writing config-only to output data dir /tmp/qe/slab.save/ :
     XML data file
     NEW-OLD atomic charge density approx. for the potential

     Check: negative core charge=   -0.000001

     negative rho (up, down):  1.598E-08 0.000E+00

     total cpu time spent up to now is       65.0 secs

     Self-consistent Calculation

     iteration #  1     ecut=    90.00 Ry     beta= 0.30
     Davidson diagonalization with overlap
     ethr =  1.00E-06,  avg # of iterations =  2.0

     Threshold (ethr) on eigenvalues was too large:
     Diagonalizing with lowered threshold

     Davidson diagonalization with overlap
     ethr =  4.66E-09,  avg # of iterations =  2.9

     negative rho (up, down):  1.630E-08 0.000E+00

     total cpu time spent up to now is       67.9 secs

     total energy              =    -297.32764401 Ry
     estimated scf accuracy    <       0.00000339 Ry

     iteration #  2     ecut=    90.00 Ry     beta= 0.30
     Davidson diagonalization with overlap
     ethr =  5.14E-09,  avg # of iterations =  1.6

     negative rho (up, down):  1.605E-08 0.000E+00

     total cpu time spent up to now is       69.2 secs

     total energy              =    -297.32764401 Ry
     estimated scf accuracy    <       0.00000079 Ry

     iteration #  3     ecut=    90.00 Ry     beta= 0.30
     Davidson diagonalization with overlap
     ethr =  1.19E-09,  avg # of iterations =  2.0

     negative rho (up, down):  1.593E-08 0.000E+00

     total cpu time spent up to now is       70.6 secs

     total energy              =    -297.32764405 Ry
     estimated scf accuracy    <       0.00000017 Ry

     iteration #  4     ecut=    90.00 Ry     beta= 0.30
     Davidson diagonalization with overlap
     ethr =  2.64E-10,  avg # of iterations =  2.0

     negative rho (up, down):  1.574E-08 0.000E+00

     total cpu time spent up to now is       71.9 secs

     total energy              =    -297.32764405 Ry
     estimated scf accuracy    <       0.00000004 Ry

     iteration #  5     ecut=    90.00 Ry     beta= 0.30
     Davidson diagonalization with overlap
     ethr =  6.61E-11,  avg # of iterations =  1.9

     negative rho (up, down):  1.566E-08 0.000E+00

     total cpu time spent up to now is       73.2 secs

     total energy              =    -297.32764405 Ry
     estimated scf accuracy    <          5.4E-09 Ry

     iteration #  6     ecut=    90.00 Ry     beta= 0.30
     Davidson diagonalization with overlap
     ethr =  8.18E-12,  avg # of iterations =  2.5

     negative rho (up, down):  1.564E-08 0.000E+00

     total cpu time spent up to now is       74.8 secs

     total energy              =    -297.32764405 Ry
     estimated scf accuracy    <          8.3E-10 Ry

     iteration #  7     ecut=    90.00 Ry     beta= 0.30
     Davidson diagonalization with overlap
     ethr =  1.26E-12,  avg # of iterations =  2.3

     negative rho (up, down):  1.564E-08 0.000E+00

     total cpu time spent up to now is       76.2 secs

     End of self-consistent calculation

          k = 0.0000 0.0000 0.0000 ( 13421 PWs)   bands (ev):

   -13.5303 -13.2441 -12.7887 -12.1606 -11.3651 -10.4224  -9.3790  -8.3781
    -5.1728  -4.0976  -2.6244  -0.9446   0.8507   2.6785   4.4359   5.0435
     5.0435   5.2267   5.2267   5.5073   5.5073   5.8816   5.8816   6.0041
     6.3341   6.3341   6.8286   6.8286   7.2291   7.2989   7.2989   7.6426
     7.6426  10.0946  10.6664  12.7280  13.5464  13.5464  13.6759  14.0387

          k =-0.0000 0.1154 0.0000 ( 13535 PWs)   bands (ev):

   -13.2856 -13.0001 -12.5459 -11.9196 -11.1269 -10.1879  -9.1498  -8.1562
    -4.9515  -3.8872  -2.4314  -0.7764   0.9826   2.7534   3.8438   4.0490
     4.3397   4.4187   4.5024   4.7071   4.8212   5.0203   5.2455   5.4341
     5.7076   5.9270   6.0085   6.2503   6.4559   6.6236   6.9492   7.0706
     7.3042  10.3224  10.8619  12.8820  13.3432  13.8938  14.0433  14.5464

          k =-0.0000 0.2308 0.0000 ( 13503 PWs)   bands (ev):

   -12.5554 -12.2720 -11.8217 -11.2015 -10.4174  -9.4904  -8.4689  -7.4971
    -4.3210  -3.2929  -1.9012  -0.3510   1.0793   1.3316   1.6515   1.7826
     2.2624   2.8431   3.0392   3.4393   3.4675   3.6650   4.0118   4.0466
     4.4512   4.4696   4.5037   5.0113   5.5861   5.6726   6.1144   6.4562
     6.4900  11.0253  11.4327  12.6969  13.2558  13.5336  14.1579  14.4962

          k =-0.0000 0.3463 0.0000 ( 13492 PWs)   bands (ev):

   -11.3538 -11.0747 -10.6323 -10.0243  -9.2580  -8.3558  -7.3673  -6.4347
    -3.5309  -2.6494  -1.8927  -1.4733  -1.0020  -0.9072  -0.3527   0.1006
     0.3601   1.1372   1.3416   1.8708   2.3288   2.4584   2.6939   3.0566
     3.0921   3.5358   4.1024   4.1084   4.7018   5.0383   5.2505   5.6391
     5.6542  12.0331  12.1579  12.5209  12.9331  13.4947  13.9241  14.4509

          k =-0.0000 0.4617 0.0000 ( 13548 PWs)   bands (ev):

    -9.7203  -9.4519  -9.0298  -8.4564  -7.7472  -6.9385  -6.0942  -5.3152
    -4.3072  -4.1419  -3.9969  -3.6513  -3.0036  -2.2063  -1.3776  -1.0498
    -0.5787  -0.2772   0.6712   1.5296   1.8090   1.8626   2.0485   2.4180
     2.5032   2.9066   3.4841   3.5225   4.0946   4.4247   4.6527   5.0169
     5.0476  12.1292  12.5833  13.0529  13.5102  13.6094  13.8070  14.2612

          k = 0.0000-0.5771 0.0000 ( 13548 PWs)   bands (ev):

    -7.9105  -7.8919  -7.7805  -7.5714  -7.2364  -6.7748  -6.1907  -5.5534
    -5.2837  -4.9832  -4.5147  -4.2573  -3.6081  -3.4296  -2.7703  -2.6909
     0.3379   0.3484   0.8678   1.0952   1.3569   1.5843   1.8250   2.1834
     2.1964   2.6876   3.2645   3.2683   3.8820   4.1836   4.4428   4.7812
     4.8396  12.5480  12.6619  12.8808  13.1046  13.5621  13.6601  14.3124

          k = 0.1000 0.1731 0.0000 ( 13531 PWs)   bands (ev):

   -12.7981 -12.5140 -12.0624 -11.4400 -10.6529  -9.7218  -8.6946  -7.7155
    -4.5240  -3.4828  -2.0666  -0.4713   1.1870   2.4612   2.5225   2.6341
     2.6944   3.1182   3.1876   3.6744   3.8928   3.9368   4.3035   4.4730
     4.6037   4.7884   5.1403   5.4494   5.5727   5.7188   6.0138   6.3492
     6.9993  10.8058  11.2689  13.3508  13.6692  13.7024  14.1035  14.5635

          k = 0.1000 0.2885 0.0000 ( 13484 PWs)   bands (ev):

   -11.8318 -11.5508 -11.1049 -10.4914  -9.7171  -8.8037  -7.8002  -6.8505
    -3.7685  -2.7914  -1.5174  -0.4000   0.0677   0.2393   0.4160   0.8460
     1.2830   1.3627   1.9631   2.0839   2.4651   2.5898   2.9052   3.2412
     3.3540   3.6300   3.8008   4.1091   4.5249   4.6544   5.1230   5.6953
     6.3281  11.7501  12.0679  13.1483  13.8009  14.2230  14.6121  14.8027

          k = 0.1000 0.4040 0.0000 ( 13494 PWs)   bands (ev):

   -10.4106 -10.1361  -9.7021  -9.1077  -8.3619  -7.4892  -6.5400  -5.6477
    -3.5140  -3.1263  -2.9101  -2.4424  -1.8111  -1.2244  -1.0939  -0.4924
    -0.2414   0.3921   0.4856   1.2430   1.4807   1.7020   1.9615   2.1598
     2.2843   2.7157   3.0587   3.3690   3.9531   4.0458   4.4076   4.8917
     5.4499  12.6987  12.9141  13.3310  13.7482  14.3434  14.8159  15.2864

          k = 0.1000-0.6348 0.0000 ( 13524 PWs)   bands (ev):

    -8.6142  -8.3661  -7.9885  -7.5099  -6.9964  -6.4826  -5.9048  -5.2453
    -4.9086  -4.6116  -4.3042  -3.9525  -3.5393  -3.2066  -2.3930  -1.6556
    -0.3104   0.3430   0.7947   0.9534   1.0787   1.1256   1.5575   1.6324
     1.7977   2.2607   2.5756   3.0473   3.4003   3.7654   4.0960   4.3447
     4.7398  12.8449  13.4139  13.9710  14.0925  14.2926  14.7375  14.8065

          k = 0.1999 0.3463 0.0000 ( 13457 PWs)   bands (ev):

   -10.6440 -10.3680  -9.9311  -9.3318  -8.5782  -7.6933  -6.7264  -5.8148
    -3.2692  -2.5286  -1.8682  -1.4672  -1.1029  -0.7544  -0.7212  -0.3430
    -0.1838   0.1733   0.5377   0.8609   1.0678   1.4750   1.9470   2.0241
     2.0416   2.6183   2.6865   2.9605   3.1061   3.3090   4.2023   5.0468
     5.6033  12.8801  13.0422  14.1296  14.2195  14.8099  14.9085  15.7804

          k = 0.1999-0.6925 0.0000 ( 13537 PWs)   bands (ev):

    -9.0373  -8.7735  -8.3598  -7.7998  -7.1101  -6.3275  -5.5127  -4.7351
    -4.0524  -3.7675  -3.6302  -3.2975  -2.7770  -2.2324  -1.6734  -1.1564
    -0.6671  -0.4216  -0.1074   0.0353   0.3801   0.6688   0.7869   0.9455
     1.5272   1.6746   2.2252   2.3604   2.5800   3.1272   3.5660   4.1492
     4.6240  13.4939  13.9022  14.2798  14.7434  15.0565  15.5283  16.0555

          k = 0.1999-0.5771 0.0000 ( 13552 PWs)   bands (ev):

    -7.2653  -7.2503  -7.1460  -6.9504  -6.6358  -6.2041  -5.6609  -5.0006
    -4.6531  -4.6432  -4.0886  -3.7523  -3.3356  -3.0620  -2.6592  -2.5329
    -0.8320  -0.5310  -0.4311  -0.4182  -0.0649   0.5294   1.1153   1.3379
     1.3548   1.5959   1.9159   2.1053   2.2623   2.9874   3.5278   3.8399
     3.8412  13.3750  14.0201  14.7843  15.2793  15.2837  15.3616  16.0780

          k = 0.2999-0.6348 0.0000 ( 13581 PWs)   bands (ev):

    -7.3345  -7.1098  -6.7778  -6.3774  -5.9862  -5.6801  -5.4697  -4.7114
    -4.7059  -3.8095  -3.7846  -3.5203  -3.4658  -3.3457  -2.9579  -2.5501
    -1.3888  -1.2234  -1.0156  -0.9061  -0.4449  -0.3654   0.2705   0.2745
     1.0987   1.6800   2.2995   2.4672   2.5897   2.7561   2.7749   3.1380
     3.5793  14.0310  14.2234  14.4690  14.8961  15.0429  15.4241  15.5960

     the Fermi energy is     9.3562 ev

!    total energy              =    -297.32764405 Ry
     estimated scf accuracy    <          2.5E-10 Ry
     smearing contrib. (-TS)   =      -0.00000000 Ry
     internal energy E=F+TS    =    -297.32764405 Ry

     The total energy is F=E-TS. E is the sum of the following terms:
     one-electron contribution =   -2234.95692003 Ry
     hartree contribution      =    1154.79621398 Ry
     xc contribution           =     -76.33061831 Ry
     ewald contribution        =     957.76994236 Ry
     one-center paw contrib.   =     -98.60626205 Ry

     convergence has been achieved in   7 iterations

     negative rho (up, down):  1.564E-08 0.000E+00

     Forces acting on atoms (cartesian axes, Ry/au):

     atom    1 type  1   force =     0.00000000   -0.00000000   -0.00087877
     atom    2 type  1   force =    -0.00000000   -0.00000000   -0.00010021
     atom    3 type  1   force =     0.00000000    0.00000000    0.00040114
     atom    4 type  1   force =     0.00000000   -0.00000000    0.00076172
     atom    5 type  1   force =    -0.00000000   -0.00000000    0.00039706
     atom    6 type  1   force =     0.00000000    0.00000000    0.00040653
     atom    7 type  1   force =    -0.00000000   -0.00000000    0.00015040
     atom    8 type  1   force =     0.00000000    0.00000000    0.00000901
     atom    9 type  1   force =     0.00000000    0.00000000   -0.00000901
     atom   10 type  1   force =     0.00000000    0.00000000   -0.00015040
     atom   11 type  1   force =    -0.00000000    0.00000000   -0.00040653
     atom   12 type  1   force =     0.00000000    0.00000000   -0.00039706
     atom   13 type  1   force =    -0.00000000    0.00000000   -0.00076172
     atom   14 type  1   force =     0.00000000    0.00000000   -0.00040114
     atom   15 type  1   force =     0.00000000    0.00000000    0.00010021
     atom   16 type  1   force =    -0.00000000   -0.00000000    0.00087877
     atom   17 type  2   force =     0.00000000   -0.00000000   -0.00112040
     atom   18 type  2   force =    -0.00000000   -0.00000000    0.00112040

     Total force =     0.002500     Total SCF correction =     0.000013


     Computing stress (Cartesian axis) and pressure


     negative rho (up, down):  1.564E-08 0.000E+00
          total   stress  (Ry/bohr**3)                   (kbar)     P=       -1.45
   0.00000248  -0.00000000  -0.00000000            0.37       -0.00       -0.00
  -0.00000000   0.00000248   0.00000000           -0.00        0.37        0.00
  -0.00000000   0.00000000  -0.00003460           -0.00        0.00       -5.09

     Energy error            =      1.5E-05 Ry
     Gradient error          =      1.1E-03 Ry/Bohr
     Cell gradient error     =      3.7E-01 kbar

     number of scf cycles    =   4
     number of bfgs steps    =   3

     enthalpy           old  =    -297.3276293985 Ry
     enthalpy           new  =    -297.3276440521 Ry

     CASE: enthalpy          _new < enthalpy          _old

     new trust radius        =       0.0029453692 bohr
     new conv_thr            =            1.5E-11 Ry

     new unit-cell volume =    938.38405 a.u.^3 (   139.05417 Ang^3 )
     density =      2.31898 g/cm^3

CELL_PARAMETERS (angstrom)
   2.527498828   0.000000000   0.000000000
   1.263749414   2.188878189   0.000000000
   0.000000000   0.000000000  25.134569970

ATOMIC_POSITIONS (crystal)
C                0.3333333300        0.3333333300        0.7968031798
C                0.6666666700        0.6666666700        0.7773673413
C                0.6666666700        0.6666666700        0.7154987210
C                0.0000000000       -0.0000000000        0.6950027735
C                0.0000000000       -0.0000000000        0.6333865050
C                0.3333333300        0.3333333300        0.6128652590
C                0.3333333300        0.3333333300        0.5512944437
C                0.6666666700        0.6666666700        0.5307774361
C                0.6666666700        0.6666666700        0.4692225639
C               -0.0000000000        0.0000000000        0.4487055563
C               -0.0000000000       -0.0000000000        0.3871347410
C                0.3333333300        0.3333333300        0.3666134950
C                0.3333333300        0.3333333300        0.3049972265
C                0.6666666700        0.6666666700        0.2845012790
C                0.6666666700        0.6666666700        0.2226326587
C               -0.0000000000       -0.0000000000        0.2031968202
H                0.3333333300        0.3333333300        0.8409256923
H                0.0000000000       -0.0000000000        0.1590743077



     Writing config-only to output data dir /tmp/qe/slab.save/ :
     XML data file
     NEW-OLD atomic charge density approx. for the potential

     Check: negative core charge=   -0.000001

     negative rho (up, down):  1.648E-08 0.000E+00

     total cpu time spent up to now is       80.4 secs

     Self-consistent Calculation

     iteration #  1     ecut=    90.00 Ry     beta= 0.30
     Davidson diagonalization with overlap
     ethr =  1.00E-06,  avg # of iterations =  2.0

     Threshold (ethr) on eigenvalues was too large:
     Diagonalizing with lowered threshold

     Davidson diagonalization with overlap
     ethr =  4.14E-09,  avg # of iterations =  3.9

     negative rho (up, down):  1.665E-08 0.000E+00

     total cpu time spent up to now is       83.5 secs

     total energy              =    -297.32765269 Ry
     estimated scf accuracy    <       0.00000341 Ry

     iteration #  2     ecut=    90.00 Ry     beta= 0.30
     Davidson diagonalization with overlap
     ethr =  5.16E-09,  avg # of iterations =  1.9

     negative rho (up, down):  1.639E-08 0.000E+00

     total cpu time spent up to now is       84.8 secs

     total energy              =    -297.32765279 Ry
     estimated scf accuracy    <       0.00000078 Ry

     iteration #  3     ecut=    90.00 Ry     beta= 0.30
     Davidson diagonalization with overlap
     ethr =  1.18E-09,  avg # of iterations =  2.0

     negative rho (up, down):  1.625E-08 0.000E+00

     total cpu time spent up to now is       86.2 secs

     total energy              =    -297.32765281 Ry
     estimated scf accuracy    <       0.00000019 Ry

     iteration #  4     ecut=    90.00 Ry     beta= 0.30
     Davidson diagonalization with overlap
     ethr =  2.93E-10,  avg # of iterations =  2.0

     negative rho (up, down):  1.616E-08 0.000E+00

     total cpu time spent up to now is       87.5 secs

     total energy              =    -297.32765282 Ry
     estimated scf accuracy    <       0.00000003 Ry

     iteration #  5     ecut=    90.00 Ry     beta= 0.30
     Davidson diagonalization with overlap
     ethr =  5.28E-11,  avg # of iterations =  2.0

     negative rho (up, down):  1.614E-08 0.000E+00

     total cpu time spent up to now is       88.9 secs

     total energy              =    -297.32765283 Ry
     estimated scf accuracy    <          5.1E-09 Ry

     iteration #  6     ecut=    90.00 Ry     beta= 0.30
     Davidson diagonalization with overlap
     ethr =  7.79E-12,  avg # of iterations =  2.3

     negative rho (up, down):  1.614E-08 0.000E+00

     total cpu time spent up to now is       90.3 secs

     total energy              =    -297.32765283 Ry
     estimated scf accuracy    <          1.0E-09 Ry

     iteration #  7     ecut=    90.00 Ry     beta= 0.30
     Davidson diagonalization with overlap
     ethr =  1.55E-12,  avg # of iterations =  2.5

     negative rho (up, down):  1.615E-08 0.000E+00

     total cpu time spent up to now is       91.8 secs

     total energy              =    -297.32765283 Ry
     estimated scf accuracy    <          2.5E-10 Ry

     iteration #  8     ecut=    90.00 Ry     beta= 0.30
     Davidson diagonalization with overlap
     ethr =  3.72E-13,  avg # of iterations =  2.1

     negative rho (up, down):  1.616E-08 0.000E+00

     total cpu time spent up to now is       93.3 secs

     total energy              =    -297.32765283 Ry
     estimated scf accuracy    <          4.4E-11 Ry

     iteration #  9     ecut=    90.00 Ry     beta= 0.30
     Davidson diagonalization with overlap
     ethr =  1.00E-13,  avg # of iterations =  2.1

     negative rho (up, down):  1.615E-08 0.000E+00

     total cpu time spent up to now is       94.7 secs

     End of self-consistent calculation

          k = 0.0000 0.0000 0.0000 ( 13421 PWs)   bands (ev):

   -13.5277 -13.2440 -12.7906 -12.1617 -11.3652 -10.4214  -9.3785  -8.3776
    -5.1726  -4.1002  -2.6263  -0.9438   0.8521   2.6796   4.4366   5.0447
     5.0447   5.2256   5.2256   5.5046   5.5046   5.8796   5.8796   6.0058
     6.3328   6.3328   6.8277   6.8277   7.2303   7.2980   7.2980   7.6428
     7.6428  10.0934  10.6661  12.7287  13.5466  13.5466  13.6755  14.0377

          k =-0.0000 0.1154 0.0000 ( 13535 PWs)   bands (ev):

   -13.2831 -13.0000 -12.5478 -11.9208 -11.1270 -10.1869  -9.1493  -8.1557
    -4.9515  -3.8898  -2.4334  -0.7758   0.9839   2.7543   3.8450   4.0478
     4.3383   4.4176   4.5037   4.7060   4.8197   5.0175   5.2446   5.4322
     5.7075   5.9260   6.0095   6.2498   6.4552   6.6237   6.9484   7.0716
     7.3044  10.3213  10.8616  12.8826  13.3426  13.8934  14.0434  14.5452

          k =-0.0000 0.2308 0.0000 ( 13503 PWs)   bands (ev):

   -12.5529 -12.2720 -11.8237 -11.2026 -10.4176  -9.4895  -8.4685  -7.4967
    -4.3210  -3.2958  -1.9035  -0.3507   1.0803   1.3322   1.6511   1.7807
     2.2605   2.8423   3.0396   3.4406   3.4673   3.6640   4.0091   4.0464
     4.4515   4.4678   4.5035   5.0104   5.5857   5.6732   6.1139   6.4570
     6.4904  11.0246  11.4326  12.6966  13.2559  13.5324  14.1571  14.4955

          k =-0.0000 0.3462 0.0000 ( 13492 PWs)   bands (ev):

   -11.3514 -11.0747 -10.6343 -10.0256  -9.2583  -8.3551  -7.3671  -6.4344
    -3.5312  -2.6525  -1.8934  -1.4742  -1.0024  -0.9089  -0.3542   0.1003
     0.3595   1.1370   1.3420   1.8709   2.3298   2.4599   2.6929   3.0539
     3.0922   3.5341   4.1016   4.1074   4.7016   5.0380   5.2501   5.6396
     5.6548  12.0332  12.1576  12.5217  12.9327  13.4936  13.9229  14.4499

          k =-0.0000 0.4617 0.0000 ( 13548 PWs)   bands (ev):

    -9.7181  -9.4521  -9.0320  -8.4579  -7.7477  -6.9381  -6.0942  -5.3154
    -4.3057  -4.1440  -3.9960  -3.6540  -3.0048  -2.2066  -1.3786  -1.0493
    -0.5788  -0.2787   0.6695   1.5294   1.8105   1.8632   2.0476   2.4154
     2.5022   2.9049   3.4834   3.5210   4.0945   4.4242   4.6524   5.0174
     5.0481  12.1296  12.5831  13.0523  13.5114  13.6090  13.8056  14.2601

          k = 0.0000-0.5771 0.0000 ( 13548 PWs)   bands (ev):

    -7.9078  -7.8904  -7.7816  -7.5737  -7.2388  -6.7764  -6.1923  -5.5550
    -5.2819  -4.9842  -4.5143  -4.2574  -3.6089  -3.4292  -2.7704  -2.6902
     0.3369   0.3477   0.8661   1.0941   1.3565   1.5858   1.8240   2.1820
     2.1938   2.6860   3.2631   3.2676   3.8819   4.1833   4.4425   4.7818
     4.8401  12.5490  12.6608  12.8819  13.1014  13.5656  13.6576  14.3111

          k = 0.1000 0.1731 0.0000 ( 13531 PWs)   bands (ev):

   -12.7956 -12.5139 -12.0643 -11.4412 -10.6531  -9.7209  -8.6941  -7.7151
    -4.5240  -3.4855  -2.0687  -0.4709   1.1880   2.4630   2.5218   2.6348
     2.6923   3.1162   3.1861   3.6733   3.8940   3.9338   4.3033   4.4713
     4.6041   4.7880   5.1393   5.4493   5.5728   5.7188   6.0139   6.3494
     7.0001  10.8049  11.2686  13.3508  13.6689  13.7023  14.1028  14.5622

          k = 0.1000 0.2885 0.0000 ( 13484 PWs)   bands (ev):

   -11.8294 -11.5508 -11.1069 -10.4927  -9.7174  -8.8029  -7.7999  -6.8502
    -3.7687  -2.7945  -1.5201  -0.3993   0.0675   0.2403   0.4134   0.8447
     1.2836   1.3616   1.9618   2.0843   2.4640   2.5914   2.9040   3.2414
     3.3522   3.6293   3.8010   4.1087   4.5247   4.6541   5.1232   5.6955
     6.3287  11.7497  12.0681  13.1483  13.8002  14.2228  14.6115  14.8025

          k = 0.1000 0.4040 0.0000 ( 13494 PWs)   bands (ev):

   -10.4083 -10.1362  -9.7043  -9.1092  -8.3624  -7.4886  -6.5399  -5.6476
    -3.5141  -3.1258  -2.9125  -2.4446  -1.8125  -1.2244  -1.0950  -0.4933
    -0.2421   0.3915   0.4854   1.2434   1.4812   1.7012   1.9601   2.1583
     2.2848   2.7148   3.0580   3.3689   3.9523   4.0454   4.4081   4.8914
     5.4504  12.6990  12.9147  13.3317  13.7485  14.3425  14.8148  15.2872

          k = 0.1000-0.6348 0.0000 ( 13524 PWs)   bands (ev):

    -8.6121  -8.3664  -7.9908  -7.5115  -6.9971  -6.4827  -5.9055  -5.2472
    -4.9067  -4.6135  -4.3037  -3.9538  -3.5392  -3.2065  -2.3933  -1.6554
    -0.3103   0.3404   0.7961   0.9539   1.0763   1.1238   1.5563   1.6319
     1.7966   2.2593   2.5748   3.0467   3.3997   3.7651   4.0960   4.3449
     4.7404  12.8455  13.4159  13.9709  14.0945  14.2897  14.7379  14.8045

          k = 0.1999 0.3462 0.0000 ( 13457 PWs)   bands (ev):

   -10.6417 -10.3681  -9.9332  -9.3332  -8.5786  -7.6926  -6.7262  -5.8146
    -3.2695  -2.5315  -1.8702  -1.4672  -1.1029  -0.7555  -0.7215  -0.3445
    -0.1845   0.1713   0.5376   0.8594   1.0693   1.4735   1.9472   2.0229
     2.0415   2.6181   2.6866   2.9606   3.1067   3.3092   4.2014   5.0465
     5.6038  12.8804  13.0428  14.1296  14.2201  14.8098  14.9092  15.7814

          k = 0.1999-0.6925 0.0000 ( 13537 PWs)   bands (ev):

    -9.0352  -8.7737  -8.3621  -7.8014  -7.1107  -6.3270  -5.5127  -4.7358
    -4.0534  -3.7658  -3.6318  -3.2994  -2.7780  -2.2329  -1.6742  -1.1566
    -0.6663  -0.4207  -0.1089   0.0332   0.3785   0.6675   0.7867   0.9448
     1.5267   1.6742   2.2253   2.3605   2.5803   3.1270   3.5649   4.1485
     4.6245  13.4946  13.9040  14.2804  14.7449  15.0561  15.5322  16.0559

          k = 0.1999-0.5771 0.0000 ( 13552 PWs)   bands (ev):

    -7.2626  -7.2487  -7.1471  -6.9529  -6.6383  -6.2056  -5.6620  -5.0034
    -4.6554  -4.6414  -4.0880  -3.7524  -3.3363  -3.0619  -2.6593  -2.5320
    -0.8308  -0.5317  -0.4322  -0.4176  -0.0676   0.5284   1.1133   1.3373
     1.3559   1.5929   1.9167   2.1054   2.2611   2.9866   3.5265   3.8399
     3.8422  13.3757  14.0229  14.7852  15.2787  15.2863  15.3639  16.0793

          k = 0.2999-0.6348 0.0000 ( 13581 PWs)   bands (ev):

    -7.3325  -7.1101  -6.7801  -6.3791  -5.9871  -5.6794  -5.4678  -4.7167
    -4.7113  -3.8080  -3.7831  -3.5195  -3.4662  -3.3454  -2.9584  -2.5501
    -1.3887  -1.2220  -1.0170  -0.9068  -0.4450  -0.3670   0.2701   0.2750
     1.0987   1.6776   2.2977   2.4668   2.5891   2.7567   2.7744   3.1367
     3.5797  14.0316  14.2238  14.4700  14.8973  15.0458  15.4244  15.5997

     the Fermi energy is     9.3579 ev

!    total energy              =    -297.32765283 Ry
     estimated scf accuracy    <          3.9E-12 Ry
     smearing contrib. (-TS)   =      -0.00000000 Ry
     internal energy E=F+TS    =    -297.32765283 Ry

     The total energy is F=E-TS. E is the sum of the following terms:
     one-electron contribution =   -2234.73123365 Ry
     hartree contribution      =    1154.68309928 Ry
     xc contribution           =     -76.33172788 Ry
     ewald contribution        =     957.65848456 Ry
     one-center paw contrib.   =     -98.60627513 Ry

     convergence has been achieved in   9 iterations

     negative rho (up, down):  1.615E-08 0.000E+00

     Forces acting on atoms (cartesian axes, Ry/au):

     atom    1 type  1   force =    -0.00000000   -0.00000000   -0.00119472
     atom    2 type  1   force =    -0.00000000   -0.00000000   -0.00009520
     atom    3 type  1   force =     0.00000000    0.00000000   -0.00006125
     atom    4 type  1   force =     0.00000000    0.00000000    0.00013654
     atom    5 type  1   force =     0.00000000   -0.00000000    0.00038935
     atom    6 type  1   force =     0.00000000    0.00000000    0.00039578
     atom    7 type  1   force =    -0.00000000    0.00000000    0.00019747
     atom    8 type  1   force =    -0.00000000    0.00000000    0.00017007
     atom    9 type  1   force =    -0.00000000    0.00000000   -0.00017007
     atom   10 type  1   force =     0.00000000    0.00000000   -0.00019747
     atom   11 type  1   force =     0.00000000    0.00000000   -0.00039578
     atom   12 type  1   force =     0.00000000    0.00000000   -0.00038935
     atom   13 type  1   force =    -0.00000000   -0.00000000   -0.00013654
     atom   14 type  1   force =     0.00000000    0.00000000    0.00006125
     atom   15 type  1   force =     0.00000000    0.00000000    0.00009520
     atom   16 type  1   force =     0.00000000    0.00000000    0.00119472
     atom   17 type  2   force =     0.00000000    0.00000000    0.00001695
     atom   18 type  2   force =     0.00000000    0.00000000   -0.00001695

     Total force =     0.001916     Total SCF correction =     0.000003


     Computing stress (Cartesian axis) and pressure


     negative rho (up, down):  1.615E-08 0.000E+00
          total   stress  (Ry/bohr**3)                   (kbar)     P=       -1.24
   0.00000063   0.00000000   0.00000000            0.09        0.00        0.00
   0.00000000   0.00000063   0.00000000            0.00        0.09        0.00
   0.00000000   0.00000000  -0.00002665            0.00        0.00       -3.92

     Energy error            =      8.8E-06 Ry
     Gradient error          =      1.2E-03 Ry/Bohr
     Cell gradient error     =      9.3E-02 kbar

     number of scf cycles    =   5
     number of bfgs steps    =   4

     enthalpy           old  =    -297.3276440521 Ry
     enthalpy           new  =    -297.3276528275 Ry

     CASE: enthalpy          _new < enthalpy          _old

     new trust radius        =       0.0016748905 bohr
     new conv_thr            =            1.0E-11 Ry

     new unit-cell volume =    938.38554 a.u.^3 (   139.05439 Ang^3 )
     density =      2.31897 g/cm^3

CELL_PARAMETERS (angstrom)
   2.527500841   0.000000000   0.000000000
   1.263750421   2.188879933   0.000000000
   0.000000000   0.000000000  25.134569970

ATOMIC_POSITIONS (crystal)
C                0.3333333300        0.3333333300        0.7967710168
C                0.6666666700        0.6666666700        0.7773547828
C                0.6666666700        0.6666666700        0.7155102425
C                0.0000000000       -0.0000000000        0.6950192751
C                0.0000000000       -0.0000000000        0.6334072517
C                0.3333333300        0.3333333300        0.6128826180
C                0.3333333300        0.3333333300        0.5513017503
C                0.6666666700        0.6666666700        0.5307830156
C                0.6666666700        0.6666666700        0.4692169844
C               -0.0000000000        0.0000000000        0.4486982497
C               -0.0000000000       -0.0000000000        0.3871173820
C                0.3333333300        0.3333333300        0.3665927483
C                0.3333333300        0.3333333300        0.3049807249
C                0.6666666700        0.6666666700        0.2844897575
C                0.6666666700        0.6666666700        0.2226452172
C               -0.0000000000       -0.0000000000        0.2032289832
H                0.3333333300        0.3333333300        0.8408904295
H                0.0000000000       -0.0000000000        0.1591095705



     Writing config-only to output data dir /tmp/qe/slab.save/ :
     XML data file
     NEW-OLD atomic charge density approx. for the potential

     Check: negative core charge=   -0.000001

     negative rho (up, down):  1.694E-08 0.000E+00

     total cpu time spent up to now is       99.0 secs

     Self-consistent Calculation

     iteration #  1     ecut=    90.00 Ry     beta= 0.30
     Davidson diagonalization with overlap
     ethr =  1.00E-06,  avg # of iterations =  2.0

     Threshold (ethr) on eigenvalues was too large:
     Diagonalizing with lowered threshold

     Davidson diagonalization with overlap
     ethr =  1.62E-09,  avg # of iterations =  4.3

     negative rho (up, down):  1.699E-08 0.000E+00

     total cpu time spent up to now is      102.2 secs

     total energy              =    -297.32765631 Ry
     estimated scf accuracy    <       0.00000167 Ry

     iteration #  2     ecut=    90.00 Ry     beta= 0.30
     Davidson diagonalization with overlap
     ethr =  2.53E-09,  avg # of iterations =  2.0

     negative rho (up, down):  1.681E-08 0.000E+00

     total cpu time spent up to now is      103.6 secs

     total energy              =    -297.32765641 Ry
     estimated scf accuracy    <       0.00000040 Ry

     iteration #  3     ecut=    90.00 Ry     beta= 0.30
     Davidson diagonalization with overlap
     ethr =  6.03E-10,  avg # of iterations =  1.0

     negative rho (up, down):  1.678E-08 0.000E+00

     total cpu time spent up to now is      104.8 secs

     total energy              =    -297.32765641 Ry
     estimated scf accuracy    <       0.00000014 Ry

     iteration #  4     ecut=    90.00 Ry     beta= 0.30
     Davidson diagonalization with overlap
     ethr =  2.05E-10,  avg # of iterations =  1.9

     negative rho (up, down):  1.678E-08 0.000E+00

     total cpu time spent up to now is      106.2 secs

     total energy              =    -297.32765642 Ry
     estimated scf accuracy    <       0.00000001 Ry

     iteration #  5     ecut=    90.00 Ry     beta= 0.30
     Davidson diagonalization with overlap
     ethr =  2.16E-11,  avg # of iterations =  2.2

     negative rho (up, down):  1.682E-08 0.000E+00

     total cpu time spent up to now is      107.7 secs

     total energy              =    -297.32765642 Ry
     estimated scf accuracy    <          3.1E-09 Ry

     iteration #  6     ecut=    90.00 Ry     beta= 0.30
     Davidson diagonalization with overlap
     ethr =  4.74E-12,  avg # of iterations =  2.1

     negative rho (up, down):  1.686E-08 0.000E+00

     total cpu time spent up to now is      109.1 secs

     total energy              =    -297.32765642 Ry
     estimated scf accuracy    <          5.9E-10 Ry

     iteration #  7     ecut=    90.00 Ry     beta= 0.30
     Davidson diagonalization with overlap
     ethr =  8.95E-13,  avg # of iterations =  2.4

     negative rho (up, down):  1.687E-08 0.000E+00

     total cpu time spent up to now is      110.6 secs

     total energy              =    -297.32765642 Ry
     estimated scf accuracy    <          9.4E-11 Ry

     iteration #  8     ecut=    90.00 Ry     beta= 0.30
     Davidson diagonalization with overlap
     ethr =  1.42E-13,  avg # of iterations =  2.9

     negative rho (up, down):  1.687E-08 0.000E+00

     total cpu time spent up to now is      112.3 secs

     total energy              =    -297.32765642 Ry
     estimated scf accuracy    <          3.8E-11 Ry

     iteration #  9     ecut=    90.00 Ry     beta= 0.30
     Davidson diagonalization with overlap
     ethr =  1.00E-13,  avg # of iterations =  2.4

     negative rho (up, down):  1.687E-08 0.000E+00

     total cpu time spent up to now is      113.7 secs

     total energy              =    -297.32765642 Ry
     estimated scf accuracy    <          1.0E-11 Ry

     iteration # 10     ecut=    90.00 Ry     beta= 0.30
     Davidson diagonalization with overlap
     ethr =  1.00E-13,  avg # of iterations =  1.0

     negative rho (up, down):  1.686E-08 0.000E+00

     total cpu time spent up to now is      114.9 secs

     End of self-consistent calculation

          k = 0.0000 0.0000 0.0000 ( 13421 PWs)   bands (ev):

   -13.5267 -13.2457 -12.7929 -12.1633 -11.3664 -10.4217  -9.3780  -8.3778
    -5.1727  -4.1020  -2.6264  -0.9427   0.8535   2.6812   4.4380   5.0456
     5.0456   5.2241   5.2241   5.5023   5.5023   5.8778   5.8778   6.0065
     6.3313   6.3313   6.8264   6.8264   7.2312   7.2974   7.2974   7.6429
     7.6429  10.0940  10.6666  12.7291  13.5473  13.5473  13.6751  14.0369

          k =-0.0000 0.1154 0.0000 ( 13535 PWs)   bands (ev):

   -13.2821 -13.0017 -12.5501 -11.9224 -11.1282 -10.1873  -9.1489  -8.1559
    -4.9515  -3.8917  -2.4336  -0.7747   0.9853   2.7558   3.8459   4.0461
     4.3374   4.4171   4.5045   4.7044   4.8185   5.0152   5.2432   5.4304
     5.7067   5.9245   6.0096   6.2495   6.4540   6.6237   6.9480   7.0724
     7.3045  10.3219  10.8620  12.8828  13.3424  13.8936  14.0442  14.5442

          k =-0.0000 0.2308 0.0000 ( 13503 PWs)   bands (ev):

   -12.5519 -12.2737 -11.8260 -11.2043 -10.4187  -9.4899  -8.4680  -7.4969
    -4.3211  -3.2977  -1.9037  -0.3497   1.0812   1.3321   1.6504   1.7790
     2.2587   2.8412   3.0407   3.4415   3.4664   3.6622   4.0067   4.0463
     4.4520   4.4660   4.5039   5.0090   5.5846   5.6734   6.1136   6.4577
     6.4904  11.0250  11.4327  12.6968  13.2562  13.5319  14.1572  14.4952

          k =-0.0000 0.3462 0.0000 ( 13492 PWs)   bands (ev):

   -11.3504 -11.0765 -10.6367 -10.0272  -9.2595  -8.3555  -7.3667  -6.4346
    -3.5312  -2.6547  -1.8936  -1.4751  -1.0025  -0.9106  -0.3561   0.1008
     0.3583   1.1364   1.3428   1.8708   2.3305   2.4608   2.6911   3.0514
     3.0930   3.5323   4.1002   4.1079   4.7005   5.0379   5.2498   5.6396
     5.6553  12.0332  12.1576  12.5222  12.9331  13.4933  13.9223  14.4497

          k =-0.0000 0.4617 0.0000 ( 13548 PWs)   bands (ev):

    -9.7171  -9.4538  -9.0343  -8.4596  -7.7489  -6.9386  -6.0941  -5.3158
    -4.3053  -4.1458  -3.9963  -3.6565  -3.0062  -2.2073  -1.3786  -1.0494
    -0.5789  -0.2801   0.6694   1.5299   1.8113   1.8636   2.0457   2.4129
     2.5025   2.9031   3.4820   3.5214   4.0935   4.4242   4.6522   5.0179
     5.0482  12.1300  12.5829  13.0522  13.5125  13.6086  13.8043  14.2596

          k = 0.0000-0.5771 0.0000 ( 13548 PWs)   bands (ev):

    -7.9057  -7.8904  -7.7838  -7.5762  -7.2412  -6.7784  -6.1937  -5.5567
    -5.2812  -4.9861  -4.5145  -4.2588  -3.6091  -3.4292  -2.7706  -2.6902
     0.3365   0.3478   0.8650   1.0936   1.3568   1.5867   1.8222   2.1824
     2.1913   2.6842   3.2636   3.2662   3.8809   4.1834   4.4423   4.7824
     4.8402  12.5502  12.6597  12.8830  13.0992  13.5689  13.6559  14.3100

          k = 0.1000 0.1731 0.0000 ( 13531 PWs)   bands (ev):

   -12.7946 -12.5157 -12.0666 -11.4428 -10.6542  -9.7213  -8.6937  -7.7152
    -4.5240  -3.4875  -2.0690  -0.4698   1.1893   2.4643   2.5204   2.6358
     2.6901   3.1144   3.1845   3.6720   3.8946   3.9315   4.3025   4.4697
     4.6051   4.7871   5.1378   5.4490   5.5730   5.7184   6.0136   6.3495
     7.0007  10.8054  11.2689  13.3506  13.6696  13.7021  14.1031  14.5619

          k = 0.1000 0.2885 0.0000 ( 13484 PWs)   bands (ev):

   -11.8284 -11.5525 -11.1092 -10.4943  -9.7186  -8.8033  -7.7995  -6.8503
    -3.7687  -2.7966  -1.5206  -0.3985   0.0663   0.2416   0.4107   0.8432
     1.2841   1.3598   1.9605   2.0848   2.4626   2.5922   2.9023   3.2422
     3.3507   3.6281   3.8009   4.1078   4.5252   4.6539   5.1231   5.6956
     6.3292  11.7500  12.0681  13.1486  13.8005  14.2227  14.6119  14.8025

          k = 0.1000 0.4040 0.0000 ( 13494 PWs)   bands (ev):

   -10.4073 -10.1379  -9.7066  -9.1108  -8.3636  -7.4891  -6.5396  -5.6478
    -3.5142  -3.1262  -2.9147  -2.4464  -1.8138  -1.2246  -1.0958  -0.4948
    -0.2419   0.3910   0.4853   1.2438   1.4812   1.6999   1.9588   2.1569
     2.2852   2.7134   3.0583   3.3681   3.9520   4.0458   4.4081   4.8913
     5.4508  12.6993  12.9151  13.3321  13.7491  14.3424  14.8144  15.2878

          k = 0.1000-0.6348 0.0000 ( 13524 PWs)   bands (ev):

    -8.6110  -8.3680  -7.9930  -7.5130  -6.9982  -6.4835  -5.9062  -5.2489
    -4.9060  -4.6157  -4.3036  -3.9555  -3.5395  -3.2072  -2.3934  -1.6555
    -0.3103   0.3389   0.7966   0.9538   1.0753   1.1223   1.5546   1.6313
     1.7970   2.2576   2.5749   3.0459   3.3997   3.7649   4.0961   4.3450
     4.7408  12.8462  13.4180  13.9707  14.0968  14.2873  14.7384  14.8027

          k = 0.1999 0.3462 0.0000 ( 13457 PWs)   bands (ev):

   -10.6407 -10.3698  -9.9356  -9.3349  -8.5798  -7.6931  -6.7259  -5.8148
    -3.2695  -2.5339  -1.8712  -1.4672  -1.1033  -0.7566  -0.7221  -0.3466
    -0.1845   0.1692   0.5373   0.8583   1.0701   1.4715   1.9475   2.0212
     2.0413   2.6177   2.6865   2.9606   3.1068   3.3099   4.2017   5.0465
     5.6042  12.8807  13.0428  14.1298  14.2207  14.8112  14.9104  15.7819

          k = 0.1999-0.6925 0.0000 ( 13537 PWs)   bands (ev):

    -9.0341  -8.7755  -8.3645  -7.8031  -7.1119  -6.3276  -5.5124  -4.7366
    -4.0545  -3.7647  -3.6339  -3.3012  -2.7792  -2.2337  -1.6750  -1.1571
    -0.6661  -0.4206  -0.1101   0.0306   0.3774   0.6668   0.7859   0.9438
     1.5270   1.6734   2.2258   2.3603   2.5807   3.1274   3.5650   4.1483
     4.6248  13.4953  13.9055  14.2807  14.7455  15.0572  15.5342  16.0571

          k = 0.1999-0.5771 0.0000 ( 13552 PWs)   bands (ev):

    -7.2604  -7.2487  -7.1493  -6.9554  -6.6408  -6.2075  -5.6629  -5.0057
    -4.6576  -4.6406  -4.0884  -3.7533  -3.3368  -3.0620  -2.6596  -2.5318
    -0.8307  -0.5333  -0.4335  -0.4174  -0.0704   0.5273   1.1129   1.3370
     1.3563   1.5918   1.9166   2.1051   2.2613   2.9871   3.5265   3.8396
     3.8429  13.3765  14.0260  14.7867  15.2794  15.2863  15.3653  16.0811

          k = 0.2999-0.6348 0.0000 ( 13581 PWs)   bands (ev):

    -7.3315  -7.1117  -6.7824  -6.3808  -5.9883  -5.6800  -5.4666  -4.7206
    -4.7152  -3.8075  -3.7823  -3.5198  -3.4668  -3.3462  -2.9595  -2.5507
    -1.3893  -1.2217  -1.0190  -0.9083  -0.4452  -0.3685   0.2697   0.2749
     1.0987   1.6767   2.2980   2.4669   2.5892   2.7572   2.7742   3.1363
     3.5800  14.0328  14.2240  14.4728  14.8977  15.0480  15.4255  15.6018

     the Fermi energy is     9.3594 ev

!    total energy              =    -297.32765642 Ry
     estimated scf accuracy    <          3.6E-13 Ry
     smearing contrib. (-TS)   =      -0.00000000 Ry
     internal energy E=F+TS    =    -297.32765642 Ry

     The total energy is F=E-TS. E is the sum of the following terms:
     one-electron contribution =   -2234.87674613 Ry
     hartree contribution      =    1154.75529860 Ry
     xc contribution           =     -76.33302850 Ry
     ewald contribution        =     957.73312298 Ry
     one-center paw contrib.   =     -98.60630338 Ry

     convergence has been achieved in  10 iterations

     negative rho (up, down):  1.686E-08 0.000E+00

     Forces acting on atoms (cartesian axes, Ry/au):

     atom    1 type  1   force =     0.00000000   -0.00000000   -0.00051391
     atom    2 type  1   force =    -0.00000000    0.00000000   -0.00023269
     atom    3 type  1   force =    -0.00000000    0.00000000   -0.00038764
     atom    4 type  1   force =    -0.00000000    0.00000000   -0.00011937
     atom    5 type  1   force =     0.00000000   -0.00000000    0.00013701
     atom    6 type  1   force =     0.00000000    0.00000000    0.00028851
     atom    7 type  1   force =     0.00000000    0.00000000    0.00026419
     atom    8 type  1   force =     0.00000000    0.00000000    0.00009033
     atom    9 type  1   force =     0.00000000    0.00000000   -0.00009033
     atom   10 type  1   force =     0.00000000   -0.00000000   -0.00026419
     atom   11 type  1   force =     0.00000000    0.00000000   -0.00028851
     atom   12 type  1   force =     0.00000000    0.00000000   -0.00013701
     atom   13 type  1   force =     0.00000000   -0.00000000    0.00011937
     atom   14 type  1   force =    -0.00000000    0.00000000    0.00038764
     atom   15 type  1   force =    -0.00000000    0.00000000    0.00023269
     atom   16 type  1   force =    -0.00000000    0.00000000    0.00051391
     atom   17 type  2   force =     0.00000000    0.00000000    0.00015935
     atom   18 type  2   force =    -0.00000000   -0.00000000   -0.00015935

     Total force =     0.001173     Total SCF correction =     0.000002


     Computing stress (Cartesian axis) and pressure


     negative rho (up, down):  1.686E-08 0.000E+00
          total   stress  (Ry/bohr**3)                   (kbar)     P=       -0.98
   0.00000099  -0.00000000   0.00000000            0.14       -0.00        0.00
  -0.00000000   0.00000099  -0.00000000           -0.00        0.14       -0.00
  -0.00000000   0.00000000  -0.00002186           -0.00        0.00       -3.22

     Energy error            =      3.6E-06 Ry
     Gradient error          =      5.1E-04 Ry/Bohr
     Cell gradient error     =      1.4E-01 kbar

     number of scf cycles    =   6
     number of bfgs steps    =   5

     enthalpy           old  =    -297.3276528275 Ry
     enthalpy           new  =    -297.3276564238 Ry

     CASE: enthalpy          _new < enthalpy          _old

     new trust radius        =       0.0009751631 bohr
     new conv_thr            =            1.0E-11 Ry

     new unit-cell volume =    938.42807 a.u.^3 (   139.06069 Ang^3 )
     density =      2.31887 g/cm^3

CELL_PARAMETERS (angstrom)
   2.527558114   0.000000000   0.000000000
   1.263779057   2.188929533   0.000000000
   0.000000000   0.000000000  25.134569970

ATOMIC_POSITIONS (crystal)
C                0.3333333300        0.3333333300        0.7967504860
C                0.6666666700        0.6666666700        0.7773415039
C                0.6666666700        0.6666666700        0.7155055664
C               -0.0000000000       -0.0000000000        0.6950229517
C                0.0000000000       -0.0000000000        0.6334190110
C                0.3333333300        0.3333333300        0.6128968139
C                0.3333333300        0.3333333300        0.5513117358
C                0.6666666700        0.6666666700        0.5307871969
C                0.6666666700        0.6666666700        0.4692128031
C               -0.0000000000        0.0000000000        0.4486882642
C               -0.0000000000       -0.0000000000        0.3871031861
C                0.3333333300        0.3333333300        0.3665809890
C                0.3333333300        0.3333333300        0.3049770483
C                0.6666666700        0.6666666700        0.2844944336
C                0.6666666700        0.6666666700        0.2226584961
C               -0.0000000000       -0.0000000000        0.2032495140
H                0.3333333300        0.3333333300        0.8408754728
H                0.0000000000       -0.0000000000        0.1591245272



     Writing config-only to output data dir /tmp/qe/slab.save/ :
     XML data file
     NEW-OLD atomic charge density approx. for the potential

     Check: negative core charge=   -0.000001

     negative rho (up, down):  1.739E-08 0.000E+00

     total cpu time spent up to now is      119.2 secs

     Self-consistent Calculation

     iteration #  1     ecut=    90.00 Ry     beta= 0.30
     Davidson diagonalization with overlap
     ethr =  1.00E-06,  avg # of iterations =  2.0

     Threshold (ethr) on eigenvalues was too large:
     Diagonalizing with lowered threshold

     Davidson diagonalization with overlap
     ethr =  7.32E-10,  avg # of iterations =  5.0

     negative rho (up, down):  1.742E-08 0.000E+00

     total cpu time spent up to now is      122.5 secs

     total energy              =    -297.32765777 Ry
     estimated scf accuracy    <       0.00000059 Ry

     iteration #  2     ecut=    90.00 Ry     beta= 0.30
     Davidson diagonalization with overlap
     ethr =  8.91E-10,  avg # of iterations =  2.0

     negative rho (up, down):  1.734E-08 0.000E+00

     total cpu time spent up to now is      123.8 secs

     total energy              =    -297.32765780 Ry
     estimated scf accuracy    <       0.00000016 Ry

     iteration #  3     ecut=    90.00 Ry     beta= 0.30
     Davidson diagonalization with overlap
     ethr =  2.44E-10,  avg # of iterations =  1.0

     negative rho (up, down):  1.740E-08 0.000E+00

     total cpu time spent up to now is      125.1 secs

     total energy              =    -297.32765780 Ry
     estimated scf accuracy    <       0.00000005 Ry

     iteration #  4     ecut=    90.00 Ry     beta= 0.30
     Davidson diagonalization with overlap
     ethr =  8.11E-11,  avg # of iterations =  2.0

     negative rho (up, down):  1.743E-08 0.000E+00

     total cpu time spent up to now is      126.4 secs

     total energy              =    -297.32765780 Ry
     estimated scf accuracy    <          4.6E-09 Ry

     iteration #  5     ecut=    90.00 Ry     beta= 0.30
     Davidson diagonalization with overlap
     ethr =  6.96E-12,  avg # of iterations =  2.4

     negative rho (up, down):  1.751E-08 0.000E+00

     total cpu time spent up to now is      128.0 secs

     total energy              =    -297.32765780 Ry
     estimated scf accuracy    <          1.5E-09 Ry

     iteration #  6     ecut=    90.00 Ry     beta= 0.30
     Davidson diagonalization with overlap
     ethr =  2.33E-12,  avg # of iterations =  2.1

     negative rho (up, down):  1.751E-08 0.000E+00

     total cpu time spent up to now is      129.4 secs

     total energy              =    -297.32765780 Ry
     estimated scf accuracy    <          1.5E-10 Ry

     iteration #  7     ecut=    90.00 Ry     beta= 0.30
     Davidson diagonalization with overlap
     ethr =  2.28E-13,  avg # of iterations =  2.6

     negative rho (up, down):  1.753E-08 0.000E+00

     total cpu time spent up to now is      130.9 secs

     total energy              =    -297.32765780 Ry
     estimated scf accuracy    <          3.8E-11 Ry

     iteration #  8     ecut=    90.00 Ry     beta= 0.30
     Davidson diagonalization with overlap
     ethr =  1.00E-13,  avg # of iterations =  2.4

     negative rho (up, down):  1.752E-08 0.000E+00

     total cpu time spent up to now is      132.4 secs

     End of self-consistent calculation

          k = 0.0000 0.0000 0.0000 ( 13421 PWs)   bands (ev):

   -13.5266 -13.2477 -12.7940 -12.1641 -11.3671 -10.4222  -9.3779  -8.3779
    -5.1730  -4.1031  -2.6259  -0.9422   0.8539   2.6817   4.4383   5.0451
     5.0451   5.2215   5.2215   5.5005   5.5005   5.8763   5.8763   6.0067
     6.3298   6.3298   6.8251   6.8251   7.2309   7.2958   7.2958   7.6421
     7.6421  10.0942  10.6665  12.7286  13.5464  13.5464  13.6746  14.0353

          k =-0.0000 0.1154 0.0000 ( 13535 PWs)   bands (ev):

   -13.2819 -13.0037 -12.5512 -11.9232 -11.1289 -10.1877  -9.1487  -8.1560
    -4.9518  -3.8927  -2.4331  -0.7743   0.9856   2.7563   3.8454   4.0434
     4.3364   4.4164   4.5040   4.7018   4.8173   5.0134   5.2418   5.4289
     5.7057   5.9230   6.0095   6.2481   6.4528   6.6228   6.9464   7.0720
     7.3038  10.3219  10.8617  12.8822  13.3414  13.8929  14.0433  14.5424

          k =-0.0000 0.2308 0.0000 ( 13503 PWs)   bands (ev):

   -12.5518 -12.2757 -11.8271 -11.2051 -10.4195  -9.4904  -8.4680  -7.4970
    -4.3214  -3.2988  -1.9033  -0.3494   1.0809   1.3309   1.6491   1.7777
     2.2573   2.8400   3.0408   3.4410   3.4654   3.6596   4.0050   4.0452
     4.4518   4.4646   4.5037   5.0076   5.5834   5.6731   6.1123   6.4573
     6.4898  11.0248  11.4322  12.6960  13.2554  13.5310  14.1563  14.4942

          k =-0.0000 0.3462 0.0000 ( 13492 PWs)   bands (ev):

   -11.3503 -11.0786 -10.6378 -10.0281  -9.2603  -8.3561  -7.3667  -6.4347
    -3.5318  -2.6564  -1.8939  -1.4762  -1.0034  -0.9117  -0.3573   0.1007
     0.3575   1.1356   1.3428   1.8701   2.3304   2.4604   2.6885   3.0498
     3.0930   3.5309   4.0989   4.1078   4.6994   5.0375   5.2486   5.6391
     5.6549  12.0325  12.1568  12.5217  12.9322  13.4922  13.9212  14.4485

          k =-0.0000 0.4616 0.0000 ( 13548 PWs)   bands (ev):

    -9.7171  -9.4560  -9.0356  -8.4605  -7.7499  -6.9393  -6.0944  -5.3164
    -4.3060  -4.1470  -3.9973  -3.6579  -3.0073  -2.2080  -1.3791  -1.0498
    -0.5793  -0.2810   0.6697   1.5299   1.8110   1.8633   2.0431   2.4113
     2.5023   2.9018   3.4807   3.5212   4.0924   4.4239   4.6510   5.0176
     5.0477  12.1294  12.5814  13.0514  13.5119  13.6070  13.8029  14.2590

          k = 0.0000-0.5771 0.0000 ( 13548 PWs)   bands (ev):

    -7.9048  -7.8918  -7.7861  -7.5780  -7.2428  -6.7797  -6.1946  -5.5576
    -5.2812  -4.9877  -4.5153  -4.2595  -3.6097  -3.4295  -2.7709  -2.6905
     0.3361   0.3475   0.8643   1.0928   1.3570   1.5863   1.8196   2.1825
     2.1897   2.6829   3.2635   3.2649   3.8798   4.1831   4.4411   4.7821
     4.8397  12.5497  12.6579  12.8823  13.0970  13.5701  13.6542  14.3084

          k = 0.0999 0.1731 0.0000 ( 13531 PWs)   bands (ev):

   -12.7945 -12.5177 -12.0677 -11.4436 -10.6550  -9.7217  -8.6936  -7.7153
    -4.5244  -3.4885  -2.0685  -0.4694   1.1894   2.4643   2.5181   2.6357
     2.6879   3.1130   3.1830   3.6708   3.8940   3.9298   4.3007   4.4685
     4.6050   4.7859   5.1366   5.4482   5.5720   5.7176   6.0129   6.3487
     7.0002  10.8053  11.2685  13.3498  13.6691  13.7011  14.1023  14.5607

          k = 0.0999 0.2885 0.0000 ( 13484 PWs)   bands (ev):

   -11.8283 -11.5546 -11.1104 -10.4952  -9.7194  -8.8038  -7.7995  -6.8505
    -3.7692  -2.7979  -1.5204  -0.3988   0.0641   0.2422   0.4086   0.8420
     1.2838   1.3584   1.9591   2.0845   2.4613   2.5919   2.9003   3.2422
     3.3496   3.6268   3.8004   4.1068   4.5249   4.6529   5.1225   5.6951
     6.3288  11.7497  12.0674  13.1480  13.7998  14.2219  14.6112  14.8018

          k = 0.0999 0.4039 0.0000 ( 13494 PWs)   bands (ev):

   -10.4072 -10.1401  -9.7078  -9.1118  -8.3645  -7.4897  -6.5397  -5.6481
    -3.5150  -3.1274  -2.9163  -2.4477  -1.8148  -1.2252  -1.0965  -0.4961
    -0.2423   0.3908   0.4847   1.2436   1.4804   1.6982   1.9578   2.1558
     2.2850   2.7122   3.0581   3.3671   3.9512   4.0453   4.4076   4.8907
     5.4503  12.6987  12.9145  13.3314  13.7483  14.3414  14.8132  15.2863

          k = 0.0999-0.6348 0.0000 ( 13524 PWs)   bands (ev):

    -8.6111  -8.3703  -7.9944  -7.5141  -6.9993  -6.4847  -5.9071  -5.2501
    -4.9061  -4.6170  -4.3046  -3.9564  -3.5401  -3.2079  -2.3938  -1.6559
    -0.3107   0.3380   0.7961   0.9527   1.0744   1.1212   1.5532   1.6307
     1.7969   2.2563   2.5746   3.0450   3.3992   3.7642   4.0955   4.3448
     4.7404  12.8459  13.4184  13.9689  14.0973  14.2845  14.7375  14.8009

          k = 0.1999 0.3462 0.0000 ( 13457 PWs)   bands (ev):

   -10.6407 -10.3720  -9.9368  -9.3358  -8.5806  -7.6937  -6.7260  -5.8150
    -3.2702  -2.5359  -1.8717  -1.4679  -1.1047  -0.7584  -0.7226  -0.3476
    -0.1854   0.1680   0.5366   0.8573   1.0702   1.4697   1.9472   2.0203
     2.0406   2.6166   2.6861   2.9601   3.1065   3.3099   4.2015   5.0459
     5.6037  12.8801  13.0420  14.1291  14.2202  14.8115  14.9104  15.7812

          k = 0.1999-0.6925 0.0000 ( 13537 PWs)   bands (ev):

    -9.0342  -8.7777  -8.3658  -7.8041  -7.1129  -6.3284  -5.5127  -4.7373
    -4.0560  -3.7645  -3.6360  -3.3025  -2.7803  -2.2347  -1.6761  -1.1578
    -0.6666  -0.4212  -0.1111   0.0285   0.3765   0.6666   0.7855   0.9428
     1.5269   1.6728   2.2257   2.3597   2.5804   3.1273   3.5647   4.1478
     4.6244  13.4951  13.9057  14.2801  14.7450  15.0574  15.5340  16.0570

          k = 0.1999-0.5771 0.0000 ( 13552 PWs)   bands (ev):

    -7.2595  -7.2501  -7.1517  -6.9573  -6.6424  -6.2090  -5.6636  -5.0069
    -4.6590  -4.6407  -4.0896  -3.7541  -3.3376  -3.0624  -2.6600  -2.5322
    -0.8314  -0.5354  -0.4345  -0.4175  -0.0721   0.5265   1.1127   1.3363
     1.3558   1.5912   1.9161   2.1047   2.2611   2.9870   3.5262   3.8392
     3.8426  13.3764  14.0272  14.7865  15.2793  15.2855  15.3653  16.0811

          k = 0.2998-0.6348 0.0000 ( 13581 PWs)   bands (ev):

    -7.3316  -7.1140  -6.7839  -6.3820  -5.9896  -5.6816  -5.4667  -4.7226
    -4.7172  -3.8078  -3.7822  -3.5206  -3.4677  -3.3472  -2.9607  -2.5514
    -1.3906  -1.2213  -1.0207  -0.9092  -0.4459  -0.3695   0.2696   0.2743
     1.0983   1.6761   2.2982   2.4665   2.5888   2.7570   2.7738   3.1359
     3.5797  14.0329  14.2235  14.4738  14.8973  15.0489  15.4250  15.6022

     the Fermi energy is     9.3595 ev

!    total energy              =    -297.32765780 Ry
     estimated scf accuracy    <          4.9E-12 Ry
     smearing contrib. (-TS)   =      -0.00000000 Ry
     internal energy E=F+TS    =    -297.32765780 Ry

     The total energy is F=E-TS. E is the sum of the following terms:
     one-electron contribution =   -2235.00249159 Ry
     hartree contribution      =    1154.81624469 Ry
     xc contribution           =     -76.33302040 Ry
     ewald contribution        =     957.79791312 Ry
     one-center paw contrib.   =     -98.60630362 Ry

     convergence has been achieved in   8 iterations

     negative rho (up, down):  1.752E-08 0.000E+00

     Forces acting on atoms (cartesian axes, Ry/au):

     atom    1 type  1   force =     0.00000000    0.00000000   -0.00009361
     atom    2 type  1   force =     0.00000000    0.00000000   -0.00023000
     atom    3 type  1   force =     0.00000000    0.00000000   -0.00027507
     atom    4 type  1   force =     0.00000000   -0.00000000   -0.00027335
     atom    5 type  1   force =     0.00000000   -0.00000000   -0.00000001
     atom    6 type  1   force =     0.00000000    0.00000000    0.00006445
     atom    7 type  1   force =     0.00000000   -0.00000000    0.00009507
     atom    8 type  1   force =     0.00000000    0.00000000    0.00011820
     atom    9 type  1   force =     0.00000000    0.00000000   -0.00011820
     atom   10 type  1   force =     0.00000000   -0.00000000   -0.00009507
     atom   11 type  1   force =     0.00000000   -0.00000000   -0.00006445
     atom   12 type  1   force =     0.00000000    0.00000000    0.00000001
     atom   13 type  1   force =     0.00000000    0.00000000    0.00027335
     atom   14 type  1   force =     0.00000000    0.00000000    0.00027507
     atom   15 type  1   force =     0.00000000    0.00000000    0.00023000
     atom   16 type  1   force =    -0.00000000    0.00000000    0.00009361
     atom   17 type  2   force =    -0.00000000    0.00000000    0.00002003
     atom   18 type  2   force =    -0.00000000    0.00000000   -0.00002003

     Total force =     0.000692     Total SCF correction =     0.000004


     Computing stress (Cartesian axis) and pressure


     negative rho (up, down):  1.752E-08 0.000E+00
          total   stress  (Ry/bohr**3)                   (kbar)     P=       -0.97
  -0.00000008   0.00000000   0.00000000           -0.01        0.00        0.00
   0.00000000  -0.00000008   0.00000000            0.00       -0.01        0.00
  -0.00000000   0.00000000  -0.00001973           -0.00        0.00       -2.90

     Energy error            =      1.4E-06 Ry
     Gradient error          =      2.8E-04 Ry/Bohr
     Cell gradient error     =      1.1E-02 kbar

     number of scf cycles    =   7
     number of bfgs steps    =   6

     enthalpy           old  =    -297.3276564238 Ry
     enthalpy           new  =    -297.3276578047 Ry

     CASE: enthalpy          _new < enthalpy          _old

     new trust radius        =       0.0005499378 bohr
     new conv_thr            =            1.0E-11 Ry

     new unit-cell volume =    938.43622 a.u.^3 (   139.06190 Ang^3 )
     density =      2.31885 g/cm^3

CELL_PARAMETERS (angstrom)
   2.527569082   0.000000000   0.000000000
   1.263784541   2.188939032   0.000000000
   0.000000000   0.000000000  25.134569970

ATOMIC_POSITIONS (crystal)
C                0.3333333300        0.3333333300        0.7967390785
C                0.6666666700        0.6666666700        0.7773299257
C                0.6666666700        0.6666666700        0.7154967208
C               -0.0000000000       -0.0000000000        0.6950168791
C                0.0000000000       -0.0000000000        0.6334238510
C                0.3333333300        0.3333333300        0.6129040676
C                0.3333333300        0.3333333300        0.5513179751
C                0.6666666700        0.6666666700        0.5307924401
C                0.6666666700        0.6666666700        0.4692075599
C                0.0000000000        0.0000000000        0.4486820249
C               -0.0000000000       -0.0000000000        0.3870959324
C                0.3333333300        0.3333333300        0.3665761490
C                0.3333333300        0.3333333300        0.3049831209
C                0.6666666700        0.6666666700        0.2845032792
C                0.6666666700        0.6666666700        0.2226700743
C               -0.0000000000       -0.0000000000        0.2032609215
H                0.3333333300        0.3333333300        0.8408690613
H                0.0000000000       -0.0000000000        0.1591309387



     Writing config-only to output data dir /tmp/qe/slab.save/ :
     XML data file
     NEW-OLD atomic charge density approx. for the potential

     Check: negative core charge=   -0.000001

     negative rho (up, down):  1.782E-08 0.000E+00

     total cpu time spent up to now is      136.7 secs

     Self-consistent Calculation

     iteration #  1     ecut=    90.00 Ry     beta= 0.30
     Davidson diagonalization with overlap
     ethr =  1.00E-06,  avg # of iterations =  2.0

     Threshold (ethr) on eigenvalues was too large:
     Diagonalizing with lowered threshold

     Davidson diagonalization with overlap
     ethr =  3.15E-10,  avg # of iterations =  5.0

     negative rho (up, down):  1.787E-08 0.000E+00

     total cpu time spent up to now is      140.0 secs

     total energy              =    -297.32765838 Ry
     estimated scf accuracy    <       0.00000031 Ry

     iteration #  2     ecut=    90.00 Ry     beta= 0.30
     Davidson diagonalization with overlap
     ethr =  4.75E-10,  avg # of iterations =  2.0

     negative rho (up, down):  1.783E-08 0.000E+00

     total cpu time spent up to now is      141.4 secs

     total energy              =    -297.32765840 Ry
     estimated scf accuracy    <       0.00000008 Ry

     iteration #  3     ecut=    90.00 Ry     beta= 0.30
     Davidson diagonalization with overlap
     ethr =  1.26E-10,  avg # of iterations =  1.2

     negative rho (up, down):  1.789E-08 0.000E+00

     total cpu time spent up to now is      142.6 secs

     total energy              =    -297.32765840 Ry
     estimated scf accuracy    <       0.00000003 Ry

     iteration #  4     ecut=    90.00 Ry     beta= 0.30
     Davidson diagonalization with overlap
     ethr =  4.24E-11,  avg # of iterations =  2.0

     negative rho (up, down):  1.792E-08 0.000E+00

     total cpu time spent up to now is      144.0 secs

     total energy              =    -297.32765840 Ry
     estimated scf accuracy    <          3.2E-09 Ry

     iteration #  5     ecut=    90.00 Ry     beta= 0.30
     Davidson diagonalization with overlap
     ethr =  4.83E-12,  avg # of iterations =  2.2

     negative rho (up, down):  1.797E-08 0.000E+00

     total cpu time spent up to now is      145.5 secs

     total energy              =    -297.32765840 Ry
     estimated scf accuracy    <          1.0E-09 Ry

     iteration #  6     ecut=    90.00 Ry     beta= 0.30
     Davidson diagonalization with overlap
     ethr =  1.54E-12,  avg # of iterations =  2.5

     negative rho (up, down):  1.797E-08 0.000E+00

     total cpu time spent up to now is      147.0 secs

     total energy              =    -297.32765840 Ry
     estimated scf accuracy    <          1.6E-10 Ry

     iteration #  7     ecut=    90.00 Ry     beta= 0.30
     Davidson diagonalization with overlap
     ethr =  2.37E-13,  avg # of iterations =  2.4

     negative rho (up, down):  1.799E-08 0.000E+00

     total cpu time spent up to now is      148.5 secs

     total energy              =    -297.32765840 Ry
     estimated scf accuracy    <          3.4E-11 Ry

     iteration #  8     ecut=    90.00 Ry     beta= 0.30
     Davidson diagonalization with overlap
     ethr =  1.00E-13,  avg # of iterations =  2.6

     negative rho (up, down):  1.799E-08 0.000E+00

     total cpu time spent up to now is      150.1 secs

     total energy              =    -297.32765840 Ry
     estimated scf accuracy    <          2.2E-11 Ry

     iteration #  9     ecut=    90.00 Ry     beta= 0.30
     Davidson diagonalization with overlap
     ethr =  1.00E-13,  avg # of iterations =  1.4

     negative rho (up, down):  1.799E-08 0.000E+00

     total cpu time spent up to now is      151.4 secs

     End of self-consistent calculation

          k = 0.0000 0.0000 0.0000 ( 13421 PWs)   bands (ev):

   -13.5268 -13.2490 -12.7942 -12.1643 -11.3674 -10.4226  -9.3776  -8.3779
    -5.1733  -4.1035  -2.6251  -0.9421   0.8539   2.6819   4.4386   5.0447
     5.0447   5.2202   5.2202   5.5001   5.5001   5.8759   5.8759   6.0063
     6.3293   6.3293   6.8246   6.8246   7.2310   7.2954   7.2954   7.6418
     7.6418  10.0943  10.6665  12.7284  13.5461  13.5461  13.6745  14.0345

          k =-0.0000 0.1154 0.0000 ( 13535 PWs)   bands (ev):

   -13.2822 -13.0051 -12.5514 -11.9234 -11.1292 -10.1882  -9.1484  -8.1560
    -4.9521  -3.8932  -2.4323  -0.7742   0.9856   2.7564   3.8450   4.0421
     4.3363   4.4163   4.5036   4.7004   4.8171   5.0131   5.2413   5.4285
     5.7053   5.9226   6.0091   6.2479   6.4523   6.6225   6.9462   7.0720
     7.3035  10.3220  10.8616  12.8819  13.3410  13.8929  14.0430  14.5412

          k =-0.0000 0.2308 0.0000 ( 13503 PWs)   bands (ev):

   -12.5520 -12.2771 -11.8273 -11.2053 -10.4198  -9.4909  -8.4677  -7.4971
    -4.3217  -3.2994  -1.9026  -0.3494   1.0806   1.3301   1.6485   1.7774
     2.2570   2.8396   3.0409   3.4406   3.4650   3.6582   4.0047   4.0451
     4.4518   4.4642   4.5037   5.0072   5.5830   5.6727   6.1120   6.4572
     6.4895  11.0248  11.4320  12.6958  13.2552  13.5307  14.1560  14.4940

          k =-0.0000 0.3462 0.0000 ( 13492 PWs)   bands (ev):

   -11.3506 -11.0800 -10.6380 -10.0284  -9.2607  -8.3566  -7.3665  -6.4348
    -3.5321  -2.6572  -1.8938  -1.4768  -1.0038  -0.9119  -0.3577   0.1005
     0.3572   1.1355   1.3427   1.8700   2.3303   2.4600   2.6871   3.0495
     3.0930   3.5306   4.0985   4.1080   4.6990   5.0370   5.2484   5.6388
     5.6548  12.0322  12.1566  12.5215  12.9319  13.4919  13.9209  14.4480

          k =-0.0000 0.4616 0.0000 ( 13548 PWs)   bands (ev):

    -9.7173  -9.4574  -9.0358  -8.4608  -7.7503  -6.9399  -6.0943  -5.3166
    -4.3066  -4.1473  -3.9981  -3.6582  -3.0077  -2.2084  -1.3789  -1.0500
    -0.5795  -0.2815   0.6702   1.5298   1.8106   1.8631   2.0417   2.4110
     2.5022   2.9014   3.4803   3.5214   4.0920   4.4236   4.6508   5.0175
     5.0474  12.1292  12.5808  13.0514  13.5114  13.6064  13.8027  14.2590

          k = 0.0000-0.5771 0.0000 ( 13548 PWs)   bands (ev):

    -7.9045  -7.8930  -7.7873  -7.5787  -7.2433  -6.7803  -6.1947  -5.5578
    -5.2814  -4.9884  -4.5160  -4.2599  -3.6097  -3.4293  -2.7709  -2.6907
     0.3360   0.3472   0.8641   1.0922   1.3574   1.5859   1.8182   2.1826
     2.1895   2.6825   3.2637   3.2645   3.8794   4.1828   4.4410   4.7820
     4.8394  12.5494  12.6571  12.8820  13.0966  13.5707  13.6538  14.3080

          k = 0.0999 0.1731 0.0000 ( 13531 PWs)   bands (ev):

   -12.7947 -12.5191 -12.0679 -11.4439 -10.6553  -9.7222  -8.6933  -7.7154
    -4.5246  -3.4891  -2.0677  -0.4694   1.1894   2.4642   2.5169   2.6356
     2.6871   3.1126   3.1826   3.6706   3.8936   3.9296   4.2998   4.4683
     4.6051   4.7854   5.1362   5.4480   5.5718   5.7173   6.0127   6.3484
     7.0001  10.8054  11.2683  13.3494  13.6693  13.7005  14.1022  14.5602

          k = 0.0999 0.2885 0.0000 ( 13484 PWs)   bands (ev):

   -11.8285 -11.5560 -11.1106 -10.4954  -9.7197  -8.8043  -7.7992  -6.8506
    -3.7694  -2.7985  -1.5197  -0.3991   0.0628   0.2424   0.4080   0.8417
     1.2835   1.3578   1.9588   2.0843   2.4608   2.5915   2.8995   3.2423
     3.3495   3.6264   3.8002   4.1064   4.5249   4.6527   5.1222   5.6947
     6.3286  11.7496  12.0672  13.1478  13.7997  14.2216  14.6110  14.8016

          k = 0.0999 0.4039 0.0000 ( 13494 PWs)   bands (ev):

   -10.4075 -10.1415  -9.7081  -9.1120  -8.3648  -7.4902  -6.5395  -5.6482
    -3.5155  -3.1282  -2.9168  -2.4481  -1.8151  -1.2255  -1.0967  -0.4966
    -0.2422   0.3909   0.4844   1.2434   1.4799   1.6974   1.9576   2.1554
     2.2849   2.7119   3.0580   3.3667   3.9511   4.0453   4.4074   4.8904
     5.4502  12.6986  12.9143  13.3312  13.7480  14.3412  14.8128  15.2855

          k = 0.0999-0.6348 0.0000 ( 13524 PWs)   bands (ev):

    -8.6114  -8.3717  -7.9947  -7.5144  -6.9998  -6.4854  -5.9074  -5.2504
    -4.9064  -4.6175  -4.3051  -3.9565  -3.5404  -3.2082  -2.3937  -1.6561
    -0.3109   0.3376   0.7955   0.9520   1.0743   1.1209   1.5527   1.6307
     1.7968   2.2559   2.5745   3.0449   3.3991   3.7640   4.0954   4.3446
     4.7403  12.8460  13.4187  13.9679  14.0975  14.2836  14.7373  14.8004

          k = 0.1999 0.3462 0.0000 ( 13457 PWs)   bands (ev):

   -10.6409 -10.3734  -9.9370  -9.3360  -8.5810  -7.6942  -6.7257  -5.8151
    -3.2706  -2.5369  -1.8715  -1.4683  -1.1056  -0.7595  -0.7226  -0.3478
    -0.1857   0.1679   0.5363   0.8568   1.0701   1.4691   1.9469   2.0202
     2.0403   2.6163   2.6861   2.9598   3.1064   3.3099   4.2015   5.0456
     5.6036  12.8799  13.0417  14.1291  14.2200  14.8120  14.9105  15.7810

          k = 0.1999-0.6925 0.0000 ( 13537 PWs)   bands (ev):

    -9.0345  -8.7791  -8.3661  -7.8044  -7.1134  -6.3290  -5.5126  -4.7376
    -4.0567  -3.7644  -3.6370  -3.3028  -2.7806  -2.2352  -1.6763  -1.1581
    -0.6669  -0.4217  -0.1117   0.0278   0.3763   0.6666   0.7854   0.9424
     1.5270   1.6727   2.2256   2.3596   2.5802   3.1272   3.5648   4.1475
     4.6243  13.4952  13.9058  14.2798  14.7450  15.0580  15.5338  16.0571

          k = 0.1999-0.5771 0.0000 ( 13552 PWs)   bands (ev):

    -7.2592  -7.2513  -7.1530  -6.9580  -6.6429  -6.2097  -5.6637  -5.0072
    -4.6594  -4.6409  -4.0905  -3.7545  -3.3377  -3.0623  -2.6602  -2.5325
    -0.8320  -0.5364  -0.4348  -0.4176  -0.0725   0.5261   1.1129   1.3363
     1.3554   1.5912   1.9158   2.1044   2.2613   2.9871   3.5262   3.8388
     3.8427  13.3766  14.0278  14.7864  15.2800  15.2844  15.3654  16.0814

          k = 0.2998-0.6348 0.0000 ( 13581 PWs)   bands (ev):

    -7.3319  -7.1155  -6.7842  -6.3823  -5.9901  -5.6828  -5.4669  -4.7229
    -4.7175  -3.8080  -3.7824  -3.5211  -3.4680  -3.3478  -2.9611  -2.5517
    -1.3913  -1.2213  -1.0214  -0.9095  -0.4460  -0.3696   0.2696   0.2740
     1.0981   1.6760   2.2986   2.4661   2.5889   2.7569   2.7735   3.1357
     3.5796  14.0332  14.2237  14.4744  14.8968  15.0495  15.4250  15.6024

     the Fermi energy is     9.3597 ev

!    total energy              =    -297.32765840 Ry
     estimated scf accuracy    <          7.0E-13 Ry
     smearing contrib. (-TS)   =      -0.00000000 Ry
     internal energy E=F+TS    =    -297.32765840 Ry

     The total energy is F=E-TS. E is the sum of the following terms:
     one-electron contribution =   -2235.23386380 Ry
     hartree contribution      =    1154.93127019 Ry
     xc contribution           =     -76.33319750 Ry
     ewald contribution        =     957.91444185 Ry
     one-center paw contrib.   =     -98.60630913 Ry

     convergence has been achieved in   9 iterations

     negative rho (up, down):  1.799E-08 0.000E+00

     Forces acting on atoms (cartesian axes, Ry/au):

     atom    1 type  1   force =     0.00000000   -0.00000000    0.00004671
     atom    2 type  1   force =     0.00000000   -0.00000000   -0.00015192
     atom    3 type  1   force =    -0.00000000   -0.00000000   -0.00017157
     atom    4 type  1   force =    -0.00000000    0.00000000   -0.00017467
     atom    5 type  1   force =     0.00000000    0.00000000   -0.00013395
     atom    6 type  1   force =     0.00000000    0.00000000   -0.00009443
     atom    7 type  1   force =     0.00000000   -0.00000000    0.00000875
     atom    8 type  1   force =    -0.00000000    0.00000000   -0.00003060
     atom    9 type  1   force =    -0.00000000    0.00000000    0.00003060
     atom   10 type  1   force =    -0.00000000    0.00000000   -0.00000875
     atom   11 type  1   force =     0.00000000   -0.00000000    0.00009443
     atom   12 type  1   force =     0.00000000    0.00000000    0.00013395
     atom   13 type  1   force =    -0.00000000    0.00000000    0.00017467
     atom   14 type  1   force =    -0.00000000   -0.00000000    0.00017157
     atom   15 type  1   force =     0.00000000    0.00000000    0.00015192
     atom   16 type  1   force =    -0.00000000    0.00000000   -0.00004671
     atom   17 type  2   force =     0.00000000    0.00000000   -0.00012344
     atom   18 type  2   force =    -0.00000000    0.00000000    0.00012344

     Total force =     0.000507     Total SCF correction =     0.000001


     Computing stress (Cartesian axis) and pressure


     negative rho (up, down):  1.799E-08 0.000E+00
          total   stress  (Ry/bohr**3)                   (kbar)     P=       -0.93
  -0.00000024   0.00000000   0.00000000           -0.04        0.00        0.00
   0.00000000  -0.00000024  -0.00000000            0.00       -0.04       -0.00
  -0.00000000   0.00000000  -0.00001859           -0.00        0.00       -2.73

     Energy error            =      6.0E-07 Ry
     Gradient error          =      1.7E-04 Ry/Bohr
     Cell gradient error     =      3.5E-02 kbar

     number of scf cycles    =   8
     number of bfgs steps    =   7

     enthalpy           old  =    -297.3276578047 Ry
     enthalpy           new  =    -297.3276584019 Ry

     CASE: enthalpy          _new < enthalpy          _old

     new trust radius        =       0.0004659374 bohr
     new conv_thr            =            1.0E-11 Ry

     new unit-cell volume =    938.43308 a.u.^3 (   139.06144 Ang^3 )
     density =      2.31886 g/cm^3

CELL_PARAMETERS (angstrom)
   2.527564861   0.000000000   0.000000000
   1.263782431   2.188935376   0.000000000
   0.000000000   0.000000000  25.134569970

ATOMIC_POSITIONS (crystal)
C                0.3333333300        0.3333333300        0.7967323504
C                0.6666666700        0.6666666700        0.7773207224
C                0.6666666700        0.6666666700        0.7154869111
C               -0.0000000000        0.0000000000        0.6950091501
C                0.0000000000       -0.0000000000        0.6334222918
C                0.3333333300        0.3333333300        0.6129051093
C                0.3333333300        0.3333333300        0.5513215370
C                0.6666666700        0.6666666700        0.5307938079
C                0.6666666700        0.6666666700        0.4692061921
C               -0.0000000000        0.0000000000        0.4486784630
C                0.0000000000       -0.0000000000        0.3870948907
C                0.3333333300        0.3333333300        0.3665777082
C                0.3333333300        0.3333333300        0.3049908499
C                0.6666666700        0.6666666700        0.2845130889
C                0.6666666700        0.6666666700        0.2226792776
C               -0.0000000000        0.0000000000        0.2032676496
H                0.3333333300        0.3333333300        0.8408637169
H               -0.0000000000       -0.0000000000        0.1591362831



     Writing config-only to output data dir /tmp/qe/slab.save/ :
     XML data file
     NEW-OLD atomic charge density approx. for the potential

     Check: negative core charge=   -0.000001

     negative rho (up, down):  1.817E-08 0.000E+00

     total cpu time spent up to now is      155.6 secs

     Self-consistent Calculation

     iteration #  1     ecut=    90.00 Ry     beta= 0.30
     Davidson diagonalization with overlap
     ethr =  1.00E-06,  avg # of iterations =  2.0

     Threshold (ethr) on eigenvalues was too large:
     Diagonalizing with lowered threshold

     Davidson diagonalization with overlap
     ethr =  2.28E-10,  avg # of iterations =  5.0

     negative rho (up, down):  1.821E-08 0.000E+00

     total cpu time spent up to now is      159.0 secs

     total energy              =    -297.32765875 Ry
     estimated scf accuracy    <       0.00000014 Ry

     iteration #  2     ecut=    90.00 Ry     beta= 0.30
     Davidson diagonalization with overlap
     ethr =  2.18E-10,  avg # of iterations =  2.0

     negative rho (up, down):  1.819E-08 0.000E+00

     total cpu time spent up to now is      160.4 secs

     total energy              =    -297.32765875 Ry
     estimated scf accuracy    <       0.00000005 Ry

     iteration #  3     ecut=    90.00 Ry     beta= 0.30
     Davidson diagonalization with overlap
     ethr =  6.83E-11,  avg # of iterations =  1.8

     negative rho (up, down):  1.822E-08 0.000E+00

     total cpu time spent up to now is      161.7 secs

     total energy              =    -297.32765875 Ry
     estimated scf accuracy    <       0.00000002 Ry

     iteration #  4     ecut=    90.00 Ry     beta= 0.30
     Davidson diagonalization with overlap
     ethr =  2.36E-11,  avg # of iterations =  2.0

     negative rho (up, down):  1.824E-08 0.000E+00

     total cpu time spent up to now is      163.1 secs

     total energy              =    -297.32765875 Ry
     estimated scf accuracy    <          1.4E-09 Ry

     iteration #  5     ecut=    90.00 Ry     beta= 0.30
     Davidson diagonalization with overlap
     ethr =  2.19E-12,  avg # of iterations =  2.1

     negative rho (up, down):  1.827E-08 0.000E+00

     total cpu time spent up to now is      164.5 secs

     total energy              =    -297.32765875 Ry
     estimated scf accuracy    <          4.2E-10 Ry

     iteration #  6     ecut=    90.00 Ry     beta= 0.30
     Davidson diagonalization with overlap
     ethr =  6.33E-13,  avg # of iterations =  2.0

     negative rho (up, down):  1.828E-08 0.000E+00

     total cpu time spent up to now is      166.0 secs

     total energy              =    -297.32765875 Ry
     estimated scf accuracy    <          4.7E-11 Ry

     iteration #  7     ecut=    90.00 Ry     beta= 0.30
     Davidson diagonalization with overlap
     ethr =  1.00E-13,  avg # of iterations =  2.3

     negative rho (up, down):  1.829E-08 0.000E+00

     total cpu time spent up to now is      167.4 secs

     total energy              =    -297.32765875 Ry
     estimated scf accuracy    <          1.3E-11 Ry

     iteration #  8     ecut=    90.00 Ry     beta= 0.30
     Davidson diagonalization with overlap
     ethr =  1.00E-13,  avg # of iterations =  1.1

     negative rho (up, down):  1.829E-08 0.000E+00

     total cpu time spent up to now is      168.6 secs

     End of self-consistent calculation

          k = 0.0000 0.0000 0.0000 ( 13421 PWs)   bands (ev):

   -13.5272 -13.2498 -12.7941 -12.1644 -11.3675 -10.4229  -9.3775  -8.3778
    -5.1735  -4.1037  -2.6247  -0.9422   0.8539   2.6819   4.4387   5.0444
     5.0444   5.2195   5.2195   5.5003   5.5003   5.8759   5.8759   6.0064
     6.3294   6.3294   6.8247   6.8247   7.2309   7.2954   7.2954   7.6419
     7.6419  10.0944  10.6665  12.7283  13.5460  13.5460  13.6751  14.0343

          k =-0.0000 0.1154 0.0000 ( 13535 PWs)   bands (ev):

   -13.2825 -13.0059 -12.5513 -11.9235 -11.1293 -10.1884  -9.1484  -8.1559
    -4.9524  -3.8934  -2.4319  -0.7743   0.9856   2.7564   3.8448   4.0415
     4.3365   4.4164   4.5034   4.6998   4.8171   5.0133   5.2413   5.4286
     5.7053   5.9226   6.0092   6.2478   6.4524   6.6226   6.9461   7.0719
     7.3036  10.3221  10.8616  12.8819  13.3410  13.8931  14.0428  14.5405

          k =-0.0000 0.2308 0.0000 ( 13503 PWs)   bands (ev):

   -12.5524 -12.2779 -11.8272 -11.2054 -10.4199  -9.4911  -8.4676  -7.4970
    -4.3220  -3.2995  -1.9021  -0.3495   1.0803   1.3296   1.6482   1.7776
     2.2570   2.8396   3.0408   3.4404   3.4650   3.6575   4.0049   4.0451
     4.4518   4.4643   4.5037   5.0072   5.5831   5.6726   6.1120   6.4570
     6.4896  11.0249  11.4320  12.6959  13.2552  13.5307  14.1561  14.4941

          k =-0.0000 0.3462 0.0000 ( 13492 PWs)   bands (ev):

   -11.3509 -11.0808 -10.6379 -10.0284  -9.2608  -8.3568  -7.3664  -6.4347
    -3.5324  -2.6575  -1.8938  -1.4772  -1.0041  -0.9118  -0.3577   0.1004
     0.3574   1.1355   1.3426   1.8700   2.3304   2.4597   2.6864   3.0498
     3.0929   3.5306   4.0985   4.1080   4.6991   5.0369   5.2484   5.6389
     5.6546  12.0323  12.1567  12.5215  12.9317  13.4919  13.9210  14.4479

          k =-0.0000 0.4616 0.0000 ( 13548 PWs)   bands (ev):

    -9.7177  -9.4582  -9.0357  -8.4609  -7.7504  -6.9401  -6.0943  -5.3166
    -4.3070  -4.1473  -3.9986  -3.6581  -3.0077  -2.2085  -1.3789  -1.0502
    -0.5794  -0.2816   0.6705   1.5297   1.8103   1.8630   2.0411   2.4113
     2.5020   2.9015   3.4804   3.5214   4.0921   4.4235   4.6508   5.0174
     5.0475  12.1292  12.5806  13.0516  13.5113  13.6062  13.8029  14.2594

          k = 0.0000-0.5771 0.0000 ( 13548 PWs)   bands (ev):

    -7.9046  -7.8938  -7.7879  -7.5789  -7.2433  -6.7804  -6.1946  -5.5578
    -5.2816  -4.9887  -4.5163  -4.2598  -3.6097  -3.4293  -2.7707  -2.6907
     0.3360   0.3469   0.8641   1.0918   1.3576   1.5857   1.8175   2.1825
     2.1897   2.6826   3.2637   3.2646   3.8795   4.1828   4.4410   4.7819
     4.8395  12.5492  12.6569  12.8819  13.0968  13.5709  13.6539  14.3081

          k = 0.0999 0.1731 0.0000 ( 13531 PWs)   bands (ev):

   -12.7951 -12.5198 -12.0678 -11.4439 -10.6554  -9.7224  -8.6933  -7.7153
    -4.5249  -3.4892  -2.0673  -0.4695   1.1893   2.4640   2.5162   2.6354
     2.6869   3.1126   3.1825   3.6707   3.8934   3.9297   4.2994   4.4685
     4.6051   4.7854   5.1364   5.4480   5.5716   5.7173   6.0128   6.3483
     7.0001  10.8055  11.2683  13.3493  13.6695  13.7005  14.1024  14.5602

          k = 0.0999 0.2885 0.0000 ( 13484 PWs)   bands (ev):

   -11.8289 -11.5568 -11.1105 -10.4955  -9.7198  -8.8045  -7.7991  -6.8505
    -3.7697  -2.7987  -1.5192  -0.3995   0.0621   0.2425   0.4079   0.8417
     1.2834   1.3578   1.9588   2.0842   2.4609   2.5913   2.8992   3.2423
     3.3497   3.6263   3.8003   4.1064   4.5249   4.6526   5.1223   5.6947
     6.3285  11.7497  12.0672  13.1479  13.7998  14.2217  14.6110  14.8017

          k = 0.0999 0.4039 0.0000 ( 13494 PWs)   bands (ev):

   -10.4079 -10.1423  -9.7080  -9.1121  -8.3649  -7.4904  -6.5394  -5.6481
    -3.5159  -3.1287  -2.9169  -2.4482  -1.8150  -1.2257  -1.0967  -0.4968
    -0.2422   0.3912   0.4844   1.2432   1.4796   1.6970   1.9577   2.1554
     2.2849   2.7119   3.0579   3.3667   3.9511   4.0453   4.4074   4.8904
     5.4502  12.6988  12.9144  13.3312  13.7480  14.3413  14.8129  15.2851

          k = 0.0999-0.6348 0.0000 ( 13524 PWs)   bands (ev):

    -8.6117  -8.3725  -7.9946  -7.5145  -6.9999  -6.4857  -5.9076  -5.2503
    -4.9066  -4.6176  -4.3055  -3.9563  -3.5404  -3.2082  -2.3937  -1.6560
    -0.3111   0.3376   0.7952   0.9516   1.0744   1.1209   1.5526   1.6308
     1.7967   2.2560   2.5745   3.0449   3.3991   3.7640   4.0954   4.3446
     4.7402  12.8462  13.4189  13.9675  14.0977  14.2834  14.7373  14.8005

          k = 0.1999 0.3462 0.0000 ( 13457 PWs)   bands (ev):

   -10.6413 -10.3742  -9.9369  -9.3361  -8.5811  -7.6944  -6.7257  -5.8150
    -3.2710  -2.5373  -1.8712  -1.4685  -1.1062  -0.7600  -0.7225  -0.3476
    -0.1860   0.1681   0.5362   0.8567   1.0701   1.4690   1.9468   2.0204
     2.0402   2.6162   2.6861   2.9598   3.1065   3.3098   4.2015   5.0455
     5.6035  12.8800  13.0418  14.1293  14.2202  14.8124  14.9108  15.7811

          k = 0.1999-0.6925 0.0000 ( 13537 PWs)   bands (ev):

    -9.0348  -8.7799  -8.3660  -7.8045  -7.1134  -6.3292  -5.5126  -4.7376
    -4.0570  -3.7645  -3.6373  -3.3029  -2.7806  -2.2353  -1.6765  -1.1582
    -0.6672  -0.4219  -0.1119   0.0276   0.3764   0.6669   0.7855   0.9422
     1.5271   1.6728   2.2255   2.3596   2.5800   3.1271   3.5648   4.1474
     4.6243  13.4955  13.9059  14.2798  14.7452  15.0585  15.5338  16.0573

          k = 0.1999-0.5771 0.0000 ( 13552 PWs)   bands (ev):

    -7.2592  -7.2521  -7.1536  -6.9582  -6.6429  -6.2099  -5.6637  -5.0071
    -4.6595  -4.6411  -4.0910  -3.7545  -3.3377  -3.0622  -2.6601  -2.5325
    -0.8324  -0.5369  -0.4349  -0.4175  -0.0724   0.5260   1.1130   1.3363
     1.3551   1.5912   1.9156   2.1045   2.2614   2.9871   3.5262   3.8387
     3.8425  13.3769  14.0281  14.7864  15.2805  15.2844  15.3656  16.0816

          k = 0.2998-0.6348 0.0000 ( 13581 PWs)   bands (ev):

    -7.3322  -7.1163  -6.7841  -6.3824  -5.9903  -5.6835  -5.4672  -4.7227
    -4.7173  -3.8082  -3.7825  -3.5213  -3.4681  -3.3480  -2.9612  -2.5517
    -1.3918  -1.2211  -1.0216  -0.9095  -0.4461  -0.3695   0.2699   0.2740
     1.0979   1.6759   2.2988   2.4659   2.5888   2.7568   2.7735   3.1357
     3.5796  14.0335  14.2241  14.4746  14.8969  15.0500  15.4250  15.6027

     the Fermi energy is     9.3597 ev

!    total energy              =    -297.32765875 Ry
     estimated scf accuracy    <          1.5E-12 Ry
     smearing contrib. (-TS)   =      -0.00000000 Ry
     internal energy E=F+TS    =    -297.32765875 Ry

     The total energy is F=E-TS. E is the sum of the following terms:
     one-electron contribution =   -2235.49872855 Ry
     hartree contribution      =    1155.06368173 Ry
     xc contribution           =     -76.33348458 Ry
     ewald contribution        =     958.04718924 Ry
     one-center paw contrib.   =     -98.60631660 Ry

     convergence has been achieved in   8 iterations

     negative rho (up, down):  1.829E-08 0.000E+00

     Forces acting on atoms (cartesian axes, Ry/au):

     atom    1 type  1   force =    -0.00000000    0.00000000    0.00000490
     atom    2 type  1   force =    -0.00000000    0.00000000   -0.00008000
     atom    3 type  1   force =     0.00000000    0.00000000   -0.00004796
     atom    4 type  1   force =    -0.00000000    0.00000000   -0.00011403
     atom    5 type  1   force =    -0.00000000    0.00000000   -0.00015834
     atom    6 type  1   force =     0.00000000    0.00000000   -0.00017842
     atom    7 type  1   force =    -0.00000000   -0.00000000   -0.00012785
     atom    8 type  1   force =    -0.00000000   -0.00000000   -0.00004195
     atom    9 type  1   force =     0.00000000    0.00000000    0.00004195
     atom   10 type  1   force =     0.00000000    0.00000000    0.00012785
     atom   11 type  1   force =     0.00000000   -0.00000000    0.00017842
     atom   12 type  1   force =     0.00000000    0.00000000    0.00015834
     atom   13 type  1   force =     0.00000000   -0.00000000    0.00011403
     atom   14 type  1   force =    -0.00000000   -0.00000000    0.00004796
     atom   15 type  1   force =    -0.00000000    0.00000000    0.00008000
     atom   16 type  1   force =     0.00000000   -0.00000000   -0.00000490
     atom   17 type  2   force =    -0.00000000    0.00000000   -0.00017024
     atom   18 type  2   force =     0.00000000    0.00000000    0.00017024

     Total force =     0.000501     Total SCF correction =     0.000004


     Computing stress (Cartesian axis) and pressure


     negative rho (up, down):  1.829E-08 0.000E+00
          total   stress  (Ry/bohr**3)                   (kbar)     P=       -0.87
  -0.00000011   0.00000000   0.00000000           -0.02        0.00        0.00
   0.00000000  -0.00000011  -0.00000000            0.00       -0.02       -0.00
  -0.00000000   0.00000000  -0.00001758           -0.00        0.00       -2.59

     Energy error            =      3.5E-07 Ry
     Gradient error          =      1.8E-04 Ry/Bohr
     Cell gradient error     =      1.7E-02 kbar

     number of scf cycles    =   9
     number of bfgs steps    =   8

     enthalpy           old  =    -297.3276584019 Ry
     enthalpy           new  =    -297.3276587525 Ry

     CASE: enthalpy          _new < enthalpy          _old

     new trust radius        =       0.0005125311 bohr
     new conv_thr            =            1.0E-11 Ry

     new unit-cell volume =    938.43289 a.u.^3 (   139.06141 Ang^3 )
     density =      2.31886 g/cm^3

CELL_PARAMETERS (angstrom)
   2.527564597   0.000000000   0.000000000
   1.263782299   2.188935148   0.000000000
   0.000000000   0.000000000  25.134569970

ATOMIC_POSITIONS (crystal)
C                0.3333333300        0.3333333300        0.7967240295
C                0.6666666700        0.6666666700        0.7773101117
C                0.6666666700        0.6666666700        0.7154761204
C               -0.0000000000        0.0000000000        0.6949989854
C                0.0000000000       -0.0000000000        0.6334176112
C                0.3333333300        0.3333333300        0.6129024616
C                0.3333333300        0.3333333300        0.5513218537
C                0.6666666700        0.6666666700        0.5307947115
C                0.6666666700        0.6666666700        0.4692052885
C               -0.0000000000        0.0000000000        0.4486781463
C                0.0000000000       -0.0000000000        0.3870975384
C                0.3333333300        0.3333333300        0.3665823888
C                0.3333333300        0.3333333300        0.3050010146
C                0.6666666700        0.6666666700        0.2845238796
C                0.6666666700        0.6666666700        0.2226898883
C               -0.0000000000        0.0000000000        0.2032759705
H                0.3333333300        0.3333333300        0.8408554974
H               -0.0000000000       -0.0000000000        0.1591445026



     Writing config-only to output data dir /tmp/qe/slab.save/ :
     XML data file
     NEW-OLD atomic charge density approx. for the potential

     Check: negative core charge=   -0.000001

     negative rho (up, down):  1.856E-08 0.000E+00

     total cpu time spent up to now is      172.9 secs

     Self-consistent Calculation

     iteration #  1     ecut=    90.00 Ry     beta= 0.30
     Davidson diagonalization with overlap
     ethr =  1.00E-06,  avg # of iterations =  2.0

     Threshold (ethr) on eigenvalues was too large:
     Diagonalizing with lowered threshold

     Davidson diagonalization with overlap
     ethr =  3.45E-10,  avg # of iterations =  4.9

     negative rho (up, down):  1.862E-08 0.000E+00

     total cpu time spent up to now is      176.0 secs

     total energy              =    -297.32765915 Ry
     estimated scf accuracy    <       0.00000020 Ry

     iteration #  2     ecut=    90.00 Ry     beta= 0.30
     Davidson diagonalization with overlap
     ethr =  2.96E-10,  avg # of iterations =  2.0

     negative rho (up, down):  1.858E-08 0.000E+00

     total cpu time spent up to now is      177.4 secs

     total energy              =    -297.32765916 Ry
     estimated scf accuracy    <       0.00000006 Ry

     iteration #  3     ecut=    90.00 Ry     beta= 0.30
     Davidson diagonalization with overlap
     ethr =  9.56E-11,  avg # of iterations =  1.9

     negative rho (up, down):  1.859E-08 0.000E+00

     total cpu time spent up to now is      178.7 secs

     total energy              =    -297.32765916 Ry
     estimated scf accuracy    <       0.00000002 Ry

     iteration #  4     ecut=    90.00 Ry     beta= 0.30
     Davidson diagonalization with overlap
     ethr =  3.28E-11,  avg # of iterations =  2.0

     negative rho (up, down):  1.862E-08 0.000E+00

     total cpu time spent up to now is      180.1 secs

     total energy              =    -297.32765916 Ry
     estimated scf accuracy    <          1.6E-09 Ry

     iteration #  5     ecut=    90.00 Ry     beta= 0.30
     Davidson diagonalization with overlap
     ethr =  2.47E-12,  avg # of iterations =  2.0

     negative rho (up, down):  1.866E-08 0.000E+00

     total cpu time spent up to now is      181.5 secs

     total energy              =    -297.32765916 Ry
     estimated scf accuracy    <          5.7E-10 Ry

     iteration #  6     ecut=    90.00 Ry     beta= 0.30
     Davidson diagonalization with overlap
     ethr =  8.62E-13,  avg # of iterations =  2.0

     negative rho (up, down):  1.866E-08 0.000E+00

     total cpu time spent up to now is      183.1 secs

     total energy              =    -297.32765916 Ry
     estimated scf accuracy    <          7.5E-11 Ry

     iteration #  7     ecut=    90.00 Ry     beta= 0.30
     Davidson diagonalization with overlap
     ethr =  1.14E-13,  avg # of iterations =  2.2

     negative rho (up, down):  1.868E-08 0.000E+00

     total cpu time spent up to now is      184.6 secs

     total energy              =    -297.32765916 Ry
     estimated scf accuracy    <          2.2E-11 Ry

     iteration #  8     ecut=    90.00 Ry     beta= 0.30
     Davidson diagonalization with overlap
     ethr =  1.00E-13,  avg # of iterations =  1.1

     negative rho (up, down):  1.869E-08 0.000E+00

     total cpu time spent up to now is      185.8 secs

     End of self-consistent calculation

          k = 0.0000 0.0000 0.0000 ( 13421 PWs)   bands (ev):

   -13.5277 -13.2504 -12.7941 -12.1645 -11.3676 -10.4231  -9.3774  -8.3777
    -5.1739  -4.1038  -2.6244  -0.9423   0.8539   2.6819   4.4389   5.0440
     5.0440   5.2190   5.2190   5.5004   5.5004   5.8759   5.8759   6.0063
     6.3294   6.3294   6.8247   6.8247   7.2310   7.2954   7.2954   7.6418
     7.6418  10.0945  10.6664  12.7283  13.5457  13.5457  13.6756  14.0341

          k =-0.0000 0.1154 0.0000 ( 13535 PWs)   bands (ev):

   -13.2830 -13.0064 -12.5513 -11.9236 -11.1294 -10.1887  -9.1483  -8.1558
    -4.9527  -3.8935  -2.4316  -0.7743   0.9856   2.7564   3.8443   4.0410
     4.3366   4.4165   4.5029   4.6993   4.8171   5.0134   5.2412   5.4286
     5.7052   5.9226   6.0092   6.2479   6.4524   6.6226   6.9461   7.0719
     7.3035  10.3222  10.8616  12.8818  13.3410  13.8933  14.0426  14.5397

          k =-0.0000 0.2308 0.0000 ( 13503 PWs)   bands (ev):

   -12.5529 -12.2785 -11.8272 -11.2055 -10.4200  -9.4913  -8.4675  -7.4968
    -4.3223  -3.2996  -1.9018  -0.3496   1.0800   1.3291   1.6480   1.7776
     2.2570   2.8396   3.0408   3.4399   3.4650   3.6570   4.0050   4.0452
     4.4519   4.4642   4.5038   5.0072   5.5831   5.6725   6.1121   6.4570
     6.4896  11.0250  11.4319  12.6959  13.2553  13.5307  14.1560  14.4942

          k =-0.0000 0.3462 0.0000 ( 13492 PWs)   bands (ev):

   -11.3515 -11.0813 -10.6379 -10.0285  -9.2609  -8.3570  -7.3663  -6.4346
    -3.5328  -2.6577  -1.8939  -1.4775  -1.0044  -0.9118  -0.3577   0.1002
     0.3574   1.1356   1.3425   1.8701   2.3304   2.4592   2.6859   3.0499
     3.0928   3.5306   4.0985   4.1080   4.6991   5.0368   5.2485   5.6389
     5.6546  12.0324  12.1568  12.5216  12.9317  13.4919  13.9210  14.4479

          k =-0.0000 0.4616 0.0000 ( 13548 PWs)   bands (ev):

    -9.7182  -9.4588  -9.0357  -8.4610  -7.7505  -6.9404  -6.0943  -5.3166
    -4.3075  -4.1474  -3.9990  -3.6581  -3.0078  -2.2087  -1.3788  -1.0504
    -0.5794  -0.2816   0.6707   1.5296   1.8098   1.8628   2.0406   2.4114
     2.5018   2.9015   3.4804   3.5214   4.0921   4.4234   4.6509   5.0174
     5.0475  12.1292  12.5805  13.0516  13.5111  13.6061  13.8032  14.2597

          k = 0.0000-0.5771 0.0000 ( 13548 PWs)   bands (ev):

    -7.9050  -7.8945  -7.7883  -7.5791  -7.2434  -6.7806  -6.1946  -5.5579
    -5.2819  -4.9888  -4.5166  -4.2599  -3.6096  -3.4292  -2.7706  -2.6906
     0.3359   0.3466   0.8640   1.0915   1.3578   1.5852   1.8170   2.1824
     2.1898   2.6826   3.2638   3.2646   3.8795   4.1827   4.4411   4.7818
     4.8396  12.5489  12.6569  12.8819  13.0969  13.5711  13.6540  14.3081

          k = 0.0999 0.1731 0.0000 ( 13531 PWs)   bands (ev):

   -12.7956 -12.5204 -12.0678 -11.4440 -10.6555  -9.7227  -8.6932  -7.7151
    -4.5252  -3.4893  -2.0670  -0.4696   1.1892   2.4636   2.5158   2.6351
     2.6867   3.1127   3.1824   3.6707   3.8930   3.9299   4.2990   4.4686
     4.6051   4.7854   5.1365   5.4480   5.5715   5.7173   6.0129   6.3483
     7.0001  10.8056  11.2683  13.3492  13.6697  13.7005  14.1025  14.5601

          k = 0.0999 0.2885 0.0000 ( 13484 PWs)   bands (ev):

   -11.8294 -11.5574 -11.1105 -10.4956  -9.7199  -8.8047  -7.7990  -6.8503
    -3.7701  -2.7988  -1.5190  -0.3999   0.0616   0.2423   0.4079   0.8416
     1.2831   1.3578   1.9588   2.0840   2.4608   2.5909   2.8990   3.2423
     3.3499   3.6263   3.8003   4.1064   4.5250   4.6527   5.1223   5.6946
     6.3285  11.7498  12.0672  13.1481  13.7999  14.2217  14.6110  14.8019

          k = 0.0999 0.4039 0.0000 ( 13494 PWs)   bands (ev):

   -10.4084 -10.1429  -9.7080  -9.1122  -8.3650  -7.4907  -6.5394  -5.6480
    -3.5163  -3.1291  -2.9170  -2.4484  -1.8151  -1.2259  -1.0969  -0.4969
    -0.2423   0.3913   0.4844   1.2429   1.4793   1.6968   1.9577   2.1553
     2.2848   2.7119   3.0578   3.3667   3.9511   4.0453   4.4075   4.8903
     5.4501  12.6989  12.9145  13.3313  13.7481  14.3412  14.8129  15.2848

          k = 0.0999-0.6348 0.0000 ( 13524 PWs)   bands (ev):

    -8.6123  -8.3731  -7.9946  -7.5147  -7.0001  -6.4861  -5.9077  -5.2503
    -4.9070  -4.6177  -4.3058  -3.9562  -3.5404  -3.2083  -2.3936  -1.6559
    -0.3114   0.3375   0.7947   0.9512   1.0743   1.1209   1.5526   1.6308
     1.7965   2.2560   2.5743   3.0450   3.3991   3.7641   4.0954   4.3445
     4.7402  12.8466  13.4190  13.9672  14.0975  14.2834  14.7373  14.8007

          k = 0.1999 0.3462 0.0000 ( 13457 PWs)   bands (ev):

   -10.6418 -10.3748  -9.9369  -9.3362  -8.5812  -7.6946  -6.7256  -5.8149
    -3.2714  -2.5376  -1.8711  -1.4689  -1.1066  -0.7604  -0.7225  -0.3476
    -0.1863   0.1682   0.5361   0.8565   1.0699   1.4690   1.9466   2.0206
     2.0401   2.6162   2.6862   2.9598   3.1066   3.3097   4.2015   5.0454
     5.6035  12.8801  13.0418  14.1297  14.2204  14.8127  14.9110  15.7812

          k = 0.1999-0.6925 0.0000 ( 13537 PWs)   bands (ev):

    -9.0353  -8.7805  -8.3660  -7.8046  -7.1136  -6.3295  -5.5127  -4.7376
    -4.0574  -3.7648  -3.6375  -3.3030  -2.7807  -2.2354  -1.6766  -1.1583
    -0.6675  -0.4223  -0.1121   0.0275   0.3763   0.6669   0.7855   0.9422
     1.5271   1.6729   2.2255   2.3597   2.5799   3.1271   3.5648   4.1473
     4.6242  13.4958  13.9061  14.2800  14.7456  15.0589  15.5339  16.0575

          k = 0.1999-0.5771 0.0000 ( 13552 PWs)   bands (ev):

    -7.2596  -7.2529  -7.1541  -6.9584  -6.6430  -6.2101  -5.6638  -5.0070
    -4.6595  -4.6414  -4.0913  -3.7546  -3.3377  -3.0621  -2.6600  -2.5326
    -0.8328  -0.5372  -0.4351  -0.4176  -0.0724   0.5259   1.1130   1.3363
     1.3548   1.5913   1.9155   2.1045   2.2615   2.9871   3.5262   3.8386
     3.8425  13.3774  14.0284  14.7865  15.2811  15.2844  15.3658  16.0819

          k = 0.2998-0.6348 0.0000 ( 13581 PWs)   bands (ev):

    -7.3328  -7.1169  -6.7842  -6.3826  -5.9905  -5.6842  -5.4676  -4.7225
    -4.7170  -3.8085  -3.7828  -3.5215  -3.4681  -3.3482  -2.9613  -2.5518
    -1.3922  -1.2213  -1.0217  -0.9096  -0.4461  -0.3693   0.2700   0.2740
     1.0977   1.6759   2.2989   2.4656   2.5888   2.7568   2.7734   3.1356
     3.5796  14.0338  14.2246  14.4748  14.8971  15.0504  15.4253  15.6030

     the Fermi energy is     9.3598 ev

!    total energy              =    -297.32765916 Ry
     estimated scf accuracy    <          9.1E-13 Ry
     smearing contrib. (-TS)   =      -0.00000000 Ry
     internal energy E=F+TS    =    -297.32765916 Ry

     The total energy is F=E-TS. E is the sum of the following terms:
     one-electron contribution =   -2235.84179876 Ry
     hartree contribution      =    1155.23514621 Ry
     xc contribution           =     -76.33383860 Ry
     ewald contribution        =     958.21915723 Ry
     one-center paw contrib.   =     -98.60632524 Ry

     convergence has been achieved in   8 iterations

     negative rho (up, down):  1.869E-08 0.000E+00

     Forces acting on atoms (cartesian axes, Ry/au):

     atom    1 type  1   force =     0.00000000    0.00000000   -0.00006280
     atom    2 type  1   force =     0.00000000    0.00000000   -0.00001792
     atom    3 type  1   force =     0.00000000   -0.00000000    0.00002053
     atom    4 type  1   force =    -0.00000000    0.00000000   -0.00002739
     atom    5 type  1   force =     0.00000000   -0.00000000   -0.00017562
     atom    6 type  1   force =     0.00000000    0.00000000   -0.00021901
     atom    7 type  1   force =    -0.00000000    0.00000000   -0.00017916
     atom    8 type  1   force =     0.00000000    0.00000000   -0.00010810
     atom    9 type  1   force =     0.00000000    0.00000000    0.00010810
     atom   10 type  1   force =    -0.00000000   -0.00000000    0.00017916
     atom   11 type  1   force =     0.00000000    0.00000000    0.00021901
     atom   12 type  1   force =     0.00000000    0.00000000    0.00017562
     atom   13 type  1   force =    -0.00000000    0.00000000    0.00002739
     atom   14 type  1   force =     0.00000000    0.00000000   -0.00002053
     atom   15 type  1   force =    -0.00000000   -0.00000000    0.00001792
     atom   16 type  1   force =     0.00000000   -0.00000000    0.00006280
     atom   17 type  2   force =     0.00000000    0.00000000   -0.00018046
     atom   18 type  2   force =     0.00000000   -0.00000000    0.00018046

     Total force =     0.000567     Total SCF correction =     0.000003


     Computing stress (Cartesian axis) and pressure


     negative rho (up, down):  1.869E-08 0.000E+00
          total   stress  (Ry/bohr**3)                   (kbar)     P=       -0.80
  -0.00000005   0.00000000   0.00000000           -0.01        0.00        0.00
  -0.00000000  -0.00000005   0.00000000           -0.00       -0.01        0.00
   0.00000000   0.00000000  -0.00001618            0.00        0.00       -2.38

     Energy error            =      4.1E-07 Ry
     Gradient error          =      2.2E-04 Ry/Bohr
     Cell gradient error     =      8.1E-03 kbar

     number of scf cycles    =  10
     number of bfgs steps    =   9

     enthalpy           old  =    -297.3276587525 Ry
     enthalpy           new  =    -297.3276591582 Ry

     CASE: enthalpy          _new < enthalpy          _old

     new trust radius        =       0.0007687967 bohr
     new conv_thr            =            1.0E-11 Ry

     new unit-cell volume =    938.43085 a.u.^3 (   139.06110 Ang^3 )
     density =      2.31886 g/cm^3

CELL_PARAMETERS (angstrom)
   2.527561849   0.000000000   0.000000000
   1.263780925   2.188932768   0.000000000
   0.000000000   0.000000000  25.134569970

ATOMIC_POSITIONS (crystal)
C                0.3333333300        0.3333333300        0.7967097282
C                0.6666666700        0.6666666700        0.7772939257
C                0.6666666700        0.6666666700        0.7154601949
C               -0.0000000000        0.0000000000        0.6949841174
C                0.0000000000       -0.0000000000        0.6334081393
C                0.3333333300        0.3333333300        0.6128955147
C                0.3333333300        0.3333333300        0.5513200557
C                0.6666666700        0.6666666700        0.5307936880
C                0.6666666700        0.6666666700        0.4692063120
C               -0.0000000000        0.0000000000        0.4486799443
C                0.0000000000       -0.0000000000        0.3871044853
C                0.3333333300        0.3333333300        0.3665918607
C                0.3333333300        0.3333333300        0.3050158826
C                0.6666666700        0.6666666700        0.2845398051
C                0.6666666700        0.6666666700        0.2227060743
C               -0.0000000000       -0.0000000000        0.2032902718
H                0.3333333300        0.3333333300        0.8408405546
H               -0.0000000000       -0.0000000000        0.1591594454



     Writing config-only to output data dir /tmp/qe/slab.save/ :
     XML data file
     NEW-OLD atomic charge density approx. for the potential

     Check: negative core charge=   -0.000001

     negative rho (up, down):  1.912E-08 0.000E+00

     total cpu time spent up to now is      190.0 secs

     Self-consistent Calculation

     iteration #  1     ecut=    90.00 Ry     beta= 0.30
     Davidson diagonalization with overlap
     ethr =  1.00E-06,  avg # of iterations =  2.0

     Threshold (ethr) on eigenvalues was too large:
     Diagonalizing with lowered threshold

     Davidson diagonalization with overlap
     ethr =  8.06E-10,  avg # of iterations =  4.6

     negative rho (up, down):  1.919E-08 0.000E+00

     total cpu time spent up to now is      193.2 secs

     total energy              =    -297.32765977 Ry
     estimated scf accuracy    <       0.00000049 Ry

     iteration #  2     ecut=    90.00 Ry     beta= 0.30
     Davidson diagonalization with overlap
     ethr =  7.38E-10,  avg # of iterations =  1.9

     negative rho (up, down):  1.911E-08 0.000E+00

     total cpu time spent up to now is      194.6 secs

     total energy              =    -297.32765977 Ry
     estimated scf accuracy    <       0.00000016 Ry

     iteration #  3     ecut=    90.00 Ry     beta= 0.30
     Davidson diagonalization with overlap
     ethr =  2.43E-10,  avg # of iterations =  1.9

     negative rho (up, down):  1.911E-08 0.000E+00

     total cpu time spent up to now is      195.9 secs

     total energy              =    -297.32765977 Ry
     estimated scf accuracy    <       0.00000006 Ry

     iteration #  4     ecut=    90.00 Ry     beta= 0.30
     Davidson diagonalization with overlap
     ethr =  8.49E-11,  avg # of iterations =  2.0

     negative rho (up, down):  1.916E-08 0.000E+00

     total cpu time spent up to now is      197.2 secs

     total energy              =    -297.32765977 Ry
     estimated scf accuracy    <          3.5E-09 Ry

     iteration #  5     ecut=    90.00 Ry     beta= 0.30
     Davidson diagonalization with overlap
     ethr =  5.34E-12,  avg # of iterations =  2.1

     negative rho (up, down):  1.922E-08 0.000E+00

     total cpu time spent up to now is      198.7 secs

     total energy              =    -297.32765977 Ry
     estimated scf accuracy    <          1.2E-09 Ry

     iteration #  6     ecut=    90.00 Ry     beta= 0.30
     Davidson diagonalization with overlap
     ethr =  1.80E-12,  avg # of iterations =  2.0

     negative rho (up, down):  1.923E-08 0.000E+00

     total cpu time spent up to now is      200.2 secs

     total energy              =    -297.32765977 Ry
     estimated scf accuracy    <          1.5E-10 Ry

     iteration #  7     ecut=    90.00 Ry     beta= 0.30
     Davidson diagonalization with overlap
     ethr =  2.29E-13,  avg # of iterations =  2.2

     negative rho (up, down):  1.925E-08 0.000E+00

     total cpu time spent up to now is      201.7 secs

     total energy              =    -297.32765978 Ry
     estimated scf accuracy    <          4.2E-11 Ry

     iteration #  8     ecut=    90.00 Ry     beta= 0.30
     Davidson diagonalization with overlap
     ethr =  1.00E-13,  avg # of iterations =  2.0

     negative rho (up, down):  1.927E-08 0.000E+00

     total cpu time spent up to now is      203.1 secs

     End of self-consistent calculation

          k = 0.0000 0.0000 0.0000 ( 13421 PWs)   bands (ev):

   -13.5285 -13.2511 -12.7943 -12.1648 -11.3679 -10.4234  -9.3774  -8.3774
    -5.1744  -4.1038  -2.6241  -0.9423   0.8540   2.6821   4.4392   5.0433
     5.0433   5.2185   5.2185   5.5003   5.5003   5.8757   5.8757   6.0065
     6.3293   6.3293   6.8247   6.8247   7.2311   7.2954   7.2954   7.6418
     7.6418  10.0946  10.6664  12.7281  13.5454  13.5454  13.6767  14.0339

          k =-0.0000 0.1154 0.0000 ( 13535 PWs)   bands (ev):

   -13.2839 -13.0072 -12.5515 -11.9239 -11.1297 -10.1889  -9.1483  -8.1555
    -4.9532  -3.8935  -2.4314  -0.7744   0.9857   2.7565   3.8436   4.0405
     4.3365   4.4166   4.5022   4.6987   4.8171   5.0133   5.2411   5.4284
     5.7052   5.9225   6.0094   6.2479   6.4524   6.6226   6.9462   7.0719
     7.3036  10.3223  10.8616  12.8817  13.3411  13.8936  14.0423  14.5388

          k =-0.0000 0.2308 0.0000 ( 13503 PWs)   bands (ev):

   -12.5538 -12.2792 -11.8274 -11.2058 -10.4203  -9.4916  -8.4675  -7.4966
    -4.3229  -3.2997  -1.9017  -0.3497   1.0797   1.3285   1.6478   1.7774
     2.2569   2.8395   3.0409   3.4392   3.4650   3.6565   4.0049   4.0452
     4.4521   4.4641   4.5039   5.0072   5.5831   5.6724   6.1121   6.4569
     6.4897  11.0252  11.4320  12.6961  13.2555  13.5306  14.1560  14.4944

          k =-0.0000 0.3462 0.0000 ( 13492 PWs)   bands (ev):

   -11.3523 -11.0821 -10.6381 -10.0288  -9.2611  -8.3573  -7.3664  -6.4344
    -3.5335  -2.6579  -1.8943  -1.4780  -1.0048  -0.9119  -0.3578   0.1000
     0.3574   1.1357   1.3424   1.8703   2.3306   2.4584   2.6853   3.0498
     3.0927   3.5305   4.0984   4.1079   4.6991   5.0367   5.2485   5.6390
     5.6545  12.0326  12.1569  12.5217  12.9316  13.4918  13.9211  14.4478

          k =-0.0000 0.4616 0.0000 ( 13548 PWs)   bands (ev):

    -9.7191  -9.4595  -9.0359  -8.4613  -7.7508  -6.9407  -6.0945  -5.3166
    -4.3082  -4.1476  -3.9994  -3.6582  -3.0079  -2.2089  -1.3789  -1.0508
    -0.5793  -0.2817   0.6709   1.5295   1.8090   1.8626   2.0400   2.4113
     2.5016   2.9013   3.4803   3.5213   4.0921   4.4233   4.6509   5.0173
     5.0477  12.1293  12.5804  13.0516  13.5109  13.6061  13.8035  14.2600

          k = 0.0000-0.5771 0.0000 ( 13548 PWs)   bands (ev):

    -7.9058  -7.8954  -7.7889  -7.5795  -7.2437  -6.7809  -6.1949  -5.5580
    -5.2824  -4.9891  -4.5170  -4.2599  -3.6096  -3.4291  -2.7704  -2.6904
     0.3356   0.3461   0.8640   1.0912   1.3579   1.5844   1.8164   2.1822
     2.1897   2.6824   3.2637   3.2645   3.8795   4.1826   4.4411   4.7818
     4.8397  12.5483  12.6571  12.8821  13.0970  13.5714  13.6540  14.3082

          k = 0.0999 0.1731 0.0000 ( 13531 PWs)   bands (ev):

   -12.7965 -12.5211 -12.0680 -11.4443 -10.6558  -9.7229  -8.6932  -7.7149
    -4.5258  -3.4894  -2.0668  -0.4697   1.1893   2.4629   2.5152   2.6347
     2.6865   3.1128   3.1822   3.6706   3.8923   3.9299   4.2987   4.4686
     4.6052   4.7853   5.1365   5.4480   5.5713   5.7174   6.0130   6.3484
     7.0001  10.8057  11.2683  13.3491  13.6698  13.7007  14.1028  14.5601

          k = 0.0999 0.2885 0.0000 ( 13484 PWs)   bands (ev):

   -11.8303 -11.5581 -11.1107 -10.4959  -9.7201  -8.8050  -7.7991  -6.8501
    -3.7707  -2.7990  -1.5189  -0.4005   0.0609   0.2420   0.4078   0.8414
     1.2828   1.3577   1.9588   2.0839   2.4608   2.5904   2.8988   3.2423
     3.3501   3.6261   3.8003   4.1063   4.5250   4.6527   5.1224   5.6946
     6.3285  11.7499  12.0673  13.1483  13.8000  14.2218  14.6110  14.8023

          k = 0.0999 0.4039 0.0000 ( 13494 PWs)   bands (ev):

   -10.4092 -10.1436  -9.7082  -9.1125  -8.3653  -7.4909  -6.5394  -5.6478
    -3.5170  -3.1298  -2.9173  -2.4486  -1.8153  -1.2262  -1.0970  -0.4970
    -0.2424   0.3914   0.4843   1.2425   1.4789   1.6965   1.9576   2.1551
     2.2849   2.7118   3.0577   3.3666   3.9512   4.0452   4.4076   4.8903
     5.4501  12.6993  12.9147  13.3314  13.7482  14.3412  14.8129  15.2846

          k = 0.0999-0.6348 0.0000 ( 13524 PWs)   bands (ev):

    -8.6131  -8.3738  -7.9949  -7.5150  -7.0005  -6.4866  -5.9081  -5.2504
    -4.9076  -4.6179  -4.3062  -3.9562  -3.5404  -3.2084  -2.3936  -1.6558
    -0.3119   0.3374   0.7940   0.9506   1.0742   1.1208   1.5525   1.6307
     1.7962   2.2560   2.5741   3.0450   3.3990   3.7641   4.0955   4.3445
     4.7402  12.8472  13.4193  13.9670  14.0974  14.2833  14.7373  14.8010

          k = 0.1999 0.3462 0.0000 ( 13457 PWs)   bands (ev):

   -10.6427 -10.3755  -9.9371  -9.3365  -8.5814  -7.6949  -6.7256  -5.8147
    -3.2721  -2.5379  -1.8713  -1.4695  -1.1073  -0.7609  -0.7227  -0.3476
    -0.1867   0.1683   0.5359   0.8564   1.0695   1.4689   1.9464   2.0208
     2.0399   2.6162   2.6863   2.9598   3.1068   3.3097   4.2014   5.0454
     5.6035  12.8803  13.0419  14.1302  14.2209  14.8131  14.9114  15.7813

          k = 0.1999-0.6925 0.0000 ( 13537 PWs)   bands (ev):

    -9.0362  -8.7812  -8.3662  -7.8049  -7.1138  -6.3299  -5.5129  -4.7377
    -4.0579  -3.7653  -3.6377  -3.3032  -2.7810  -2.2357  -1.6768  -1.1584
    -0.6681  -0.4229  -0.1124   0.0274   0.3762   0.6670   0.7855   0.9421
     1.5270   1.6730   2.2255   2.3598   2.5797   3.1271   3.5647   4.1472
     4.6242  13.4965  13.9063  14.2804  14.7462  15.0596  15.5343  16.0579

          k = 0.1999-0.5771 0.0000 ( 13552 PWs)   bands (ev):

    -7.2604  -7.2538  -7.1547  -6.9588  -6.6433  -6.2105  -5.6641  -5.0071
    -4.6597  -4.6419  -4.0918  -3.7547  -3.3378  -3.0621  -2.6600  -2.5326
    -0.8335  -0.5376  -0.4354  -0.4179  -0.0724   0.5257   1.1128   1.3362
     1.3545   1.5913   1.9155   2.1047   2.2615   2.9871   3.5262   3.8386
     3.8423  13.3782  14.0288  14.7869  15.2820  15.2849  15.3662  16.0824

          k = 0.2998-0.6348 0.0000 ( 13581 PWs)   bands (ev):

    -7.3336  -7.1176  -6.7844  -6.3830  -5.9910  -5.6850  -5.4685  -4.7223
    -4.7169  -3.8089  -3.7833  -3.5218  -3.4683  -3.3485  -2.9614  -2.5519
    -1.3927  -1.2216  -1.0218  -0.9098  -0.4463  -0.3693   0.2702   0.2740
     1.0974   1.6759   2.2990   2.4653   2.5885   2.7567   2.7734   3.1356
     3.5796  14.0344  14.2255  14.4751  14.8977  15.0511  15.4259  15.6035

     the Fermi energy is     9.3600 ev

!    total energy              =    -297.32765977 Ry
     estimated scf accuracy    <          2.3E-12 Ry
     smearing contrib. (-TS)   =      -0.00000000 Ry
     internal energy E=F+TS    =    -297.32765977 Ry

     The total energy is F=E-TS. E is the sum of the following terms:
     one-electron contribution =   -2236.40770587 Ry
     hartree contribution      =    1155.51802735 Ry
     xc contribution           =     -76.33448914 Ry
     ewald contribution        =     958.50284861 Ry
     one-center paw contrib.   =     -98.60634073 Ry

     convergence has been achieved in   8 iterations

     negative rho (up, down):  1.927E-08 0.000E+00

     Forces acting on atoms (cartesian axes, Ry/au):

     atom    1 type  1   force =    -0.00000000    0.00000000   -0.00013341
     atom    2 type  1   force =     0.00000000   -0.00000000    0.00003964
     atom    3 type  1   force =     0.00000000   -0.00000000    0.00009262
     atom    4 type  1   force =     0.00000000   -0.00000000    0.00004341
     atom    5 type  1   force =     0.00000000    0.00000000   -0.00016520
     atom    6 type  1   force =     0.00000000    0.00000000   -0.00023763
     atom    7 type  1   force =     0.00000000    0.00000000   -0.00024041
     atom    8 type  1   force =    -0.00000000   -0.00000000   -0.00012832
     atom    9 type  1   force =     0.00000000    0.00000000    0.00012832
     atom   10 type  1   force =    -0.00000000   -0.00000000    0.00024041
     atom   11 type  1   force =     0.00000000    0.00000000    0.00023763
     atom   12 type  1   force =     0.00000000    0.00000000    0.00016520
     atom   13 type  1   force =     0.00000000    0.00000000   -0.00004341
     atom   14 type  1   force =     0.00000000   -0.00000000   -0.00009262
     atom   15 type  1   force =     0.00000000   -0.00000000   -0.00003964
     atom   16 type  1   force =    -0.00000000    0.00000000    0.00013341
     atom   17 type  2   force =     0.00000000    0.00000000   -0.00016843
     atom   18 type  2   force =     0.00000000   -0.00000000    0.00016843

     Total force =     0.000658     Total SCF correction =     0.000002


     Computing stress (Cartesian axis) and pressure


     negative rho (up, down):  1.927E-08 0.000E+00
          total   stress  (Ry/bohr**3)                   (kbar)     P=       -0.66
   0.00000011   0.00000000   0.00000000            0.02        0.00        0.00
  -0.00000000   0.00000011   0.00000000           -0.00        0.02        0.00
   0.00000000  -0.00000000  -0.00001373            0.00       -0.00       -2.02

     Energy error            =      6.2E-07 Ry
     Gradient error          =      2.4E-04 Ry/Bohr
     Cell gradient error     =      1.7E-02 kbar

     number of scf cycles    =  11
     number of bfgs steps    =  10

     enthalpy           old  =    -297.3276591582 Ry
     enthalpy           new  =    -297.3276597747 Ry

     CASE: enthalpy          _new < enthalpy          _old

     new trust radius        =       0.0011531950 bohr
     new conv_thr            =            1.0E-11 Ry

     new unit-cell volume =    938.43457 a.u.^3 (   139.06166 Ang^3 )
     density =      2.31885 g/cm^3

CELL_PARAMETERS (angstrom)
   2.527566866   0.000000000   0.000000000
   1.263783433   2.188937112   0.000000000
   0.000000000   0.000000000  25.134569970

ATOMIC_POSITIONS (crystal)
C                0.3333333300        0.3333333300        0.7966868360
C                0.6666666700        0.6666666700        0.7772701703
C                0.6666666700        0.6666666700        0.7154379983
C               -0.0000000000        0.0000000000        0.6949629195
C                0.0000000000       -0.0000000000        0.6333925547
C                0.3333333300        0.3333333300        0.6128826460
C                0.3333333300        0.3333333300        0.5513142547
C                0.6666666700        0.6666666700        0.5307908377
C                0.6666666700        0.6666666700        0.4692091623
C               -0.0000000000        0.0000000000        0.4486857453
C                0.0000000000       -0.0000000000        0.3871173540
C                0.3333333300        0.3333333300        0.3666074453
C                0.3333333300        0.3333333300        0.3050370805
C                0.6666666700        0.6666666700        0.2845620017
C                0.6666666700        0.6666666700        0.2227298297
C               -0.0000000000        0.0000000000        0.2033131640
H                0.3333333300        0.3333333300        0.8408162755
H               -0.0000000000       -0.0000000000        0.1591837245



     Writing config-only to output data dir /tmp/qe/slab.save/ :
     XML data file
     NEW-OLD atomic charge density approx. for the potential

     Check: negative core charge=   -0.000001

     negative rho (up, down):  2.021E-08 0.000E+00

     total cpu time spent up to now is      207.3 secs

     Self-consistent Calculation

     iteration #  1     ecut=    90.00 Ry     beta= 0.30
     Davidson diagonalization with overlap
     ethr =  1.00E-06,  avg # of iterations =  2.0

     Threshold (ethr) on eigenvalues was too large:
     Diagonalizing with lowered threshold

     Davidson diagonalization with overlap
     ethr =  1.51E-09,  avg # of iterations =  4.4

     negative rho (up, down):  2.037E-08 0.000E+00

     total cpu time spent up to now is      210.6 secs

     total energy              =    -297.32766059 Ry
     estimated scf accuracy    <       0.00000113 Ry

     iteration #  2     ecut=    90.00 Ry     beta= 0.30
     Davidson diagonalization with overlap
     ethr =  1.71E-09,  avg # of iterations =  2.0

     negative rho (up, down):  2.026E-08 0.000E+00

     total cpu time spent up to now is      211.9 secs

     total energy              =    -297.32766060 Ry
     estimated scf accuracy    <       0.00000037 Ry

     iteration #  3     ecut=    90.00 Ry     beta= 0.30
     Davidson diagonalization with overlap
     ethr =  5.58E-10,  avg # of iterations =  1.9

     negative rho (up, down):  2.031E-08 0.000E+00

     total cpu time spent up to now is      213.2 secs

     total energy              =    -297.32766059 Ry
     estimated scf accuracy    <       0.00000013 Ry

     iteration #  4     ecut=    90.00 Ry     beta= 0.30
     Davidson diagonalization with overlap
     ethr =  1.97E-10,  avg # of iterations =  2.0

     negative rho (up, down):  2.039E-08 0.000E+00

     total cpu time spent up to now is      214.6 secs

     total energy              =    -297.32766060 Ry
     estimated scf accuracy    <          7.8E-09 Ry

     iteration #  5     ecut=    90.00 Ry     beta= 0.30
     Davidson diagonalization with overlap
     ethr =  1.18E-11,  avg # of iterations =  2.1

     negative rho (up, down):  2.050E-08 0.000E+00

     total cpu time spent up to now is      216.1 secs

     total energy              =    -297.32766061 Ry
     estimated scf accuracy    <          2.6E-09 Ry

     iteration #  6     ecut=    90.00 Ry     beta= 0.30
     Davidson diagonalization with overlap
     ethr =  3.89E-12,  avg # of iterations =  2.3

     negative rho (up, down):  2.054E-08 0.000E+00

     total cpu time spent up to now is      217.5 secs

     total energy              =    -297.32766061 Ry
     estimated scf accuracy    <          3.0E-10 Ry

     iteration #  7     ecut=    90.00 Ry     beta= 0.30
     Davidson diagonalization with overlap
     ethr =  4.61E-13,  avg # of iterations =  2.4

     negative rho (up, down):  2.057E-08 0.000E+00

     total cpu time spent up to now is      219.0 secs

     total energy              =    -297.32766061 Ry
     estimated scf accuracy    <          5.4E-11 Ry

     iteration #  8     ecut=    90.00 Ry     beta= 0.30
     Davidson diagonalization with overlap
     ethr =  1.00E-13,  avg # of iterations =  2.3

     negative rho (up, down):  2.059E-08 0.000E+00

     total cpu time spent up to now is      220.5 secs

     End of self-consistent calculation

          k = 0.0000 0.0000 0.0000 ( 13421 PWs)   bands (ev):

   -13.5298 -13.2520 -12.7948 -12.1653 -11.3683 -10.4237  -9.3775  -8.3770
    -5.1752  -4.1039  -2.6240  -0.9421   0.8544   2.6825   4.4397   5.0421
     5.0421   5.2177   5.2177   5.4998   5.4998   5.8752   5.8752   6.0069
     6.3289   6.3289   6.8245   6.8245   7.2313   7.2953   7.2953   7.6417
     7.6417  10.0948  10.6664  12.7279  13.5447  13.5447  13.6783  14.0336

          k =-0.0000 0.1154 0.0000 ( 13535 PWs)   bands (ev):

   -13.2852 -13.0080 -12.5521 -11.9244 -11.1301 -10.1893  -9.1484  -8.1551
    -4.9541  -3.8936  -2.4312  -0.7742   0.9860   2.7568   3.8424   4.0397
     4.3362   4.4166   4.5010   4.6979   4.8167   5.0128   5.2407   5.4279
     5.7050   5.9221   6.0095   6.2478   6.4522   6.6226   6.9461   7.0720
     7.3035  10.3225  10.8615  12.8815  13.3411  13.8940  14.0416  14.5377

          k =-0.0000 0.2308 0.0000 ( 13503 PWs)   bands (ev):

   -12.5551 -12.2800 -11.8280 -11.2064 -10.4207  -9.4920  -8.4676  -7.4962
    -4.3238  -3.2999  -1.9016  -0.3498   1.0791   1.3276   1.6475   1.7769
     2.2564   2.8391   3.0411   3.4379   3.4648   3.6557   4.0044   4.0452
     4.4522   4.4636   4.5040   5.0068   5.5829   5.6725   6.1121   6.4567
     6.4897  11.0253  11.4320  12.6961  13.2558  13.5303  14.1558  14.4944

          k =-0.0000 0.3462 0.0000 ( 13492 PWs)   bands (ev):

   -11.3536 -11.0829 -10.6387 -10.0294  -9.2616  -8.3577  -7.3665  -6.4340
    -3.5345  -2.6583  -1.8952  -1.4787  -1.0053  -0.9124  -0.3582   0.0997
     0.3572   1.1357   1.3423   1.8704   2.3308   2.4572   2.6845   3.0493
     3.0927   3.5300   4.0981   4.1078   4.6989   5.0366   5.2485   5.6391
     5.6543  12.0328  12.1570  12.5218  12.9315  13.4915  13.9209  14.4476

          k =-0.0000 0.4616 0.0000 ( 13548 PWs)   bands (ev):

    -9.7204  -9.4604  -9.0365  -8.4619  -7.7513  -6.9412  -6.0948  -5.3167
    -4.3093  -4.1483  -4.0000  -3.6586  -3.0084  -2.2092  -1.3790  -1.0513
    -0.5792  -0.2818   0.6710   1.5295   1.8077   1.8623   2.0392   2.4108
     2.5013   2.9008   3.4800   3.5212   4.0919   4.4232   4.6510   5.0172
     5.0477  12.1294  12.5803  13.0511  13.5107  13.6061  13.8037  14.2602

          k = 0.0000-0.5771 0.0000 ( 13548 PWs)   bands (ev):

    -7.9072  -7.8966  -7.7897  -7.5802  -7.2443  -6.7815  -6.1954  -5.5584
    -5.2832  -4.9896  -4.5176  -4.2601  -3.6097  -3.4292  -2.7702  -2.6902
     0.3351   0.3454   0.8640   1.0909   1.3579   1.5831   1.8156   2.1820
     2.1892   2.6819   3.2636   3.2642   3.8793   4.1825   4.4411   4.7817
     4.8397  12.5472  12.6574  12.8824  13.0969  13.5718  13.6537  14.3081

          k = 0.0999 0.1731 0.0000 ( 13531 PWs)   bands (ev):

   -12.7978 -12.5220 -12.0686 -11.4449 -10.6562  -9.7233  -8.6932  -7.7145
    -4.5267  -3.4895  -2.0667  -0.4696   1.1894   2.4617   2.5145   2.6341
     2.6859   3.1128   3.1816   3.6703   3.8913   3.9297   4.2981   4.4684
     4.6054   4.7850   5.1363   5.4480   5.5711   5.7174   6.0129   6.3485
     7.0001  10.8059  11.2683  13.3488  13.6699  13.7010  14.1030  14.5599

          k = 0.0999 0.2885 0.0000 ( 13484 PWs)   bands (ev):

   -11.8316 -11.5590 -11.1113 -10.4965  -9.7206  -8.8054  -7.7991  -6.8497
    -3.7717  -2.7992  -1.5190  -0.4013   0.0601   0.2414   0.4074   0.8409
     1.2822   1.3574   1.9586   2.0835   2.4604   2.5895   2.8983   3.2423
     3.3501   3.6258   3.8002   4.1060   4.5251   4.6526   5.1224   5.6947
     6.3285  11.7501  12.0673  13.1485  13.8002  14.2219  14.6109  14.8027

          k = 0.0999 0.4039 0.0000 ( 13494 PWs)   bands (ev):

   -10.4106 -10.1445  -9.7088  -9.1131  -8.3658  -7.4913  -6.5396  -5.6476
    -3.5181  -3.1307  -2.9180  -2.4492  -1.8158  -1.2268  -1.0975  -0.4971
    -0.2427   0.3915   0.4842   1.2419   1.4783   1.6961   1.9572   2.1546
     2.2849   2.7114   3.0574   3.3664   3.9512   4.0451   4.4076   4.8902
     5.4501  12.6997  12.9150  13.3316  13.7484  14.3409  14.8126  15.2845

          k = 0.0999-0.6348 0.0000 ( 13524 PWs)   bands (ev):

    -8.6145  -8.3747  -7.9955  -7.5157  -7.0012  -6.4873  -5.9087  -5.2506
    -4.9086  -4.6185  -4.3067  -3.9564  -3.5403  -3.2087  -2.3937  -1.6556
    -0.3126   0.3372   0.7928   0.9497   1.0737   1.1206   1.5523   1.6305
     1.7957   2.2558   2.5738   3.0449   3.3989   3.7642   4.0956   4.3445
     4.7401  12.8482  13.4198  13.9666  14.0968  14.2831  14.7371  14.8013

          k = 0.1999 0.3462 0.0000 ( 13457 PWs)   bands (ev):

   -10.6440 -10.3763  -9.9377  -9.3371  -8.5819  -7.6953  -6.7258  -5.8144
    -3.2732  -2.5384  -1.8720  -1.4704  -1.1081  -0.7615  -0.7233  -0.3479
    -0.1872   0.1681   0.5356   0.8562   1.0686   1.4687   1.9461   2.0208
     2.0395   2.6162   2.6864   2.9597   3.1069   3.3097   4.2013   5.0453
     5.6034  12.8805  13.0420  14.1310  14.2216  14.8136  14.9119  15.7814

          k = 0.1999-0.6925 0.0000 ( 13537 PWs)   bands (ev):

    -9.0375  -8.7821  -8.3668  -7.8055  -7.1144  -6.3304  -5.5133  -4.7378
    -4.0587  -3.7663  -3.6379  -3.3038  -2.7815  -2.2363  -1.6772  -1.1587
    -0.6689  -0.4239  -0.1128   0.0272   0.3757   0.6668   0.7852   0.9420
     1.5269   1.6730   2.2255   2.3599   2.5795   3.1270   3.5645   4.1471
     4.6241  13.4974  13.9067  14.2810  14.7472  15.0605  15.5349  16.0587

          k = 0.1999-0.5771 0.0000 ( 13552 PWs)   bands (ev):

    -7.2619  -7.2550  -7.1555  -6.9595  -6.6439  -6.2111  -5.6648  -5.0074
    -4.6602  -4.6428  -4.0923  -3.7549  -3.3380  -3.0622  -2.6600  -2.5326
    -0.8345  -0.5381  -0.4360  -0.4187  -0.0726   0.5253   1.1124   1.3360
     1.3539   1.5913   1.9154   2.1047   2.2614   2.9871   3.5262   3.8386
     3.8421  13.3794  14.0295  14.7876  15.2831  15.2858  15.3667  16.0832

          k = 0.2998-0.6348 0.0000 ( 13581 PWs)   bands (ev):

    -7.3350  -7.1186  -6.7851  -6.3838  -5.9918  -5.6860  -5.4698  -4.7223
    -4.7169  -3.8097  -3.7841  -3.5221  -3.4685  -3.3489  -2.9616  -2.5521
    -1.3934  -1.2223  -1.0219  -0.9103  -0.4466  -0.3693   0.2703   0.2741
     1.0969   1.6758   2.2990   2.4649   2.5881   2.7567   2.7734   3.1355
     3.5796  14.0354  14.2268  14.4756  14.8986  15.0520  15.4268  15.6043

     the Fermi energy is     9.3602 ev

!    total energy              =    -297.32766061 Ry
     estimated scf accuracy    <          4.4E-12 Ry
     smearing contrib. (-TS)   =      -0.00000000 Ry
     internal energy E=F+TS    =    -297.32766061 Ry

     The total energy is F=E-TS. E is the sum of the following terms:
     one-electron contribution =   -2237.25625153 Ry
     hartree contribution      =    1155.94196800 Ry
     xc contribution           =     -76.33543008 Ry
     ewald contribution        =     958.92841577 Ry
     one-center paw contrib.   =     -98.60636276 Ry

     convergence has been achieved in   8 iterations

     negative rho (up, down):  2.059E-08 0.000E+00

     Forces acting on atoms (cartesian axes, Ry/au):

     atom    1 type  1   force =    -0.00000000    0.00000000   -0.00018407
     atom    2 type  1   force =     0.00000000    0.00000000    0.00008820
     atom    3 type  1   force =    -0.00000000    0.00000000    0.00013794
     atom    4 type  1   force =     0.00000000    0.00000000    0.00011141
     atom    5 type  1   force =     0.00000000    0.00000000   -0.00013883
     atom    6 type  1   force =     0.00000000    0.00000000   -0.00022083
     atom    7 type  1   force =    -0.00000000   -0.00000000   -0.00024682
     atom    8 type  1   force =    -0.00000000   -0.00000000   -0.00015255
     atom    9 type  1   force =    -0.00000000    0.00000000    0.00015255
     atom   10 type  1   force =    -0.00000000   -0.00000000    0.00024682
     atom   11 type  1   force =    -0.00000000    0.00000000    0.00022083
     atom   12 type  1   force =     0.00000000    0.00000000    0.00013883
     atom   13 type  1   force =     0.00000000    0.00000000   -0.00011141
     atom   14 type  1   force =     0.00000000    0.00000000   -0.00013794
     atom   15 type  1   force =    -0.00000000   -0.00000000   -0.00008820
     atom   16 type  1   force =     0.00000000   -0.00000000    0.00018407
     atom   17 type  2   force =    -0.00000000    0.00000000   -0.00013264
     atom   18 type  2   force =    -0.00000000   -0.00000000    0.00013264

     Total force =     0.000697     Total SCF correction =     0.000002


     Computing stress (Cartesian axis) and pressure


     negative rho (up, down):  2.059E-08 0.000E+00
          total   stress  (Ry/bohr**3)                   (kbar)     P=       -0.46
   0.00000019  -0.00000000   0.00000000            0.03       -0.00        0.00
  -0.00000000   0.00000019   0.00000000           -0.00        0.03        0.00
   0.00000000  -0.00000000  -0.00000986            0.00       -0.00       -1.45

     Energy error            =      8.3E-07 Ry
     Gradient error          =      2.5E-04 Ry/Bohr
     Cell gradient error     =      2.8E-02 kbar

     number of scf cycles    =  12
     number of bfgs steps    =  11

     enthalpy           old  =    -297.3276597747 Ry
     enthalpy           new  =    -297.3276606068 Ry

     CASE: enthalpy          _new < enthalpy          _old

     new trust radius        =       0.0017297925 bohr
     new conv_thr            =            1.0E-11 Ry

     new unit-cell volume =    938.44238 a.u.^3 (   139.06281 Ang^3 )
     density =      2.31883 g/cm^3

CELL_PARAMETERS (angstrom)
   2.527577386   0.000000000   0.000000000
   1.263788693   2.188946223   0.000000000
   0.000000000   0.000000000  25.134569970

ATOMIC_POSITIONS (crystal)
C                0.3333333300        0.3333333300        0.7966527360
C                0.6666666700        0.6666666700        0.7772375075
C                0.6666666700        0.6666666700        0.7154087408
C               -0.0000000000        0.0000000000        0.6949349859
C                0.0000000000       -0.0000000000        0.6333688068
C                0.3333333300        0.3333333300        0.6128616141
C                0.3333333300        0.3333333300        0.5513028918
C                0.6666666700        0.6666666700        0.5307842665
C                0.6666666700        0.6666666700        0.4692157335
C               -0.0000000000        0.0000000000        0.4486971082
C                0.0000000000       -0.0000000000        0.3871383859
C                0.3333333300        0.3333333300        0.3666311932
C                0.3333333300        0.3333333300        0.3050650141
C                0.6666666700        0.6666666700        0.2845912592
C                0.6666666700        0.6666666700        0.2227624925
C               -0.0000000000        0.0000000000        0.2033472640
H                0.3333333300        0.3333333300        0.8407798568
H               -0.0000000000       -0.0000000000        0.1592201432



     Writing config-only to output data dir /tmp/qe/slab.save/ :
     XML data file
     NEW-OLD atomic charge density approx. for the potential

     Check: negative core charge=   -0.000001

     negative rho (up, down):  2.246E-08 0.000E+00

     total cpu time spent up to now is      224.8 secs

     Self-consistent Calculation

     iteration #  1     ecut=    90.00 Ry     beta= 0.30
     Davidson diagonalization with overlap
     ethr =  1.00E-06,  avg # of iterations =  2.0

     Threshold (ethr) on eigenvalues was too large:
     Diagonalizing with lowered threshold

     Davidson diagonalization with overlap
     ethr =  2.99E-09,  avg # of iterations =  4.0

     negative rho (up, down):  2.272E-08 0.000E+00

     total cpu time spent up to now is      228.1 secs

     total energy              =    -297.32766140 Ry
     estimated scf accuracy    <       0.00000238 Ry

     iteration #  2     ecut=    90.00 Ry     beta= 0.30
     Davidson diagonalization with overlap
     ethr =  3.60E-09,  avg # of iterations =  2.0

     negative rho (up, down):  2.257E-08 0.000E+00

     total cpu time spent up to now is      229.4 secs

     total energy              =    -297.32766144 Ry
     estimated scf accuracy    <       0.00000076 Ry

     iteration #  3     ecut=    90.00 Ry     beta= 0.30
     Davidson diagonalization with overlap
     ethr =  1.16E-09,  avg # of iterations =  1.9

     negative rho (up, down):  2.271E-08 0.000E+00

     total cpu time spent up to now is      230.7 secs

     total energy              =    -297.32766143 Ry
     estimated scf accuracy    <       0.00000028 Ry

     iteration #  4     ecut=    90.00 Ry     beta= 0.30
     Davidson diagonalization with overlap
     ethr =  4.26E-10,  avg # of iterations =  1.9

     negative rho (up, down):  2.285E-08 0.000E+00

     total cpu time spent up to now is      232.0 secs

     total energy              =    -297.32766145 Ry
     estimated scf accuracy    <       0.00000002 Ry

     iteration #  5     ecut=    90.00 Ry     beta= 0.30
     Davidson diagonalization with overlap
     ethr =  2.38E-11,  avg # of iterations =  2.4

     negative rho (up, down):  2.300E-08 0.000E+00

     total cpu time spent up to now is      233.6 secs

     total energy              =    -297.32766146 Ry
     estimated scf accuracy    <          5.0E-09 Ry

     iteration #  6     ecut=    90.00 Ry     beta= 0.30
     Davidson diagonalization with overlap
     ethr =  7.52E-12,  avg # of iterations =  2.1

     negative rho (up, down):  2.305E-08 0.000E+00

     total cpu time spent up to now is      235.0 secs

     total energy              =    -297.32766146 Ry
     estimated scf accuracy    <          5.6E-10 Ry

     iteration #  7     ecut=    90.00 Ry     beta= 0.30
     Davidson diagonalization with overlap
     ethr =  8.54E-13,  avg # of iterations =  2.3

     negative rho (up, down):  2.309E-08 0.000E+00

     total cpu time spent up to now is      236.5 secs

     total energy              =    -297.32766146 Ry
     estimated scf accuracy    <          1.0E-10 Ry

     iteration #  8     ecut=    90.00 Ry     beta= 0.30
     Davidson diagonalization with overlap
     ethr =  1.59E-13,  avg # of iterations =  2.5

     negative rho (up, down):  2.311E-08 0.000E+00

     total cpu time spent up to now is      238.1 secs

     End of self-consistent calculation

          k = 0.0000 0.0000 0.0000 ( 13421 PWs)   bands (ev):

   -13.5317 -13.2529 -12.7960 -12.1663 -11.3690 -10.4242  -9.3777  -8.3764
    -5.1764  -4.1040  -2.6241  -0.9418   0.8550   2.6833   4.4404   5.0403
     5.0403   5.2167   5.2167   5.4986   5.4986   5.8742   5.8742   6.0076
     6.3281   6.3281   6.8239   6.8239   7.2316   7.2950   7.2950   7.6415
     7.6415  10.0950  10.6664  12.7275  13.5438  13.5438  13.6805  14.0334

          k =-0.0000 0.1154 0.0000 ( 13535 PWs)   bands (ev):

   -13.2871 -13.0090 -12.5532 -11.9254 -11.1308 -10.1897  -9.1486  -8.1546
    -4.9553  -3.8937  -2.4314  -0.7739   0.9865   2.7575   3.8406   4.0388
     4.3354   4.4166   4.4992   4.6970   4.8161   5.0117   5.2401   5.4270
     5.7047   5.9214   6.0099   6.2475   6.4517   6.6225   6.9458   7.0721
     7.3033  10.3227  10.8615  12.8811  13.3411  13.8945  14.0406  14.5362

          k =-0.0000 0.2308 0.0000 ( 13503 PWs)   bands (ev):

   -12.5570 -12.2810 -11.8291 -11.2074 -10.4215  -9.4924  -8.4679  -7.4957
    -4.3250  -3.3000  -1.9019  -0.3497   1.0784   1.3263   1.6471   1.7758
     2.2555   2.8384   3.0414   3.4360   3.4644   3.6547   4.0033   4.0450
     4.4525   4.4627   4.5041   5.0061   5.5825   5.6727   6.1119   6.4565
     6.4897  11.0256  11.4319  12.6962  13.2561  13.5298  14.1554  14.4944

          k =-0.0000 0.3462 0.0000 ( 13492 PWs)   bands (ev):

   -11.3555 -11.0839 -10.6399 -10.0304  -9.2624  -8.3581  -7.3668  -6.4336
    -3.5359  -2.6587  -1.8967  -1.4798  -1.0060  -0.9135  -0.3589   0.0993
     0.3568   1.1355   1.3422   1.8706   2.3312   2.4553   2.6836   3.0481
     3.0927   3.5291   4.0975   4.1076   4.6986   5.0365   5.2484   5.6391
     5.6540  12.0331  12.1571  12.5220  12.9313  13.4910  13.9206  14.4473

          k =-0.0000 0.4616 0.0000 ( 13548 PWs)   bands (ev):

    -9.7223  -9.4614  -9.0377  -8.4630  -7.7521  -6.9418  -6.0955  -5.3168
    -4.3106  -4.1496  -4.0006  -3.6594  -3.0092  -2.2098  -1.3795  -1.0522
    -0.5790  -0.2818   0.6708   1.5297   1.8059   1.8618   2.0382   2.4097
     2.5009   2.8999   3.4793   3.5210   4.0915   4.4232   4.6509   5.0170
     5.0478  12.1294  12.5801  13.0503  13.5105  13.6061  13.8037  14.2602

          k = 0.0000-0.5771 0.0000 ( 13548 PWs)   bands (ev):

    -7.9095  -7.8981  -7.7908  -7.5814  -7.2454  -6.7825  -6.1964  -5.5592
    -5.2845  -4.9903  -4.5183  -4.2605  -3.6100  -3.4295  -2.7699  -2.6898
     0.3342   0.3444   0.8639   1.0905   1.3578   1.5812   1.8147   2.1817
     2.1881   2.6810   3.2634   3.2635   3.8790   4.1826   4.4410   4.7816
     4.8398  12.5456  12.6578  12.8829  13.0963  13.5724  13.6532  14.3078

          k = 0.0999 0.1731 0.0000 ( 13531 PWs)   bands (ev):

   -12.7997 -12.5230 -12.0698 -11.4459 -10.6570  -9.7237  -8.6935  -7.7140
    -4.5279  -3.4897  -2.0670  -0.4694   1.1897   2.4598   2.5135   2.6333
     2.6850   3.1127   3.1806   3.6695   3.8898   3.9291   4.2975   4.4677
     4.6058   4.7845   5.1358   5.4480   5.5706   5.7174   6.0128   6.3486
     7.0002  10.8061  11.2682  13.3483  13.6699  13.7014  14.1032  14.5596

          k = 0.0999 0.2885 0.0000 ( 13484 PWs)   bands (ev):

   -11.8335 -11.5599 -11.1124 -10.4975  -9.7214  -8.8058  -7.7994  -6.8492
    -3.7730  -2.7995  -1.5195  -0.4023   0.0592   0.2404   0.4066   0.8400
     1.2814   1.3569   1.9583   2.0831   2.4597   2.5883   2.8977   3.2422
     3.3499   3.6251   3.8001   4.1056   4.5251   4.6524   5.1223   5.6948
     6.3284  11.7504  12.0673  13.1488  13.8003  14.2219  14.6106  14.8033

          k = 0.0999 0.4039 0.0000 ( 13494 PWs)   bands (ev):

   -10.4125 -10.1455  -9.7100  -9.1141  -8.3666  -7.4919  -6.5399  -5.6472
    -3.5197  -3.1320  -2.9190  -2.4502  -1.8167  -1.2277  -1.0981  -0.4973
    -0.2432   0.3913   0.4840   1.2410   1.4774   1.6956   1.9564   2.1537
     2.2850   2.7107   3.0572   3.3660   3.9511   4.0448   4.4077   4.8902
     5.4500  12.7002  12.9153  13.3319  13.7487  14.3403  14.8122  15.2846

          k = 0.0999-0.6348 0.0000 ( 13524 PWs)   bands (ev):

    -8.6164  -8.3757  -7.9967  -7.5169  -7.0024  -6.4884  -5.9097  -5.2512
    -4.9099  -4.6194  -4.3072  -3.9570  -3.5401  -3.2092  -2.3940  -1.6555
    -0.3137   0.3369   0.7911   0.9487   1.0730   1.1202   1.5519   1.6299
     1.7950   2.2553   2.5732   3.0447   3.3986   3.7642   4.0956   4.3445
     4.7400  12.8495  13.4204  13.9662  14.0961  14.2827  14.7367  14.8016

          k = 0.1999 0.3462 0.0000 ( 13457 PWs)   bands (ev):

   -10.6459 -10.3773  -9.9389  -9.3381  -8.5827  -7.6958  -6.7261  -5.8140
    -3.2748  -2.5390  -1.8733  -1.4718  -1.1092  -0.7622  -0.7244  -0.3487
    -0.1878   0.1675   0.5350   0.8559   1.0673   1.4682   1.9456   2.0206
     2.0388   2.6162   2.6865   2.9597   3.1071   3.3098   4.2011   5.0453
     5.6033  12.8808  13.0422  14.1320  14.2227  14.8142  14.9127  15.7814

          k = 0.1999-0.6925 0.0000 ( 13537 PWs)   bands (ev):

    -9.0395  -8.7831  -8.3680  -7.8066  -7.1153  -6.3311  -5.5141  -4.7379
    -4.0599  -3.7679  -3.6382  -3.3047  -2.7824  -2.2371  -1.6779  -1.1592
    -0.6701  -0.4253  -0.1134   0.0267   0.3749   0.6665   0.7846   0.9418
     1.5267   1.6728   2.2256   2.3599   2.5793   3.1270   3.5642   4.1470
     4.6240  13.4987  13.9073  14.2820  14.7484  15.0615  15.5358  16.0598

          k = 0.1999-0.5771 0.0000 ( 13552 PWs)   bands (ev):

    -7.2642  -7.2565  -7.1566  -6.9607  -6.6451  -6.2122  -5.6660  -5.0080
    -4.6610  -4.6441  -4.0929  -3.7553  -3.3384  -3.0626  -2.6602  -2.5327
    -0.8358  -0.5386  -0.4371  -0.4199  -0.0731   0.5247   1.1116   1.3355
     1.3532   1.5912   1.9155   2.1048   2.2612   2.9871   3.5262   3.8387
     3.8416  13.3812  14.0305  14.7887  15.2844  15.2875  15.3675  16.0842

          k = 0.2998-0.6348 0.0000 ( 13581 PWs)   bands (ev):

    -7.3370  -7.1196  -6.7864  -6.3850  -5.9931  -5.6873  -5.4718  -4.7227
    -4.7173  -3.8109  -3.7853  -3.5226  -3.4690  -3.3495  -2.9621  -2.5526
    -1.3943  -1.2236  -1.0221  -0.9110  -0.4471  -0.3696   0.2703   0.2741
     1.0961   1.6757   2.2989   2.4645   2.5874   2.7566   2.7734   3.1353
     3.5795  14.0368  14.2286  14.4764  14.9002  15.0532  15.4283  15.6054

     the Fermi energy is     9.3605 ev

!    total energy              =    -297.32766145 Ry
     estimated scf accuracy    <          5.8E-12 Ry
     smearing contrib. (-TS)   =      -0.00000000 Ry
     internal energy E=F+TS    =    -297.32766145 Ry

     The total energy is F=E-TS. E is the sum of the following terms:
     one-electron contribution =   -2238.46116505 Ry
     hartree contribution      =    1156.54383214 Ry
     xc contribution           =     -76.33679287 Ry
     ewald contribution        =     959.53285868 Ry
     one-center paw contrib.   =     -98.60639435 Ry

     convergence has been achieved in   8 iterations

     negative rho (up, down):  2.311E-08 0.000E+00

     Forces acting on atoms (cartesian axes, Ry/au):

     atom    1 type  1   force =     0.00000000    0.00000000   -0.00017652
     atom    2 type  1   force =     0.00000000    0.00000000    0.00010270
     atom    3 type  1   force =     0.00000000    0.00000000    0.00014211
     atom    4 type  1   force =     0.00000000   -0.00000000    0.00013137
     atom    5 type  1   force =     0.00000000    0.00000000   -0.00007169
     atom    6 type  1   force =     0.00000000   -0.00000000   -0.00014442
     atom    7 type  1   force =     0.00000000   -0.00000000   -0.00019654
     atom    8 type  1   force =     0.00000000   -0.00000000   -0.00011223
     atom    9 type  1   force =     0.00000000   -0.00000000    0.00011223
     atom   10 type  1   force =     0.00000000   -0.00000000    0.00019654
     atom   11 type  1   force =    -0.00000000    0.00000000    0.00014442
     atom   12 type  1   force =     0.00000000    0.00000000    0.00007169
     atom   13 type  1   force =    -0.00000000    0.00000000   -0.00013137
     atom   14 type  1   force =     0.00000000    0.00000000   -0.00014211
     atom   15 type  1   force =     0.00000000    0.00000000   -0.00010270
     atom   16 type  1   force =     0.00000000   -0.00000000    0.00017652
     atom   17 type  2   force =     0.00000000   -0.00000000   -0.00006357
     atom   18 type  2   force =     0.00000000   -0.00000000    0.00006357

     Total force =     0.000566     Total SCF correction =     0.000005


     Computing stress (Cartesian axis) and pressure


     negative rho (up, down):  2.311E-08 0.000E+00
          total   stress  (Ry/bohr**3)                   (kbar)     P=       -0.18
   0.00000026   0.00000000   0.00000000            0.04        0.00        0.00
  -0.00000000   0.00000026  -0.00000000           -0.00        0.04       -0.00
   0.00000000  -0.00000000  -0.00000418            0.00       -0.00       -0.61

     Energy error            =      8.5E-07 Ry
     Gradient error          =      2.0E-04 Ry/Bohr
     Cell gradient error     =      3.8E-02 kbar

     number of scf cycles    =  13
     number of bfgs steps    =  12

     enthalpy           old  =    -297.3276606068 Ry
     enthalpy           new  =    -297.3276614532 Ry

     CASE: enthalpy          _new < enthalpy          _old

     new trust radius        =       0.0010184199 bohr
     new conv_thr            =            1.0E-11 Ry

     new unit-cell volume =    938.45320 a.u.^3 (   139.06442 Ang^3 )
     density =      2.31881 g/cm^3

CELL_PARAMETERS (angstrom)
   2.527591951   0.000000000   0.000000000
   1.263795976   2.188958837   0.000000000
   0.000000000   0.000000000  25.134569970

ATOMIC_POSITIONS (crystal)
C                0.3333333300        0.3333333300        0.7966328196
C                0.6666666700        0.6666666700        0.7772208967
C                0.6666666700        0.6666666700        0.7153953317
C               -0.0000000000        0.0000000000        0.6949218956
C                0.0000000000       -0.0000000000        0.6333547163
C                0.3333333300        0.3333333300        0.6128477192
C                0.3333333300        0.3333333300        0.5512933921
C                0.6666666700        0.6666666700        0.5307788842
C                0.6666666700        0.6666666700        0.4692211158
C               -0.0000000000        0.0000000000        0.4487066079
C                0.0000000000       -0.0000000000        0.3871522808
C                0.3333333300        0.3333333300        0.3666452837
C                0.3333333300        0.3333333300        0.3050781044
C                0.6666666700        0.6666666700        0.2846046683
C                0.6666666700        0.6666666700        0.2227791033
C               -0.0000000000        0.0000000000        0.2033671804
H                0.3333333300        0.3333333300        0.8407584153
H               -0.0000000000        0.0000000000        0.1592415847



     Writing config-only to output data dir /tmp/qe/slab.save/ :
     XML data file
     NEW-OLD atomic charge density approx. for the potential

     Check: negative core charge=   -0.000001

     negative rho (up, down):  2.424E-08 0.000E+00

     total cpu time spent up to now is      242.3 secs

     Self-consistent Calculation

     iteration #  1     ecut=    90.00 Ry     beta= 0.30
     Davidson diagonalization with overlap
     ethr =  1.00E-06,  avg # of iterations =  2.0

     Threshold (ethr) on eigenvalues was too large:
     Diagonalizing with lowered threshold

     Davidson diagonalization with overlap
     ethr =  1.10E-09,  avg # of iterations =  4.7

     negative rho (up, down):  2.438E-08 0.000E+00

     total cpu time spent up to now is      245.6 secs

     total energy              =    -297.32766173 Ry
     estimated scf accuracy    <       0.00000074 Ry

     iteration #  2     ecut=    90.00 Ry     beta= 0.30
     Davidson diagonalization with overlap
     ethr =  1.12E-09,  avg # of iterations =  1.9

     negative rho (up, down):  2.428E-08 0.000E+00

     total cpu time spent up to now is      246.9 secs

     total energy              =    -297.32766175 Ry
     estimated scf accuracy    <       0.00000023 Ry

     iteration #  3     ecut=    90.00 Ry     beta= 0.30
     Davidson diagonalization with overlap
     ethr =  3.53E-10,  avg # of iterations =  2.0

     negative rho (up, down):  2.432E-08 0.000E+00

     total cpu time spent up to now is      248.2 secs

     total energy              =    -297.32766175 Ry
     estimated scf accuracy    <       0.00000008 Ry

     iteration #  4     ecut=    90.00 Ry     beta= 0.30
     Davidson diagonalization with overlap
     ethr =  1.25E-10,  avg # of iterations =  1.9

     negative rho (up, down):  2.440E-08 0.000E+00

     total cpu time spent up to now is      249.6 secs

     total energy              =    -297.32766175 Ry
     estimated scf accuracy    <          6.1E-09 Ry

     iteration #  5     ecut=    90.00 Ry     beta= 0.30
     Davidson diagonalization with overlap
     ethr =  9.30E-12,  avg # of iterations =  2.1

     negative rho (up, down):  2.448E-08 0.000E+00

     total cpu time spent up to now is      251.1 secs

     total energy              =    -297.32766175 Ry
     estimated scf accuracy    <          1.5E-09 Ry

     iteration #  6     ecut=    90.00 Ry     beta= 0.30
     Davidson diagonalization with overlap
     ethr =  2.32E-12,  avg # of iterations =  2.2

     negative rho (up, down):  2.453E-08 0.000E+00

     total cpu time spent up to now is      252.5 secs

     total energy              =    -297.32766175 Ry
     estimated scf accuracy    <          1.9E-10 Ry

     iteration #  7     ecut=    90.00 Ry     beta= 0.30
     Davidson diagonalization with overlap
     ethr =  2.92E-13,  avg # of iterations =  2.9

     negative rho (up, down):  2.454E-08 0.000E+00

     total cpu time spent up to now is      254.1 secs

     total energy              =    -297.32766176 Ry
     estimated scf accuracy    <          4.5E-11 Ry

     iteration #  8     ecut=    90.00 Ry     beta= 0.30
     Davidson diagonalization with overlap
     ethr =  1.00E-13,  avg # of iterations =  2.8

     negative rho (up, down):  2.455E-08 0.000E+00

     total cpu time spent up to now is      255.7 secs

     total energy              =    -297.32766175 Ry
     estimated scf accuracy    <          2.4E-11 Ry

     iteration #  9     ecut=    90.00 Ry     beta= 0.30
     Davidson diagonalization with overlap
     ethr =  1.00E-13,  avg # of iterations =  1.9

     negative rho (up, down):  2.456E-08 0.000E+00

     total cpu time spent up to now is      257.0 secs

     End of self-consistent calculation

          k = 0.0000 0.0000 0.0000 ( 13421 PWs)   bands (ev):

   -13.5327 -13.2532 -12.7969 -12.1670 -11.3695 -10.4243  -9.3780  -8.3762
    -5.1770  -4.1040  -2.6245  -0.9414   0.8554   2.6838   4.4408   5.0392
     5.0392   5.2163   5.2163   5.4976   5.4976   5.8734   5.8734   6.0080
     6.3274   6.3274   6.8233   6.8233   7.2318   7.2947   7.2947   7.6412
     7.6412  10.0951  10.6664  12.7272  13.5431  13.5431  13.6816  14.0332

          k =-0.0000 0.1154 0.0000 ( 13535 PWs)   bands (ev):

   -13.2881 -13.0092 -12.5542 -11.9261 -11.1314 -10.1899  -9.1489  -8.1543
    -4.9559  -3.8937  -2.4318  -0.7736   0.9870   2.7579   3.8395   4.0384
     4.3346   4.4165   4.4981   4.6966   4.8154   5.0106   5.2395   5.4262
     5.7043   5.9208   6.0101   6.2471   6.4512   6.6223   6.9456   7.0721
     7.3031  10.3228  10.8615  12.8809  13.3410  13.8946  14.0400  14.5343

          k =-0.0000 0.2308 0.0000 ( 13503 PWs)   bands (ev):

   -12.5580 -12.2813 -11.8301 -11.2081 -10.4220  -9.4926  -8.4681  -7.4954
    -4.3257  -3.3001  -1.9023  -0.3494   1.0781   1.3257   1.6469   1.7749
     2.2548   2.8378   3.0417   3.4349   3.4640   3.6543   4.0022   4.0448
     4.4526   4.4619   4.5041   5.0055   5.5821   5.6729   6.1117   6.4565
     6.4895  11.0257  11.4319  12.6961  13.2562  13.5294  14.1551  14.4942

          k =-0.0000 0.3462 0.0000 ( 13492 PWs)   bands (ev):

   -11.3566 -11.0842 -10.6409 -10.0311  -9.2629  -8.3584  -7.3671  -6.4334
    -3.5367  -2.6589  -1.8978  -1.4803  -1.0063  -0.9144  -0.3595   0.0992
     0.3563   1.1353   1.3422   1.8706   2.3314   2.4542   2.6832   3.0471
     3.0928   3.5283   4.0969   4.1075   4.6981   5.0366   5.2482   5.6390
     5.6539  12.0331  12.1570  12.5220  12.9312  13.4904  13.9202  14.4470

          k =-0.0000 0.4616 0.0000 ( 13548 PWs)   bands (ev):

    -9.7234  -9.4617  -9.0388  -8.4637  -7.7527  -6.9421  -6.0959  -5.3170
    -4.3113  -4.1506  -4.0008  -3.6602  -3.0098  -2.2102  -1.3798  -1.0527
    -0.5790  -0.2819   0.6705   1.5298   1.8048   1.8615   2.0378   2.4086
     2.5008   2.8992   3.4787   3.5208   4.0911   4.4233   4.6507   5.0170
     5.0477  12.1293  12.5800  13.0494  13.5104  13.6061  13.8034  14.2599

          k = 0.0000-0.5771 0.0000 ( 13548 PWs)   bands (ev):

    -7.9110  -7.8986  -7.7913  -7.5822  -7.2463  -6.7832  -6.1972  -5.5598
    -5.2852  -4.9908  -4.5187  -4.2609  -3.6103  -3.4297  -2.7699  -2.6897
     0.3336   0.3439   0.8638   1.0905   1.3576   1.5801   1.8143   2.1815
     2.1870   2.6803   3.2630   3.2633   3.8786   4.1826   4.4408   4.7815
     4.8398  12.5446  12.6581  12.8833  13.0955  13.5728  13.6526  14.3074

          k = 0.0999 0.1731 0.0000 ( 13531 PWs)   bands (ev):

   -12.8007 -12.5232 -12.0707 -11.4466 -10.6575  -9.7239  -8.6938  -7.7137
    -4.5286  -3.4897  -2.0674  -0.4692   1.1900   2.4587   2.5131   2.6328
     2.6843   3.1126   3.1798   3.6688   3.8889   3.9284   4.2971   4.4670
     4.6060   4.7841   5.1353   5.4479   5.5703   5.7173   6.0125   6.3486
     7.0001  10.8063  11.2682  13.3480  13.6696  13.7017  14.1032  14.5594

          k = 0.0999 0.2885 0.0000 ( 13484 PWs)   bands (ev):

   -11.8345 -11.5602 -11.1134 -10.4982  -9.7219  -8.8060  -7.7997  -6.8490
    -3.7737  -2.7996  -1.5202  -0.4028   0.0589   0.2397   0.4059   0.8393
     1.2810   1.3565   1.9579   2.0828   2.4591   2.5877   2.8972   3.2421
     3.3495   3.6246   3.7999   4.1052   4.5251   4.6521   5.1222   5.6948
     6.3283  11.7505  12.0673  13.1489  13.8003  14.2218  14.6103  14.8036

          k = 0.0999 0.4039 0.0000 ( 13494 PWs)   bands (ev):

   -10.4136 -10.1458  -9.7110  -9.1148  -8.3671  -7.4921  -6.5403  -5.6471
    -3.5206  -3.1326  -2.9199  -2.4509  -1.8174  -1.2283  -1.0986  -0.4975
    -0.2437   0.3910   0.4839   1.2405   1.4769   1.6953   1.9556   2.1530
     2.2851   2.7101   3.0570   3.3656   3.9510   4.0446   4.4076   4.8902
     5.4499  12.7004  12.9155  13.3319  13.7488  14.3397  14.8117  15.2848

          k = 0.0999-0.6348 0.0000 ( 13524 PWs)   bands (ev):

    -8.6175  -8.3761  -7.9978  -7.5177  -7.0031  -6.4889  -5.9103  -5.2517
    -4.9107  -4.6201  -4.3074  -3.9577  -3.5401  -3.2095  -2.3944  -1.6554
    -0.3142   0.3368   0.7901   0.9481   1.0724   1.1199   1.5516   1.6293
     1.7947   2.2548   2.5729   3.0444   3.3984   3.7641   4.0956   4.3445
     4.7400  12.8502  13.4207  13.9660  14.0954  14.2823  14.7364  14.8016

          k = 0.1999 0.3462 0.0000 ( 13457 PWs)   bands (ev):

   -10.6470 -10.3776  -9.9399  -9.3388  -8.5832  -7.6960  -6.7264  -5.8138
    -3.2757  -2.5393  -1.8745  -1.4726  -1.1096  -0.7625  -0.7253  -0.3495
    -0.1881   0.1668   0.5347   0.8557   1.0664   1.4679   1.9454   2.0202
     2.0384   2.6161   2.6864   2.9596   3.1071   3.3099   4.2010   5.0453
     5.6032  12.8809  13.0422  14.1325  14.2233  14.8143  14.9130  15.7813

          k = 0.1999-0.6925 0.0000 ( 13537 PWs)   bands (ev):

    -9.0406  -8.7834  -8.3690  -7.8074  -7.1159  -6.3314  -5.5146  -4.7381
    -4.0605  -3.7690  -3.6384  -3.3054  -2.7831  -2.2377  -1.6783  -1.1596
    -0.6708  -0.4261  -0.1137   0.0263   0.3743   0.6660   0.7841   0.9416
     1.5265   1.6726   2.2257   2.3599   2.5791   3.1270   3.5640   4.1469
     4.6240  13.4994  13.9076  14.2825  14.7490  15.0619  15.5365  16.0604

          k = 0.1999-0.5771 0.0000 ( 13552 PWs)   bands (ev):

    -7.2657  -7.2570  -7.1571  -6.9615  -6.6460  -6.2129  -5.6669  -5.0086
    -4.6617  -4.6448  -4.0930  -3.7556  -3.3387  -3.0629  -2.6604  -2.5327
    -0.8366  -0.5388  -0.4378  -0.4208  -0.0737   0.5242   1.1110   1.3351
     1.3529   1.5911   1.9155   2.1047   2.2609   2.9871   3.5262   3.8388
     3.8414  13.3822  14.0311  14.7895  15.2848  15.2886  15.3678  16.0848

          k = 0.2998-0.6348 0.0000 ( 13581 PWs)   bands (ev):

    -7.3381  -7.1200  -6.7875  -6.3859  -5.9940  -5.6878  -5.4730  -4.7233
    -4.7179  -3.8117  -3.7860  -3.5228  -3.4693  -3.3498  -2.9625  -2.5530
    -1.3947  -1.2245  -1.0223  -0.9117  -0.4475  -0.3699   0.2701   0.2742
     1.0957   1.6756   2.2988   2.4644   2.5868   2.7567   2.7734   3.1352
     3.5794  14.0376  14.2295  14.4768  14.9011  15.0537  15.4292  15.6059

     the Fermi energy is     9.3607 ev

!    total energy              =    -297.32766175 Ry
     estimated scf accuracy    <          1.5E-12 Ry
     smearing contrib. (-TS)   =      -0.00000000 Ry
     internal energy E=F+TS    =    -297.32766175 Ry

     The total energy is F=E-TS. E is the sum of the following terms:
     one-electron contribution =   -2239.09885708 Ry
     hartree contribution      =    1156.86210712 Ry
     xc contribution           =     -76.33749201 Ry
     ewald contribution        =     959.85299046 Ry
     one-center paw contrib.   =     -98.60641024 Ry

     convergence has been achieved in   9 iterations

     negative rho (up, down):  2.456E-08 0.000E+00

     Forces acting on atoms (cartesian axes, Ry/au):

     atom    1 type  1   force =    -0.00000000    0.00000000   -0.00009474
     atom    2 type  1   force =     0.00000000   -0.00000000    0.00006113
     atom    3 type  1   force =     0.00000000   -0.00000000    0.00007554
     atom    4 type  1   force =     0.00000000    0.00000000    0.00008222
     atom    5 type  1   force =    -0.00000000    0.00000000   -0.00001919
     atom    6 type  1   force =     0.00000000    0.00000000   -0.00005273
     atom    7 type  1   force =     0.00000000    0.00000000   -0.00008186
     atom    8 type  1   force =    -0.00000000    0.00000000   -0.00005868
     atom    9 type  1   force =    -0.00000000    0.00000000    0.00005868
     atom   10 type  1   force =    -0.00000000    0.00000000    0.00008186
     atom   11 type  1   force =     0.00000000    0.00000000    0.00005273
     atom   12 type  1   force =     0.00000000    0.00000000    0.00001919
     atom   13 type  1   force =    -0.00000000   -0.00000000   -0.00008222
     atom   14 type  1   force =     0.00000000    0.00000000   -0.00007554
     atom   15 type  1   force =     0.00000000    0.00000000   -0.00006113
     atom   16 type  1   force =    -0.00000000    0.00000000    0.00009474
     atom   17 type  2   force =    -0.00000000    0.00000000   -0.00001146
     atom   18 type  2   force =     0.00000000    0.00000000    0.00001146

     Total force =     0.000278     Total SCF correction =     0.000002


     Computing stress (Cartesian axis) and pressure


     negative rho (up, down):  2.456E-08 0.000E+00
          total   stress  (Ry/bohr**3)                   (kbar)     P=       -0.03
   0.00000014  -0.00000000   0.00000000            0.02       -0.00        0.00
  -0.00000000   0.00000014  -0.00000000           -0.00        0.02       -0.00
   0.00000000   0.00000000  -0.00000095            0.00        0.00       -0.14

     Energy error            =      3.0E-07 Ry
     Gradient error          =      9.5E-05 Ry/Bohr
     Cell gradient error     =      2.0E-02 kbar

     bfgs converged in  14 scf cycles and  13 bfgs steps
     (criteria: energy <  1.0E-05 Ry, force <  1.0E-04 Ry/Bohr, cell <  1.0E-01 kbar)

     End of BFGS Geometry Optimization

     Final enthalpy           =    -297.3276617540 Ry

     File /tmp/qe/slab.bfgs deleted, as requested
Begin final coordinates
     new unit-cell volume =    938.45320 a.u.^3 (   139.06442 Ang^3 )
     density =      2.31881 g/cm^3

CELL_PARAMETERS (angstrom)
   2.527591951   0.000000000   0.000000000
   1.263795976   2.188958837   0.000000000
   0.000000000   0.000000000  25.134569970

ATOMIC_POSITIONS (crystal)
C                0.3333333300        0.3333333300        0.7966328196
C                0.6666666700        0.6666666700        0.7772208967
C                0.6666666700        0.6666666700        0.7153953317
C               -0.0000000000        0.0000000000        0.6949218956
C                0.0000000000       -0.0000000000        0.6333547163
C                0.3333333300        0.3333333300        0.6128477192
C                0.3333333300        0.3333333300        0.5512933921
C                0.6666666700        0.6666666700        0.5307788842
C                0.6666666700        0.6666666700        0.4692211158
C               -0.0000000000        0.0000000000        0.4487066079
C                0.0000000000       -0.0000000000        0.3871522808
C                0.3333333300        0.3333333300        0.3666452837
C                0.3333333300        0.3333333300        0.3050781044
C                0.6666666700        0.6666666700        0.2846046683
C                0.6666666700        0.6666666700        0.2227791033
C               -0.0000000000        0.0000000000        0.2033671804
H                0.3333333300        0.3333333300        0.8407584153
H               -0.0000000000        0.0000000000        0.1592415847
End final coordinates



     Writing config-only to output data dir /tmp/qe/slab.save/ :
     XML data file

     Final scf calculation at the relaxed structure.
     The G-vectors are recalculated for the final unit cell
     Results may differ from those at the preceding step.

     Parallelization info
     --------------------
     sticks:   dense  smooth     PW     G-vecs:    dense   smooth      PW
     Min         141      70     20                38259    13522    2214
     Max         142      78     21                38300    13530    2261
     Sum        1135     571    163               306327   108197   17863

     Using Slab Decomposition



     bravais-lattice index     =            0
     lattice parameter (alat)  =       4.7740  a.u.
     unit-cell volume          =     938.4532 (a.u.)^3
     number of atoms/cell      =           18
     number of atomic types    =            2
     number of electrons       =        66.00
     number of Kohn-Sham states=           40
     kinetic-energy cutoff     =      90.0000  Ry
     charge density cutoff     =     720.0000  Ry
     scf convergence threshold =      1.0E-11
     mixing beta               =       0.3000
     number of iterations used =            8  plain     mixing
     press convergence thresh. =      1.0E-01
     Exchange-correlation= PBE
                           (   1   4   3   4   0   0   0)

     celldm(1)=   4.773978  celldm(2)=   0.000000  celldm(3)=   0.000000
     celldm(4)=   0.000000  celldm(5)=   0.000000  celldm(6)=   0.000000

     crystal axes: (cart. coord. in units of alat)
               a(1) = (   1.000519   0.000000   0.000000 )  
               a(2) = (   0.500260   0.866475   0.000000 )  
               a(3) = (   0.000000   0.000000   9.949240 )  

     reciprocal axes: (cart. coord. in units 2 pi/alat)
               b(1) = (  0.999481 -0.577051  0.000000 )  
               b(2) = ( -0.000000  1.154101  0.000000 )  
               b(3) = (  0.000000  0.000000  0.100510 )  


     PseudoPot. # 1 for C  read from file:
     ./C.pbe-n-kjpaw_psl.1.0.0.UPF
     MD5 check sum: 5d2aebdfa2cae82b50a7e79e9516da0f
     Pseudo is Projector augmented-wave + core cor, Zval =  4.0
     Generated using "atomic" code by A. Dal Corso  v.5.1
     Shape of augmentation charge: PSQ
     Using radial grid of 1073 points,  4 beta functions with: 
                l(1) =   0
                l(2) =   0
                l(3) =   1
                l(4) =   1
     Q(r) pseudized with 0 coefficients 


     PseudoPot. # 2 for H  read from file:
     ./H_ONCV_PBE-1.0.oncvpsp.upf
     MD5 check sum: 1790becc920ee074925cf490c71280fe
     Pseudo is Norm-conserving, Zval =  1.0
     Generated using ONCVPSP code by D. R. Hamann
     Using radial grid of 1166 points,  2 beta functions with: 
                l(1) =   0
                l(2) =   0

     atomic species   valence    mass     pseudopotential
     C                 4.00    12.01100     C ( 1.00)
     H                 1.00     1.00800     H ( 1.00)

     12 Sym. Ops., with inversion, found ( 6 have fractional translation)



   Cartesian axes

     site n.     atom                  positions (alat units)
         1        C      tau(   1) = (   0.5002596   0.2888250   7.9258911  )
         2        C      tau(   2) = (   1.0005192   0.5776500   7.7327572  )
         3        C      tau(   3) = (   1.0005192   0.5776500   7.1176398  )
         4        C      tau(   4) = (  -0.0000000   0.0000000   6.9139447  )
         5        C      tau(   5) = (  -0.0000000  -0.0000000   6.3013981  )
         6        C      tau(   6) = (   0.5002596   0.2888250   6.0973690  )
         7        C      tau(   7) = (   0.5002596   0.2888250   5.4849503  )
         8        C      tau(   8) = (   1.0005192   0.5776500   5.2808465  )
         9        C      tau(   9) = (   1.0005192   0.5776500   4.6683935  )
        10        C      tau(  10) = (  -0.0000000   0.0000000   4.4642897  )
        11        C      tau(  11) = (   0.0000000  -0.0000000   3.8518710  )
        12        C      tau(  12) = (   0.5002596   0.2888250   3.6478419  )
        13        C      tau(  13) = (   0.5002596   0.2888250   3.0352953  )
        14        C      tau(  14) = (   1.0005192   0.5776500   2.8316001  )
        15        C      tau(  15) = (   1.0005192   0.5776500   2.2164828  )
        16        C      tau(  16) = (  -0.0000000   0.0000000   2.0233489  )
        17        H      tau(  17) = (   0.5002596   0.2888250   8.3649072  )
        18        H      tau(  18) = (  -0.0000000   0.0000000   1.5843327  )

     number of k points=    14  Marzari-Vanderbilt smearing, width (Ry)=  0.0100
                       cart. coord. in units 2pi/alat
        k(    1) = (   0.0000000   0.0000000   0.0000000), wk =   0.0200000
        k(    2) = (  -0.0000000   0.1154101   0.0000000), wk =   0.1200000
        k(    3) = (  -0.0000000   0.2308203   0.0000000), wk =   0.1200000
        k(    4) = (  -0.0000000   0.3462304   0.0000000), wk =   0.1200000
        k(    5) = (  -0.0000000   0.4616405   0.0000000), wk =   0.1200000
        k(    6) = (   0.0000000  -0.5770507   0.0000000), wk =   0.0600000
        k(    7) = (   0.0999481   0.1731152   0.0000000), wk =   0.1200000
        k(    8) = (   0.0999481   0.2885253   0.0000000), wk =   0.2400000
        k(    9) = (   0.0999481   0.4039355   0.0000000), wk =   0.2400000
        k(   10) = (   0.0999481  -0.6347558   0.0000000), wk =   0.2400000
        k(   11) = (   0.1998962   0.3462304   0.0000000), wk =   0.1200000
        k(   12) = (   0.1998962  -0.6924608   0.0000000), wk =   0.2400000
        k(   13) = (   0.1998962  -0.5770507   0.0000000), wk =   0.1200000
        k(   14) = (   0.2998443  -0.6347558   0.0000000), wk =   0.1200000

     Dense  grid:   306327 G-vectors     FFT dimensions: (  45,  45, 405)

     Smooth grid:   108197 G-vectors     FFT dimensions: (  30,  30, 288)

     Estimated max dynamical RAM per process >      98.25 MB

     Estimated total dynamical RAM >     785.96 MB

     Check: negative core charge=   -0.000001

     Initial potential from superposition of free atoms

     starting charge      65.9993, renormalised to      66.0000
     Starting wfcs are   66 randomized atomic wfcs
     Checking if some PAW data can be deallocated... 

     total cpu time spent up to now is      261.9 secs

     Self-consistent Calculation

     iteration #  1     ecut=    90.00 Ry     beta= 0.30
     Davidson diagonalization with overlap
     c_bands:  1 eigenvalues not converged
     c_bands:  2 eigenvalues not converged
     c_bands:  2 eigenvalues not converged
     c_bands:  2 eigenvalues not converged
     c_bands:  3 eigenvalues not converged
     c_bands:  1 eigenvalues not converged
     c_bands:  2 eigenvalues not converged
     c_bands:  2 eigenvalues not converged
     c_bands:  3 eigenvalues not converged
     c_bands:  3 eigenvalues not converged
     c_bands:  1 eigenvalues not converged
     c_bands:  1 eigenvalues not converged
     c_bands:  1 eigenvalues not converged
     c_bands:  1 eigenvalues not converged
     ethr =  1.00E-06,  avg # of iterations = 20.0

     negative rho (up, down):  2.125E-08 0.000E+00

     total cpu time spent up to now is      267.0 secs

     total energy              =    -297.42368901 Ry
     estimated scf accuracy    <       1.21789985 Ry

     iteration #  2     ecut=    90.00 Ry     beta= 0.30
     Davidson diagonalization with overlap
     ethr =  1.85E-03,  avg # of iterations =  2.4

     negative rho (up, down):  2.455E-07 0.000E+00

     total cpu time spent up to now is      268.3 secs

     total energy              =    -297.30195315 Ry
     estimated scf accuracy    <       0.40952886 Ry

     iteration #  3     ecut=    90.00 Ry     beta= 0.30
     Davidson diagonalization with overlap
     ethr =  6.20E-04,  avg # of iterations =  3.9

     negative rho (up, down):  7.044E-08 0.000E+00

     total cpu time spent up to now is      269.8 secs

     total energy              =    -297.32515731 Ry
     estimated scf accuracy    <       0.03524782 Ry

     iteration #  4     ecut=    90.00 Ry     beta= 0.30
     Davidson diagonalization with overlap
     ethr =  5.34E-05,  avg # of iterations =  6.6

     negative rho (up, down):  3.728E-08 0.000E+00

     total cpu time spent up to now is      271.5 secs

     total energy              =    -297.32698423 Ry
     estimated scf accuracy    <       0.00552413 Ry

     iteration #  5     ecut=    90.00 Ry     beta= 0.30
     Davidson diagonalization with overlap
     ethr =  8.37E-06,  avg # of iterations =  6.1

     negative rho (up, down):  4.146E-08 0.000E+00

     total cpu time spent up to now is      273.2 secs

     total energy              =    -297.32754867 Ry
     estimated scf accuracy    <       0.00080693 Ry

     iteration #  6     ecut=    90.00 Ry     beta= 0.30
     Davidson diagonalization with overlap
     ethr =  1.22E-06,  avg # of iterations =  5.3

     negative rho (up, down):  3.680E-08 0.000E+00

     total cpu time spent up to now is      274.9 secs

     total energy              =    -297.32763102 Ry
     estimated scf accuracy    <       0.00020269 Ry

     iteration #  7     ecut=    90.00 Ry     beta= 0.30
     Davidson diagonalization with overlap
     ethr =  3.07E-07,  avg # of iterations =  2.1

     negative rho (up, down):  4.485E-08 0.000E+00

     total cpu time spent up to now is      276.4 secs

     total energy              =    -297.32764682 Ry
     estimated scf accuracy    <       0.00005651 Ry

     iteration #  8     ecut=    90.00 Ry     beta= 0.30
     Davidson diagonalization with overlap
     ethr =  8.56E-08,  avg # of iterations =  2.1

     negative rho (up, down):  3.909E-08 0.000E+00

     total cpu time spent up to now is      278.0 secs

     total energy              =    -297.32765767 Ry
     estimated scf accuracy    <       0.00001837 Ry

     iteration #  9     ecut=    90.00 Ry     beta= 0.30
     Davidson diagonalization with overlap
     ethr =  2.78E-08,  avg # of iterations =  2.0

     negative rho (up, down):  4.002E-08 0.000E+00

     total cpu time spent up to now is      279.4 secs

     total energy              =    -297.32766271 Ry
     estimated scf accuracy    <       0.00000231 Ry

     iteration # 10     ecut=    90.00 Ry     beta= 0.30
     Davidson diagonalization with overlap
     ethr =  3.49E-09,  avg # of iterations =  2.5

     negative rho (up, down):  4.081E-08 0.000E+00

     total cpu time spent up to now is      280.8 secs

     total energy              =    -297.32766292 Ry
     estimated scf accuracy    <       0.00000029 Ry

     iteration # 11     ecut=    90.00 Ry     beta= 0.30
     Davidson diagonalization with overlap
     ethr =  4.42E-10,  avg # of iterations =  2.9

     negative rho (up, down):  4.120E-08 0.000E+00

     total cpu time spent up to now is      282.4 secs

     total energy              =    -297.32766302 Ry
     estimated scf accuracy    <       0.00000004 Ry

     iteration # 12     ecut=    90.00 Ry     beta= 0.30
     Davidson diagonalization with overlap
     ethr =  5.65E-11,  avg # of iterations =  2.8

     negative rho (up, down):  4.164E-08 0.000E+00

     total cpu time spent up to now is      283.9 secs

     total energy              =    -297.32766303 Ry
     estimated scf accuracy    <          5.7E-09 Ry

     iteration # 13     ecut=    90.00 Ry     beta= 0.30
     Davidson diagonalization with overlap
     ethr =  8.66E-12,  avg # of iterations =  2.6

     negative rho (up, down):  4.212E-08 0.000E+00

     total cpu time spent up to now is      285.6 secs

     total energy              =    -297.32766303 Ry
     estimated scf accuracy    <          1.2E-09 Ry

     iteration # 14     ecut=    90.00 Ry     beta= 0.30
     Davidson diagonalization with overlap
     ethr =  1.78E-12,  avg # of iterations =  2.6

     negative rho (up, down):  4.249E-08 0.000E+00

     total cpu time spent up to now is      287.2 secs

     total energy              =    -297.32766303 Ry
     estimated scf accuracy    <          3.5E-10 Ry

     iteration # 15     ecut=    90.00 Ry     beta= 0.30
     Davidson diagonalization with overlap
     ethr =  5.34E-13,  avg # of iterations =  2.6

     negative rho (up, down):  4.273E-08 0.000E+00

     total cpu time spent up to now is      288.8 secs

     total energy              =    -297.32766303 Ry
     estimated scf accuracy    <          1.3E-10 Ry

     iteration # 16     ecut=    90.00 Ry     beta= 0.30
     Davidson diagonalization with overlap
     ethr =  1.97E-13,  avg # of iterations =  2.3

     negative rho (up, down):  4.293E-08 0.000E+00

     total cpu time spent up to now is      290.2 secs

     total energy              =    -297.32766303 Ry
     estimated scf accuracy    <          1.1E-11 Ry

     iteration # 17     ecut=    90.00 Ry     beta= 0.30
     Davidson diagonalization with overlap
     ethr =  1.00E-13,  avg # of iterations =  1.8

     negative rho (up, down):  4.345E-08 0.000E+00

     total cpu time spent up to now is      291.5 secs

     End of self-consistent calculation

          k = 0.0000 0.0000 0.0000 ( 13457 PWs)   bands (ev):

   -13.5328 -13.2532 -12.7969 -12.1670 -11.3696 -10.4243  -9.3780  -8.3762
    -5.1770  -4.1040  -2.6245  -0.9414   0.8554   2.6838   4.4408   5.0392
     5.0392   5.2163   5.2163   5.4976   5.4976   5.8734   5.8734   6.0080
     6.3274   6.3274   6.8233   6.8233   7.2317   7.2946   7.2946   7.6412
     7.6412  10.0941  10.6660  12.7264  13.5431  13.5431  13.6814  14.0332

          k =-0.0000 0.1154 0.0000 ( 13545 PWs)   bands (ev):

   -13.2881 -13.0092 -12.5542 -11.9261 -11.1314 -10.1899  -9.1489  -8.1543
    -4.9559  -3.8937  -2.4318  -0.7736   0.9870   2.7579   3.8395   4.0384
     4.3346   4.4165   4.4981   4.6966   4.8154   5.0106   5.2395   5.4262
     5.7043   5.9208   6.0101   6.2471   6.4512   6.6223   6.9455   7.0721
     7.3031  10.3219  10.8611  12.8801  13.3409  13.8945  14.0399  14.5290

          k =-0.0000 0.2308 0.0000 ( 13511 PWs)   bands (ev):

   -12.5580 -12.2813 -11.8301 -11.2081 -10.4220  -9.4926  -8.4682  -7.4954
    -4.3257  -3.3001  -1.9023  -0.3495   1.0781   1.3257   1.6469   1.7749
     2.2547   2.8378   3.0417   3.4349   3.4640   3.6543   4.0022   4.0448
     4.4525   4.4619   4.5041   5.0055   5.5820   5.6728   6.1117   6.4564
     6.4895  11.0249  11.4316  12.6961  13.2559  13.5288  14.1549  14.4941

          k =-0.0000 0.3462 0.0000 ( 13502 PWs)   bands (ev):

   -11.3566 -11.0842 -10.6409 -10.0311  -9.2629  -8.3584  -7.3671  -6.4334
    -3.5368  -2.6589  -1.8978  -1.4803  -1.0063  -0.9144  -0.3595   0.0992
     0.3563   1.1352   1.3422   1.8706   2.3314   2.4542   2.6832   3.0471
     3.0927   3.5283   4.0969   4.1075   4.6981   5.0366   5.2482   5.6390
     5.6539  12.0329  12.1568  12.5218  12.9311  13.4904  13.9201  14.4467

          k =-0.0000 0.4616 0.0000 ( 13562 PWs)   bands (ev):

    -9.7234  -9.4617  -9.0388  -8.4637  -7.7527  -6.9422  -6.0959  -5.3170
    -4.3114  -4.1506  -4.0008  -3.6602  -3.0098  -2.2102  -1.3798  -1.0527
    -0.5790  -0.2819   0.6705   1.5298   1.8047   1.8615   2.0378   2.4086
     2.5008   2.8992   3.4787   3.5208   4.0911   4.4233   4.6507   5.0169
     5.0477  12.1293  12.5799  13.0494  13.5104  13.6061  13.8033  14.2598

          k = 0.0000-0.5771 0.0000 ( 13548 PWs)   bands (ev):

    -7.9110  -7.8986  -7.7913  -7.5822  -7.2463  -6.7832  -6.1972  -5.5598
    -5.2852  -4.9908  -4.5187  -4.2609  -3.6103  -3.4298  -2.7699  -2.6897
     0.3336   0.3439   0.8638   1.0905   1.3576   1.5801   1.8143   2.1815
     2.1870   2.6803   3.2629   3.2633   3.8786   4.1826   4.4408   4.7815
     4.8397  12.5445  12.6581  12.8833  13.0955  13.5728  13.6526  14.3074

          k = 0.0999 0.1731 0.0000 ( 13539 PWs)   bands (ev):

   -12.8007 -12.5232 -12.0707 -11.4466 -10.6575  -9.7239  -8.6938  -7.7137
    -4.5286  -3.4897  -2.0674  -0.4692   1.1900   2.4587   2.5131   2.6328
     2.6843   3.1126   3.1797   3.6688   3.8889   3.9284   4.2971   4.4670
     4.6060   4.7841   5.1353   5.4479   5.5703   5.7173   6.0125   6.3486
     7.0001  10.8054  11.2679  13.3471  13.6696  13.7017  14.1032  14.5594

          k = 0.0999 0.2885 0.0000 ( 13499 PWs)   bands (ev):

   -11.8345 -11.5602 -11.1134 -10.4982  -9.7219  -8.8061  -7.7997  -6.8490
    -3.7738  -2.7996  -1.5202  -0.4029   0.0589   0.2397   0.4059   0.8392
     1.2809   1.3565   1.9579   2.0828   2.4591   2.5876   2.8972   3.2421
     3.3495   3.6246   3.7999   4.1052   4.5251   4.6521   5.1222   5.6948
     6.3283  11.7499  12.0670  13.1488  13.8002  14.2210  14.6102  14.8036

          k = 0.0999 0.4039 0.0000 ( 13506 PWs)   bands (ev):

   -10.4136 -10.1458  -9.7110  -9.1148  -8.3671  -7.4921  -6.5403  -5.6471
    -3.5206  -3.1326  -2.9199  -2.4509  -1.8174  -1.2283  -1.0986  -0.4975
    -0.2437   0.3910   0.4838   1.2405   1.4769   1.6953   1.9556   2.1530
     2.2851   2.7101   3.0570   3.3656   3.9510   4.0446   4.4076   4.8902
     5.4499  12.7003  12.9152  13.3318  13.7486  14.3396  14.8117  15.2847

          k = 0.0999-0.6348 0.0000 ( 13544 PWs)   bands (ev):

    -8.6175  -8.3761  -7.9978  -7.5177  -7.0032  -6.4890  -5.9103  -5.2517
    -4.9107  -4.6202  -4.3074  -3.9577  -3.5401  -3.2095  -2.3944  -1.6555
    -0.3143   0.3368   0.7901   0.9481   1.0723   1.1198   1.5516   1.6293
     1.7946   2.2548   2.5728   3.0443   3.3984   3.7641   4.0956   4.3445
     4.7399  12.8502  13.4207  13.9660  14.0954  14.2823  14.7364  14.8016

          k = 0.1999 0.3462 0.0000 ( 13471 PWs)   bands (ev):

   -10.6470 -10.3776  -9.9399  -9.3388  -8.5833  -7.6960  -6.7264  -5.8138
    -3.2757  -2.5393  -1.8745  -1.4727  -1.1096  -0.7625  -0.7254  -0.3495
    -0.1881   0.1668   0.5346   0.8557   1.0664   1.4679   1.9454   2.0202
     2.0384   2.6161   2.6864   2.9595   3.1070   3.3099   4.2010   5.0453
     5.6032  12.8805  13.0420  14.1324  14.2232  14.8139  14.9130  15.8209

          k = 0.1999-0.6925 0.0000 ( 13547 PWs)   bands (ev):

    -9.0406  -8.7835  -8.3690  -7.8074  -7.1159  -6.3315  -5.5147  -4.7381
    -4.0605  -3.7690  -3.6384  -3.3054  -2.7831  -2.2377  -1.6784  -1.1596
    -0.6708  -0.4262  -0.1137   0.0263   0.3743   0.6660   0.7841   0.9416
     1.5265   1.6726   2.2256   2.3599   2.5791   3.1270   3.5640   4.1469
     4.6240  13.4993  13.9076  14.2824  14.7489  15.0619  15.5364  16.0628

          k = 0.1999-0.5771 0.0000 ( 13562 PWs)   bands (ev):

    -7.2657  -7.2570  -7.1571  -6.9615  -6.6460  -6.2129  -5.6669  -5.0086
    -4.6617  -4.6448  -4.0930  -3.7556  -3.3388  -3.0629  -2.6604  -2.5327
    -0.8366  -0.5388  -0.4378  -0.4208  -0.0737   0.5242   1.1110   1.3351
     1.3529   1.5911   1.9155   2.1047   2.2609   2.9871   3.5262   3.8387
     3.8414  13.3822  14.0311  14.7895  15.2848  15.2886  15.3678  16.0848

          k = 0.2998-0.6348 0.0000 ( 13589 PWs)   bands (ev):

    -7.3381  -7.1200  -6.7875  -6.3859  -5.9940  -5.6878  -5.4730  -4.7233
    -4.7179  -3.8117  -3.7860  -3.5228  -3.4693  -3.3498  -2.9625  -2.5530
    -1.3947  -1.2245  -1.0223  -0.9117  -0.4475  -0.3699   0.2700   0.2742
     1.0956   1.6756   2.2988   2.4644   2.5868   2.7567   2.7734   3.1352
     3.5794  14.0375  14.2295  14.4768  14.9011  15.0537  15.4292  15.6059

     the Fermi energy is     9.3607 ev

!    total energy              =    -297.32766303 Ry
     estimated scf accuracy    <          4.6E-12 Ry
     smearing contrib. (-TS)   =      -0.00000000 Ry
     internal energy E=F+TS    =    -297.32766303 Ry

     The total energy is F=E-TS. E is the sum of the following terms:
     one-electron contribution =   -2239.09879267 Ry
     hartree contribution      =    1156.86204018 Ry
     xc contribution           =     -76.33749114 Ry
     ewald contribution        =     959.85299046 Ry
     one-center paw contrib.   =     -98.60640986 Ry

     convergence has been achieved in  17 iterations

     negative rho (up, down):  4.345E-08 0.000E+00

     Forces acting on atoms (cartesian axes, Ry/au):

     atom    1 type  1   force =    -0.00000000    0.00000000   -0.00009471
     atom    2 type  1   force =     0.00000000    0.00000000    0.00006182
     atom    3 type  1   force =    -0.00000000    0.00000000    0.00007534
     atom    4 type  1   force =    -0.00000000   -0.00000000    0.00008233
     atom    5 type  1   force =     0.00000000   -0.00000000   -0.00001931
     atom    6 type  1   force =     0.00000000    0.00000000   -0.00005254
     atom    7 type  1   force =     0.00000000   -0.00000000   -0.00008209
     atom    8 type  1   force =     0.00000000    0.00000000   -0.00005829
     atom    9 type  1   force =     0.00000000    0.00000000    0.00005829
     atom   10 type  1   force =    -0.00000000    0.00000000    0.00008209
     atom   11 type  1   force =     0.00000000    0.00000000    0.00005254
     atom   12 type  1   force =     0.00000000    0.00000000    0.00001931
     atom   13 type  1   force =    -0.00000000   -0.00000000   -0.00008233
     atom   14 type  1   force =    -0.00000000    0.00000000   -0.00007534
     atom   15 type  1   force =     0.00000000   -0.00000000   -0.00006182
     atom   16 type  1   force =     0.00000000   -0.00000000    0.00009471
     atom   17 type  2   force =     0.00000000    0.00000000   -0.00001159
     atom   18 type  2   force =     0.00000000    0.00000000    0.00001159

     Total force =     0.000278     Total SCF correction =     0.000003


     Computing stress (Cartesian axis) and pressure


     negative rho (up, down):  4.345E-08 0.000E+00
          total   stress  (Ry/bohr**3)                   (kbar)     P=       -0.03
   0.00000013  -0.00000000   0.00000000            0.02       -0.00        0.00
  -0.00000000   0.00000013   0.00000000           -0.00        0.02        0.00
  -0.00000000   0.00000000  -0.00000095           -0.00        0.00       -0.14


     Writing all to output data dir /tmp/qe/slab.save/ :
     XML data file, charge density, pseudopotentials, collected wavefunctions

     init_run     :      2.01s CPU      2.29s WALL (       2 calls)
     electrons    :    227.43s CPU    230.07s WALL (      15 calls)
     update_pot   :      2.06s CPU      2.08s WALL (      13 calls)
     forces       :      4.45s CPU      4.50s WALL (      15 calls)
     stress       :     53.92s CPU     54.11s WALL (      15 calls)

     Called by init_run:
     wfcinit      :      1.39s CPU      1.52s WALL (       2 calls)
     potinit      :      0.31s CPU      0.35s WALL (       2 calls)
     hinit0       :      0.12s CPU      0.19s WALL (       2 calls)

     Called by electrons:
     c_bands      :    166.08s CPU    167.83s WALL (     152 calls)
     sum_band     :     36.19s CPU     36.59s WALL (     152 calls)
     v_of_rho     :      7.85s CPU      7.97s WALL (     156 calls)
     newd         :      4.26s CPU      4.32s WALL (     156 calls)
     PAW_pot      :     15.55s CPU     15.61s WALL (     169 calls)
     mix_rho      :      0.60s CPU      0.62s WALL (     152 calls)

     Called by c_bands:
     init_us_2    :      5.01s CPU      5.11s WALL (    4886 calls)
     cegterg      :    157.91s CPU    159.53s WALL (    2128 calls)

     Called by *egterg:
     cdiaghg      :      9.93s CPU     10.12s WALL (    7532 calls)
     h_psi        :    119.69s CPU    121.05s WALL (    7896 calls)
     s_psi        :      6.69s CPU      6.74s WALL (    7896 calls)
     g_psi        :      0.74s CPU      0.74s WALL (    5740 calls)

     Called by h_psi:
     h_psi:calbec :      7.48s CPU      7.58s WALL (    7896 calls)
     vloc_psi     :    103.85s CPU    105.04s WALL (    7896 calls)
     add_vuspsi   :      7.49s CPU      7.55s WALL (    7896 calls)

     General routines
     calbec       :     13.34s CPU     13.50s WALL (   11256 calls)
     fft          :      3.36s CPU      3.57s WALL (    2397 calls)
     ffts         :      0.14s CPU      0.15s WALL (     308 calls)
     fftw         :     92.23s CPU     93.18s WALL (  512002 calls)
     interpolate  :      0.29s CPU      0.31s WALL (     156 calls)

     Parallel routines

     PWSCF        :   4m52.16s CPU   4m55.60s WALL


   This run was terminated on:  14:26:20   2Aug2026            

=------------------------------------------------------------------------------=
   JOB DONE.
=------------------------------------------------------------------------------=
Note: The following floating-point exceptions are signalling: IEEE_UNDERFLOW_FLAG IEEE_DENORMAL
Note: The following floating-point exceptions are signalling: IEEE_UNDERFLOW_FLAG IEEE_DENORMAL
Note: The following floating-point exceptions are signalling: IEEE_UNDERFLOW_FLAG IEEE_DENORMAL
Note: The following floating-point exceptions are signalling: IEEE_UNDERFLOW_FLAG IEEE_DENORMAL
Note: The following floating-point exceptions are signalling: IEEE_UNDERFLOW_FLAG IEEE_DENORMAL
Note: The following floating-point exceptions are signalling: IEEE_UNDERFLOW_FLAG IEEE_DENORMAL
Note: The following floating-point exceptions are signalling: IEEE_UNDERFLOW_FLAG IEEE_DENORMAL
Note: The following floating-point exceptions are signalling: IEEE_UNDERFLOW_FLAG IEEE_DENORMAL
