
     Program PWSCF v.7.5 starts on 23Jun2026 at 11:40: 3 

     This program is part of the open-source Quantum ESPRESSO suite
     for quantum simulation of materials; please cite
         "P. Giannozzi et al., J. Phys.:Condens. Matter 21 395502 (2009);
         "P. Giannozzi et al., J. Phys.:Condens. Matter 29 465901 (2017);
         "P. Giannozzi et al., J. Chem. Phys. 152 154105 (2020);
          URL http://www.quantum-espresso.org", 
     in publications or presentations arising from this work. More details at
     http://www.quantum-espresso.org/quote

     Serial version
     0 MiB available memory on the printing compute node when the environment starts

     Waiting for input...
     Reading input from standard input

     Current dimensions of program PWSCF are:
     Max number of different atomic species (ntypx) = 10
     Max number of k-points (npk) =  40000
     Max angular momentum in pseudopotentials (lmaxx) =  4
     file C.pbe-n-kjpaw_psl.1.0.0.UPF: wavefunction(s)  2S 2P renormalized
     Message from routine volume:
     axis vectors are left-handed
     Message from routine setup:
     using ibrav=0 with symmetry is DISCOURAGED, use correct ibrav instead


     G-vector sticks info
     --------------------
     sticks:   dense  smooth     PW     G-vecs:    dense   smooth      PW
     Sum        2375    1181    343               492429   174165   26841

     Using Slab Decomposition



     bravais-lattice index     =            0
     lattice parameter (alat)  =       4.8230  a.u.
     unit-cell volume          =    1800.8589 (a.u.)^3
     number of atoms/cell      =           14
     number of atomic types    =            2
     number of electrons       =        50.00
     number of Kohn-Sham states=           30
     kinetic-energy cutoff     =      80.0000  Ry
     charge density cutoff     =     640.0000  Ry
     scf convergence threshold =      1.0E-08
     mixing beta               =       0.3000
     number of iterations used =            8  plain     mixing
     Exchange-correlation= PBE
                           (   1   4   3   4   0   0   0)

     celldm(1)=   4.822988  celldm(2)=   0.000000  celldm(3)=   0.000000
     celldm(4)=   0.000000  celldm(5)=   0.000000  celldm(6)=   0.000000

     crystal axes: (cart. coord. in units of alat)
               a(1) = (   1.000000   0.000000   0.000000 )  
               a(2) = (   0.000000  -2.000000   0.000000 )  
               a(3) = (   0.000000   0.000000   8.026038 )  

     reciprocal axes: (cart. coord. in units 2 pi/alat)
               b(1) = (  1.000000 -0.000000 -0.000000 )  
               b(2) = ( -0.000000 -0.500000 -0.000000 )  
               b(3) = ( -0.000000 -0.000000  0.124594 )  


     PseudoPot. # 1 for C  read from file:
     ./C.pbe-n-kjpaw_psl.1.0.0.UPF
     MD5 check sum: 5d2aebdfa2cae82b50a7e79e9516da0f
     Pseudo is Projector augmented-wave + core cor, Zval =  4.0
     Generated using "atomic" code by A. Dal Corso  v.5.1
     Shape of augmentation charge: PSQ
     Using radial grid of 1073 points,  4 beta functions with: 
                l(1) =   0
                l(2) =   0
                l(3) =   1
                l(4) =   1
     Q(r) pseudized with 0 coefficients 


     PseudoPot. # 2 for H  read from file:
     ./H_ONCV_PBE-1.0.oncvpsp.upf
     MD5 check sum: 1790becc920ee074925cf490c71280fe
     Pseudo is Norm-conserving, Zval =  1.0
     Generated using ONCVPSP code by D. R. Hamann
     Using radial grid of 1166 points,  2 beta functions with: 
                l(1) =   0
                l(2) =   0

     atomic species   valence    mass     pseudopotential
     C                 4.00    12.01100     C ( 1.00)
     H                 1.00     1.00800     H ( 1.00)

      4 Sym. Ops. (no inversion) found



   Cartesian axes

     site n.     atom                  positions (alat units)
         1        C      tau(   1) = (   0.0000000  -0.3212366   4.6619383  )
         2        C      tau(   2) = (   0.5000000  -0.4642664   4.3442261  )
         3        C      tau(   3) = (   0.5000000   0.0000000   3.9536374  )
         4        C      tau(   4) = (   0.0000000   0.0000000   3.6214161  )
         5        C      tau(   5) = (   0.0000000  -0.5000000   3.2886765  )
         6        C      tau(   6) = (   0.5000000  -0.5000000   2.9386236  )
         7        C      tau(   7) = (   0.0000000  -1.6787634   4.6619383  )
         8        C      tau(   8) = (   0.5000000  -1.5357336   4.3442261  )
         9        C      tau(   9) = (   0.5000000  -1.0000000   4.0259534  )
        10        C      tau(  10) = (   0.0000000  -1.0000000   3.6632276  )
        11        C      tau(  11) = (   0.0000000  -1.5000000   3.2886765  )
        12        C      tau(  12) = (   0.5000000  -1.5000000   2.9386236  )
        13        H      tau(  13) = (   0.0000000  -0.4902796   5.0587789  )
        14        H      tau(  14) = (   0.0000000  -1.5097204   5.0587789  )

     number of k points=    15  Marzari-Vanderbilt smearing, width (Ry)=  0.0100
                       cart. coord. in units 2pi/alat
        k(    1) = (   0.0000000  -0.0000000   0.0000000), wk =   0.0444444
        k(    2) = (   0.0000000  -0.1000000   0.0000000), wk =   0.0888889
        k(    3) = (   0.0000000  -0.2000000   0.0000000), wk =   0.0888889
        k(    4) = (   0.1111111  -0.0000000   0.0000000), wk =   0.0888889
        k(    5) = (   0.1111111  -0.1000000   0.0000000), wk =   0.1777778
        k(    6) = (   0.1111111  -0.2000000   0.0000000), wk =   0.1777778
        k(    7) = (   0.2222222  -0.0000000   0.0000000), wk =   0.0888889
        k(    8) = (   0.2222222  -0.1000000   0.0000000), wk =   0.1777778
        k(    9) = (   0.2222222  -0.2000000   0.0000000), wk =   0.1777778
        k(   10) = (   0.3333333  -0.0000000   0.0000000), wk =   0.0888889
        k(   11) = (   0.3333333  -0.1000000   0.0000000), wk =   0.1777778
        k(   12) = (   0.3333333  -0.2000000   0.0000000), wk =   0.1777778
        k(   13) = (   0.4444444  -0.0000000   0.0000000), wk =   0.0888889
        k(   14) = (   0.4444444  -0.1000000   0.0000000), wk =   0.1777778
        k(   15) = (   0.4444444  -0.2000000   0.0000000), wk =   0.1777778

     Dense  grid:   492429 G-vectors     FFT dimensions: (  40,  80, 320)

     Smooth grid:   174165 G-vectors     FFT dimensions: (  27,  60, 225)

     Estimated max dynamical RAM per process >       1.04 GB

     Initial potential from superposition of free atoms

     starting charge      49.9995, renormalised to      50.0000

     negative rho (up, down):  7.475E-05 0.000E+00
     Starting wfcs are   50 randomized atomic wfcs

     total cpu time spent up to now is        4.1 secs

     Self-consistent Calculation

     iteration #  1     ecut=    80.00 Ry     beta= 0.30
     Davidson diagonalization with overlap
     ethr =  1.00E-02,  avg # of iterations =  2.5

     negative rho (up, down):  7.205E-05 0.000E+00

     total cpu time spent up to now is       12.1 secs

     total energy              =    -223.05592090 Ry
     estimated scf accuracy    <       0.85173054 Ry

     iteration #  2     ecut=    80.00 Ry     beta= 0.30
     Davidson diagonalization with overlap
     ethr =  1.70E-03,  avg # of iterations =  2.7

     negative rho (up, down):  7.862E-05 0.000E+00

     total cpu time spent up to now is       18.4 secs

     total energy              =    -223.00389302 Ry
     estimated scf accuracy    <       0.28137710 Ry

     iteration #  3     ecut=    80.00 Ry     beta= 0.30
     Davidson diagonalization with overlap
     ethr =  5.63E-04,  avg # of iterations =  6.1

     negative rho (up, down):  8.493E-05 0.000E+00

     total cpu time spent up to now is       26.5 secs

     total energy              =    -223.00987359 Ry
     estimated scf accuracy    <       0.06270124 Ry

     iteration #  4     ecut=    80.00 Ry     beta= 0.30
     Davidson diagonalization with overlap
     ethr =  1.25E-04,  avg # of iterations =  4.2

     negative rho (up, down):  8.969E-05 0.000E+00

     total cpu time spent up to now is       33.6 secs

     total energy              =    -223.01380945 Ry
     estimated scf accuracy    <       0.01022028 Ry

     iteration #  5     ecut=    80.00 Ry     beta= 0.30
     Davidson diagonalization with overlap
     c_bands:  1 eigenvalues not converged
     ethr =  2.04E-05,  avg # of iterations =  6.7

     negative rho (up, down):  9.184E-05 0.000E+00

     total cpu time spent up to now is       42.6 secs

     total energy              =    -223.01510921 Ry
     estimated scf accuracy    <       0.00122568 Ry

     iteration #  6     ecut=    80.00 Ry     beta= 0.30
     Davidson diagonalization with overlap
     c_bands:  1 eigenvalues not converged
     ethr =  2.45E-06,  avg # of iterations =  8.6

     negative rho (up, down):  8.902E-05 0.000E+00

     total cpu time spent up to now is       52.9 secs

     total energy              =    -223.01526133 Ry
     estimated scf accuracy    <       0.00024152 Ry

     iteration #  7     ecut=    80.00 Ry     beta= 0.30
     Davidson diagonalization with overlap
     ethr =  4.83E-07,  avg # of iterations =  3.7

     negative rho (up, down):  8.900E-05 0.000E+00

     total cpu time spent up to now is       60.4 secs

     total energy              =    -223.01530179 Ry
     estimated scf accuracy    <       0.00006290 Ry

     iteration #  8     ecut=    80.00 Ry     beta= 0.30
     Davidson diagonalization with overlap
     ethr =  1.26E-07,  avg # of iterations =  2.0

     negative rho (up, down):  8.853E-05 0.000E+00

     total cpu time spent up to now is       67.0 secs

     total energy              =    -223.01531027 Ry
     estimated scf accuracy    <       0.00000743 Ry

     iteration #  9     ecut=    80.00 Ry     beta= 0.30
     Davidson diagonalization with overlap
     ethr =  1.49E-08,  avg # of iterations =  3.3

     negative rho (up, down):  8.821E-05 0.000E+00

     total cpu time spent up to now is       74.9 secs

     total energy              =    -223.01531165 Ry
     estimated scf accuracy    <       0.00000106 Ry

     iteration # 10     ecut=    80.00 Ry     beta= 0.30
     Davidson diagonalization with overlap
     ethr =  2.12E-09,  avg # of iterations =  3.5

     negative rho (up, down):  8.799E-05 0.000E+00

     total cpu time spent up to now is       82.8 secs

     total energy              =    -223.01531191 Ry
     estimated scf accuracy    <       0.00000036 Ry

     iteration # 11     ecut=    80.00 Ry     beta= 0.30
     Davidson diagonalization with overlap
     ethr =  7.19E-10,  avg # of iterations =  2.0

     negative rho (up, down):  8.791E-05 0.000E+00

     total cpu time spent up to now is       89.4 secs

     total energy              =    -223.01531197 Ry
     estimated scf accuracy    <       0.00000003 Ry

     iteration # 12     ecut=    80.00 Ry     beta= 0.30
     Davidson diagonalization with overlap
     ethr =  6.80E-11,  avg # of iterations =  3.9

     negative rho (up, down):  8.784E-05 0.000E+00

     total cpu time spent up to now is       98.1 secs

     total energy              =    -223.01531198 Ry
     estimated scf accuracy    <       0.00000001 Ry

     iteration # 13     ecut=    80.00 Ry     beta= 0.30
     Davidson diagonalization with overlap
     ethr =  2.59E-11,  avg # of iterations =  2.7

     negative rho (up, down):  8.778E-05 0.000E+00

     total cpu time spent up to now is      105.3 secs

     End of self-consistent calculation

          k = 0.0000-0.0000 0.0000 ( 21729 PWs)   bands (ev):

   -21.0060 -18.7446 -16.6901 -16.3003 -15.2018 -15.1878 -12.0241 -11.2927
   -10.9837  -8.0505  -8.0083  -7.1715  -6.2493  -5.8295  -4.3048  -4.2358
    -4.1841  -3.4833  -3.2763  -2.9697  -2.8194  -2.6697  -1.7767  -0.9260
    -0.5222  -0.0827   2.5440   2.9558   3.9076   4.0215

          k = 0.0000-0.1000 0.0000 ( 21737 PWs)   bands (ev):

   -20.8593 -18.6894 -17.8264 -15.8576 -15.0134 -14.8898 -11.5715 -11.2277
   -10.8937  -8.2780  -7.6624  -7.3524  -6.3040  -6.1404  -4.6756  -4.2029
    -4.2019  -3.9609  -3.6413  -2.9423  -2.8120  -2.3902  -1.7333  -1.0286
    -0.6946   0.2326   2.6269   2.7551   4.3266   4.7538

          k = 0.0000-0.2000 0.0000 ( 21700 PWs)   bands (ev):

   -20.5039 -19.0735 -18.1815 -16.5490 -14.6742 -14.0894 -11.3818 -10.5023
   -10.2145  -9.0781  -8.0825  -7.0853  -6.8676  -5.8954  -5.3515  -4.6170
    -4.3886  -4.0007  -3.4768  -3.2839  -3.0293  -2.0351  -1.6680  -1.0627
    -0.9716   0.9313   1.8561   3.3151   4.2144   4.7288

          k = 0.1111-0.0000 0.0000 ( 21737 PWs)   bands (ev):

   -20.7855 -18.5315 -16.4845 -16.0906 -15.0031 -14.9917 -11.8459 -11.2217
   -10.8096  -7.9632  -7.9556  -7.5413  -6.9761  -5.6790  -5.3428  -4.6117
    -4.3045  -4.0211  -3.6683  -3.5657  -3.4898  -2.8942  -2.5547  -1.0610
    -0.5558  -0.0850   2.7609   3.0686   4.4533   4.7747

          k = 0.1111-0.1000 0.0000 ( 21709 PWs)   bands (ev):

   -20.6391 -18.4758 -17.6156 -15.6581 -14.8112 -14.6937 -11.4368 -11.0760
   -10.7595  -8.2218  -7.6691  -7.4882  -6.9423  -6.2338  -5.2971  -5.0477
    -4.5278  -4.2934  -3.7080  -3.5075  -3.2687  -3.1825  -2.4320  -1.0988
    -0.6843   0.2180   2.6980   2.9687   4.9192   5.3104

          k = 0.1111-0.2000 0.0000 ( 21700 PWs)   bands (ev):

   -20.2846 -18.8570 -17.9713 -16.3467 -14.4815 -13.8914 -11.2682 -10.3488
   -10.1006  -8.9231  -7.9687  -7.4086  -6.8017  -6.5979  -5.7240  -5.3849
    -5.0894  -4.3882  -3.9812  -3.4356  -3.1791  -2.8403  -2.5802  -1.0802
    -0.9164   0.9266   1.8700   3.5057   4.3700   4.9731

          k = 0.2222-0.0000 0.0000 ( 21712 PWs)   bands (ev):

   -20.1280 -17.9008 -15.8731 -15.4664 -14.4312 -14.4088 -11.4862 -11.3441
   -10.3342  -9.1564  -8.4077  -8.0458  -7.4394  -6.4793  -6.0720  -5.5992
    -5.4612  -5.2851  -5.2167  -4.2615  -4.1766  -3.1388  -2.7738  -1.4070
    -0.9753  -0.2347   3.2983   3.3339   5.1754   5.6468

          k = 0.2222-0.1000 0.0000 ( 21747 PWs)   bands (ev):

   -19.9825 -17.8426 -16.9893 -15.0712 -14.2128 -14.1235 -11.4375 -10.7804
   -10.3751  -9.0460  -8.5222  -8.1068  -7.2882  -6.6139  -6.2732  -5.8272
    -5.7556  -5.2248  -4.9800  -4.5033  -4.1899  -3.4092  -2.9792  -1.3490
    -0.9628   0.0220   2.7800   3.5110   5.3621   5.6153

          k = 0.2222-0.2000 0.0000 ( 21776 PWs)   bands (ev):

   -19.6303 -18.2125 -17.3490 -15.7524 -13.9307 -13.3006 -11.2716 -10.2329
    -9.8221  -8.9037  -8.6051  -7.9628  -7.6989  -7.2388  -6.6433  -6.2388
    -5.8892  -5.2834  -4.7292  -4.5663  -4.3250  -3.4932  -3.2391  -1.2340
    -1.0468   0.7214   1.7273   3.9664   4.5874   5.1045

          k = 0.3333-0.0000 0.0000 ( 21794 PWs)   bands (ev):

   -19.0484 -16.9016 -14.8848 -14.4462 -13.8788 -13.4659 -12.7044 -11.1138
   -10.6970  -9.9449  -9.0745  -9.0245  -8.2095  -7.6475  -7.3321  -6.8491
    -6.0952  -5.6608  -5.2230  -4.7358  -4.2762  -4.0490  -2.7502  -1.6829
    -1.3747  -0.4922   3.5737   4.1652   5.6522   6.3801

          k = 0.3333-0.1000 0.0000 ( 21783 PWs)   bands (ev):

   -18.9044 -16.8327 -15.9755 -14.1983 -13.6045 -13.2017 -12.5484 -11.0852
   -10.5608  -9.8625  -9.2077  -8.8196  -8.1087  -7.7800  -7.4122  -6.2629
    -6.1804  -5.6624  -5.4583  -4.9694  -4.5521  -3.9676  -3.4058  -1.5978
    -1.3591  -0.2646   2.9563   4.3246   5.2717   5.8947

          k = 0.3333-0.2000 0.0000 ( 21811 PWs)   bands (ev):

   -18.5554 -17.1594 -16.3599 -14.8464 -13.4802 -12.3415 -12.2500 -11.3975
   -10.4426  -9.5428  -8.8721  -8.4789  -7.9608  -7.5108  -7.2993  -7.2265
    -6.3076  -5.6612  -5.5667  -5.0291  -4.7794  -4.2187  -3.9239  -1.4786
    -1.3792   0.4701   1.6746   4.4451   4.7103   5.5129

          k = 0.4444-0.0000 0.0000 ( 21816 PWs)   bands (ev):

   -17.5962 -16.1546 -14.9406 -13.5020 -13.0932 -12.9812 -12.3535 -12.0744
   -11.5074 -11.0859 -10.2816  -9.9454  -8.2427  -7.8532  -7.4372  -7.1045
    -6.4419  -5.7882  -5.7132  -5.3566  -4.5176  -3.6145  -3.0197  -1.8478
    -1.6026  -0.7025   3.6970   5.2448   5.5958   6.2234

          k = 0.4444-0.1000 0.0000 ( 21788 PWs)   bands (ev):

   -17.4540 -16.0166 -14.9772 -14.5179 -13.4419 -12.8420 -11.9799 -11.7485
   -11.4641 -10.7429 -10.2034  -9.7829  -8.2324  -7.8348  -7.6377  -6.4519
    -6.3797  -5.8702  -5.6162  -5.2008  -4.7665  -4.1784  -3.7648  -1.7433
    -1.6142  -0.4765   3.0707   5.0691   5.6396   5.9555

          k = 0.4444-0.2000 0.0000 ( 21814 PWs)   bands (ev):

   -17.1074 -15.7976 -15.5486 -14.6270 -14.3746 -12.6002 -12.3021 -11.2915
   -11.2308 -10.7869  -9.5943  -9.2545  -8.0819  -7.5287  -7.2589  -6.4842
    -6.0999  -5.9122  -5.5418  -5.3925  -5.2163  -4.9855  -4.6966  -1.6891
    -1.6221   0.3757   1.7156   4.6839   5.3877   6.0839

     the Fermi energy is    -0.5780 ev

!    total energy              =    -223.01531198 Ry
     estimated scf accuracy    <          2.2E-09 Ry
     smearing contrib. (-TS)   =      -0.00013486 Ry
     internal energy E=F+TS    =    -223.01517712 Ry

     The total energy is F=E-TS. E is the sum of the following terms:
     one-electron contribution =   -2228.72918362 Ry
     hartree contribution      =    1127.95329150 Ry
     xc contribution           =     -56.52312372 Ry
     ewald contribution        =    1008.26049318 Ry
     one-center paw contrib.   =     -73.97665445 Ry

     convergence has been achieved in  13 iterations

     negative rho (up, down):  8.778E-05 0.000E+00

     Forces acting on atoms (cartesian axes, Ry/au):

     atom    1 type  1   force =     0.00000000    0.00411457   -0.00230706
     atom    2 type  1   force =     0.00000000    0.00645793    0.00028112
     atom    3 type  1   force =     0.00000000    0.00000000   -0.00087879
     atom    4 type  1   force =     0.00000000    0.00000000   -0.00219753
     atom    5 type  1   force =     0.00000000   -0.02982150   -0.08697602
     atom    6 type  1   force =     0.00000000   -0.00572217    0.09202603
     atom    7 type  1   force =     0.00000000   -0.00411457   -0.00230706
     atom    8 type  1   force =     0.00000000   -0.00645793    0.00028112
     atom    9 type  1   force =     0.00000000    0.00000000   -0.00025493
     atom   10 type  1   force =     0.00000000   -0.00000000    0.00004969
     atom   11 type  1   force =     0.00000000    0.02982150   -0.08697602
     atom   12 type  1   force =     0.00000000    0.00572217    0.09202603
     atom   13 type  2   force =     0.00000000    0.00237977   -0.00138329
     atom   14 type  2   force =     0.00000000   -0.00237977   -0.00138329

     Total force =     0.012202     Total SCF correction =     0.000087


     Computing stress (Cartesian axis) and pressure


     negative rho (up, down):  8.778E-05 0.000E+00
          total   stress  (Ry/bohr**3)                   (kbar)     P=      -52.65
  -0.00024004   0.00000000   0.00000000          -35.31        0.00        0.00
   0.00000000  -0.00062467   0.00000000            0.00      -91.89        0.00
   0.00000000   0.00000000  -0.00020895            0.00        0.00      -30.74


     Writing all to output data dir ./tmp/slab.save/ :
     XML data file, charge density, pseudopotentials, collected wavefunctions

     init_run     :      3.76s CPU      4.05s WALL (       1 calls)
     electrons    :     91.94s CPU    101.24s WALL (       1 calls)
     forces       :      1.07s CPU      1.21s WALL (       1 calls)
     stress       :      3.06s CPU      3.51s WALL (       1 calls)

     Called by init_run:
     wfcinit      :      3.09s CPU      3.33s WALL (       1 calls)
     potinit      :      0.34s CPU      0.36s WALL (       1 calls)
     hinit0       :      0.15s CPU      0.16s WALL (       1 calls)

     Called by electrons:
     c_bands      :     74.90s CPU     82.88s WALL (      13 calls)
     sum_band     :     11.50s CPU     12.24s WALL (      13 calls)
     v_of_rho     :      2.21s CPU      2.36s WALL (      14 calls)
     newd         :      1.24s CPU      1.57s WALL (      14 calls)
     PAW_pot      :      1.94s CPU      2.01s WALL (      14 calls)
     mix_rho      :      0.33s CPU      0.37s WALL (      13 calls)

     Called by c_bands:
     init_us_2    :      1.08s CPU      1.13s WALL (     435 calls)
     cegterg      :     72.70s CPU     80.64s WALL (     195 calls)

     Called by *egterg:
     cdiaghg      :      0.54s CPU      0.55s WALL (     973 calls)
     h_psi        :     55.16s CPU     58.52s WALL (     988 calls)
     s_psi        :      5.73s CPU      6.80s WALL (     988 calls)
     g_psi        :      0.24s CPU      0.24s WALL (     778 calls)

     Called by h_psi:
     h_psi:calbec :      5.01s CPU      6.35s WALL (     988 calls)
     vloc_psi     :     43.43s CPU     43.91s WALL (     988 calls)
                                        0.00s GPU  (     988 calls)
     add_vuspsi   :      6.51s CPU      7.90s WALL (     988 calls)

     General routines
     calbec       :      8.13s CPU     10.22s WALL (    1438 calls)
     fft          :      1.82s CPU      1.82s WALL (     205 calls)
     ffts         :      0.06s CPU      0.06s WALL (      27 calls)
     fftw         :     46.16s CPU     46.28s WALL (   38206 calls)
     interpolate  :      0.17s CPU      0.19s WALL (      14 calls)


     PWSCF        :   1m39.88s CPU   1m50.10s WALL


   This run was terminated on:  11:41:53  23Jun2026            

=------------------------------------------------------------------------------=
   JOB DONE.
=------------------------------------------------------------------------------=
Note: The following floating-point exceptions are signalling: IEEE_INVALID_FLAG IEEE_DIVIDE_BY_ZERO IEEE_OVERFLOW_FLAG IEEE_UNDERFLOW_FLAG
