
     Program PWSCF v.7.3.1 starts on  1Aug2026 at 12:30:56 

     This program is part of the open-source Quantum ESPRESSO suite
     for quantum simulation of materials; please cite
         "P. Giannozzi et al., J. Phys.:Condens. Matter 21 395502 (2009);
         "P. Giannozzi et al., J. Phys.:Condens. Matter 29 465901 (2017);
         "P. Giannozzi et al., J. Chem. Phys. 152 154105 (2020);
          URL http://www.quantum-espresso.org", 
     in publications or presentations arising from this work. More details at
     http://www.quantum-espresso.org/quote

     Parallel version (MPI), running on     8 processors

     MPI processes distributed on     1 nodes
     186206 MiB available memory on the printing compute node when the environment starts

     Reading input from pw.in

     Current dimensions of program PWSCF are:
     Max number of different atomic species (ntypx) = 10
     Max number of k-points (npk) =  40000
     Max angular momentum in pseudopotentials (lmaxx) =  4
     file C.pbe-n-kjpaw_psl.1.0.0.UPF: wavefunction(s)  2S 2P renormalized
     Message from routine volume:
     axis vectors are left-handed
     Found identity + (  0.5000  0.0000  0.0000) symmetry
     This is a supercell, fractional translations are disabled
     Message from routine setup:
     using ibrav=0 with symmetry is DISCOURAGED, use correct ibrav instead

     R & G space division:  proc/nbgrp/npool/nimage =       8
     Subspace diagonalization in iterative solution of the eigenvalue problem:
     a serial algorithm will be used


     Parallelization info
     --------------------
     sticks:   dense  smooth     PW     G-vecs:    dense   smooth      PW
     Min         506     253     69                69898    24733    3527
     Max         507     254     70                69911    24746    3538
     Sum        4049    2025    553               559207   197881   28253

     Using Slab Decomposition



     bravais-lattice index     =            0
     lattice parameter (alat)  =       9.5505  a.u.
     unit-cell volume          =    2499.5129 (a.u.)^3
     number of atoms/cell      =           32
     number of atomic types    =            2
     number of electrons       =       104.00
     number of Kohn-Sham states=           62
     kinetic-energy cutoff     =      70.0000  Ry
     charge density cutoff     =     560.0000  Ry
     scf convergence threshold =      1.0E-08
     mixing beta               =       0.3000
     number of iterations used =            8  plain     mixing
     Exchange-correlation= PBE
                           (   1   4   3   4   0   0   0)

     celldm(1)=   9.550471  celldm(2)=   0.000000  celldm(3)=   0.000000
     celldm(4)=   0.000000  celldm(5)=   0.000000  celldm(6)=   0.000000

     crystal axes: (cart. coord. in units of alat)
               a(1) = (   1.000000   0.000000   0.000000 )  
               a(2) = (   0.000000  -1.000000   0.000000 )  
               a(3) = (   0.000000   0.000000   2.869333 )  

     reciprocal axes: (cart. coord. in units 2 pi/alat)
               b(1) = (  1.000000 -0.000000 -0.000000 )  
               b(2) = ( -0.000000 -1.000000 -0.000000 )  
               b(3) = ( -0.000000 -0.000000  0.348513 )  


     PseudoPot. # 1 for C  read from file:
     ./C.pbe-n-kjpaw_psl.1.0.0.UPF
     MD5 check sum: 5d2aebdfa2cae82b50a7e79e9516da0f
     Pseudo is Projector augmented-wave + core cor, Zval =  4.0
     Generated using "atomic" code by A. Dal Corso  v.5.1
     Shape of augmentation charge: PSQ
     Using radial grid of 1073 points,  4 beta functions with: 
                l(1) =   0
                l(2) =   0
                l(3) =   1
                l(4) =   1
     Q(r) pseudized with 0 coefficients 


     PseudoPot. # 2 for H  read from file:
     ./H_ONCV_PBE-1.0.oncvpsp.upf
     MD5 check sum: 1790becc920ee074925cf490c71280fe
     Pseudo is Norm-conserving, Zval =  1.0
     Generated using ONCVPSP code by D. R. Hamann
     Using radial grid of 1166 points,  2 beta functions with: 
                l(1) =   0
                l(2) =   0

     atomic species   valence    mass     pseudopotential
     C                 4.00    12.01100     C ( 1.00)
     H                 1.00     1.00800     H ( 1.00)

      4 Sym. Ops. (no inversion) found



   Cartesian axes

     site n.     atom                  positions (alat units)
         1        C      tau(   1) = (   0.0000000  -0.1582087   1.8592812  )
         2        C      tau(   2) = (   0.2500000  -0.2299149   1.6998931  )
         3        C      tau(   3) = (   0.2500000   0.0000000   1.4936626  )
         4        C      tau(   4) = (   0.0000000   0.0000000   1.3178300  )
         5        C      tau(   5) = (   0.0000000  -0.2700851   1.1694404  )
         6        C      tau(   6) = (   0.2500000  -0.3417913   1.0100523  )
         7        C      tau(   7) = (   0.0000000  -0.8417913   1.8592812  )
         8        C      tau(   8) = (   0.2500000  -0.7700851   1.6998931  )
         9        C      tau(   9) = (   0.2500000  -0.5000000   1.5515034  )
        10        C      tau(  10) = (   0.0000000  -0.5000000   1.3756708  )
        11        C      tau(  11) = (   0.0000000  -0.7299149   1.1694404  )
        12        C      tau(  12) = (   0.2500000  -0.6582087   1.0100523  )
        13        H      tau(  13) = (   0.0000000  -0.2449080   2.0590044  )
        14        H      tau(  14) = (   0.0000000  -0.7550920   2.0590044  )
        15        H      tau(  15) = (   0.2500000  -0.2550919   0.8103291  )
        16        H      tau(  16) = (   0.2500000  -0.7449081   0.8103291  )
        17        C      tau(  17) = (   0.5000000  -0.1582087   1.8592812  )
        18        C      tau(  18) = (   0.7500000  -0.2299149   1.6998931  )
        19        C      tau(  19) = (   0.7500000   0.0000000   1.4936626  )
        20        C      tau(  20) = (   0.5000000   0.0000000   1.3178300  )
        21        C      tau(  21) = (   0.5000000  -0.2700851   1.1694404  )
        22        C      tau(  22) = (   0.7500000  -0.3417913   1.0100523  )
        23        C      tau(  23) = (   0.5000000  -0.8417913   1.8592812  )
        24        C      tau(  24) = (   0.7500000  -0.7700851   1.6998931  )
        25        C      tau(  25) = (   0.7500000  -0.5000000   1.5515034  )
        26        C      tau(  26) = (   0.5000000  -0.5000000   1.3756708  )
        27        C      tau(  27) = (   0.5000000  -0.7299149   1.1694404  )
        28        C      tau(  28) = (   0.7500000  -0.6582087   1.0100523  )
        29        H      tau(  29) = (   0.5000000  -0.2449080   2.0590044  )
        30        H      tau(  30) = (   0.5000000  -0.7550920   2.0590044  )
        31        H      tau(  31) = (   0.7500000  -0.2550919   0.8103291  )
        32        H      tau(  32) = (   0.7500000  -0.7449081   0.8103291  )

     number of k points=     9  Marzari-Vanderbilt smearing, width (Ry)=  0.0100
                       cart. coord. in units 2pi/alat
        k(    1) = (   0.0000000  -0.0000000   0.0000000), wk =   0.0800000
        k(    2) = (   0.0000000  -0.2000000   0.0000000), wk =   0.1600000
        k(    3) = (   0.0000000  -0.4000000   0.0000000), wk =   0.1600000
        k(    4) = (   0.2000000  -0.2000000   0.0000000), wk =   0.3200000
        k(    5) = (   0.2000000  -0.4000000   0.0000000), wk =   0.3200000
        k(    6) = (   0.4000000  -0.4000000   0.0000000), wk =   0.3200000
        k(    7) = (  -0.2000000   0.0000000   0.0000000), wk =   0.1600000
        k(    8) = (  -0.4000000   0.0000000   0.0000000), wk =   0.1600000
        k(    9) = (  -0.4000000   0.2000000   0.0000000), wk =   0.3200000

     Dense  grid:   559207 G-vectors     FFT dimensions: (  72,  72, 216)

     Smooth grid:   197881 G-vectors     FFT dimensions: (  54,  54, 150)

     Estimated max dynamical RAM per process >     201.67 MB

     Estimated total dynamical RAM >       1.58 GB

     Check: negative core charge=   -0.000002

     Initial potential from superposition of free atoms

     starting charge     103.9989, renormalised to     104.0000

     negative rho (up, down):  3.245E-07 0.000E+00
     Starting wfcs are  104 randomized atomic wfcs
     Checking if some PAW data can be deallocated... 

     total cpu time spent up to now is        2.2 secs

     Self-consistent Calculation

     iteration #  1     ecut=    70.00 Ry     beta= 0.30
     Davidson diagonalization with overlap
     ethr =  1.00E-02,  avg # of iterations =  3.0

     negative rho (up, down):  1.073E-06 0.000E+00

     total cpu time spent up to now is        5.5 secs

     total energy              =    -451.91157638 Ry
     estimated scf accuracy    <       2.44801362 Ry

     iteration #  2     ecut=    70.00 Ry     beta= 0.30
     Davidson diagonalization with overlap
     ethr =  2.35E-03,  avg # of iterations =  4.3

     negative rho (up, down):  4.260E-06 0.000E+00

     total cpu time spent up to now is        8.3 secs

     total energy              =    -451.75544592 Ry
     estimated scf accuracy    <       0.72226742 Ry

     iteration #  3     ecut=    70.00 Ry     beta= 0.30
     Davidson diagonalization with overlap
     ethr =  6.94E-04,  avg # of iterations =  7.0

     negative rho (up, down):  4.272E-06 0.000E+00

     total cpu time spent up to now is       11.6 secs

     total energy              =    -451.78175442 Ry
     estimated scf accuracy    <       0.10726737 Ry

     iteration #  4     ecut=    70.00 Ry     beta= 0.30
     Davidson diagonalization with overlap
     ethr =  1.03E-04,  avg # of iterations =  6.7

     negative rho (up, down):  7.106E-06 0.000E+00

     total cpu time spent up to now is       14.7 secs

     total energy              =    -451.79086329 Ry
     estimated scf accuracy    <       0.01047173 Ry

     iteration #  5     ecut=    70.00 Ry     beta= 0.30
     Davidson diagonalization with overlap
     ethr =  1.01E-05,  avg # of iterations =  9.2

     negative rho (up, down):  5.673E-06 0.000E+00

     total cpu time spent up to now is       18.6 secs

     total energy              =    -451.79265932 Ry
     estimated scf accuracy    <       0.00267661 Ry

     iteration #  6     ecut=    70.00 Ry     beta= 0.30
     Davidson diagonalization with overlap
     ethr =  2.57E-06,  avg # of iterations =  6.6

     negative rho (up, down):  6.004E-06 0.000E+00

     total cpu time spent up to now is       21.8 secs

     total energy              =    -451.79300905 Ry
     estimated scf accuracy    <       0.00031758 Ry

     iteration #  7     ecut=    70.00 Ry     beta= 0.30
     Davidson diagonalization with overlap
     ethr =  3.05E-07,  avg # of iterations =  3.1

     negative rho (up, down):  5.987E-06 0.000E+00

     total cpu time spent up to now is       24.7 secs

     total energy              =    -451.79305244 Ry
     estimated scf accuracy    <       0.00004304 Ry

     iteration #  8     ecut=    70.00 Ry     beta= 0.30
     Davidson diagonalization with overlap
     ethr =  4.14E-08,  avg # of iterations =  3.3

     negative rho (up, down):  5.857E-06 0.000E+00

     total cpu time spent up to now is       27.7 secs

     total energy              =    -451.79306058 Ry
     estimated scf accuracy    <       0.00001973 Ry

     iteration #  9     ecut=    70.00 Ry     beta= 0.30
     Davidson diagonalization with overlap
     ethr =  1.90E-08,  avg # of iterations =  2.0

     negative rho (up, down):  5.815E-06 0.000E+00

     total cpu time spent up to now is       30.4 secs

     total energy              =    -451.79306466 Ry
     estimated scf accuracy    <       0.00000216 Ry

     iteration # 10     ecut=    70.00 Ry     beta= 0.30
     Davidson diagonalization with overlap
     ethr =  2.08E-09,  avg # of iterations =  3.9

     negative rho (up, down):  5.739E-06 0.000E+00

     total cpu time spent up to now is       33.6 secs

     total energy              =    -451.79306471 Ry
     estimated scf accuracy    <       0.00000151 Ry

     iteration # 11     ecut=    70.00 Ry     beta= 0.30
     Davidson diagonalization with overlap
     ethr =  1.46E-09,  avg # of iterations =  2.9

     negative rho (up, down):  5.715E-06 0.000E+00

     total cpu time spent up to now is       36.5 secs

     total energy              =    -451.79306511 Ry
     estimated scf accuracy    <       0.00000007 Ry

     iteration # 12     ecut=    70.00 Ry     beta= 0.30
     Davidson diagonalization with overlap
     ethr =  6.39E-11,  avg # of iterations =  2.9

     negative rho (up, down):  5.697E-06 0.000E+00

     total cpu time spent up to now is       39.2 secs

     total energy              =    -451.79306510 Ry
     estimated scf accuracy    <       0.00000003 Ry

     iteration # 13     ecut=    70.00 Ry     beta= 0.30
     Davidson diagonalization with overlap
     ethr =  2.90E-11,  avg # of iterations =  4.4

     negative rho (up, down):  5.682E-06 0.000E+00

     total cpu time spent up to now is       42.7 secs

     total energy              =    -451.79306511 Ry
     estimated scf accuracy    <       0.00000004 Ry

     iteration # 14     ecut=    70.00 Ry     beta= 0.30
     Davidson diagonalization with overlap
     ethr =  2.90E-11,  avg # of iterations =  2.6

     negative rho (up, down):  5.656E-06 0.000E+00

     total cpu time spent up to now is       45.4 secs

     End of self-consistent calculation

          k = 0.0000-0.0000 0.0000 ( 24793 PWs)   bands (ev):

   -17.7364 -16.0425 -13.3844 -13.3844 -13.1652 -12.9578 -12.8590 -11.8376
   -11.5618 -11.5618  -9.2935  -9.2935  -9.0374  -8.8361  -8.8361  -8.7015
    -8.1486  -8.1486  -7.8477  -7.7724  -7.7724  -5.4173  -5.3762  -5.1804
    -4.8114  -4.8114  -3.9139  -3.9139  -3.4815  -3.4815  -2.6857  -2.2173
    -2.2141  -2.2141  -2.1210  -2.1210  -1.9099  -1.7690  -1.6571  -1.2007
    -1.1738  -1.1738   0.2226   0.4050   0.4050   0.4341   0.5396   0.8085
     0.8624   0.9923   1.3437   1.6795   5.4085   5.8887   7.4676   7.7430
     7.7462   8.3915   8.6202   8.9953   8.9955   9.1650

          k = 0.0000-0.2000 0.0000 ( 24727 PWs)   bands (ev):

   -17.5715 -16.0586 -14.2558 -13.3605 -13.2277 -13.2277 -11.7163 -11.5792
   -11.5792 -11.5552 -10.3250 -10.3250  -9.1345  -8.5596  -8.5596  -8.1739
    -7.7715  -7.6266  -7.6266  -7.4642  -7.4642  -5.9217  -5.0479  -4.9216
    -4.9216  -4.7789  -3.8347  -3.8347  -3.2786  -3.2786  -3.2185  -2.5465
    -2.3046  -2.3046  -1.9235  -1.8785  -1.8785  -1.8490  -1.3320  -1.2212
    -1.1954  -1.1954  -0.3780  -0.3052  -0.3052  -0.2295   0.3864   0.5937
     1.2244   1.3224   1.3436   1.6254   5.6420   6.0915   7.7670   8.1267
     8.2550   8.5054   8.6021   8.8236   8.9133   8.9135

          k = 0.0000-0.4000 0.0000 ( 24750 PWs)   bands (ev):

   -17.0973 -16.4369 -14.5989 -14.1009 -12.7960 -12.7960 -11.9652 -11.9652
   -11.3589 -10.9879 -10.8308 -10.8308  -9.0011  -9.0011  -8.6171  -7.7909
    -7.2631  -7.1372  -7.1372  -6.8014  -6.8014  -6.3060  -5.0006  -4.6064
    -4.6064  -4.4747  -3.9874  -3.6904  -3.6904  -3.2282  -3.2282  -3.1340
    -2.1491  -2.0384  -2.0384  -1.9338  -1.9338  -1.6848  -1.5877  -1.4124
    -1.4124  -1.2825  -1.2825  -1.1187  -0.4951  -0.3330   0.0595   0.1049
     0.8719   1.2422   1.7412   1.8280   6.2934   6.6598   7.3476   7.5857
     8.2273   8.5955   8.6120   8.6120   8.8668   8.9295

          k = 0.2000-0.2000 0.0000 ( 24690 PWs)   bands (ev):

   -17.3886 -15.8789 -14.7047 -14.0818 -13.2927 -13.1896 -11.6733 -11.5528
   -11.3892 -11.0674 -10.8773  -9.9542  -9.0336  -8.9605  -8.6511  -8.0318
    -7.9382  -7.6298  -7.2678  -6.2658  -6.1417  -5.8437  -5.6031  -5.0699
    -4.9885  -4.6745  -4.3509  -3.6575  -3.5482  -3.1084  -3.0200  -2.6761
    -2.3763  -2.3401  -2.3119  -1.9166  -1.7543  -1.7491  -1.5148  -1.2971
    -1.1689  -1.0185  -0.9163  -0.5207  -0.4936  -0.1696   0.1360   0.3128
     0.5689   0.6964   1.2582   1.3766   5.8114   6.2871   7.9961   8.1655
     8.2711   8.5959   8.6496   8.8236   8.8499   8.9847

          k = 0.2000-0.4000 0.0000 ( 24738 PWs)   bands (ev):

   -16.9151 -16.2559 -14.4248 -14.2426 -13.9282 -13.6061 -11.9998 -11.5084
   -11.1974 -10.8288 -10.7725 -10.3683  -8.5269  -8.5123  -8.4283  -7.8955
    -7.6939  -7.5082  -7.1174  -6.1604  -5.7652  -5.4033  -5.3971  -4.9004
    -4.6892  -4.3909  -4.2025  -3.9991  -3.9265  -3.2473  -3.0964  -2.9793
    -2.7143  -2.6498  -2.4566  -1.9178  -1.8651  -1.7421  -1.5885  -1.2856
    -1.2731  -1.1144  -0.9438  -0.8880  -0.8434  -0.7976  -0.5074  -0.0067
     0.9112   1.0055   1.0360   1.3649   6.4612   6.8559   7.5124   7.7572
     8.0009   8.1791   8.3078   8.8419   8.9455   9.1754

          k = 0.4000-0.4000 0.0000 ( 24682 PWs)   bands (ev):

   -16.3710 -15.7151 -15.4731 -14.8234 -13.9069 -13.4144 -13.0645 -12.5793
   -10.7254 -10.3639 -10.0400  -9.7559  -8.7790  -8.3338  -8.1359  -7.5482
    -6.7368  -6.5047  -6.2555  -5.7762  -5.6850  -5.3749  -5.3315  -5.0305
    -4.8286  -4.8163  -4.4011  -4.1617  -3.9756  -3.9356  -3.5217  -3.2643
    -2.9312  -2.7816  -2.6938  -2.5051  -2.1852  -2.0285  -1.5026  -1.4773
    -1.2708  -1.2051  -1.0196  -0.8341  -0.6950  -0.5489  -0.1612  -0.0373
    -0.0371   0.1334   0.5990   0.9326   6.8842   7.3322   7.4152   7.6558
     7.7777   8.0702   8.1544   8.2332   8.4847   8.7455

          k =-0.2000 0.0000 0.0000 ( 24727 PWs)   bands (ev):

   -17.5533 -15.8632 -14.8655 -13.3060 -12.9958 -12.7875 -12.6855 -11.6745
   -11.3427 -10.6819 -10.4828 -10.1587  -9.3304  -9.1243  -8.9516  -8.5476
    -7.6978  -7.5233  -6.9724  -6.8270  -6.7225  -5.3918  -5.3719  -5.3028
    -5.2134  -5.0473  -4.1660  -3.7770  -3.7022  -3.3274  -2.7168  -2.4894
    -2.4191  -2.2484  -2.0989  -1.7286  -1.7165  -1.6299  -1.6098  -1.5743
    -1.2002  -0.8073  -0.5188  -0.1625  -0.0613   0.0144   0.2256   0.5639
     0.8006   0.8269   0.8586   1.5113   5.5795   6.0811   7.8344   8.0346
     8.1066   8.1221   8.3520   8.7723   9.1460   9.2355

          k =-0.4000 0.0000 0.0000 ( 24750 PWs)   bands (ev):

   -17.0063 -16.1033 -15.3285 -14.4525 -12.4911 -12.2834 -12.1678 -11.6670
   -11.4816 -11.3167 -11.1885 -10.3922  -9.6091  -8.8636  -8.1245  -7.8467
    -7.2729  -6.9374  -6.7116  -6.4316  -5.6128  -5.6089  -5.5674  -5.1926
    -4.6481  -4.5481  -4.4164  -3.9438  -3.8602  -3.7776  -3.3147  -2.7282
    -2.5552  -2.4787  -1.8172  -1.7678  -1.5751  -1.5490  -1.5424  -1.4954
    -1.3394  -1.2254  -1.2070  -0.8656  -0.4570  -0.4267  -0.3853   0.1026
     0.1807   0.7486   0.9529   0.9891   6.0946   6.5183   6.9796   7.1661
     8.3982   8.6451   9.1310   9.1992   9.2080   9.3510

          k =-0.4000 0.2000 0.0000 ( 24738 PWs)   bands (ev):

   -16.8423 -15.9406 -15.3426 -14.4620 -13.5637 -12.7179 -12.6821 -11.8622
   -11.0697 -10.8936 -10.3135 -10.0815  -9.5043  -8.8795  -7.7731  -7.6691
    -7.2573  -6.9331  -6.6485  -6.1153  -5.8182  -5.7233  -5.4228  -5.0507
    -4.7985  -4.6418  -4.2343  -4.0172  -3.6921  -3.6213  -2.9897  -2.9722
    -2.7569  -2.6901  -2.5263  -2.1499  -1.7663  -1.6870  -1.5794  -1.3192
    -1.2733  -1.1934  -0.7838  -0.7790  -0.7306  -0.4746  -0.3590  -0.3077
    -0.0665   0.6173   0.6805   1.0606   6.3000   6.7405   7.1348   7.3836
     8.3256   8.7481   8.8373   8.8923   8.9100   9.2072

     the Fermi energy is     3.2594 ev

!    total energy              =    -451.79306511 Ry
     estimated scf accuracy    <          1.4E-09 Ry
     smearing contrib. (-TS)   =       0.00000000 Ry
     internal energy E=F+TS    =    -451.79306511 Ry

     The total energy is F=E-TS. E is the sum of the following terms:
     one-electron contribution =   -2320.02945933 Ry
     hartree contribution      =    1200.83575498 Ry
     xc contribution           =    -117.68368660 Ry
     ewald contribution        =     933.00259135 Ry
     one-center paw contrib.   =    -147.91826551 Ry

     convergence has been achieved in  14 iterations

     negative rho (up, down):  5.656E-06 0.000E+00

     Forces acting on atoms (cartesian axes, Ry/au):

     atom    1 type  1   force =     0.00000000    0.00014649    0.00000915
     atom    2 type  1   force =    -0.00000001    0.00001446   -0.00007269
     atom    3 type  1   force =     0.00000001   -0.00000000    0.00006317
     atom    4 type  1   force =     0.00000000   -0.00000000    0.00004590
     atom    5 type  1   force =     0.00000000   -0.00001440    0.00007289
     atom    6 type  1   force =     0.00000000   -0.00014630   -0.00000945
     atom    7 type  1   force =     0.00000000   -0.00014649    0.00000915
     atom    8 type  1   force =    -0.00000001   -0.00001446   -0.00007269
     atom    9 type  1   force =    -0.00000001    0.00000000   -0.00004601
     atom   10 type  1   force =     0.00000000    0.00000000   -0.00006311
     atom   11 type  1   force =     0.00000000    0.00001440    0.00007289
     atom   12 type  1   force =     0.00000000    0.00014630   -0.00000945
     atom   13 type  2   force =     0.00000000    0.00002991   -0.00002236
     atom   14 type  2   force =     0.00000000   -0.00002991   -0.00002236
     atom   15 type  2   force =    -0.00000000   -0.00002998    0.00002249
     atom   16 type  2   force =    -0.00000000    0.00002998    0.00002249
     atom   17 type  1   force =     0.00000000    0.00014647    0.00000916
     atom   18 type  1   force =     0.00000001    0.00001446   -0.00007269
     atom   19 type  1   force =    -0.00000001    0.00000000    0.00006317
     atom   20 type  1   force =     0.00000000   -0.00000000    0.00004590
     atom   21 type  1   force =     0.00000000   -0.00001436    0.00007288
     atom   22 type  1   force =    -0.00000000   -0.00014630   -0.00000945
     atom   23 type  1   force =     0.00000000   -0.00014647    0.00000916
     atom   24 type  1   force =     0.00000001   -0.00001446   -0.00007269
     atom   25 type  1   force =     0.00000001    0.00000000   -0.00004601
     atom   26 type  1   force =     0.00000000    0.00000000   -0.00006311
     atom   27 type  1   force =     0.00000000    0.00001436    0.00007288
     atom   28 type  1   force =    -0.00000000    0.00014630   -0.00000945
     atom   29 type  2   force =     0.00000000    0.00002992   -0.00002237
     atom   30 type  2   force =     0.00000000   -0.00002992   -0.00002237
     atom   31 type  2   force =     0.00000000   -0.00002998    0.00002249
     atom   32 type  2   force =     0.00000000    0.00002998    0.00002249

     Total force =     0.000502     Total SCF correction =     0.000101
     SCF correction compared to forces is large: reduce conv_thr to get better values


     Computing stress (Cartesian axis) and pressure


     negative rho (up, down):  5.656E-06 0.000E+00
          total   stress  (Ry/bohr**3)                   (kbar)     P=      -14.45
   0.00005012   0.00000000   0.00000000            7.37        0.00        0.00
   0.00000000  -0.00033655   0.00000000            0.00      -49.51        0.00
   0.00000000   0.00000000  -0.00000817            0.00        0.00       -1.20


     Writing all to output data dir /tmp/qe/slab.save/ :
     XML data file, charge density, pseudopotentials, collected wavefunctions

     init_run     :      1.77s CPU      2.02s WALL (       1 calls)
     electrons    :     42.56s CPU     43.20s WALL (       1 calls)
     forces       :      0.71s CPU      0.73s WALL (       1 calls)
     stress       :      9.75s CPU      9.80s WALL (       1 calls)

     Called by init_run:
     wfcinit      :      1.32s CPU      1.45s WALL (       1 calls)
     potinit      :      0.21s CPU      0.25s WALL (       1 calls)
     hinit0       :      0.06s CPU      0.11s WALL (       1 calls)

     Called by electrons:
     c_bands      :     32.96s CPU     33.27s WALL (      14 calls)
     sum_band     :      5.94s CPU      6.12s WALL (      14 calls)
     v_of_rho     :      1.07s CPU      1.11s WALL (      15 calls)
     newd         :      0.78s CPU      0.91s WALL (      15 calls)
     PAW_pot      :      1.84s CPU      1.85s WALL (      15 calls)
     mix_rho      :      0.12s CPU      0.13s WALL (      14 calls)

     Called by c_bands:
     init_us_2    :      0.89s CPU      0.90s WALL (     279 calls)
     cegterg      :     31.57s CPU     31.86s WALL (     126 calls)

     Called by *egterg:
     cdiaghg      :      2.08s CPU      2.21s WALL (     683 calls)
     h_psi        :     22.80s CPU     23.04s WALL (     692 calls)
     s_psi        :      2.10s CPU      2.11s WALL (     692 calls)
     g_psi        :      0.15s CPU      0.15s WALL (     557 calls)

     Called by h_psi:
     h_psi:calbec :      2.02s CPU      2.06s WALL (     692 calls)
     vloc_psi     :     18.44s CPU     18.62s WALL (     692 calls)
     add_vuspsi   :      2.17s CPU      2.18s WALL (     692 calls)

     General routines
     calbec       :      2.89s CPU      2.93s WALL (     863 calls)
     fft          :      0.51s CPU      0.59s WALL (     218 calls)
     ffts         :      0.02s CPU      0.04s WALL (      29 calls)
     fftw         :     16.67s CPU     16.82s WALL (   51948 calls)
     interpolate  :      0.04s CPU      0.07s WALL (      15 calls)

     Parallel routines

     PWSCF        :     54.97s CPU     56.16s WALL


   This run was terminated on:  12:31:53   1Aug2026            

=------------------------------------------------------------------------------=
   JOB DONE.
=------------------------------------------------------------------------------=
Note: The following floating-point exceptions are signalling: IEEE_UNDERFLOW_FLAG IEEE_DENORMAL
Note: The following floating-point exceptions are signalling: IEEE_UNDERFLOW_FLAG IEEE_DENORMAL
Note: The following floating-point exceptions are signalling: IEEE_UNDERFLOW_FLAG IEEE_DENORMAL
Note: The following floating-point exceptions are signalling: IEEE_UNDERFLOW_FLAG IEEE_DENORMAL
Note: The following floating-point exceptions are signalling: IEEE_UNDERFLOW_FLAG IEEE_DENORMAL
Note: The following floating-point exceptions are signalling: IEEE_UNDERFLOW_FLAG IEEE_DENORMAL
Note: The following floating-point exceptions are signalling: IEEE_UNDERFLOW_FLAG IEEE_DENORMAL
Note: The following floating-point exceptions are signalling: IEEE_UNDERFLOW_FLAG IEEE_DENORMAL
