
     Program PWSCF v.7.3.1 starts on  2Aug2026 at 16:11:36 

     This program is part of the open-source Quantum ESPRESSO suite
     for quantum simulation of materials; please cite
         "P. Giannozzi et al., J. Phys.:Condens. Matter 21 395502 (2009);
         "P. Giannozzi et al., J. Phys.:Condens. Matter 29 465901 (2017);
         "P. Giannozzi et al., J. Chem. Phys. 152 154105 (2020);
          URL http://www.quantum-espresso.org", 
     in publications or presentations arising from this work. More details at
     http://www.quantum-espresso.org/quote

     Parallel version (MPI), running on     8 processors

     MPI processes distributed on     1 nodes
     187292 MiB available memory on the printing compute node when the environment starts

     Reading input from pw.in

     Current dimensions of program PWSCF are:
     Max number of different atomic species (ntypx) = 10
     Max number of k-points (npk) =  40000
     Max angular momentum in pseudopotentials (lmaxx) =  4
     file C.pbe-n-kjpaw_psl.1.0.0.UPF: wavefunction(s)  2S 2P renormalized
     Message from routine setup:
     using ibrav=0 with symmetry is DISCOURAGED, use correct ibrav instead

     R & G space division:  proc/nbgrp/npool/nimage =       8
     Subspace diagonalization in iterative solution of the eigenvalue problem:
     a serial algorithm will be used


     Parallelization info
     --------------------
     sticks:   dense  smooth     PW     G-vecs:    dense   smooth      PW
     Min         141      69     20                50795    17899    2910
     Max         142      70     21                50846    17966    2967
     Sum        1135     559    163               406661   143595   23447

     Using Slab Decomposition



     bravais-lattice index     =            0
     lattice parameter (alat)  =       4.7744  a.u.
     unit-cell volume          =    1245.5002 (a.u.)^3
     number of atoms/cell      =           26
     number of atomic types    =            2
     number of electrons       =        98.00
     number of Kohn-Sham states=           59
     kinetic-energy cutoff     =      90.0000  Ry
     charge density cutoff     =     720.0000  Ry
     scf convergence threshold =      1.0E-08
     mixing beta               =       0.3000
     number of iterations used =            8  plain     mixing
     Exchange-correlation= PBE
                           (   1   4   3   4   0   0   0)

     celldm(1)=   4.774375  celldm(2)=   0.000000  celldm(3)=   0.000000
     celldm(4)=   0.000000  celldm(5)=   0.000000  celldm(6)=   0.000000

     crystal axes: (cart. coord. in units of alat)
               a(1) = (   1.000000   0.000000   0.000000 )  
               a(2) = (   0.500000   0.866025   0.000000 )  
               a(3) = (   0.000000   0.000000  13.214891 )  

     reciprocal axes: (cart. coord. in units 2 pi/alat)
               b(1) = (  1.000000 -0.577350  0.000000 )  
               b(2) = (  0.000000  1.154701  0.000000 )  
               b(3) = (  0.000000  0.000000  0.075672 )  


     PseudoPot. # 1 for C  read from file:
     ./C.pbe-n-kjpaw_psl.1.0.0.UPF
     MD5 check sum: 5d2aebdfa2cae82b50a7e79e9516da0f
     Pseudo is Projector augmented-wave + core cor, Zval =  4.0
     Generated using "atomic" code by A. Dal Corso  v.5.1
     Shape of augmentation charge: PSQ
     Using radial grid of 1073 points,  4 beta functions with: 
                l(1) =   0
                l(2) =   0
                l(3) =   1
                l(4) =   1
     Q(r) pseudized with 0 coefficients 


     PseudoPot. # 2 for H  read from file:
     ./H_ONCV_PBE-1.0.oncvpsp.upf
     MD5 check sum: 1790becc920ee074925cf490c71280fe
     Pseudo is Norm-conserving, Zval =  1.0
     Generated using ONCVPSP code by D. R. Hamann
     Using radial grid of 1166 points,  2 beta functions with: 
                l(1) =   0
                l(2) =   0

     atomic species   valence    mass     pseudopotential
     C                 4.00    12.01100     C ( 1.00)
     H                 1.00     1.00800     H ( 1.00)

     12 Sym. Ops., with inversion, found ( 6 have fractional translation)



   Cartesian axes

     site n.     atom                  positions (alat units)
         1        C      tau(   1) = (   0.5000000   0.2886751  11.1924483  )
         2        C      tau(   2) = (   1.0000000   0.5773503  10.9992985  )
         3        C      tau(   3) = (   1.0000000   0.5773503  10.3841830  )
         4        C      tau(   4) = (  -0.0000000  -0.0000000  10.1804607  )
         5        C      tau(   5) = (   0.0000000  -0.0000000   9.5678712  )
         6        C      tau(   6) = (   0.5000000   0.2886751   9.3637962  )
         7        C      tau(   7) = (   0.5000000   0.2886751   8.7513056  )
         8        C      tau(   8) = (   1.0000000   0.5773503   8.5471445  )
         9        C      tau(   9) = (   1.0000000   0.5773503   7.9346099  )
        10        C      tau(  10) = (   0.0000000   0.0000000   7.7304236  )
        11        C      tau(  11) = (   0.0000000  -0.0000000   7.1178895  )
        12        C      tau(  12) = (   0.5000000   0.2886751   6.9137080  )
        13        C      tau(  13) = (   0.5000000   0.2886751   6.3011834  )
        14        C      tau(  14) = (   1.0000000   0.5773503   6.0970019  )
        15        C      tau(  15) = (   1.0000000   0.5773503   5.4844677  )
        16        C      tau(  16) = (   0.0000000  -0.0000000   5.2802815  )
        17        C      tau(  17) = (  -0.0000000   0.0000000   4.6677468  )
        18        C      tau(  18) = (   0.5000000   0.2886751   4.4635857  )
        19        C      tau(  19) = (   0.5000000   0.2886751   3.8510951  )
        20        C      tau(  20) = (   1.0000000   0.5773503   3.6470202  )
        21        C      tau(  21) = (   1.0000000   0.5773503   3.0344306  )
        22        C      tau(  22) = (  -0.0000000  -0.0000000   2.8307083  )
        23        C      tau(  23) = (   0.0000000  -0.0000000   2.2155929  )
        24        C      tau(  24) = (   0.5000000   0.2886751   2.0224430  )
        25        H      tau(  25) = (   0.5000000   0.2886751  11.6314508  )
        26        H      tau(  26) = (   0.5000000   0.2886751   1.5834406  )

     number of k points=    12  Marzari-Vanderbilt smearing, width (Ry)=  0.0100
                       cart. coord. in units 2pi/alat
        k(    1) = (   0.0000000   0.0000000   0.0000000), wk =   0.0246914
        k(    2) = (   0.0000000   0.1283001   0.0000000), wk =   0.1481481
        k(    3) = (   0.0000000   0.2566001   0.0000000), wk =   0.1481481
        k(    4) = (   0.0000000   0.3849002   0.0000000), wk =   0.1481481
        k(    5) = (   0.0000000   0.5132002   0.0000000), wk =   0.1481481
        k(    6) = (   0.1111111   0.1924501   0.0000000), wk =   0.1481481
        k(    7) = (   0.1111111   0.3207501   0.0000000), wk =   0.2962963
        k(    8) = (   0.1111111   0.4490502   0.0000000), wk =   0.2962963
        k(    9) = (   0.1111111  -0.5773503   0.0000000), wk =   0.1481481
        k(   10) = (   0.2222222   0.3849002   0.0000000), wk =   0.1481481
        k(   11) = (   0.2222222  -0.6415003   0.0000000), wk =   0.2962963
        k(   12) = (   0.3333333  -0.5773503   0.0000000), wk =   0.0493827

     Dense  grid:   406661 G-vectors     FFT dimensions: (  45,  45, 540)

     Smooth grid:   143595 G-vectors     FFT dimensions: (  30,  30, 384)

     Estimated max dynamical RAM per process >     154.16 MB

     Estimated total dynamical RAM >       1.20 GB

     Check: negative core charge=   -0.000001

     Initial potential from superposition of free atoms

     starting charge      97.9990, renormalised to      98.0000
     Starting wfcs are   98 randomized atomic wfcs
     Checking if some PAW data can be deallocated... 

     total cpu time spent up to now is        1.8 secs

     Self-consistent Calculation

     iteration #  1     ecut=    90.00 Ry     beta= 0.30
     Davidson diagonalization with overlap
     ethr =  1.00E-02,  avg # of iterations =  2.5

     total cpu time spent up to now is        4.9 secs

     total energy              =    -444.96395293 Ry
     estimated scf accuracy    <       1.59134275 Ry

     iteration #  2     ecut=    90.00 Ry     beta= 0.30
     Davidson diagonalization with overlap
     ethr =  1.62E-03,  avg # of iterations =  3.9

     negative rho (up, down):  5.186E-07 0.000E+00

     total cpu time spent up to now is        7.5 secs

     total energy              =    -444.75758005 Ry
     estimated scf accuracy    <       0.60627506 Ry

     iteration #  3     ecut=    90.00 Ry     beta= 0.30
     Davidson diagonalization with overlap
     ethr =  6.19E-04,  avg # of iterations =  5.6

     negative rho (up, down):  1.356E-07 0.000E+00

     total cpu time spent up to now is       10.2 secs

     total energy              =    -444.79415909 Ry
     estimated scf accuracy    <       0.03984595 Ry

     iteration #  4     ecut=    90.00 Ry     beta= 0.30
     Davidson diagonalization with overlap
     c_bands:  1 eigenvalues not converged
     ethr =  4.07E-05,  avg # of iterations = 10.5

     negative rho (up, down):  5.651E-08 0.000E+00

     total cpu time spent up to now is       14.0 secs

     total energy              =    -444.79927463 Ry
     estimated scf accuracy    <       0.00607398 Ry

     iteration #  5     ecut=    90.00 Ry     beta= 0.30
     Davidson diagonalization with overlap
     ethr =  6.20E-06,  avg # of iterations =  8.2

     negative rho (up, down):  5.356E-08 0.000E+00

     total cpu time spent up to now is       17.3 secs

     total energy              =    -444.80001433 Ry
     estimated scf accuracy    <       0.00125816 Ry

     iteration #  6     ecut=    90.00 Ry     beta= 0.30
     Davidson diagonalization with overlap
     ethr =  1.28E-06,  avg # of iterations =  7.1

     negative rho (up, down):  4.408E-08 0.000E+00

     total cpu time spent up to now is       20.5 secs

     total energy              =    -444.80013576 Ry
     estimated scf accuracy    <       0.00030579 Ry

     iteration #  7     ecut=    90.00 Ry     beta= 0.30
     Davidson diagonalization with overlap
     ethr =  3.12E-07,  avg # of iterations =  1.9

     negative rho (up, down):  4.509E-08 0.000E+00

     total cpu time spent up to now is       22.9 secs

     total energy              =    -444.80015931 Ry
     estimated scf accuracy    <       0.00006801 Ry

     iteration #  8     ecut=    90.00 Ry     beta= 0.30
     Davidson diagonalization with overlap
     ethr =  6.94E-08,  avg # of iterations =  2.1

     negative rho (up, down):  4.190E-08 0.000E+00

     total cpu time spent up to now is       25.8 secs

     total energy              =    -444.80016989 Ry
     estimated scf accuracy    <       0.00000308 Ry

     iteration #  9     ecut=    90.00 Ry     beta= 0.30
     Davidson diagonalization with overlap
     ethr =  3.14E-09,  avg # of iterations =  3.2

     negative rho (up, down):  3.962E-08 0.000E+00

     total cpu time spent up to now is       28.8 secs

     total energy              =    -444.80017098 Ry
     estimated scf accuracy    <       0.00000088 Ry

     iteration # 10     ecut=    90.00 Ry     beta= 0.30
     Davidson diagonalization with overlap
     ethr =  9.02E-10,  avg # of iterations =  2.4

     negative rho (up, down):  3.848E-08 0.000E+00

     total cpu time spent up to now is       31.6 secs

     total energy              =    -444.80017117 Ry
     estimated scf accuracy    <       0.00000017 Ry

     iteration # 11     ecut=    90.00 Ry     beta= 0.30
     Davidson diagonalization with overlap
     ethr =  1.72E-10,  avg # of iterations =  2.0

     negative rho (up, down):  3.840E-08 0.000E+00

     total cpu time spent up to now is       34.1 secs

     total energy              =    -444.80017120 Ry
     estimated scf accuracy    <       0.00000003 Ry

     iteration # 12     ecut=    90.00 Ry     beta= 0.30
     Davidson diagonalization with overlap
     ethr =  3.10E-11,  avg # of iterations =  2.8

     negative rho (up, down):  3.913E-08 0.000E+00

     total cpu time spent up to now is       36.9 secs

     End of self-consistent calculation

          k = 0.0000 0.0000 0.0000 ( 17885 PWs)   bands (ev):

   -12.2278 -12.0968 -11.8809 -11.5815 -11.1998 -10.7368 -10.1951  -9.5799
    -8.9003  -8.1738  -7.4414  -6.8107  -3.9639  -3.3248  -2.4075  -1.3386
    -0.1762   1.0501   2.3167   3.5980   4.8629   6.0746   6.3751   6.3751
     6.4587   6.4587   6.5947   6.5947   6.7805   6.7805   7.0129   7.0129
     7.1872   7.2883   7.2883   7.6000   7.6000   7.9369   7.9369   8.1477
     8.2818   8.2818   8.6089   8.6089   8.8538   8.8839   8.8839   9.0683
     9.0683  11.4504  12.0402  14.0678  14.8185  14.8185  14.8894  15.0798
    15.0799  15.4556  15.4556

          k = 0.0000 0.1283 0.0000 ( 17983 PWs)   bands (ev):

   -11.9255 -11.7948 -11.5796 -11.2811 -10.9007 -10.4394  -9.8999  -9.2875
    -8.6114  -7.8895  -7.1629  -6.5392  -3.6902  -3.0593  -2.1547  -1.1019
     0.0397   1.2393   2.4702   3.7012   4.8809   4.9246   5.0210   5.1806
     5.3936   5.6718   5.7216   5.8174   5.8469   5.9731   6.1020   6.1848
     6.3549   6.4477   6.6014   6.7562   6.9919   7.1008   7.1493   7.3584
     7.4680   7.6259   7.8127   7.8378   8.0543   8.1828   8.4681   8.5732
     8.6571  11.7389  12.2708  14.2923  14.4824  14.8407  15.2282  15.4191
    15.6651  15.6849  15.8966

          k = 0.0000 0.2566 0.0000 ( 17943 PWs)   bands (ev):

   -11.0243 -10.8949 -10.6818 -10.3864 -10.0103  -9.5546  -9.0224  -8.4192
    -7.7547  -7.0473  -6.3387  -5.7350  -2.9236  -2.3206  -1.4632  -0.4779
     0.5605   1.5225   1.9970   2.0994   2.1899   2.4100   2.7098   2.9845
     3.0855   3.4986   3.9395   4.0236   4.3913   4.5235   4.6295   4.8021
     4.8151   5.0307   5.0369   5.1755   5.3284   5.3984   5.6694   5.9745
     6.0488   6.4501   6.7655   6.8506   7.2201   7.3779   7.5222   7.7205
     7.7674  12.6056  12.9674  13.8352  14.1316  14.5849  14.9512  15.1872
    15.5704  15.8080  16.0769

          k = 0.0000 0.3849 0.0000 ( 17956 PWs)   bands (ev):

    -9.5476  -9.4208  -9.2124  -8.9240  -8.5575  -8.1148  -7.5995  -7.0181
    -6.3811  -5.7074  -5.0371  -4.4685  -2.2329  -1.8020  -1.4851  -1.3658
    -1.1085  -0.7381  -0.3156  -0.0630   0.1740   0.3680   0.8612   0.9104
     1.4912   1.6300   2.0831   2.3732   2.5548   3.0549   3.5181   3.6283
     3.6480   3.8078   4.0524   4.0754   4.3560   4.6731   4.7113   5.1063
     5.3791   5.5234   5.9387   6.0280   6.3208   6.5406   6.6322   6.8361
     6.8648  13.3787  13.5924  13.8976  14.0828  14.4438  14.6271  14.9038
    15.2768  15.6708  16.1042

          k = 0.0000 0.5132 0.0000 ( 17988 PWs)   bands (ev):

    -7.5760  -7.4599  -7.2710  -7.0150  -6.7004  -6.3417  -5.9625  -5.5860
    -5.2069  -4.7982  -4.3476  -3.8776  -3.7232  -3.5424  -3.2537  -3.1689
    -2.7990  -2.6490  -2.2805  -2.1843  -1.7047  -1.1057  -0.5260  -0.0594
     0.7687   1.1970   1.7767   2.3503   2.6008   2.7429   2.8914   2.9725
     3.0842   3.2663   3.3243   3.5144   3.8225   4.0746   4.1831   4.5839
     4.8167   5.0070   5.4280   5.4749   5.8150   5.9881   6.1302   6.3094
     6.3364  13.5562  13.8110  14.0838  14.3324  14.5125  14.6882  14.8198
    15.0893  15.3149  15.5433

          k = 0.1111 0.1925 0.0000 ( 17961 PWs)   bands (ev):

   -11.3236 -11.1938 -10.9799 -10.6835 -10.3058  -9.8482  -9.3134  -8.7069
    -8.0384  -7.3259  -6.6111  -6.0008  -3.1664  -2.5530  -1.6771  -0.6633
     0.4254   1.5486   2.6470   3.3832   3.3958   3.4449   3.4815   3.5868
     3.6964   3.9844   4.0285   4.4214   4.4735   4.8376   4.9289   5.0492
     5.1769   5.3093   5.3434   5.5901   5.6914   5.9994   6.1181   6.2899
     6.5387   6.5676   6.6485   6.7924   7.0002   7.2007   7.4921   7.9957
     8.3972  12.3405  12.7762  14.8341  14.9776  15.0429  15.2619  15.3227
    15.5658  15.8818  16.2215

          k = 0.1111 0.3208 0.0000 ( 17910 PWs)   bands (ev):

   -10.1337 -10.0057  -9.7951  -9.5034  -9.1324  -8.6834  -8.1599  -7.5677
    -6.9169  -6.2261  -5.5368  -4.9522  -2.3078  -1.7512  -0.9939  -0.2364
     0.2271   0.5525   0.7787   0.9600   1.1074   1.2717   1.6180   1.7729
     2.0246   2.2972   2.5135   2.7836   2.9615   3.2900   3.3980   3.4741
     3.5880   3.8535   4.1451   4.3195   4.4099   4.4823   4.6866   4.7560
     5.1270   5.1997   5.5576   5.8387   5.9279   6.2311   6.7143   7.2184
     7.5448  13.4869  13.7435  14.4077  14.8091  15.2421  15.8006  16.0687
    16.1354  16.2975  16.4981

          k = 0.1111 0.4491 0.0000 ( 17954 PWs)   bands (ev):

    -8.3984  -8.2750  -8.0726  -7.7935  -7.4404  -7.0165  -6.5274  -5.9824
    -5.3957  -4.7885  -4.1934  -3.6721  -2.6518  -2.5904  -2.4804  -2.3691
    -2.2275  -1.8599  -1.4115  -0.9077  -0.3711   0.1261   0.2901   0.5840
     0.7897   1.0756   1.3131   1.9406   2.2261   2.3597   2.5631   2.6644
     2.8166   2.8349   3.1232   3.2479   3.5398   3.5445   3.9374   4.0373
     4.4792   4.6043   4.9473   5.2301   5.3266   5.5710   5.8172   6.2701
     6.5583  14.1113  14.4105  14.7728  15.1683  15.4936  15.8261  16.0671
    16.2598  16.3773  16.6496

          k = 0.1111-0.5774 0.0000 ( 17982 PWs)   bands (ev):

    -6.3631  -6.3599  -6.3329  -6.2971  -6.1978  -6.0411  -5.8231  -5.5423
    -5.1990  -4.7958  -4.3401  -3.9262  -3.7925  -3.6633  -3.3209  -3.2429
    -2.7406  -2.7021  -2.1733  -2.0987  -1.6046  -1.5334  -1.1373  -1.1051
     1.5691   1.6522   1.8451   1.8708   2.0046   2.0104   2.2661   2.3911
     2.5266   2.6837   2.8209   2.9134   2.9702   3.3989   3.4144   3.9266
     4.0270   4.4721   4.6154   4.9752   5.1313   5.3583   5.6242   5.8472
     5.9377  14.2187  14.5914  15.0531  15.4205  15.5128  15.7139  15.7928
    16.0582  16.3393  16.4251

          k = 0.2222 0.3849 0.0000 ( 17927 PWs)   bands (ev):

    -8.6805  -8.5557  -8.3508  -8.0676  -7.7085  -7.2756  -6.7731  -6.2079
    -5.5911  -4.9407  -4.2927  -3.7340  -2.1583  -1.8000  -1.4455  -1.1941
    -1.0004  -0.7993  -0.5608  -0.2772   0.0473   0.3838   0.4997   0.7026
     0.7526   1.0095   1.1757   1.2929   1.7130   1.7253   2.0746   2.2771
     2.5346   2.5531   2.8652   2.9501   3.1481   3.4033   3.4376   3.7072
     3.8091   3.8745   4.2151   4.4711   4.8272   5.3605   5.8977   6.3356
     6.6165  14.7564  14.8459  15.3636  15.4606  15.7926  15.9698  16.3698
    16.7257  17.1195  17.2118

          k = 0.2222-0.6415 0.0000 ( 17997 PWs)   bands (ev):

    -6.7564  -6.6439  -6.4613  -6.2145  -5.9125  -5.5699  -5.2104  -4.8595
    -4.5175  -4.1605  -3.7778  -3.2954  -3.1813  -2.9722  -2.7479  -2.5183
    -2.3758  -2.1707  -1.9892  -1.8710  -1.5581  -1.1817  -0.8055  -0.4848
     0.3390   0.4795   0.5457   0.7231   0.9724   1.1565   1.2559   1.5423
     1.6523   1.8648   2.1417   2.3667   2.6976   2.8947   3.2082   3.3186
     3.4376   3.6316   3.7298   4.1939   4.5868   4.7885   4.9375   5.2714
     5.5182  14.8273  15.1880  15.6661  15.9390  16.1535  16.4031  16.7574
    16.7693  16.9841  17.3082

          k = 0.3333-0.5774 0.0000 ( 18015 PWs)   bands (ev):

    -4.8665  -4.8665  -4.8661  -4.8245  -4.8245  -4.8229  -4.7777  -4.7777
    -4.7760  -4.7218  -4.7218  -3.4841  -3.4837  -2.4651  -2.4651  -2.4383
    -2.2624  -2.2624  -2.1887  -1.9886  -1.9886  -1.9090  -1.7334  -1.7334
    -0.1035  -0.0695  -0.0695   0.2031   0.3008   0.3008   0.6640   0.7761
     0.7761   1.1223   1.1804   1.1804   3.2493   3.3728   3.3728   3.4566
     3.7151   3.7151   3.8458   4.0940   4.0940   4.1958   4.3691   4.3691
     4.4045  15.5681  15.5681  15.6537  15.8966  15.8967  16.1236  16.4842
    16.4842  16.7668  17.2667

     the Fermi energy is    10.6045 ev

!    total energy              =    -444.80017122 Ry
     estimated scf accuracy    <          7.5E-09 Ry
     smearing contrib. (-TS)   =      -0.00000000 Ry
     internal energy E=F+TS    =    -444.80017122 Ry

     The total energy is F=E-TS. E is the sum of the following terms:
     one-electron contribution =   -3716.04204728 Ry
     hartree contribution      =    1918.39348974 Ry
     xc contribution           =    -113.81646178 Ry
     ewald contribution        =    1614.57400106 Ry
     one-center paw contrib.   =    -147.90915296 Ry

     convergence has been achieved in  12 iterations

     negative rho (up, down):  3.913E-08 0.000E+00

     Forces acting on atoms (cartesian axes, Ry/au):

     atom    1 type  1   force =     0.00000000    0.00000000   -0.00009678
     atom    2 type  1   force =     0.00000000    0.00000000   -0.00000670
     atom    3 type  1   force =     0.00000000    0.00000000    0.00001141
     atom    4 type  1   force =    -0.00000000   -0.00000000    0.00000134
     atom    5 type  1   force =     0.00000000    0.00000000   -0.00004877
     atom    6 type  1   force =    -0.00000000    0.00000000   -0.00007870
     atom    7 type  1   force =     0.00000000   -0.00000000   -0.00009525
     atom    8 type  1   force =     0.00000000    0.00000000   -0.00008038
     atom    9 type  1   force =     0.00000000    0.00000000   -0.00002499
     atom   10 type  1   force =    -0.00000000   -0.00000000    0.00000591
     atom   11 type  1   force =     0.00000000    0.00000000    0.00002463
     atom   12 type  1   force =    -0.00000000   -0.00000000    0.00001609
     atom   13 type  1   force =     0.00000000   -0.00000000   -0.00001609
     atom   14 type  1   force =    -0.00000000    0.00000000   -0.00002463
     atom   15 type  1   force =     0.00000000    0.00000000   -0.00000591
     atom   16 type  1   force =     0.00000000    0.00000000    0.00002499
     atom   17 type  1   force =     0.00000000    0.00000000    0.00008038
     atom   18 type  1   force =    -0.00000000    0.00000000    0.00009525
     atom   19 type  1   force =     0.00000000   -0.00000000    0.00007870
     atom   20 type  1   force =    -0.00000000    0.00000000    0.00004877
     atom   21 type  1   force =     0.00000000    0.00000000   -0.00000134
     atom   22 type  1   force =     0.00000000    0.00000000   -0.00001141
     atom   23 type  1   force =     0.00000000   -0.00000000    0.00000670
     atom   24 type  1   force =    -0.00000000    0.00000000    0.00009678
     atom   25 type  2   force =     0.00000000   -0.00000000   -0.00004782
     atom   26 type  2   force =     0.00000000    0.00000000    0.00004782

     Total force =     0.000274     Total SCF correction =     0.000164
     SCF correction compared to forces is large: reduce conv_thr to get better values


     Computing stress (Cartesian axis) and pressure


     negative rho (up, down):  3.913E-08 0.000E+00
          total   stress  (Ry/bohr**3)                   (kbar)     P=        1.16
   0.00001764   0.00000000   0.00000000            2.60        0.00        0.00
   0.00000000   0.00001764   0.00000000            0.00        2.60        0.00
   0.00000000   0.00000000  -0.00001171            0.00        0.00       -1.72


     Writing all to output data dir /tmp/qe/slab.save/ :
     XML data file, charge density, pseudopotentials, collected wavefunctions

     init_run     :      1.67s CPU      1.75s WALL (       1 calls)
     electrons    :     34.78s CPU     35.15s WALL (       1 calls)
     forces       :      0.54s CPU      0.55s WALL (       1 calls)
     stress       :      8.50s CPU      8.53s WALL (       1 calls)

     Called by init_run:
     wfcinit      :      1.28s CPU      1.32s WALL (       1 calls)
     potinit      :      0.20s CPU      0.22s WALL (       1 calls)
     hinit0       :      0.06s CPU      0.07s WALL (       1 calls)

     Called by electrons:
     c_bands      :     26.99s CPU     27.25s WALL (      12 calls)
     sum_band     :      4.90s CPU      4.96s WALL (      12 calls)
     v_of_rho     :      0.88s CPU      0.91s WALL (      13 calls)
     newd         :      0.50s CPU      0.52s WALL (      13 calls)
     PAW_pot      :      1.59s CPU      1.60s WALL (      13 calls)
     mix_rho      :      0.08s CPU      0.08s WALL (      12 calls)

     Called by c_bands:
     init_us_2    :      0.71s CPU      0.71s WALL (     324 calls)
     cegterg      :     25.87s CPU     26.12s WALL (     144 calls)

     Called by *egterg:
     cdiaghg      :      2.12s CPU      2.13s WALL (     771 calls)
     h_psi        :     18.83s CPU     19.06s WALL (     783 calls)
     s_psi        :      1.55s CPU      1.56s WALL (     783 calls)
     g_psi        :      0.11s CPU      0.11s WALL (     627 calls)

     Called by h_psi:
     h_psi:calbec :      1.55s CPU      1.57s WALL (     783 calls)
     vloc_psi     :     15.54s CPU     15.72s WALL (     783 calls)
     add_vuspsi   :      1.62s CPU      1.64s WALL (     783 calls)

     General routines
     calbec       :      2.32s CPU      2.35s WALL (     987 calls)
     fft          :      0.36s CPU      0.39s WALL (     192 calls)
     ffts         :      0.02s CPU      0.02s WALL (      25 calls)
     fftw         :     13.61s CPU     13.75s WALL (   55186 calls)
     interpolate  :      0.04s CPU      0.04s WALL (      13 calls)

     Parallel routines

     PWSCF        :     45.67s CPU     46.26s WALL


   This run was terminated on:  16:12:22   2Aug2026            

=------------------------------------------------------------------------------=
   JOB DONE.
=------------------------------------------------------------------------------=
Note: The following floating-point exceptions are signalling: IEEE_UNDERFLOW_FLAG IEEE_DENORMAL
Note: The following floating-point exceptions are signalling: IEEE_UNDERFLOW_FLAG IEEE_DENORMAL
Note: The following floating-point exceptions are signalling: IEEE_UNDERFLOW_FLAG IEEE_DENORMAL
Note: The following floating-point exceptions are signalling: IEEE_UNDERFLOW_FLAG IEEE_DENORMAL
Note: The following floating-point exceptions are signalling: IEEE_UNDERFLOW_FLAG IEEE_DENORMAL
Note: The following floating-point exceptions are signalling: IEEE_UNDERFLOW_FLAG IEEE_DENORMAL
Note: The following floating-point exceptions are signalling: IEEE_UNDERFLOW_FLAG IEEE_DENORMAL
Note: The following floating-point exceptions are signalling: IEEE_UNDERFLOW_FLAG IEEE_DENORMAL
