
     Program PWSCF v.7.3.1 starts on  2Aug2026 at 16:10: 8 

     This program is part of the open-source Quantum ESPRESSO suite
     for quantum simulation of materials; please cite
         "P. Giannozzi et al., J. Phys.:Condens. Matter 21 395502 (2009);
         "P. Giannozzi et al., J. Phys.:Condens. Matter 29 465901 (2017);
         "P. Giannozzi et al., J. Chem. Phys. 152 154105 (2020);
          URL http://www.quantum-espresso.org", 
     in publications or presentations arising from this work. More details at
     http://www.quantum-espresso.org/quote

     Parallel version (MPI), running on     8 processors

     MPI processes distributed on     1 nodes
     184706 MiB available memory on the printing compute node when the environment starts

     Reading input from pw.in

     Current dimensions of program PWSCF are:
     Max number of different atomic species (ntypx) = 10
     Max number of k-points (npk) =  40000
     Max angular momentum in pseudopotentials (lmaxx) =  4
     file C.pbe-n-kjpaw_psl.1.0.0.UPF: wavefunction(s)  2S 2P renormalized
     Message from routine volume:
     axis vectors are left-handed
     Message from routine setup:
     using ibrav=0 with symmetry is DISCOURAGED, use correct ibrav instead

     R & G space division:  proc/nbgrp/npool/nimage =       8
     Subspace diagonalization in iterative solution of the eigenvalue problem:
     a serial algorithm will be used


     Parallelization info
     --------------------
     sticks:   dense  smooth     PW     G-vecs:    dense   smooth      PW
     Min         326     163     46                50934    18009    2740
     Max         327     164     47                50947    18017    2749
     Sum        2609    1305    373               407515   144113   21965

     Using Slab Decomposition



     bravais-lattice index     =            0
     lattice parameter (alat)  =       4.7744  a.u.
     unit-cell volume          =    1249.2286 (a.u.)^3
     number of atoms/cell      =           16
     number of atomic types    =            2
     number of electrons       =        52.00
     number of Kohn-Sham states=           31
     kinetic-energy cutoff     =      90.0000  Ry
     charge density cutoff     =     720.0000  Ry
     scf convergence threshold =      1.0E-08
     mixing beta               =       0.3000
     number of iterations used =            8  plain     mixing
     Exchange-correlation= PBE
                           (   1   4   3   4   0   0   0)

     celldm(1)=   4.774375  celldm(2)=   0.000000  celldm(3)=   0.000000
     celldm(4)=   0.000000  celldm(5)=   0.000000  celldm(6)=   0.000000

     crystal axes: (cart. coord. in units of alat)
               a(1) = (   1.000000   0.000000   0.000000 )  
               a(2) = (   0.000000  -2.000000   0.000000 )  
               a(3) = (   0.000000   0.000000   5.739345 )  

     reciprocal axes: (cart. coord. in units 2 pi/alat)
               b(1) = (  1.000000 -0.000000 -0.000000 )  
               b(2) = ( -0.000000 -0.500000 -0.000000 )  
               b(3) = ( -0.000000 -0.000000  0.174236 )  


     PseudoPot. # 1 for C  read from file:
     ./C.pbe-n-kjpaw_psl.1.0.0.UPF
     MD5 check sum: 5d2aebdfa2cae82b50a7e79e9516da0f
     Pseudo is Projector augmented-wave + core cor, Zval =  4.0
     Generated using "atomic" code by A. Dal Corso  v.5.1
     Shape of augmentation charge: PSQ
     Using radial grid of 1073 points,  4 beta functions with: 
                l(1) =   0
                l(2) =   0
                l(3) =   1
                l(4) =   1
     Q(r) pseudized with 0 coefficients 


     PseudoPot. # 2 for H  read from file:
     ./H_ONCV_PBE-1.0.oncvpsp.upf
     MD5 check sum: 1790becc920ee074925cf490c71280fe
     Pseudo is Norm-conserving, Zval =  1.0
     Generated using ONCVPSP code by D. R. Hamann
     Using radial grid of 1166 points,  2 beta functions with: 
                l(1) =   0
                l(2) =   0

     atomic species   valence    mass     pseudopotential
     C                 4.00    12.01100     C ( 1.00)
     H                 1.00     1.00800     H ( 1.00)

      8 Sym. Ops., with inversion, found ( 4 have fractional translation)



   Cartesian axes

     site n.     atom                  positions (alat units)
         1        C      tau(   1) = (   0.0000000  -0.3266316   3.7317771  )
         2        C      tau(   2) = (   0.5000000  -0.4683956   3.4086452  )
         3        C      tau(   3) = (   0.5000000   0.0000000   3.0316317  )
         4        C      tau(   4) = (   0.0000000   0.0000000   2.7077135  )
         5        C      tau(   5) = (   0.0000000  -0.4683956   2.3307000  )
         6        C      tau(   6) = (   0.5000000  -0.3266316   2.0075682  )
         7        C      tau(   7) = (   0.0000000  -1.6733684   3.7317771  )
         8        C      tau(   8) = (   0.5000000  -1.5316044   3.4086452  )
         9        C      tau(   9) = (   0.5000000  -1.0000000   3.0618681  )
        10        C      tau(  10) = (   0.0000000  -1.0000000   2.6774771  )
        11        C      tau(  11) = (   0.0000000  -1.5316044   2.3307000  )
        12        C      tau(  12) = (   0.5000000  -1.6733684   2.0075682  )
        13        H      tau(  13) = (   0.0000000  -0.4932702   4.1338905  )
        14        H      tau(  14) = (   0.0000000  -1.5067298   4.1338905  )
        15        H      tau(  15) = (   0.5000000  -0.4932702   1.6054547  )
        16        H      tau(  16) = (   0.5000000  -1.5067298   1.6054547  )

     number of k points=    15  Marzari-Vanderbilt smearing, width (Ry)=  0.0100
                       cart. coord. in units 2pi/alat
        k(    1) = (   0.0000000  -0.0000000   0.0000000), wk =   0.0444444
        k(    2) = (   0.0000000  -0.1000000   0.0000000), wk =   0.0888889
        k(    3) = (   0.0000000  -0.2000000   0.0000000), wk =   0.0888889
        k(    4) = (   0.1111111  -0.0000000   0.0000000), wk =   0.0888889
        k(    5) = (   0.1111111  -0.1000000   0.0000000), wk =   0.1777778
        k(    6) = (   0.1111111  -0.2000000   0.0000000), wk =   0.1777778
        k(    7) = (   0.2222222  -0.0000000   0.0000000), wk =   0.0888889
        k(    8) = (   0.2222222  -0.1000000   0.0000000), wk =   0.1777778
        k(    9) = (   0.2222222  -0.2000000   0.0000000), wk =   0.1777778
        k(   10) = (   0.3333333  -0.0000000   0.0000000), wk =   0.0888889
        k(   11) = (   0.3333333  -0.1000000   0.0000000), wk =   0.1777778
        k(   12) = (   0.3333333  -0.2000000   0.0000000), wk =   0.1777778
        k(   13) = (   0.4444444  -0.0000000   0.0000000), wk =   0.0888889
        k(   14) = (   0.4444444  -0.1000000   0.0000000), wk =   0.1777778
        k(   15) = (   0.4444444  -0.2000000   0.0000000), wk =   0.1777778

     Dense  grid:   407515 G-vectors     FFT dimensions: (  48,  81, 240)

     Smooth grid:   144113 G-vectors     FFT dimensions: (  30,  60, 180)

     Estimated max dynamical RAM per process >     112.57 MB

     Estimated total dynamical RAM >     900.60 MB

     Initial potential from superposition of free atoms

     starting charge      51.9995, renormalised to      52.0000
     Starting wfcs are   52 randomized atomic wfcs
     Checking if some PAW data can be deallocated... 

     total cpu time spent up to now is        1.5 secs

     Self-consistent Calculation

     iteration #  1     ecut=    90.00 Ry     beta= 0.30
     Davidson diagonalization with overlap
     ethr =  1.00E-02,  avg # of iterations =  2.7

     negative rho (up, down):  4.574E-08 0.000E+00

     total cpu time spent up to now is        3.4 secs

     total energy              =    -225.89032486 Ry
     estimated scf accuracy    <       1.22761680 Ry

     iteration #  2     ecut=    90.00 Ry     beta= 0.30
     Davidson diagonalization with overlap
     ethr =  2.36E-03,  avg # of iterations =  4.5

     negative rho (up, down):  1.060E-06 0.000E+00

     total cpu time spent up to now is        5.0 secs

     total energy              =    -225.82627695 Ry
     estimated scf accuracy    <       0.35362611 Ry

     iteration #  3     ecut=    90.00 Ry     beta= 0.30
     Davidson diagonalization with overlap
     ethr =  6.80E-04,  avg # of iterations =  5.9

     negative rho (up, down):  8.383E-07 0.000E+00

     total cpu time spent up to now is        6.7 secs

     total energy              =    -225.83479070 Ry
     estimated scf accuracy    <       0.05672887 Ry

     iteration #  4     ecut=    90.00 Ry     beta= 0.30
     Davidson diagonalization with overlap
     ethr =  1.09E-04,  avg # of iterations =  5.1

     negative rho (up, down):  1.729E-06 0.000E+00

     total cpu time spent up to now is        8.4 secs

     total energy              =    -225.83980969 Ry
     estimated scf accuracy    <       0.00396143 Ry

     iteration #  5     ecut=    90.00 Ry     beta= 0.30
     Davidson diagonalization with overlap
     ethr =  7.62E-06,  avg # of iterations =  7.9

     negative rho (up, down):  1.365E-06 0.000E+00

     total cpu time spent up to now is       10.6 secs

     total energy              =    -225.84048584 Ry
     estimated scf accuracy    <       0.00066317 Ry

     iteration #  6     ecut=    90.00 Ry     beta= 0.30
     Davidson diagonalization with overlap
     c_bands:  1 eigenvalues not converged
     ethr =  1.28E-06,  avg # of iterations =  6.7

     negative rho (up, down):  1.573E-06 0.000E+00

     total cpu time spent up to now is       12.4 secs

     total energy              =    -225.84057311 Ry
     estimated scf accuracy    <       0.00013855 Ry

     iteration #  7     ecut=    90.00 Ry     beta= 0.30
     Davidson diagonalization with overlap
     ethr =  2.66E-07,  avg # of iterations =  2.0

     negative rho (up, down):  1.595E-06 0.000E+00

     total cpu time spent up to now is       13.9 secs

     total energy              =    -225.84059058 Ry
     estimated scf accuracy    <       0.00000989 Ry

     iteration #  8     ecut=    90.00 Ry     beta= 0.30
     Davidson diagonalization with overlap
     ethr =  1.90E-08,  avg # of iterations =  3.5

     negative rho (up, down):  1.598E-06 0.000E+00

     total cpu time spent up to now is       15.6 secs

     total energy              =    -225.84059212 Ry
     estimated scf accuracy    <       0.00000304 Ry

     iteration #  9     ecut=    90.00 Ry     beta= 0.30
     Davidson diagonalization with overlap
     ethr =  5.85E-09,  avg # of iterations =  2.6

     negative rho (up, down):  1.613E-06 0.000E+00

     total cpu time spent up to now is       17.2 secs

     total energy              =    -225.84059262 Ry
     estimated scf accuracy    <       0.00000042 Ry

     iteration # 10     ecut=    90.00 Ry     beta= 0.30
     Davidson diagonalization with overlap
     ethr =  8.13E-10,  avg # of iterations =  3.0

     negative rho (up, down):  1.622E-06 0.000E+00

     total cpu time spent up to now is       18.9 secs

     total energy              =    -225.84059270 Ry
     estimated scf accuracy    <       0.00000012 Ry

     iteration # 11     ecut=    90.00 Ry     beta= 0.30
     Davidson diagonalization with overlap
     ethr =  2.32E-10,  avg # of iterations =  2.0

     negative rho (up, down):  1.665E-06 0.000E+00

     total cpu time spent up to now is       20.4 secs

     End of self-consistent calculation

          k = 0.0000-0.0000 0.0000 ( 17993 PWs)   bands (ev):

   -17.8462 -16.0061 -13.3690 -12.8786 -12.3043 -11.8865  -9.1603  -8.5883
    -7.9300  -5.5790  -5.4998  -5.0426  -2.8606  -2.2930  -1.8962  -1.5738
    -1.4829  -1.0795  -0.2441   0.4111   0.4186   0.8339   0.9539   1.1449
     1.4271   1.4821   5.4983   5.9288   7.6975   7.7768   7.9132

          k = 0.0000-0.1000 0.0000 ( 18029 PWs)   bands (ev):

   -17.7196 -15.9257 -14.4813 -12.3671 -12.3614 -11.5553  -8.8645  -8.0878
    -8.0310  -5.6463  -5.5455  -4.7801  -2.7747  -2.7156  -2.0366  -1.9059
    -1.8002  -1.0284  -0.1210  -0.1113   0.5108   0.8216   0.8618   1.0756
     1.2446   1.7171   5.7080   6.1450   7.6544   8.0445   8.3329

          k = 0.0000-0.2000 0.0000 ( 17999 PWs)   bands (ev):

   -17.4447 -15.7734 -15.3964 -12.9565 -12.2180 -10.7566  -8.6554  -7.4435
    -7.2301  -5.9393  -5.3641  -5.1584  -3.4709  -2.9322  -2.6044  -1.8456
    -1.6741  -0.9352  -0.6535  -0.1557   0.2569   0.5634   0.7041   1.1482
     1.2605   2.0562   6.3159   6.6628   7.2853   7.5578   7.8835

          k = 0.1111-0.0000 0.0000 ( 18007 PWs)   bands (ev):

   -17.6204 -15.7846 -13.1539 -12.6646 -12.1006 -11.6853  -9.0371  -8.4154
    -7.7447  -5.5095  -5.4061  -4.8766  -4.1258  -2.3475  -2.1802  -1.7312
    -1.6651  -1.3833  -0.4844  -0.4713   0.0069   0.0310   0.2932   0.5449
     1.1781   1.3220   5.6896   6.2050   8.0826   8.3643   8.4114

          k = 0.1111-0.1000 0.0000 ( 18006 PWs)   bands (ev):

   -17.4942 -15.7042 -14.2627 -12.1610 -12.1579 -11.3502  -8.7606  -7.9119
    -7.8381  -5.5430  -5.4756  -4.6160  -4.0337  -2.6108  -2.2792  -2.0642
    -1.8339  -1.6019  -1.1026  -0.3003  -0.1720   0.1457   0.4677   0.6403
     1.0775   1.2519   5.9026   6.4087   7.8707   8.5844   8.6868

          k = 0.1111-0.2000 0.0000 ( 18002 PWs)   bands (ev):

   -17.2200 -15.5522 -15.1752 -12.7504 -12.0153 -10.5537  -8.5488  -7.2502
    -7.1165  -5.7941  -5.2127  -5.0336  -3.8512  -3.3473  -2.8737  -2.2648
    -1.7854  -1.7232  -1.4877  -0.5574  -0.0832   0.1092   0.2987   0.6977
     1.1949   1.3339   6.5165   6.9039   7.4678   7.7825   7.9504

          k = 0.2222-0.0000 0.0000 ( 17982 PWs)   bands (ev):

   -16.9467 -15.1258 -12.5142 -12.0274 -11.5003 -11.0866  -8.9534  -7.9677
    -7.2287  -6.0494  -5.9285  -5.2985  -4.4526  -3.9095  -2.9979  -2.5563
    -2.1496  -2.0290  -1.7085  -1.2279  -1.0674  -0.6649  -0.4469  -0.4012
     0.5668   1.1550   6.2669   6.8137   8.6944   8.8612   8.9660

          k = 0.2222-0.1000 0.0000 ( 18012 PWs)   bands (ev):

   -16.8214 -15.0456 -13.6119 -11.5568 -11.5553 -10.7382  -8.7522  -7.4648
    -7.3002  -5.9558  -5.8523  -5.4080  -4.2432  -3.9517  -3.2647  -2.6003
    -2.2511  -2.1584  -1.7780  -1.5199  -1.1828  -0.9353  -0.4464  -0.1805
     0.6319   0.9045   6.4635   7.0043   8.1894   8.8955   8.9534

          k = 0.2222-0.2000 0.0000 ( 17993 PWs)   bands (ev):

   -16.5493 -14.8936 -14.5165 -12.1439 -11.4201  -9.9492  -8.5347  -6.9827
    -6.7346  -5.7939  -5.7685  -4.8751  -4.7732  -3.9372  -3.7176  -3.1262
    -3.0000  -2.4182  -1.8349  -1.6134  -1.0339  -0.8944  -0.3764  -0.1008
     0.5237   0.7770   6.9706   7.5029   7.7104   8.1106   8.2172

          k = 0.3333-0.0000 0.0000 ( 18020 PWs)   bands (ev):

   -15.8385 -14.0599 -11.4772 -10.9844 -10.5782 -10.1898 -10.1120  -7.8799
    -7.5692  -6.6492  -6.5077  -6.0319  -4.7898  -4.4661  -4.0639  -3.8380
    -3.5943  -2.9169  -1.7458  -1.6133  -1.5643  -1.2589  -0.6954  -0.6336
    -0.5247   1.0655   7.3254   7.6097   8.5668   9.4089   9.4687

          k = 0.3333-0.1000 0.0000 ( 18021 PWs)   bands (ev):

   -15.7145 -13.9785 -12.5482 -10.6381 -10.6342 -10.0249  -9.7324  -7.8180
    -7.4759  -6.6339  -6.4339  -5.7998  -4.5586  -4.5183  -4.3972  -4.0034
    -2.9663  -2.9433  -1.9659  -1.5728  -1.4749  -1.1774  -1.1677  -0.9517
    -0.3766   0.5503   7.4650   7.7951   8.4971   8.7960   8.8301

          k = 0.3333-0.2000 0.0000 ( 18016 PWs)   bands (ev):

   -15.4455 -13.8231 -13.4397 -11.2087 -10.5262  -9.8410  -8.9628  -7.8319
    -7.6968  -6.2727  -6.0948  -4.9905  -4.5905  -4.4209  -4.3018  -3.9881
    -3.6065  -3.1375  -2.0344  -1.8747  -1.6793  -1.2234  -1.1308  -0.9002
    -0.2327  -0.1996   7.3950   7.6598   8.3256   8.6521   8.7946

          k = 0.4444-0.0000 0.0000 ( 18070 PWs)   bands (ev):

   -14.3393 -12.9806 -11.8417 -10.7446  -9.9102  -9.5901  -8.8903  -8.6659
    -8.3865  -7.6448  -7.2531  -7.1952  -4.9357  -4.7524  -4.1188  -4.0624
    -3.7011  -2.9706  -2.4911  -2.0786  -2.0013  -1.5814  -1.3644  -1.0713
     0.1652   0.7533   8.2072   8.5230   8.7327   9.2676   9.5017

          k = 0.4444-0.1000 0.0000 ( 18037 PWs)   bands (ev):

   -14.2165 -12.8709 -11.7682 -11.1505 -10.5963  -9.8103  -8.6114  -8.4762
    -8.3682  -7.3373  -7.1831  -6.7581  -4.8618  -4.5727  -4.5440  -4.0454
    -2.9303  -2.9228  -2.5187  -2.1440  -1.8810  -1.4842  -1.4576  -1.0862
    -0.4669  -0.0049   8.1370   8.3130   9.0120   9.0724   9.4467

          k = 0.4444-0.2000 0.0000 ( 18021 PWs)   bands (ev):

   -13.9488 -12.6407 -12.0081 -11.6178 -10.6512 -10.5288  -8.8694  -8.4672
    -7.9248  -7.1743  -7.0683  -5.8081  -4.7384  -4.3028  -3.9288  -3.9259
    -2.9827  -2.9179  -2.1488  -2.0603  -1.8823  -1.6571  -1.6524  -1.4791
    -1.1178  -1.0378   7.6681   8.4841   8.5468   9.2713   9.4439

     the Fermi energy is     3.3450 ev

!    total energy              =    -225.84059272 Ry
     estimated scf accuracy    <          6.3E-09 Ry
     smearing contrib. (-TS)   =       0.00000000 Ry
     internal energy E=F+TS    =    -225.84059272 Ry

     The total energy is F=E-TS. E is the sum of the following terms:
     one-electron contribution =   -1142.14742041 Ry
     hartree contribution      =     591.43622054 Ry
     xc contribution           =     -58.73706650 Ry
     ewald contribution        =     457.56641378 Ry
     one-center paw contrib.   =     -73.95874012 Ry

     convergence has been achieved in  11 iterations

     negative rho (up, down):  1.665E-06 0.000E+00

     Forces acting on atoms (cartesian axes, Ry/au):

     atom    1 type  1   force =     0.00000000   -0.00001082   -0.00000213
     atom    2 type  1   force =     0.00000000    0.00000788   -0.00002161
     atom    3 type  1   force =     0.00000000   -0.00000000    0.00002508
     atom    4 type  1   force =     0.00000000    0.00000000   -0.00002508
     atom    5 type  1   force =     0.00000000    0.00000788    0.00002161
     atom    6 type  1   force =     0.00000000   -0.00001082    0.00000213
     atom    7 type  1   force =     0.00000000    0.00001082   -0.00000213
     atom    8 type  1   force =     0.00000000   -0.00000788   -0.00002161
     atom    9 type  1   force =     0.00000000    0.00000000   -0.00000315
     atom   10 type  1   force =     0.00000000   -0.00000000    0.00000315
     atom   11 type  1   force =     0.00000000   -0.00000788    0.00002161
     atom   12 type  1   force =     0.00000000    0.00001082    0.00000213
     atom   13 type  2   force =     0.00000000    0.00000170    0.00000508
     atom   14 type  2   force =     0.00000000   -0.00000170    0.00000508
     atom   15 type  2   force =     0.00000000    0.00000170   -0.00000508
     atom   16 type  2   force =     0.00000000   -0.00000170   -0.00000508

     Total force =     0.000063     Total SCF correction =     0.000066
     SCF correction compared to forces is large: reduce conv_thr to get better values


     Computing stress (Cartesian axis) and pressure


     negative rho (up, down):  1.665E-06 0.000E+00
          total   stress  (Ry/bohr**3)                   (kbar)     P=      -23.39
   0.00013007   0.00000000   0.00000000           19.13        0.00        0.00
   0.00000000  -0.00060616   0.00000000            0.00      -89.17        0.00
   0.00000000   0.00000000  -0.00000095            0.00        0.00       -0.14


     Writing all to output data dir /tmp/qe/slab.save/ :
     XML data file, charge density, pseudopotentials, collected wavefunctions

     init_run     :      1.08s CPU      1.34s WALL (       1 calls)
     electrons    :     18.60s CPU     18.87s WALL (       1 calls)
     forces       :      0.33s CPU      0.35s WALL (       1 calls)
     stress       :      3.24s CPU      3.26s WALL (       1 calls)

     Called by init_run:
     wfcinit      :      0.77s CPU      0.91s WALL (       1 calls)
     potinit      :      0.13s CPU      0.17s WALL (       1 calls)
     hinit0       :      0.06s CPU      0.12s WALL (       1 calls)

     Called by electrons:
     c_bands      :     13.94s CPU     14.11s WALL (      11 calls)
     sum_band     :      2.84s CPU      2.90s WALL (      11 calls)
     v_of_rho     :      0.68s CPU      0.72s WALL (      12 calls)
     newd         :      0.42s CPU      0.44s WALL (      12 calls)
     PAW_pot      :      0.74s CPU      0.75s WALL (      12 calls)
     mix_rho      :      0.06s CPU      0.07s WALL (      11 calls)

     Called by c_bands:
     init_us_2    :      0.44s CPU      0.45s WALL (     375 calls)
     cegterg      :     13.27s CPU     13.42s WALL (     165 calls)

     Called by *egterg:
     cdiaghg      :      0.75s CPU      0.86s WALL (     853 calls)
     h_psi        :     10.57s CPU     10.71s WALL (     868 calls)
     s_psi        :      0.63s CPU      0.63s WALL (     868 calls)
     g_psi        :      0.07s CPU      0.07s WALL (     688 calls)

     Called by h_psi:
     h_psi:calbec :      0.64s CPU      0.67s WALL (     868 calls)
     vloc_psi     :      9.12s CPU      9.22s WALL (     868 calls)
     add_vuspsi   :      0.74s CPU      0.75s WALL (     868 calls)

     General routines
     calbec       :      0.90s CPU      0.94s WALL (    1108 calls)
     fft          :      0.36s CPU      0.45s WALL (     179 calls)
     ffts         :      0.01s CPU      0.04s WALL (      23 calls)
     fftw         :      8.15s CPU      8.23s WALL (   34137 calls)
     interpolate  :      0.03s CPU      0.05s WALL (      12 calls)

     Parallel routines

     PWSCF        :     23.39s CPU     24.19s WALL


   This run was terminated on:  16:10:32   2Aug2026            

=------------------------------------------------------------------------------=
   JOB DONE.
=------------------------------------------------------------------------------=
Note: The following floating-point exceptions are signalling: IEEE_UNDERFLOW_FLAG IEEE_DENORMAL
Note: The following floating-point exceptions are signalling: IEEE_UNDERFLOW_FLAG IEEE_DENORMAL
Note: The following floating-point exceptions are signalling: IEEE_UNDERFLOW_FLAG IEEE_DENORMAL
Note: The following floating-point exceptions are signalling: IEEE_UNDERFLOW_FLAG IEEE_DENORMAL
Note: The following floating-point exceptions are signalling: IEEE_UNDERFLOW_FLAG IEEE_DENORMAL
Note: The following floating-point exceptions are signalling: IEEE_UNDERFLOW_FLAG IEEE_DENORMAL
Note: The following floating-point exceptions are signalling: IEEE_UNDERFLOW_FLAG IEEE_DENORMAL
Note: The following floating-point exceptions are signalling: IEEE_UNDERFLOW_FLAG IEEE_DENORMAL
