
     Program PWSCF v.7.5 starts on 23Jun2026 at 15:46:39 

     This program is part of the open-source Quantum ESPRESSO suite
     for quantum simulation of materials; please cite
         "P. Giannozzi et al., J. Phys.:Condens. Matter 21 395502 (2009);
         "P. Giannozzi et al., J. Phys.:Condens. Matter 29 465901 (2017);
         "P. Giannozzi et al., J. Chem. Phys. 152 154105 (2020);
          URL http://www.quantum-espresso.org", 
     in publications or presentations arising from this work. More details at
     http://www.quantum-espresso.org/quote

     Serial version
     0 MiB available memory on the printing compute node when the environment starts

     Waiting for input...
     Reading input from standard input

     Current dimensions of program PWSCF are:
     Max number of different atomic species (ntypx) = 10
     Max number of k-points (npk) =  40000
     Max angular momentum in pseudopotentials (lmaxx) =  4
     file C.pbe-n-kjpaw_psl.1.0.0.UPF: wavefunction(s)  2S 2P renormalized
     Message from routine volume:
     axis vectors are left-handed
     Message from routine setup:
     using ibrav=0 with symmetry is DISCOURAGED, use correct ibrav instead


     G-vector sticks info
     --------------------
     sticks:   dense  smooth     PW     G-vecs:    dense   smooth      PW
     Sum        1641     817    239               368113   130255   20483

     Using Slab Decomposition



     bravais-lattice index     =            0
     lattice parameter (alat)  =       4.7752  a.u.
     unit-cell volume          =    1346.5522 (a.u.)^3
     number of atoms/cell      =           14
     number of atomic types    =            2
     number of electrons       =        50.00
     number of Kohn-Sham states=           30
     kinetic-energy cutoff     =      80.0000  Ry
     charge density cutoff     =     640.0000  Ry
     scf convergence threshold =      1.0E-08
     mixing beta               =       0.3000
     number of iterations used =            8  plain     mixing
     Exchange-correlation= PBE
                           (   1   4   3   4   0   0   0)

     celldm(1)=   4.775235  celldm(2)=   0.000000  celldm(3)=   0.000000
     celldm(4)=   0.000000  celldm(5)=   0.000000  celldm(6)=   0.000000

     crystal axes: (cart. coord. in units of alat)
               a(1) = (   1.000000   0.000000   0.000000 )  
               a(2) = (   0.000000  -1.407142   0.000000 )  
               a(3) = (   0.000000   0.000000   8.788216 )  

     reciprocal axes: (cart. coord. in units 2 pi/alat)
               b(1) = (  1.000000 -0.000000 -0.000000 )  
               b(2) = ( -0.000000 -0.710660 -0.000000 )  
               b(3) = ( -0.000000 -0.000000  0.113789 )  


     PseudoPot. # 1 for C  read from file:
     ./C.pbe-n-kjpaw_psl.1.0.0.UPF
     MD5 check sum: 5d2aebdfa2cae82b50a7e79e9516da0f
     Pseudo is Projector augmented-wave + core cor, Zval =  4.0
     Generated using "atomic" code by A. Dal Corso  v.5.1
     Shape of augmentation charge: PSQ
     Using radial grid of 1073 points,  4 beta functions with: 
                l(1) =   0
                l(2) =   0
                l(3) =   1
                l(4) =   1
     Q(r) pseudized with 0 coefficients 


     PseudoPot. # 2 for H  read from file:
     ./H_ONCV_PBE-1.0.oncvpsp.upf
     MD5 check sum: 1790becc920ee074925cf490c71280fe
     Pseudo is Norm-conserving, Zval =  1.0
     Generated using ONCVPSP code by D. R. Hamann
     Using radial grid of 1166 points,  2 beta functions with: 
                l(1) =   0
                l(2) =   0

     atomic species   valence    mass     pseudopotential
     C                 4.00    12.01100     C ( 1.00)
     H                 1.00     1.00800     H ( 1.00)

      4 Sym. Ops. (no inversion) found ( 2 have fractional translation)



   Cartesian axes

     site n.     atom                  positions (alat units)
         1        C      tau(   1) = (   0.0000000  -0.3593326   5.4554133  )
         2        C      tau(   2) = (   0.5000000  -0.6960243   5.4554133  )
         3        C      tau(   3) = (   0.0000000   0.0012589   4.9666635  )
         4        C      tau(   4) = (   0.5000000  -1.0566158   4.9666635  )
         5        C      tau(   5) = (   0.0000000  -0.3521708   4.4654712  )
         6        C      tau(   6) = (   0.5000000  -0.7031861   4.4654712  )
         7        C      tau(   7) = (   0.0000000   0.0024962   3.9666200  )
         8        C      tau(   8) = (   0.5000000  -1.0578531   3.9666200  )
         9        C      tau(   9) = (   0.0000000  -0.3517856   3.4680099  )
        10        C      tau(  10) = (   0.5000000  -0.7035712   3.4680099  )
        11        C      tau(  11) = (   0.0000000   0.0000000   2.9680099  )
        12        C      tau(  12) = (   0.5000000  -1.0553569   2.9680099  )
        13        H      tau(  13) = (   0.0000000  -0.1235371   5.8198994  )
        14        H      tau(  14) = (   0.5000000  -0.9318197   5.8198994  )

     number of k points=    20  Marzari-Vanderbilt smearing, width (Ry)=  0.0100
                       cart. coord. in units 2pi/alat
        k(    1) = (   0.0000000  -0.0000000   0.0000000), wk =   0.0317460
        k(    2) = (   0.0000000  -0.1015229   0.0000000), wk =   0.0634921
        k(    3) = (   0.0000000  -0.2030457   0.0000000), wk =   0.0634921
        k(    4) = (   0.0000000  -0.3045686   0.0000000), wk =   0.0634921
        k(    5) = (   0.1111111  -0.0000000   0.0000000), wk =   0.0634921
        k(    6) = (   0.1111111  -0.1015229   0.0000000), wk =   0.1269841
        k(    7) = (   0.1111111  -0.2030457   0.0000000), wk =   0.1269841
        k(    8) = (   0.1111111  -0.3045686   0.0000000), wk =   0.1269841
        k(    9) = (   0.2222222  -0.0000000   0.0000000), wk =   0.0634921
        k(   10) = (   0.2222222  -0.1015229   0.0000000), wk =   0.1269841
        k(   11) = (   0.2222222  -0.2030457   0.0000000), wk =   0.1269841
        k(   12) = (   0.2222222  -0.3045686   0.0000000), wk =   0.1269841
        k(   13) = (   0.3333333  -0.0000000   0.0000000), wk =   0.0634921
        k(   14) = (   0.3333333  -0.1015229   0.0000000), wk =   0.1269841
        k(   15) = (   0.3333333  -0.2030457   0.0000000), wk =   0.1269841
        k(   16) = (   0.3333333  -0.3045686   0.0000000), wk =   0.1269841
        k(   17) = (   0.4444444  -0.0000000   0.0000000), wk =   0.0634921
        k(   18) = (   0.4444444  -0.1015229   0.0000000), wk =   0.1269841
        k(   19) = (   0.4444444  -0.2030457   0.0000000), wk =   0.1269841
        k(   20) = (   0.4444444  -0.3045686   0.0000000), wk =   0.1269841

     Dense  grid:   368113 G-vectors     FFT dimensions: (  40,  60, 360)

     Smooth grid:   130255 G-vectors     FFT dimensions: (  30,  40, 240)

     Estimated max dynamical RAM per process >     839.53 MB

     Initial potential from superposition of free atoms

     starting charge      49.9995, renormalised to      50.0000

     negative rho (up, down):  5.809E-05 0.000E+00
     Starting wfcs are   50 randomized atomic wfcs

     total cpu time spent up to now is        4.3 secs

     Self-consistent Calculation

     iteration #  1     ecut=    80.00 Ry     beta= 0.30
     Davidson diagonalization with overlap
     ethr =  1.00E-02,  avg # of iterations =  2.6

     negative rho (up, down):  5.554E-05 0.000E+00

     total cpu time spent up to now is       12.5 secs

     total energy              =    -223.36372494 Ry
     estimated scf accuracy    <       0.91431937 Ry

     iteration #  2     ecut=    80.00 Ry     beta= 0.30
     Davidson diagonalization with overlap
     ethr =  1.83E-03,  avg # of iterations =  4.0

     negative rho (up, down):  6.411E-05 0.000E+00

     total cpu time spent up to now is       19.2 secs

     total energy              =    -223.27965942 Ry
     estimated scf accuracy    <       0.31460533 Ry

     iteration #  3     ecut=    80.00 Ry     beta= 0.30
     Davidson diagonalization with overlap
     ethr =  6.29E-04,  avg # of iterations =  7.2

     negative rho (up, down):  6.650E-05 0.000E+00

     total cpu time spent up to now is       27.8 secs

     total energy              =    -223.29379985 Ry
     estimated scf accuracy    <       0.04489496 Ry

     iteration #  4     ecut=    80.00 Ry     beta= 0.30
     Davidson diagonalization with overlap
     ethr =  8.98E-05,  avg # of iterations =  7.5

     negative rho (up, down):  6.821E-05 0.000E+00

     total cpu time spent up to now is       36.5 secs

     total energy              =    -223.29616546 Ry
     estimated scf accuracy    <       0.00810469 Ry

     iteration #  5     ecut=    80.00 Ry     beta= 0.30
     Davidson diagonalization with overlap
     ethr =  1.62E-05,  avg # of iterations =  7.3

     negative rho (up, down):  6.915E-05 0.000E+00

     total cpu time spent up to now is       45.6 secs

     total energy              =    -223.29730309 Ry
     estimated scf accuracy    <       0.00088337 Ry

     iteration #  6     ecut=    80.00 Ry     beta= 0.30
     Davidson diagonalization with overlap
     ethr =  1.77E-06,  avg # of iterations =  7.7

     negative rho (up, down):  6.891E-05 0.000E+00

     total cpu time spent up to now is       55.7 secs

     total energy              =    -223.29738006 Ry
     estimated scf accuracy    <       0.00020226 Ry

     iteration #  7     ecut=    80.00 Ry     beta= 0.30
     Davidson diagonalization with overlap
     c_bands:  1 eigenvalues not converged
     ethr =  4.05E-07,  avg # of iterations =  3.9

     negative rho (up, down):  6.907E-05 0.000E+00

     total cpu time spent up to now is       63.7 secs

     total energy              =    -223.29741324 Ry
     estimated scf accuracy    <       0.00003233 Ry

     iteration #  8     ecut=    80.00 Ry     beta= 0.30
     Davidson diagonalization with overlap
     ethr =  6.47E-08,  avg # of iterations =  2.5

     negative rho (up, down):  6.872E-05 0.000E+00

     total cpu time spent up to now is       71.1 secs

     total energy              =    -223.29741685 Ry
     estimated scf accuracy    <       0.00000894 Ry

     iteration #  9     ecut=    80.00 Ry     beta= 0.30
     Davidson diagonalization with overlap
     ethr =  1.79E-08,  avg # of iterations =  2.1

     negative rho (up, down):  6.857E-05 0.000E+00

     total cpu time spent up to now is       78.5 secs

     total energy              =    -223.29741904 Ry
     estimated scf accuracy    <       0.00000081 Ry

     iteration # 10     ecut=    80.00 Ry     beta= 0.30
     Davidson diagonalization with overlap
     ethr =  1.62E-09,  avg # of iterations =  2.9

     negative rho (up, down):  6.851E-05 0.000E+00

     total cpu time spent up to now is       85.8 secs

     total energy              =    -223.29741918 Ry
     estimated scf accuracy    <       0.00000016 Ry

     iteration # 11     ecut=    80.00 Ry     beta= 0.30
     Davidson diagonalization with overlap
     ethr =  3.28E-10,  avg # of iterations =  2.9

     negative rho (up, down):  6.845E-05 0.000E+00

     total cpu time spent up to now is       94.0 secs

     total energy              =    -223.29741922 Ry
     estimated scf accuracy    <       0.00000008 Ry

     iteration # 12     ecut=    80.00 Ry     beta= 0.30
     Davidson diagonalization with overlap
     ethr =  1.57E-10,  avg # of iterations =  2.0

     negative rho (up, down):  6.843E-05 0.000E+00

     total cpu time spent up to now is      100.9 secs

     End of self-consistent calculation

          k = 0.0000-0.0000 0.0000 ( 16313 PWs)   bands (ev):

   -19.4969 -18.1811 -16.2309 -13.8916 -11.7081 -10.9256 -10.7866  -9.6029
    -7.8209  -7.7562  -6.7457  -5.9359  -5.4198  -4.6267  -4.4866  -3.4556
    -2.8863  -2.7244  -2.0410  -0.5609  -0.5561   0.0613   0.7079   1.3990
     1.6475   3.9020   4.0699   6.0047   6.5844   6.8484

          k = 0.0000-0.1015 0.0000 ( 16269 PWs)   bands (ev):

   -19.3089 -17.9986 -16.0656 -13.8239 -13.0475 -12.2011 -10.0036  -9.1463
    -8.6090  -6.9788  -6.6277  -5.8052  -4.8281  -4.4223  -4.3100  -3.3070
    -3.0613  -2.2885  -1.9569  -0.6227  -0.5619  -0.0654   0.3782   0.9038
     1.7209   3.6298   4.1145   6.2045   6.6233   7.0785

          k = 0.0000-0.2030 0.0000 ( 16291 PWs)   bands (ev):

   -18.7473 -17.4563 -15.5957 -14.9160 -14.0366 -13.3270 -10.5661  -9.7321
    -8.1993  -7.1650  -5.7210  -5.0475  -4.1069  -3.7880  -3.7038  -2.8764
    -2.4639  -2.0765  -1.7351  -0.8590  -0.7237  -0.5971  -0.1583   0.0706
     1.6469   2.8959   4.7203   6.5916   7.1168   7.5581

          k = 0.0000-0.3046 0.0000 ( 16221 PWs)   bands (ev):

   -17.8212 -16.6545 -16.4480 -15.3791 -14.8352 -13.7703 -10.8907 -10.1938
    -8.3009  -7.4290  -5.3813  -4.4318  -3.2719  -2.9476  -2.5617  -2.2285
    -2.0274  -1.8238  -1.5224  -1.4780  -1.3829  -1.1848  -0.7951  -0.4548
     1.6596   2.3405   5.6232   6.7714   7.1094   7.9372

          k = 0.1111-0.0000 0.0000 ( 16291 PWs)   bands (ev):

   -19.2711 -17.9580 -16.0119 -13.6790 -11.5056 -10.7261 -10.7240  -9.5507
    -7.7199  -7.6254  -6.5625  -5.7647  -5.4992  -5.4066  -4.4928  -4.4286
    -2.9771  -2.8358  -2.7438  -1.4834  -0.7345  -0.2800  -0.0293   0.3543
     1.2529   4.1043   4.1127   6.2634   7.0309   7.4745

          k = 0.1111-0.1015 0.0000 ( 16274 PWs)   bands (ev):

   -19.0836 -17.7760 -15.8476 -13.6139 -12.8651 -12.0116  -9.8583  -9.0233
    -8.5523  -6.8968  -6.5361  -5.7598  -5.2190  -4.8243  -4.3342  -4.1648
    -3.0573  -2.8090  -2.3675  -1.5546  -0.9822  -0.5920  -0.2939   0.1009
     1.5477   3.7166   4.3414   6.5072   7.3293   7.5983

          k = 0.1111-0.2030 0.0000 ( 16248 PWs)   bands (ev):

   -18.5237 -17.2359 -15.3809 -14.7130 -13.8368 -13.1235 -10.3830  -9.5460
    -8.0512  -7.1009  -5.9510  -5.0714  -4.6649  -4.3282  -3.7032  -3.1994
    -2.9290  -2.3531  -2.0952  -2.0431  -1.8686  -1.2471  -0.5210   0.0826
     1.6254   3.0370   4.9822   7.1559   7.7950   8.0149

          k = 0.1111-0.3046 0.0000 ( 16256 PWs)   bands (ev):

   -17.6008 -16.4386 -16.2335 -15.1695 -14.6279 -13.5653 -10.6923  -9.9991
    -8.1290  -7.2626  -5.4126  -4.5515  -4.2893  -3.6847  -3.3828  -2.7491
    -2.7228  -2.5174  -2.1646  -1.9296  -1.7198  -1.1558  -0.8667  -0.6580
     1.8095   2.4035   5.9386   7.2436   7.8894   8.4679

          k = 0.2222-0.0000 0.0000 ( 16278 PWs)   bands (ev):

   -18.5968 -17.2919 -15.3585 -13.0447 -10.9002 -10.8581 -10.1294  -9.6990
    -7.8953  -7.1634  -7.0593  -6.0611  -6.0429  -5.6219  -5.2806  -4.5916
    -4.1498  -3.2050  -3.0026  -2.8333  -2.1945  -1.7273  -1.5937  -0.3445
     0.6334   3.8991   4.7629   6.6897   7.0879   7.3586

          k = 0.2222-0.1015 0.0000 ( 16252 PWs)   bands (ev):

   -18.4110 -17.1121 -15.1973 -12.9884 -12.3847 -11.4806  -9.6351  -9.1088
    -8.5719  -7.2090  -6.6763  -6.2159  -5.7726  -5.3798  -4.8195  -4.1785
    -3.9173  -3.4663  -3.1636  -3.0566  -2.7158  -2.0162  -0.8631  -0.6803
     0.9874   3.5896   5.0191   7.2319   7.4610   7.6306

          k = 0.2222-0.2030 0.0000 ( 16265 PWs)   bands (ev):

   -17.8568 -16.5792 -14.7412 -14.1264 -13.2510 -12.5240  -9.8962  -9.0707
    -8.2545  -7.5911  -6.7335  -6.0118  -5.2958  -4.8241  -4.5043  -4.2489
    -3.8145  -3.4866  -3.2559  -3.0917  -2.5913  -2.0681  -1.1272  -0.4646
     1.4604   2.9945   5.6836   8.0176   8.4842   8.6839

          k = 0.2222-0.3046 0.0000 ( 16231 PWs)   bands (ev):

   -16.9456 -15.7985 -15.5986 -14.5504 -14.0118 -12.9565 -10.1337  -9.4474
    -7.7643  -7.2186  -6.7729  -6.0067  -5.8746  -5.0097  -4.7720  -4.3206
    -3.9037  -3.6114  -2.5000  -2.1774  -2.1150  -1.9527  -1.1499  -0.9328
     1.8841   2.4262   6.6059   8.0013   9.1156   9.3197

          k = 0.3333-0.0000 0.0000 ( 16254 PWs)   bands (ev):

   -17.4856 -16.1951 -14.2831 -12.1367 -12.0002 -10.9419  -9.8989  -9.1418
    -9.1300  -7.4587  -6.9234  -6.4309  -6.1955  -5.3017  -5.1258  -4.7704
    -4.6119  -4.1092  -3.9397  -3.8324  -3.2470  -3.1314  -2.8968  -1.0079
     0.6118   3.2559   5.7700   6.6195   6.8354   8.4201

          k = 0.3333-0.1015 0.0000 ( 16315 PWs)   bands (ev):

   -17.3037 -16.0200 -14.1281 -12.3447 -11.9700 -11.1577 -10.1976  -9.7152
    -9.1432  -7.4294  -6.9986  -6.4821  -6.0379  -5.5337  -5.1184  -4.9634
    -4.6512  -4.3375  -3.9916  -3.7174  -3.0692  -2.9417  -2.1789  -1.2067
     0.8455   3.1072   6.0681   7.0634   7.2739   8.1147

          k = 0.3333-0.2030 0.0000 ( 16272 PWs)   bands (ev):

   -16.7626 -15.5027 -13.6955 -13.3300 -12.3876 -11.5984 -10.3084  -9.7015
    -9.1507  -7.9448  -7.1353  -7.0536  -6.8293  -6.2248  -5.3021  -5.1898
    -4.1865  -3.7779  -3.6059  -3.3587  -2.8438  -2.6522  -1.6576  -1.3481
     1.3683   2.7545   6.6949   8.0311   8.2789   8.9193

          k = 0.3333-0.3046 0.0000 ( 16247 PWs)   bands (ev):

   -15.8808 -14.7738 -14.5847 -13.5714 -13.0118 -11.9761  -9.6290  -9.4916
    -8.8514  -8.5238  -8.3799  -7.4863  -6.7037  -6.4897  -5.9227  -5.5755
    -3.8832  -3.6456  -3.3778  -3.0550  -2.1998  -2.0980  -1.8239  -1.2831
     1.8578   2.3968   7.3694   8.8102   9.1455   9.5213

          k = 0.4444-0.0000 0.0000 ( 16330 PWs)   bands (ev):

   -15.9652 -14.6963 -14.1059 -12.8679 -12.8142 -11.0223 -10.5706  -8.8149
    -8.5161  -7.7766  -6.7843  -6.4835  -6.0613  -5.6532  -5.2175  -4.9743
    -4.7876  -4.7026  -4.4445  -4.3859  -4.0679  -3.5143  -2.9074  -1.9545
     1.2490   2.2629   6.4507   7.0399   7.4011   7.6129

          k = 0.4444-0.1015 0.0000 ( 16314 PWs)   bands (ev):

   -15.7929 -14.5323 -13.9726 -12.7484 -12.6706 -10.9379 -10.4932  -9.2916
    -8.8036  -8.7069  -7.5925  -7.0386  -6.3485  -5.6820  -5.0803  -5.0488
    -4.6301  -4.3977  -4.1610  -3.9257  -3.6378  -3.4081  -2.7441  -1.9751
     1.3884   2.2802   6.9535   7.0905   7.5299   7.8704

          k = 0.4444-0.2030 0.0000 ( 16278 PWs)   bands (ev):

   -15.2888 -14.0567 -13.6680 -12.4928 -12.2669 -10.8080 -10.7454 -10.3349
    -9.5748  -9.1901  -8.9249  -8.0828  -6.7737  -6.2212  -5.6069  -4.9428
    -4.7502  -4.0839  -3.8174  -3.2525  -3.1009  -2.5868  -2.2578  -2.0169
     1.7062   2.2884   7.5454   7.8996   8.3882   8.7043

          k = 0.4444-0.3046 0.0000 ( 16268 PWs)   bands (ev):

   -14.5150 -13.7475 -13.3260 -12.6041 -11.7329 -11.3091 -10.9116 -10.5759
   -10.3281  -9.7021  -9.5009  -8.7134  -7.0000  -6.6069  -5.7722  -5.2391
    -4.8792  -4.3198  -3.5640  -3.1009  -2.5775  -2.2690  -1.8795  -1.6887
     1.9860   2.2401   8.0069   8.6400   9.6046   9.8575

     the Fermi energy is     2.0510 ev

!    total energy              =    -223.29741923 Ry
     estimated scf accuracy    <          6.4E-09 Ry
     smearing contrib. (-TS)   =       0.00052646 Ry
     internal energy E=F+TS    =    -223.29794569 Ry

     The total energy is F=E-TS. E is the sum of the following terms:
     one-electron contribution =   -2795.05239519 Ry
     hartree contribution      =    1414.71116849 Ry
     xc contribution           =     -57.28828015 Ry
     ewald contribution        =    1288.29477174 Ry
     one-center paw contrib.   =     -73.96321058 Ry

     convergence has been achieved in  12 iterations

     negative rho (up, down):  6.843E-05 0.000E+00

     Forces acting on atoms (cartesian axes, Ry/au):

     atom    1 type  1   force =    -0.00000000    0.00108635   -0.00000290
     atom    2 type  1   force =     0.00000000   -0.00108635   -0.00000290
     atom    3 type  1   force =     0.00000000   -0.00026913   -0.00028325
     atom    4 type  1   force =     0.00000000    0.00026913   -0.00028325
     atom    5 type  1   force =     0.00000000    0.00022288    0.00013724
     atom    6 type  1   force =     0.00000000   -0.00022288    0.00013724
     atom    7 type  1   force =     0.00000000   -0.00065913    0.00050971
     atom    8 type  1   force =     0.00000000    0.00065913    0.00050971
     atom    9 type  1   force =     0.00000000   -0.04512775   -0.04623278
     atom   10 type  1   force =     0.00000000    0.04512775   -0.04623278
     atom   11 type  1   force =    -0.00000000    0.16596410    0.04481706
     atom   12 type  1   force =     0.00000000   -0.16596410    0.04481706
     atom   13 type  2   force =     0.00000000    0.00196383    0.00105491
     atom   14 type  2   force =     0.00000000   -0.00196383    0.00105491

     Total force =     0.003759     Total SCF correction =     0.000134


     Computing stress (Cartesian axis) and pressure


     negative rho (up, down):  6.843E-05 0.000E+00
          total   stress  (Ry/bohr**3)                   (kbar)     P=       -6.95
  -0.00013539   0.00000000   0.00000000          -19.92        0.00        0.00
   0.00000000   0.00013903   0.00000000            0.00       20.45        0.00
   0.00000000   0.00000000  -0.00014548            0.00        0.00      -21.40


     Writing all to output data dir ./tmp/slab.save/ :
     XML data file, charge density, pseudopotentials, collected wavefunctions

     init_run     :      3.93s CPU      4.27s WALL (       1 calls)
     electrons    :     86.84s CPU     96.58s WALL (       1 calls)
     forces       :      0.94s CPU      1.08s WALL (       1 calls)
     stress       :      2.76s CPU      3.26s WALL (       1 calls)

     Called by init_run:
     wfcinit      :      3.35s CPU      3.63s WALL (       1 calls)
     potinit      :      0.30s CPU      0.32s WALL (       1 calls)
     hinit0       :      0.14s CPU      0.15s WALL (       1 calls)

     Called by electrons:
     c_bands      :     71.52s CPU     79.97s WALL (      12 calls)
     sum_band     :     10.93s CPU     11.63s WALL (      12 calls)
     v_of_rho     :      1.64s CPU      1.78s WALL (      13 calls)
     newd         :      0.89s CPU      1.19s WALL (      13 calls)
     PAW_pot      :      1.82s CPU      1.97s WALL (      13 calls)
     mix_rho      :      0.22s CPU      0.26s WALL (      12 calls)

     Called by c_bands:
     init_us_2    :      1.01s CPU      1.10s WALL (     540 calls)
     cegterg      :     69.53s CPU     77.91s WALL (     240 calls)

     Called by *egterg:
     cdiaghg      :      0.73s CPU      0.76s WALL (    1292 calls)
     h_psi        :     54.16s CPU     57.84s WALL (    1312 calls)
     s_psi        :      5.13s CPU      6.18s WALL (    1312 calls)
     g_psi        :      0.22s CPU      0.22s WALL (    1052 calls)

     Called by h_psi:
     h_psi:calbec :      4.68s CPU      6.04s WALL (    1312 calls)
     vloc_psi     :     43.33s CPU     44.07s WALL (    1312 calls)
                                        0.00s GPU  (    1312 calls)
     add_vuspsi   :      5.96s CPU      7.40s WALL (    1312 calls)

     General routines
     calbec       :      7.63s CPU      9.71s WALL (    1892 calls)
     fft          :      1.23s CPU      1.24s WALL (     192 calls)
     ffts         :      0.04s CPU      0.04s WALL (      25 calls)
     fftw         :     46.21s CPU     46.57s WALL (   47112 calls)
     interpolate  :      0.12s CPU      0.13s WALL (      13 calls)


     PWSCF        :   1m34.52s CPU   1m45.31s WALL


   This run was terminated on:  15:48:24  23Jun2026            

=------------------------------------------------------------------------------=
   JOB DONE.
=------------------------------------------------------------------------------=
Note: The following floating-point exceptions are signalling: IEEE_INVALID_FLAG IEEE_DIVIDE_BY_ZERO IEEE_OVERFLOW_FLAG IEEE_UNDERFLOW_FLAG
