
     Program PWSCF v.7.3.1 starts on  2Aug2026 at 14:21:24 

     This program is part of the open-source Quantum ESPRESSO suite
     for quantum simulation of materials; please cite
         "P. Giannozzi et al., J. Phys.:Condens. Matter 21 395502 (2009);
         "P. Giannozzi et al., J. Phys.:Condens. Matter 29 465901 (2017);
         "P. Giannozzi et al., J. Chem. Phys. 152 154105 (2020);
          URL http://www.quantum-espresso.org", 
     in publications or presentations arising from this work. More details at
     http://www.quantum-espresso.org/quote

     Parallel version (MPI), running on     8 processors

     MPI processes distributed on     1 nodes
     187400 MiB available memory on the printing compute node when the environment starts

     Reading input from pw.in

     Current dimensions of program PWSCF are:
     Max number of different atomic species (ntypx) = 10
     Max number of k-points (npk) =  40000
     Max angular momentum in pseudopotentials (lmaxx) =  4
     file C.pbe-n-kjpaw_psl.1.0.0.UPF: wavefunction(s)  2S 2P renormalized
     Message from routine setup:
     using ibrav=0 with symmetry is DISCOURAGED, use correct ibrav instead

     R & G space division:  proc/nbgrp/npool/nimage =       8
     Subspace diagonalization in iterative solution of the eigenvalue problem:
     a serial algorithm will be used


     Parallelization info
     --------------------
     sticks:   dense  smooth     PW     G-vecs:    dense   smooth      PW
     Min         141      69     20                28815    10145    1662
     Max         142      70     21                28844    10184    1697
     Sum        1135     559    163               230699    81391   13397

     Using Slab Decomposition



     bravais-lattice index     =            0
     lattice parameter (alat)  =       4.7740  a.u.
     unit-cell volume          =     706.6733 (a.u.)^3
     number of atoms/cell      =           12
     number of atomic types    =            2
     number of electrons       =        42.00
     number of Kohn-Sham states=           25
     kinetic-energy cutoff     =      90.0000  Ry
     charge density cutoff     =     720.0000  Ry
     scf convergence threshold =      1.0E-09
     mixing beta               =       0.3000
     number of iterations used =            8  plain     mixing
     energy convergence thresh.=      1.0E-05
     force convergence thresh. =      1.0E-04
     press convergence thresh. =      1.0E-01
     Exchange-correlation= PBE
                           (   1   4   3   4   0   0   0)
     nstep                     =           50


     celldm(1)=   4.773978  celldm(2)=   0.000000  celldm(3)=   0.000000
     celldm(4)=   0.000000  celldm(5)=   0.000000  celldm(6)=   0.000000

     crystal axes: (cart. coord. in units of alat)
               a(1) = (   1.000000   0.000000   0.000000 )  
               a(2) = (   0.500000   0.866025   0.000000 )  
               a(3) = (   0.000000   0.000000   7.499750 )  

     reciprocal axes: (cart. coord. in units 2 pi/alat)
               b(1) = (  1.000000 -0.577350  0.000000 )  
               b(2) = (  0.000000  1.154701  0.000000 )  
               b(3) = (  0.000000  0.000000  0.133338 )  


     PseudoPot. # 1 for C  read from file:
     ./C.pbe-n-kjpaw_psl.1.0.0.UPF
     MD5 check sum: 5d2aebdfa2cae82b50a7e79e9516da0f
     Pseudo is Projector augmented-wave + core cor, Zval =  4.0
     Generated using "atomic" code by A. Dal Corso  v.5.1
     Shape of augmentation charge: PSQ
     Using radial grid of 1073 points,  4 beta functions with: 
                l(1) =   0
                l(2) =   0
                l(3) =   1
                l(4) =   1
     Q(r) pseudized with 0 coefficients 


     PseudoPot. # 2 for H  read from file:
     ./H_ONCV_PBE-1.0.oncvpsp.upf
     MD5 check sum: 1790becc920ee074925cf490c71280fe
     Pseudo is Norm-conserving, Zval =  1.0
     Generated using ONCVPSP code by D. R. Hamann
     Using radial grid of 1166 points,  2 beta functions with: 
                l(1) =   0
                l(2) =   0

     atomic species   valence    mass     pseudopotential
     C                 4.00    12.01100     C ( 1.00)
     H                 1.00     1.00800     H ( 1.00)

     12 Sym. Ops., with inversion, found ( 6 have fractional translation)



   Cartesian axes

     site n.     atom                  positions (alat units)
         1        C      tau(   1) = (   0.5000000   0.2886751   5.4849303  )
         2        C      tau(   2) = (   1.0000000   0.5773503   5.2808062  )
         3        C      tau(   3) = (   1.0000000   0.5773503   4.6684338  )
         4        C      tau(   4) = (   0.0000000   0.0000000   4.4643097  )
         5        C      tau(   5) = (   0.0000000   0.0000000   3.8519372  )
         6        C      tau(   6) = (   0.5000000   0.2886751   3.6478130  )
         7        C      tau(   7) = (   0.5000000   0.2886751   3.0354406  )
         8        C      tau(   8) = (   1.0000000   0.5773503   2.8313164  )
         9        C      tau(   9) = (   1.0000000   0.5773503   2.2189441  )
        10        C      tau(  10) = (   0.0000000   0.0000000   2.0148199  )
        11        H      tau(  11) = (   0.5000000   0.2886751   5.9163947  )
        12        H      tau(  12) = (   0.0000000   0.0000000   1.5833555  )

     number of k points=    14  Marzari-Vanderbilt smearing, width (Ry)=  0.0100
                       cart. coord. in units 2pi/alat
        k(    1) = (   0.0000000   0.0000000   0.0000000), wk =   0.0200000
        k(    2) = (   0.0000000   0.1154701   0.0000000), wk =   0.1200000
        k(    3) = (   0.0000000   0.2309401   0.0000000), wk =   0.1200000
        k(    4) = (   0.0000000   0.3464102   0.0000000), wk =   0.1200000
        k(    5) = (   0.0000000   0.4618802   0.0000000), wk =   0.1200000
        k(    6) = (   0.0000000  -0.5773503   0.0000000), wk =   0.0600000
        k(    7) = (   0.1000000   0.1732051   0.0000000), wk =   0.1200000
        k(    8) = (   0.1000000   0.2886751   0.0000000), wk =   0.2400000
        k(    9) = (   0.1000000   0.4041452   0.0000000), wk =   0.2400000
        k(   10) = (   0.1000000  -0.6350853   0.0000000), wk =   0.2400000
        k(   11) = (   0.2000000   0.3464102   0.0000000), wk =   0.1200000
        k(   12) = (   0.2000000  -0.6928203   0.0000000), wk =   0.2400000
        k(   13) = (   0.2000000  -0.5773503   0.0000000), wk =   0.1200000
        k(   14) = (   0.3000000  -0.6350853   0.0000000), wk =   0.1200000

     Dense  grid:   230699 G-vectors     FFT dimensions: (  45,  45, 320)

     Smooth grid:    81391 G-vectors     FFT dimensions: (  30,  30, 225)

     Estimated max dynamical RAM per process >      61.15 MB

     Estimated total dynamical RAM >     489.17 MB

     Initial potential from superposition of free atoms

     starting charge      41.9996, renormalised to      42.0000
     Starting wfcs are   42 randomized atomic wfcs
     Checking if some PAW data can be deallocated... 

     total cpu time spent up to now is        1.0 secs

     Self-consistent Calculation

     iteration #  1     ecut=    90.00 Ry     beta= 0.30
     Davidson diagonalization with overlap
     ethr =  1.00E-02,  avg # of iterations =  2.4

     total cpu time spent up to now is        1.9 secs

     total energy              =    -186.78455575 Ry
     estimated scf accuracy    <       0.82548288 Ry

     iteration #  2     ecut=    90.00 Ry     beta= 0.30
     Davidson diagonalization with overlap
     ethr =  1.97E-03,  avg # of iterations =  3.9

     negative rho (up, down):  1.889E-07 0.000E+00

     total cpu time spent up to now is        2.7 secs

     total energy              =    -186.70384078 Ry
     estimated scf accuracy    <       0.28297186 Ry

     iteration #  3     ecut=    90.00 Ry     beta= 0.30
     Davidson diagonalization with overlap
     ethr =  6.74E-04,  avg # of iterations =  3.9

     negative rho (up, down):  4.035E-08 0.000E+00

     total cpu time spent up to now is        3.5 secs

     total energy              =    -186.71821551 Ry
     estimated scf accuracy    <       0.02971611 Ry

     iteration #  4     ecut=    90.00 Ry     beta= 0.30
     Davidson diagonalization with overlap
     ethr =  7.08E-05,  avg # of iterations =  6.1

     negative rho (up, down):  2.139E-08 0.000E+00

     total cpu time spent up to now is        4.4 secs

     total energy              =    -186.72022475 Ry
     estimated scf accuracy    <       0.00392192 Ry

     iteration #  5     ecut=    90.00 Ry     beta= 0.30
     Davidson diagonalization with overlap
     ethr =  9.34E-06,  avg # of iterations =  3.9

     negative rho (up, down):  1.362E-08 0.000E+00

     total cpu time spent up to now is        5.2 secs

     total energy              =    -186.72072244 Ry
     estimated scf accuracy    <       0.00035158 Ry

     iteration #  6     ecut=    90.00 Ry     beta= 0.30
     Davidson diagonalization with overlap
     ethr =  8.37E-07,  avg # of iterations =  3.7

     negative rho (up, down):  1.159E-08 0.000E+00

     total cpu time spent up to now is        6.0 secs

     total energy              =    -186.72077214 Ry
     estimated scf accuracy    <       0.00010207 Ry

     iteration #  7     ecut=    90.00 Ry     beta= 0.30
     Davidson diagonalization with overlap
     ethr =  2.43E-07,  avg # of iterations =  3.1

     total cpu time spent up to now is        6.8 secs

     total energy              =    -186.72078168 Ry
     estimated scf accuracy    <       0.00003190 Ry

     iteration #  8     ecut=    90.00 Ry     beta= 0.30
     Davidson diagonalization with overlap
     ethr =  7.60E-08,  avg # of iterations =  2.0

     total cpu time spent up to now is        7.6 secs

     total energy              =    -186.72078644 Ry
     estimated scf accuracy    <       0.00000238 Ry

     iteration #  9     ecut=    90.00 Ry     beta= 0.30
     Davidson diagonalization with overlap
     ethr =  5.67E-09,  avg # of iterations =  2.6

     total cpu time spent up to now is        8.4 secs

     total energy              =    -186.72078670 Ry
     estimated scf accuracy    <       0.00000158 Ry

     iteration # 10     ecut=    90.00 Ry     beta= 0.30
     Davidson diagonalization with overlap
     ethr =  3.76E-09,  avg # of iterations =  2.0

     total cpu time spent up to now is        9.1 secs

     total energy              =    -186.72078687 Ry
     estimated scf accuracy    <       0.00000054 Ry

     iteration # 11     ecut=    90.00 Ry     beta= 0.30
     Davidson diagonalization with overlap
     ethr =  1.30E-09,  avg # of iterations =  2.1

     total cpu time spent up to now is        9.8 secs

     total energy              =    -186.72078691 Ry
     estimated scf accuracy    <       0.00000008 Ry

     iteration # 12     ecut=    90.00 Ry     beta= 0.30
     Davidson diagonalization with overlap
     ethr =  1.96E-10,  avg # of iterations =  2.5

     total cpu time spent up to now is       10.6 secs

     total energy              =    -186.72078691 Ry
     estimated scf accuracy    <       0.00000003 Ry

     iteration # 13     ecut=    90.00 Ry     beta= 0.30
     Davidson diagonalization with overlap
     ethr =  6.84E-11,  avg # of iterations =  4.1

     total cpu time spent up to now is       11.6 secs

     total energy              =    -186.72078693 Ry
     estimated scf accuracy    <       0.00000005 Ry

     iteration # 14     ecut=    90.00 Ry     beta= 0.30
     Davidson diagonalization with overlap
     ethr =  6.84E-11,  avg # of iterations =  1.0

     total cpu time spent up to now is       12.2 secs

     total energy              =    -186.72078690 Ry
     estimated scf accuracy    <       0.00000004 Ry

     iteration # 15     ecut=    90.00 Ry     beta= 0.30
     Davidson diagonalization with overlap
     ethr =  6.84E-11,  avg # of iterations =  3.4

     total cpu time spent up to now is       13.1 secs

     total energy              =    -186.72078692 Ry
     estimated scf accuracy    <       0.00000001 Ry

     iteration # 16     ecut=    90.00 Ry     beta= 0.30
     Davidson diagonalization with overlap
     ethr =  3.40E-11,  avg # of iterations =  2.1

     total cpu time spent up to now is       13.8 secs

     total energy              =    -186.72078692 Ry
     estimated scf accuracy    <          1.8E-09 Ry

     iteration # 17     ecut=    90.00 Ry     beta= 0.30
     Davidson diagonalization with overlap
     ethr =  4.22E-12,  avg # of iterations =  4.4

     total cpu time spent up to now is       14.8 secs

     total energy              =    -186.72078692 Ry
     estimated scf accuracy    <          2.8E-09 Ry

     iteration # 18     ecut=    90.00 Ry     beta= 0.30
     Davidson diagonalization with overlap
     ethr =  4.22E-12,  avg # of iterations =  1.8

     total cpu time spent up to now is       15.5 secs

     total energy              =    -186.72078692 Ry
     estimated scf accuracy    <          1.0E-09 Ry

     iteration # 19     ecut=    90.00 Ry     beta= 0.30
     Davidson diagonalization with overlap
     ethr =  2.43E-12,  avg # of iterations =  2.9

     total cpu time spent up to now is       16.3 secs

     End of self-consistent calculation

          k = 0.0000 0.0000 0.0000 ( 10111 PWs)   bands (ev):

   -15.1461 -14.4660 -13.4066 -12.0322 -10.5174  -6.7241  -4.8974  -2.4646
     0.1667   2.7363   3.4007   3.4007   3.8543   3.8543   4.5145   4.5145
     4.9240   5.2497   5.2497   5.8222   5.8222   8.2908   8.8103  11.0533
    12.0000

          k = 0.0000 0.1155 0.0000 ( 10205 PWs)   bands (ev):

   -14.9015 -14.2231 -13.1668 -11.7979 -10.2922  -6.5046  -4.6981  -2.2992
     0.2722   2.2111   2.6211   2.8060   2.8689   3.3682   3.4450   4.0850
     4.1544   4.6875   4.8691   4.9505   5.4736   8.5135   9.0400  11.1389
    11.9433

          k = 0.0000 0.2309 0.0000 ( 10169 PWs)   bands (ev):

   -14.1716 -13.4985 -12.4523 -11.1008  -9.6233  -5.8798  -4.1422  -1.8807
    -0.3849   0.0681   0.6829   0.9410   1.8145   1.8615   2.3609   2.5901
     2.8069   3.1427   3.9914   4.3830   4.6447   9.2210   9.6609  11.2288
    11.6771

          k = 0.0000 0.3464 0.0000 ( 10168 PWs)   bands (ev):

   -12.9709 -12.3086 -11.2830  -9.9667  -8.5424  -5.1044  -3.7307  -3.0899
    -2.5509  -1.5973  -1.4794  -0.4278   0.1126   0.8373   0.9403   1.4063
     2.2204   2.4193   3.1039   3.6525   3.7853  10.2895  10.4876  11.0451
    11.8042

          k = 0.0000 0.4619 0.0000 ( 10188 PWs)   bands (ev):

   -11.3406 -10.7062  -9.7404  -8.5459  -7.3322  -5.9081  -5.7944  -4.9780
    -3.8491  -2.8296  -2.4240  -1.4341  -0.1996   0.1892   0.4242   0.7680
     1.5964   1.8500   2.4954   3.0287   3.1899  10.5504  11.3314  11.7523
    12.0307

          k = 0.0000-0.5774 0.0000 ( 10180 PWs)   bands (ev):

    -9.6250  -9.4555  -9.0104  -8.3357  -7.4125  -6.9071  -6.1594  -5.8589
    -4.8376  -4.6874  -1.3531  -1.2936  -0.5867  -0.0351   0.0506   0.5465
     1.3790   1.6028   2.2825   2.7940   2.9807  10.9320  11.1557  11.5425
    12.2872

          k = 0.1000 0.1732 0.0000 ( 10203 PWs)   bands (ev):

   -14.4142 -13.7393 -12.6895 -11.3320  -9.8450  -6.0807  -4.3180  -1.9993
     0.3712   0.7799   1.0947   1.4161   2.0188   2.4096   2.4989   2.9498
     3.1622   3.5961   3.9699   4.2699   4.9480   8.9972   9.4816  11.5723
    12.0703

          k = 0.1000 0.2887 0.0000 ( 10164 PWs)   bands (ev):

   -13.4485 -12.7813 -11.7466 -10.4144  -8.9665  -5.3343  -3.6963  -1.9722
    -1.3474  -1.2513  -0.5066   0.0185   0.5404   1.0107   1.0499   1.6520
     1.9598   2.5188   2.7821   3.3528   4.3269   9.9713  10.2905  11.7262
    12.3668

          k = 0.1000 0.4041 0.0000 ( 10174 PWs)   bands (ev):

   -12.0289 -11.3783 -10.3758  -9.0996  -7.7335  -5.1389  -4.6191  -3.7927
    -3.0550  -2.4575  -1.8238  -1.3395  -0.3926  -0.1168   0.2760   0.7630
     1.0042   1.7455   2.3310   2.5631   3.4875  10.9729  11.3891  11.7812
    12.6923

          k = 0.1000-0.6351 0.0000 ( 10210 PWs)   bands (ev):

   -10.2419  -9.6664  -8.8768  -8.0747  -7.1648  -6.4904  -6.0286  -5.5236
    -4.8179  -3.6831  -1.9179  -1.0331  -0.8000  -0.5145  -0.2049   0.1999
     0.6065   1.4470   1.7484   2.3284   2.7979  11.2561  12.0725  12.4957
    12.7719

          k = 0.2000 0.3464 0.0000 ( 10143 PWs)   bands (ev):

   -12.2619 -11.6072 -10.5963  -9.3040  -7.9119  -4.8550  -3.6978  -3.0132
    -2.4246  -2.3364  -1.7136  -1.3216  -0.7118  -0.4669   0.4011   0.4261
     0.8814   1.1990   1.3004   2.5230   3.6401  11.1011  11.3198  12.5946
    12.8108

          k = 0.2000-0.6928 0.0000 ( 10195 PWs)   bands (ev):

   -10.6591 -10.0363  -9.0928  -7.9325  -6.7355  -5.7014  -5.3759  -4.6633
    -3.8641  -3.0571  -2.2757  -1.9598  -1.3855  -1.0668  -1.0105  -0.1981
     0.1865   0.5426   1.1674   1.8218   2.6891  11.8217  12.2951  12.9517
    13.4658

          k = 0.2000-0.5774 0.0000 ( 10204 PWs)   bands (ev):

    -8.9815  -8.8235  -8.4025  -7.7653  -6.8278  -6.3840  -5.9154  -5.2811
    -4.7077  -4.3797  -2.4598  -2.1101  -1.9589  -1.0742  -0.5666  -0.3735
     0.0271   0.2988   0.9112   1.7686   2.0273  11.7705  12.7020  13.3685
    13.6956

          k = 0.3000-0.6351 0.0000 ( 10229 PWs)   bands (ev):

    -8.9711  -8.4582  -7.8135  -7.3277  -6.4372  -6.3681  -5.3574  -5.3320
    -4.8724  -4.3789  -3.0140  -2.7625  -2.4450  -1.7206  -1.7066  -0.5167
     0.2076   0.8292   0.8871   0.8949   1.6555  12.2828  12.6741  13.0696
    13.4089

     the Fermi energy is     7.1655 ev

!    total energy              =    -186.72078692 Ry
     estimated scf accuracy    <          4.7E-12 Ry
     smearing contrib. (-TS)   =      -0.00000000 Ry
     internal energy E=F+TS    =    -186.72078692 Ry

     The total energy is F=E-TS. E is the sum of the following terms:
     one-electron contribution =   -1198.78493594 Ry
     hartree contribution      =     620.42623740 Ry
     xc contribution           =     -48.24402289 Ry
     ewald contribution        =     501.51157182 Ry
     one-center paw contrib.   =     -61.62963730 Ry

     convergence has been achieved in  19 iterations

     Forces acting on atoms (cartesian axes, Ry/au):

     atom    1 type  1   force =    -0.00000000   -0.00000000   -0.05257828
     atom    2 type  1   force =    -0.00000000    0.00000000    0.03240942
     atom    3 type  1   force =     0.00000000    0.00000000    0.00015790
     atom    4 type  1   force =     0.00000000    0.00000000    0.00079766
     atom    5 type  1   force =     0.00000000    0.00000000   -0.00021670
     atom    6 type  1   force =     0.00000000    0.00000000    0.00021670
     atom    7 type  1   force =    -0.00000000   -0.00000000   -0.00079766
     atom    8 type  1   force =     0.00000000    0.00000000   -0.00015790
     atom    9 type  1   force =     0.00000000    0.00000000   -0.03240942
     atom   10 type  1   force =    -0.00000000   -0.00000000    0.05257828
     atom   11 type  2   force =    -0.00000000    0.00000000    0.01929606
     atom   12 type  2   force =    -0.00000000   -0.00000000   -0.01929606

     Total force =     0.091519     Total SCF correction =     0.000006


     Computing stress (Cartesian axis) and pressure

          total   stress  (Ry/bohr**3)                   (kbar)     P=        2.71
   0.00002216   0.00000000   0.00000000            3.26        0.00        0.00
   0.00000000   0.00002216   0.00000000            0.00        3.26        0.00
   0.00000000   0.00000000   0.00001085            0.00        0.00        1.60


     BFGS Geometry Optimization
     Energy error            =      0.0E+00 Ry
     Gradient error          =      5.3E-02 Ry/Bohr
     Cell gradient error     =      3.3E+00 kbar

     number of scf cycles    =   1
     number of bfgs steps    =   0

     enthalpy           new  =    -186.7207869201 Ry

     new trust radius        =       0.0525782753 bohr
     new conv_thr            =       0.0000000010 Ry

     new unit-cell volume =    707.45669 a.u.^3 (   104.83427 Ang^3 )
     density =      1.93443 g/cm^3

CELL_PARAMETERS (angstrom)
   2.527680257  -0.000000000   0.000000000
   1.263840129   2.189035312   0.000000000
   0.000000000   0.000000000  18.946472050

ATOMIC_POSITIONS (crystal)
C                0.3333333300        0.3333333300        0.7298798825
C                0.6666666700        0.6666666700        0.7050361389
C                0.6666666700        0.6666666700        0.6224829802
C               -0.0000000000        0.0000000000        0.5952833887
C                0.0000000000        0.0000000000        0.5136026776
C                0.3333333300        0.3333333300        0.4863973224
C                0.3333333300        0.3333333300        0.4047166113
C                0.6666666700        0.6666666700        0.3775170198
C                0.6666666700        0.6666666700        0.2949638611
C               -0.0000000000       -0.0000000000        0.2701201175
H                0.3333333300        0.3333333300        0.7894178413
H               -0.0000000000       -0.0000000000        0.2105821587



     Writing config-only to output data dir /tmp/qe/slab.save/ :
     XML data file
     NEW-OLD atomic charge density approx. for the potential

     total cpu time spent up to now is       17.9 secs

     Self-consistent Calculation

     iteration #  1     ecut=    90.00 Ry     beta= 0.30
     Davidson diagonalization with overlap
     ethr =  1.00E-06,  avg # of iterations = 10.4

     total cpu time spent up to now is       19.4 secs

     total energy              =    -186.72190319 Ry
     estimated scf accuracy    <       0.00123948 Ry

     iteration #  2     ecut=    90.00 Ry     beta= 0.30
     Davidson diagonalization with overlap
     ethr =  2.95E-06,  avg # of iterations =  2.1

     total cpu time spent up to now is       20.1 secs

     total energy              =    -186.72185260 Ry
     estimated scf accuracy    <       0.00035675 Ry

     iteration #  3     ecut=    90.00 Ry     beta= 0.30
     Davidson diagonalization with overlap
     ethr =  8.49E-07,  avg # of iterations =  4.1

     total cpu time spent up to now is       20.9 secs

     total energy              =    -186.72188380 Ry
     estimated scf accuracy    <       0.00004321 Ry

     iteration #  4     ecut=    90.00 Ry     beta= 0.30
     Davidson diagonalization with overlap
     ethr =  1.03E-07,  avg # of iterations =  1.4

     total cpu time spent up to now is       21.5 secs

     total energy              =    -186.72188588 Ry
     estimated scf accuracy    <       0.00000726 Ry

     iteration #  5     ecut=    90.00 Ry     beta= 0.30
     Davidson diagonalization with overlap
     ethr =  1.73E-08,  avg # of iterations =  2.2

     total cpu time spent up to now is       22.3 secs

     total energy              =    -186.72188727 Ry
     estimated scf accuracy    <       0.00000065 Ry

     iteration #  6     ecut=    90.00 Ry     beta= 0.30
     Davidson diagonalization with overlap
     ethr =  1.55E-09,  avg # of iterations =  2.5

     total cpu time spent up to now is       23.0 secs

     total energy              =    -186.72188733 Ry
     estimated scf accuracy    <       0.00000030 Ry

     iteration #  7     ecut=    90.00 Ry     beta= 0.30
     Davidson diagonalization with overlap
     ethr =  7.18E-10,  avg # of iterations =  2.6

     total cpu time spent up to now is       23.8 secs

     total energy              =    -186.72188735 Ry
     estimated scf accuracy    <       0.00000016 Ry

     iteration #  8     ecut=    90.00 Ry     beta= 0.30
     Davidson diagonalization with overlap
     ethr =  3.71E-10,  avg # of iterations =  2.1

     total cpu time spent up to now is       24.6 secs

     total energy              =    -186.72188738 Ry
     estimated scf accuracy    <       0.00000001 Ry

     iteration #  9     ecut=    90.00 Ry     beta= 0.30
     Davidson diagonalization with overlap
     ethr =  2.78E-11,  avg # of iterations =  3.6

     total cpu time spent up to now is       25.5 secs

     total energy              =    -186.72188738 Ry
     estimated scf accuracy    <       0.00000001 Ry

     iteration # 10     ecut=    90.00 Ry     beta= 0.30
     Davidson diagonalization with overlap
     ethr =  2.78E-11,  avg # of iterations =  2.1

     total cpu time spent up to now is       26.2 secs

     End of self-consistent calculation

          k = 0.0000 0.0000 0.0000 ( 10111 PWs)   bands (ev):

   -15.2182 -14.5838 -13.5629 -12.1634 -10.5796  -6.7032  -4.8516  -2.4237
     0.2882   2.8849   3.2992   3.2992   3.6653   3.6653   4.2295   4.2295
     4.9266   4.9682   4.9682   5.6631   5.6631   8.3735   8.8125  10.9859
    11.9517

          k = 0.0000 0.1154 0.0000 ( 10205 PWs)   bands (ev):

   -14.9739 -14.3413 -13.3239 -11.9300 -10.3550  -6.4823  -4.6488  -2.2558
     0.3947   2.1097   2.5045   2.7656   2.8533   3.1743   3.2098   3.7986
     3.9096   4.5848   4.5932   4.8931   5.3197   8.5782   9.0373  11.0579
    11.9033

          k = 0.0000 0.2308 0.0000 ( 10169 PWs)   bands (ev):

   -14.2449 -13.6180 -12.6117 -11.2356  -9.6874  -5.8532  -4.0828  -1.8333
    -0.4676  -0.0705   0.6810   0.7746   1.6357   1.7098   2.1621   2.4707
     2.8546   2.9332   3.7214   4.3988   4.4966   9.2390   9.6265  11.1509
    11.6237

          k = 0.0000 0.3462 0.0000 ( 10168 PWs)   bands (ev):

   -13.0454 -12.4297 -11.4458 -10.1054  -8.6083  -5.0833  -3.7531  -3.1127
    -2.6961  -1.8170  -1.4864  -0.5791   0.0372   0.7322   1.0205   1.2049
     1.9313   2.5674   2.8363   3.6402   3.6827  10.2390  10.3976  11.0127
    11.6906

          k = 0.0000 0.4616 0.0000 ( 10188 PWs)   bands (ev):

   -11.4163 -10.8274  -9.9039  -8.6869  -7.4041  -5.9938  -5.8904  -5.1615
    -3.9923  -2.8505  -2.5115  -1.4106  -0.1954   0.0841   0.5278   0.5653
     1.3066   1.9937   2.2289   3.0461   3.0591  10.4707  11.2102  11.6994
    11.9393

          k =-0.0000-0.5770 0.0000 ( 10180 PWs)   bands (ev):

    -9.6922  -9.5439  -9.1458  -8.4934  -7.5600  -7.0481  -6.2573  -6.0573
    -4.8992  -4.8193  -1.3273  -1.2412  -0.5871  -0.1402   0.1696   0.3434
     1.0889   1.7335   2.0162   2.8196   2.8373  10.8209  11.0948  11.3921
    12.0941

          k = 0.0999 0.1731 0.0000 ( 10203 PWs)   bands (ev):

   -14.4872 -13.8584 -12.8482 -11.4659  -9.9087  -6.0555  -4.2618  -1.9514
     0.4616   0.6909   0.9717   1.2168   1.8128   2.2326   2.3378   2.9357
     3.0209   3.3288   3.8849   4.0688   4.8994   9.0340   9.4623  11.4869
    12.0112

          k = 0.0999 0.2885 0.0000 ( 10164 PWs)   bands (ev):

   -13.5225 -12.9019 -11.9081 -10.5517  -9.0318  -5.3052  -3.6354  -2.0115
    -1.4558  -1.3094  -0.7023  -0.1604   0.4187   0.8813   1.0845   1.4001
     1.8548   2.2790   2.8583   3.2167   4.3083   9.9631  10.2296  11.6724
    12.2997

          k = 0.0999 0.4039 0.0000 ( 10174 PWs)   bands (ev):

   -12.1042 -11.5001 -10.5402  -9.2409  -7.8004  -5.1715  -4.7157  -3.9405
    -3.0471  -2.6675  -1.8033  -1.4936  -0.4288  -0.1836   0.1211   0.5591
     1.0506   1.5300   2.4028   2.4382   3.4768  10.9158  11.3026  11.7289
    12.5583

          k = 0.0999-0.6347 0.0000 ( 10210 PWs)   bands (ev):

   -10.3176  -9.7824  -9.0249  -8.2109  -7.2780  -6.6044  -6.1747  -5.6273
    -4.9926  -3.7697  -1.9164  -0.9938  -0.8935  -0.6112  -0.2305   0.0942
     0.4854   1.3221   1.6980   2.2770   2.7874  11.2133  12.0281  12.3778
    12.6429

          k = 0.1999 0.3462 0.0000 ( 10143 PWs)   bands (ev):

   -12.3370 -11.7291 -10.7606  -9.4449  -7.9785  -4.8509  -3.7459  -3.0967
    -2.4732  -2.4626  -1.8865  -1.4662  -0.7417  -0.6353   0.1770   0.2542
     0.8380   1.0903   1.2962   2.6101   3.6323  11.0556  11.2308  12.5370
    12.8019

          k = 0.1999-0.6924 0.0000 ( 10195 PWs)   bands (ev):

   -10.7353 -10.1575  -9.2565  -8.0747  -6.8085  -5.7669  -5.4863  -4.8398
    -4.0137  -3.1650  -2.3238  -2.0811  -1.4487  -1.2048  -1.1700  -0.2955
     0.0980   0.5311   1.1748   1.9156   2.6834  11.7818  12.2702  12.8134
    13.5292

          k = 0.1999-0.5770 0.0000 ( 10204 PWs)   bands (ev):

    -9.0495  -8.9117  -8.5339  -7.9158  -6.9846  -6.5431  -5.9929  -5.4847
    -4.7613  -4.5251  -2.5362  -2.2419  -2.1322  -1.2442  -0.5638  -0.3414
    -0.0132   0.1784   0.9792   1.8334   1.9988  11.7517  12.8003  13.2991
    13.6014

          k = 0.2998-0.6347 0.0000 ( 10229 PWs)   bands (ev):

    -9.0468  -8.5694  -7.9467  -7.4267  -6.5877  -6.5206  -5.4510  -5.4371
    -5.0555  -4.5282  -3.0582  -2.9604  -2.6701  -1.8466  -1.8181  -0.5343
     0.3068   0.8178   0.8524   1.0234   1.6591  12.3177  12.7065  13.1143
    13.3117

     the Fermi energy is     7.0768 ev

!    total energy              =    -186.72188737 Ry
     estimated scf accuracy    <          9.1E-10 Ry
     smearing contrib. (-TS)   =       0.00000000 Ry
     internal energy E=F+TS    =    -186.72188737 Ry

     The total energy is F=E-TS. E is the sum of the following terms:
     one-electron contribution =   -1199.82138645 Ry
     hartree contribution      =     620.78793438 Ry
     xc contribution           =     -48.21794169 Ry
     ewald contribution        =     502.15880891 Ry
     one-center paw contrib.   =     -61.62930253 Ry

     convergence has been achieved in  10 iterations

     Forces acting on atoms (cartesian axes, Ry/au):

     atom    1 type  1   force =     0.00000000    0.00000000    0.03570378
     atom    2 type  1   force =    -0.00000000   -0.00000000   -0.02239174
     atom    3 type  1   force =     0.00000000    0.00000000    0.00171630
     atom    4 type  1   force =    -0.00000000    0.00000000    0.00281497
     atom    5 type  1   force =     0.00000000    0.00000000   -0.00032243
     atom    6 type  1   force =     0.00000000    0.00000000    0.00032243
     atom    7 type  1   force =    -0.00000000    0.00000000   -0.00281497
     atom    8 type  1   force =    -0.00000000   -0.00000000   -0.00171630
     atom    9 type  1   force =     0.00000000   -0.00000000    0.02239174
     atom   10 type  1   force =    -0.00000000   -0.00000000   -0.03570378
     atom   11 type  2   force =    -0.00000000    0.00000000   -0.01784767
     atom   12 type  2   force =     0.00000000    0.00000000    0.01784767

     Total force =     0.064895     Total SCF correction =     0.000052


     Computing stress (Cartesian axis) and pressure

          total   stress  (Ry/bohr**3)                   (kbar)     P=       -3.71
   0.00001729   0.00000000   0.00000000            2.54        0.00        0.00
   0.00000000   0.00001729   0.00000000            0.00        2.54        0.00
   0.00000000   0.00000000  -0.00011015            0.00        0.00      -16.20

     Energy error            =      1.1E-03 Ry
     Gradient error          =      3.6E-02 Ry/Bohr
     Cell gradient error     =      2.5E+00 kbar

     number of scf cycles    =   2
     number of bfgs steps    =   1

     enthalpy           old  =    -186.7207869201 Ry
     enthalpy           new  =    -186.7218873740 Ry

     CASE: enthalpy          _new < enthalpy          _old

     new trust radius        =       0.0207665948 bohr
     new conv_thr            =       0.0000000010 Ry

     new unit-cell volume =    707.81993 a.u.^3 (   104.88809 Ang^3 )
     density =      1.93344 g/cm^3

CELL_PARAMETERS (angstrom)
   2.528329089   0.000000000   0.000000000
   1.264164544   2.189597216   0.000000000
   0.000000000   0.000000000  18.946472050

ATOMIC_POSITIONS (crystal)
C                0.3333333300        0.3333333300        0.7304598960
C                0.6666666700        0.6666666700        0.7046723111
C                0.6666666700        0.6666666700        0.6225111963
C               -0.0000000000        0.0000000000        0.5953297341
C                0.0000000000        0.0000000000        0.5135973535
C                0.3333333300        0.3333333300        0.4864026465
C                0.3333333300        0.3333333300        0.4046702659
C                0.6666666700        0.6666666700        0.3774888037
C                0.6666666700        0.6666666700        0.2953276889
C               -0.0000000000       -0.0000000000        0.2695401040
H                0.3333333300        0.3333333300        0.7891270327
H               -0.0000000000       -0.0000000000        0.2108729673



     Writing config-only to output data dir /tmp/qe/slab.save/ :
     XML data file
     NEW-OLD atomic charge density approx. for the potential

     total cpu time spent up to now is       27.9 secs

     Self-consistent Calculation

     iteration #  1     ecut=    90.00 Ry     beta= 0.30
     Davidson diagonalization with overlap
     ethr =  1.00E-06,  avg # of iterations =  6.9

     total cpu time spent up to now is       29.0 secs

     total energy              =    -186.72318574 Ry
     estimated scf accuracy    <       0.00022796 Ry

     iteration #  2     ecut=    90.00 Ry     beta= 0.30
     Davidson diagonalization with overlap
     ethr =  5.43E-07,  avg # of iterations =  1.7

     total cpu time spent up to now is       29.7 secs

     total energy              =    -186.72317482 Ry
     estimated scf accuracy    <       0.00006840 Ry

     iteration #  3     ecut=    90.00 Ry     beta= 0.30
     Davidson diagonalization with overlap
     ethr =  1.63E-07,  avg # of iterations =  2.3

     total cpu time spent up to now is       30.4 secs

     total energy              =    -186.72318196 Ry
     estimated scf accuracy    <       0.00000852 Ry

     iteration #  4     ecut=    90.00 Ry     beta= 0.30
     Davidson diagonalization with overlap
     ethr =  2.03E-08,  avg # of iterations =  2.1

     total cpu time spent up to now is       31.1 secs

     total energy              =    -186.72318247 Ry
     estimated scf accuracy    <       0.00000226 Ry

     iteration #  5     ecut=    90.00 Ry     beta= 0.30
     Davidson diagonalization with overlap
     ethr =  5.39E-09,  avg # of iterations =  2.1

     total cpu time spent up to now is       31.8 secs

     total energy              =    -186.72318277 Ry
     estimated scf accuracy    <       0.00000026 Ry

     iteration #  6     ecut=    90.00 Ry     beta= 0.30
     Davidson diagonalization with overlap
     ethr =  6.10E-10,  avg # of iterations =  2.6

     total cpu time spent up to now is       32.6 secs

     total energy              =    -186.72318281 Ry
     estimated scf accuracy    <       0.00000006 Ry

     iteration #  7     ecut=    90.00 Ry     beta= 0.30
     Davidson diagonalization with overlap
     ethr =  1.54E-10,  avg # of iterations =  3.6

     total cpu time spent up to now is       33.5 secs

     total energy              =    -186.72318282 Ry
     estimated scf accuracy    <       0.00000010 Ry

     iteration #  8     ecut=    90.00 Ry     beta= 0.30
     Davidson diagonalization with overlap
     ethr =  1.54E-10,  avg # of iterations =  2.2

     total cpu time spent up to now is       34.2 secs

     total energy              =    -186.72318283 Ry
     estimated scf accuracy    <       0.00000001 Ry

     iteration #  9     ecut=    90.00 Ry     beta= 0.30
     Davidson diagonalization with overlap
     ethr =  3.03E-11,  avg # of iterations =  3.4

     total cpu time spent up to now is       34.9 secs

     End of self-consistent calculation

          k = 0.0000 0.0000 0.0000 ( 10111 PWs)   bands (ev):

   -15.1821 -14.5346 -13.4973 -12.1065 -10.5523  -6.7091  -4.8721  -2.4372
     0.2414   2.8237   3.3330   3.3330   3.7329   3.7329   4.3342   4.3342
     4.9274   5.0653   5.0653   5.7113   5.7113   8.3309   8.8069  11.0090
    11.9596

          k =-0.0000 0.1154 0.0000 ( 10205 PWs)   bands (ev):

   -14.9379 -14.2922 -13.2583 -11.8730 -10.3277  -6.4890  -4.6711  -2.2708
     0.3469   2.1441   2.5587   2.8008   2.8219   3.2442   3.2895   3.9043
     3.9963   4.6191   4.6892   4.9068   5.3669   8.5432   9.0331  11.0850
    11.9072

          k =-0.0000 0.2308 0.0000 ( 10169 PWs)   bands (ev):

   -14.2093 -13.5691 -12.5459 -11.1783  -9.6603  -5.8628  -4.1107  -1.8516
    -0.4377  -0.0191   0.7156   0.7978   1.7157   1.7467   2.2348   2.5126
     2.8724   2.9619   3.8169   4.3895   4.5433   9.2244   9.6348  11.1719
    11.6343

          k =-0.0000 0.3461 0.0000 ( 10168 PWs)   bands (ev):

   -13.0105 -12.3813 -11.3798 -10.0479  -8.5818  -5.0935  -3.7489  -3.1064
    -2.6423  -1.7324  -1.4856  -0.5250   0.0624   0.7705   0.9853   1.2796
     2.0401   2.4995   2.9322   3.6660   3.6871  10.2531  10.4283  11.0157
    11.7218

          k =-0.0000 0.4615 0.0000 ( 10188 PWs)   bands (ev):

   -11.3827 -10.7808  -9.8396  -8.6308  -7.3779  -5.9563  -5.8571  -5.0920
    -3.9369  -2.8466  -2.4779  -1.4267  -0.1977   0.1231   0.4813   0.6413
     1.4163   1.9267   2.3252   3.0427   3.0933  10.4939  11.2488  11.7132
    11.9705

          k = 0.0000-0.5769 0.0000 ( 10180 PWs)   bands (ev):

    -9.6638  -9.5108  -9.0957  -8.4336  -7.5044  -6.9886  -6.2197  -5.9775
    -4.8779  -4.7691  -1.3415  -1.2629  -0.5912  -0.1009   0.1148   0.4198
     1.1990   1.6724   2.1127   2.8059   2.8847  10.8520  11.1173  11.4382
    12.1698

          k = 0.0999 0.1731 0.0000 ( 10203 PWs)   bands (ev):

   -14.4515 -13.8094 -12.7825 -11.4088  -9.8815  -6.0641  -4.2879  -1.9692
     0.4267   0.7216   1.0146   1.2905   1.8871   2.2956   2.4010   2.9775
     3.0185   3.4291   3.9079   4.1355   4.9123   9.0110   9.4645  11.5158
    12.0224

          k = 0.0999 0.2884 0.0000 ( 10164 PWs)   bands (ev):

   -13.4873 -12.8533 -11.8421 -10.4942  -9.0050  -5.3173  -3.6659  -1.9971
    -1.4042  -1.3012  -0.6278  -0.0957   0.4624   0.9320   1.0621   1.4947
     1.8951   2.3639   2.8204   3.2569   4.3097   9.9595  10.2490  11.6834
    12.3172

          k = 0.0999 0.4038 0.0000 ( 10174 PWs)   bands (ev):

   -12.0700 -11.4525 -10.4746  -9.1835  -7.7748  -5.1612  -4.6808  -3.8852
    -3.0537  -2.5859  -1.8173  -1.4376  -0.4127  -0.1628   0.1814   0.6390
     1.0279   1.6035   2.3824   2.4609   3.4746  10.9329  11.3338  11.7419
    12.5991

          k = 0.0999-0.6346 0.0000 ( 10210 PWs)   bands (ev):

   -10.2853  -9.7391  -8.9681  -8.1585  -7.2367  -6.5569  -6.1166  -5.5891
    -4.9252  -3.7392  -1.9184  -1.0119  -0.8610  -0.5731  -0.2174   0.1286
     0.5286   1.3622   1.7085   2.2854   2.7859  11.2278  12.0436  12.4121
    12.6862

          k = 0.1998 0.3461 0.0000 ( 10143 PWs)   bands (ev):

   -12.3026 -11.6812 -10.6948  -9.3873  -7.9525  -4.8562  -3.7338  -3.0641
    -2.4482  -2.4228  -1.8267  -1.4118  -0.7348  -0.5683   0.2622   0.3231
     0.8499   1.1284   1.2877   2.5642   3.6295  11.0680  11.2628  12.5559
    12.7959

          k = 0.1998-0.6923 0.0000 ( 10195 PWs)   bands (ev):

   -10.7022 -10.1116  -9.1928  -8.0188  -6.7829  -5.7442  -5.4441  -4.7732
    -3.9576  -3.1259  -2.3056  -2.0315  -1.4217  -1.1472  -1.1203  -0.2625
     0.1267   0.5328   1.1651   1.8682   2.6799  11.7963  12.2781  12.8686
    13.4982

          k = 0.1998-0.5769 0.0000 ( 10204 PWs)   bands (ev):

    -9.0212  -8.8793  -8.4862  -7.8590  -6.9266  -6.4801  -5.9636  -5.4044
    -4.7445  -4.4698  -2.5028  -2.1881  -2.0671  -1.1787  -0.5743  -0.3559
     0.0071   0.2099   0.9443   1.7996   2.0065  11.7595  12.7618  13.3320
    13.6358

          k = 0.2998-0.6346 0.0000 ( 10229 PWs)   bands (ev):

    -9.0160  -8.5295  -7.8975  -7.3882  -6.5343  -6.4672  -5.4069  -5.4028
    -4.9847  -4.4724  -3.0387  -2.8791  -2.5783  -1.8030  -1.7792  -0.5309
     0.2585   0.8212   0.8661   0.9596   1.6514  12.3049  12.7002  13.0846
    13.3498

     the Fermi energy is     7.1116 ev

!    total energy              =    -186.72318283 Ry
     estimated scf accuracy    <          1.8E-10 Ry
     smearing contrib. (-TS)   =       0.00000000 Ry
     internal energy E=F+TS    =    -186.72318283 Ry

     The total energy is F=E-TS. E is the sum of the following terms:
     one-electron contribution =   -1198.24977813 Ry
     hartree contribution      =     620.05507848 Ry
     xc contribution           =     -48.22221664 Ry
     ewald contribution        =     501.32294822 Ry
     one-center paw contrib.   =     -61.62921475 Ry

     convergence has been achieved in   9 iterations

     Forces acting on atoms (cartesian axes, Ry/au):

     atom    1 type  1   force =    -0.00000000    0.00000000    0.00076543
     atom    2 type  1   force =    -0.00000000   -0.00000000   -0.00060920
     atom    3 type  1   force =     0.00000000    0.00000000    0.00114456
     atom    4 type  1   force =    -0.00000000   -0.00000000    0.00063543
     atom    5 type  1   force =    -0.00000000    0.00000000    0.00046221
     atom    6 type  1   force =     0.00000000    0.00000000   -0.00046221
     atom    7 type  1   force =     0.00000000   -0.00000000   -0.00063543
     atom    8 type  1   force =    -0.00000000    0.00000000   -0.00114456
     atom    9 type  1   force =     0.00000000    0.00000000    0.00060920
     atom   10 type  1   force =    -0.00000000    0.00000000   -0.00076543
     atom   11 type  2   force =     0.00000000   -0.00000000   -0.00284757
     atom   12 type  2   force =     0.00000000   -0.00000000    0.00284757

     Total force =     0.004689     Total SCF correction =     0.000030


     Computing stress (Cartesian axis) and pressure

          total   stress  (Ry/bohr**3)                   (kbar)     P=       -3.22
  -0.00000343   0.00000000   0.00000000           -0.50        0.00        0.00
   0.00000000  -0.00000343   0.00000000            0.00       -0.50        0.00
   0.00000000   0.00000000  -0.00005871            0.00        0.00       -8.64

     Energy error            =      1.3E-03 Ry
     Gradient error          =      2.8E-03 Ry/Bohr
     Cell gradient error     =      5.0E-01 kbar

     number of scf cycles    =   3
     number of bfgs steps    =   2

     enthalpy           old  =    -186.7218873740 Ry
     enthalpy           new  =    -186.7231828269 Ry

     CASE: enthalpy          _new < enthalpy          _old

     new trust radius        =       0.0027077684 bohr
     new conv_thr            =       0.0000000003 Ry

     new unit-cell volume =    707.68617 a.u.^3 (   104.86827 Ang^3 )
     density =      1.93381 g/cm^3

CELL_PARAMETERS (angstrom)
   2.528090175   0.000000000   0.000000000
   1.264045087   2.189390311   0.000000000
   0.000000000   0.000000000  18.946472050

ATOMIC_POSITIONS (crystal)
C                0.3333333300        0.3333333300        0.7304662861
C                0.6666666700        0.6666666700        0.7046644978
C                0.6666666700        0.6666666700        0.6225440324
C               -0.0000000000        0.0000000000        0.5953473092
C               -0.0000000000        0.0000000000        0.5136109765
C                0.3333333300        0.3333333300        0.4863890235
C                0.3333333300        0.3333333300        0.4046526908
C                0.6666666700        0.6666666700        0.3774559676
C                0.6666666700        0.6666666700        0.2953355022
C               -0.0000000000        0.0000000000        0.2695337139
H                0.3333333300        0.3333333300        0.7890514044
H                0.0000000000       -0.0000000000        0.2109485956



     Writing config-only to output data dir /tmp/qe/slab.save/ :
     XML data file
     NEW-OLD atomic charge density approx. for the potential

     total cpu time spent up to now is       36.6 secs

     Self-consistent Calculation

     iteration #  1     ecut=    90.00 Ry     beta= 0.30
     Davidson diagonalization with overlap
     ethr =  1.00E-06,  avg # of iterations =  2.0

     Threshold (ethr) on eigenvalues was too large:
     Diagonalizing with lowered threshold

     Davidson diagonalization with overlap
     ethr =  6.75E-09,  avg # of iterations =  2.9

     total cpu time spent up to now is       38.0 secs

     total energy              =    -186.72319673 Ry
     estimated scf accuracy    <       0.00000323 Ry

     iteration #  2     ecut=    90.00 Ry     beta= 0.30
     Davidson diagonalization with overlap
     ethr =  7.68E-09,  avg # of iterations =  1.7

     total cpu time spent up to now is       38.7 secs

     total energy              =    -186.72319670 Ry
     estimated scf accuracy    <       0.00000077 Ry

     iteration #  3     ecut=    90.00 Ry     beta= 0.30
     Davidson diagonalization with overlap
     ethr =  1.83E-09,  avg # of iterations =  2.0

     total cpu time spent up to now is       39.4 secs

     total energy              =    -186.72319677 Ry
     estimated scf accuracy    <       0.00000015 Ry

     iteration #  4     ecut=    90.00 Ry     beta= 0.30
     Davidson diagonalization with overlap
     ethr =  3.62E-10,  avg # of iterations =  1.8

     total cpu time spent up to now is       40.1 secs

     total energy              =    -186.72319676 Ry
     estimated scf accuracy    <       0.00000004 Ry

     iteration #  5     ecut=    90.00 Ry     beta= 0.30
     Davidson diagonalization with overlap
     ethr =  1.04E-10,  avg # of iterations =  2.0

     total cpu time spent up to now is       40.8 secs

     total energy              =    -186.72319677 Ry
     estimated scf accuracy    <          4.3E-09 Ry

     iteration #  6     ecut=    90.00 Ry     beta= 0.30
     Davidson diagonalization with overlap
     ethr =  1.03E-11,  avg # of iterations =  2.4

     total cpu time spent up to now is       41.6 secs

     total energy              =    -186.72319677 Ry
     estimated scf accuracy    <          8.9E-10 Ry

     iteration #  7     ecut=    90.00 Ry     beta= 0.30
     Davidson diagonalization with overlap
     ethr =  2.12E-12,  avg # of iterations =  2.9

     total cpu time spent up to now is       42.4 secs

     total energy              =    -186.72319677 Ry
     estimated scf accuracy    <          3.3E-10 Ry

     iteration #  8     ecut=    90.00 Ry     beta= 0.30
     Davidson diagonalization with overlap
     ethr =  7.87E-13,  avg # of iterations =  2.4

     total cpu time spent up to now is       43.1 secs

     End of self-consistent calculation

          k = 0.0000 0.0000 0.0000 ( 10111 PWs)   bands (ev):

   -15.1783 -14.5344 -13.4961 -12.1044 -10.5509  -6.7103  -4.8760  -2.4378
     0.2413   2.8238   3.3404   3.3404   3.7375   3.7375   4.3403   4.3403
     4.9289   5.0722   5.0722   5.7191   5.7191   8.3305   8.8089  11.0126
    11.9644

          k =-0.0000 0.1154 0.0000 ( 10205 PWs)   bands (ev):

   -14.9341 -14.2919 -13.2570 -11.8708 -10.3262  -6.4902  -4.6750  -2.2714
     0.3468   2.1513   2.5623   2.8080   2.8229   3.2486   3.2948   3.9103
     4.0027   4.6241   4.6961   4.9107   5.3745   8.5433   9.0353  11.0893
    11.9113

          k =-0.0000 0.2308 0.0000 ( 10169 PWs)   bands (ev):

   -14.2053 -13.5686 -12.5445 -11.1759  -9.6587  -5.8639  -4.1147  -1.8522
    -0.4316  -0.0158   0.7160   0.8025   1.7214   1.7538   2.2389   2.5186
     2.8722   2.9678   3.8235   4.3909   4.5505   9.2261   9.6379  11.1775
    11.6376

          k =-0.0000 0.3462 0.0000 ( 10168 PWs)   bands (ev):

   -13.0062 -12.3806 -11.3781 -10.0453  -8.5799  -5.0938  -3.7491  -3.1042
    -2.6394  -1.7289  -1.4848  -0.5215   0.0667   0.7773   0.9852   1.2835
     2.0457   2.4983   2.9387   3.6671   3.6941  10.2571  10.4335  11.0204
    11.7274

          k =-0.0000 0.4615 0.0000 ( 10188 PWs)   bands (ev):

   -11.3782 -10.7797  -9.8375  -8.6278  -7.3756  -5.9512  -5.8555  -5.0898
    -3.9340  -2.8457  -2.4749  -1.4289  -0.1971   0.1299   0.4798   0.6450
     1.4218   1.9249   2.3315   3.0434   3.1001  10.5001  11.2547  11.7200
    11.9760

          k = 0.0000-0.5769 0.0000 ( 10180 PWs)   bands (ev):

    -9.6579  -9.5080  -9.0942  -8.4316  -7.5031  -6.9846  -6.2173  -5.9741
    -4.8757  -4.7650  -1.3426  -1.2642  -0.5911  -0.0942   0.1120   0.4235
     1.2044   1.6706   2.1189   2.8066   2.8914  10.8608  11.1212  11.4444
    12.1760

          k = 0.0999 0.1731 0.0000 ( 10203 PWs)   bands (ev):

   -14.4475 -13.8090 -12.7811 -11.4065  -9.8799  -6.0653  -4.2918  -1.9699
     0.4274   0.7286   1.0185   1.2950   1.8917   2.3027   2.4043   2.9797
     3.0239   3.4345   3.9131   4.1421   4.9161   9.0121   9.4671  11.5202
    12.0275

          k = 0.0999 0.2885 0.0000 ( 10164 PWs)   bands (ev):

   -13.4831 -12.8527 -11.8406 -10.4917  -9.0032  -5.3182  -3.6697  -1.9929
    -1.4017  -1.2988  -0.6234  -0.0910   0.4661   0.9388   1.0626   1.4987
     1.8998   2.3692   2.8215   3.2623   4.3124   9.9621  10.2530  11.6883
    12.3210

          k = 0.0999 0.4039 0.0000 ( 10174 PWs)   bands (ev):

   -12.0656 -11.4516 -10.4727  -9.1807  -7.7726  -5.1586  -4.6780  -3.8835
    -3.0532  -2.5821  -1.8171  -1.4340  -0.4094  -0.1597   0.1852   0.6427
     1.0281   1.6083   2.3823   2.4665   3.4768  10.9376  11.3394  11.7467
    12.6055

          k = 0.0999-0.6346 0.0000 ( 10210 PWs)   bands (ev):

   -10.2805  -9.7377  -8.9656  -8.1551  -7.2350  -6.5530  -6.1142  -5.5862
    -4.9219  -3.7359  -1.9183  -1.0130  -0.8568  -0.5703  -0.2164   0.1295
     0.5314   1.3654   1.7105   2.2896   2.7875  11.2322  12.0504  12.4191
    12.6928

          k = 0.1999 0.3462 0.0000 ( 10143 PWs)   bands (ev):

   -12.2982 -11.6803 -10.6930  -9.3846  -7.9505  -4.8554  -3.7338  -3.0593
    -2.4455  -2.4201  -1.8248  -1.4074  -0.7344  -0.5634   0.2656   0.3275
     0.8530   1.1330   1.2896   2.5639   3.6317  11.0719  11.2682  12.5605
    12.7988

          k = 0.1999-0.6923 0.0000 ( 10195 PWs)   bands (ev):

   -10.6975 -10.1104  -9.1906  -8.0156  -6.7807  -5.7412  -5.4404  -4.7705
    -3.9541  -3.1220  -2.3031  -2.0282  -1.4209  -1.1442  -1.1183  -0.2603
     0.1294   0.5343   1.1665   1.8671   2.6816  11.8004  12.2826  12.8757
    13.4999

          k = 0.1999-0.5769 0.0000 ( 10204 PWs)   bands (ev):

    -9.0152  -8.8764  -8.4846  -7.8566  -6.9256  -6.4771  -5.9601  -5.4006
    -4.7420  -4.4650  -2.4977  -2.1851  -2.0650  -1.1765  -0.5750  -0.3555
     0.0092   0.2122   0.9435   1.7998   2.0082  11.7632  12.7652  13.3373
    13.6416

          k = 0.2998-0.6346 0.0000 ( 10229 PWs)   bands (ev):

    -9.0108  -8.5279  -7.8947  -7.3826  -6.5338  -6.4672  -5.4029  -5.3976
    -4.9802  -4.4686  -3.0349  -2.8760  -2.5753  -1.7988  -1.7773  -0.5304
     0.2553   0.8225   0.8681   0.9568   1.6525  12.3076  12.7031  13.0882
    13.3548

     the Fermi energy is     7.1169 ev

!    total energy              =    -186.72319677 Ry
     estimated scf accuracy    <          2.3E-11 Ry
     smearing contrib. (-TS)   =       0.00000000 Ry
     internal energy E=F+TS    =    -186.72319677 Ry

     The total energy is F=E-TS. E is the sum of the following terms:
     one-electron contribution =   -1198.46716665 Ry
     hartree contribution      =     620.17014221 Ry
     xc contribution           =     -48.22583977 Ry
     ewald contribution        =     501.42895233 Ry
     one-center paw contrib.   =     -61.62928488 Ry

     convergence has been achieved in   8 iterations

     Forces acting on atoms (cartesian axes, Ry/au):

     atom    1 type  1   force =    -0.00000000   -0.00000000   -0.00089036
     atom    2 type  1   force =     0.00000000    0.00000000   -0.00011930
     atom    3 type  1   force =    -0.00000000    0.00000000    0.00036076
     atom    4 type  1   force =     0.00000000   -0.00000000    0.00062618
     atom    5 type  1   force =    -0.00000000   -0.00000000   -0.00003873
     atom    6 type  1   force =    -0.00000000    0.00000000    0.00003873
     atom    7 type  1   force =     0.00000000   -0.00000000   -0.00062618
     atom    8 type  1   force =     0.00000000    0.00000000   -0.00036076
     atom    9 type  1   force =     0.00000000   -0.00000000    0.00011930
     atom   10 type  1   force =     0.00000000   -0.00000000    0.00089036
     atom   11 type  2   force =    -0.00000000    0.00000000   -0.00114951
     atom   12 type  2   force =     0.00000000   -0.00000000    0.00114951

     Total force =     0.002303     Total SCF correction =     0.000019


     Computing stress (Cartesian axis) and pressure

          total   stress  (Ry/bohr**3)                   (kbar)     P=       -2.25
   0.00000097  -0.00000000   0.00000000            0.14       -0.00        0.00
  -0.00000000   0.00000097  -0.00000000           -0.00        0.14       -0.00
   0.00000000   0.00000000  -0.00004788            0.00        0.00       -7.04

     Energy error            =      1.4E-05 Ry
     Gradient error          =      1.1E-03 Ry/Bohr
     Cell gradient error     =      1.4E-01 kbar

     number of scf cycles    =   4
     number of bfgs steps    =   3

     enthalpy           old  =    -186.7231828269 Ry
     enthalpy           new  =    -186.7231967674 Ry

     CASE: enthalpy          _new < enthalpy          _old

     new trust radius        =       0.0027360466 bohr
     new conv_thr            =            1.4E-11 Ry

     new unit-cell volume =    707.70395 a.u.^3 (   104.87091 Ang^3 )
     density =      1.93376 g/cm^3

CELL_PARAMETERS (angstrom)
   2.528121931   0.000000000   0.000000000
   1.264060965   2.189417813   0.000000000
   0.000000000   0.000000000  18.946472050

ATOMIC_POSITIONS (crystal)
C                0.3333333300        0.3333333300        0.7304340592
C                0.6666666700        0.6666666700        0.7046539780
C                0.6666666700        0.6666666700        0.6225704022
C                0.0000000000       -0.0000000000        0.5953807242
C               -0.0000000000        0.0000000000        0.5136134774
C                0.3333333300        0.3333333300        0.4863865226
C                0.3333333300        0.3333333300        0.4046192758
C                0.6666666700        0.6666666700        0.3774295978
C                0.6666666700        0.6666666700        0.2953460220
C               -0.0000000000        0.0000000000        0.2695659408
H                0.3333333300        0.3333333300        0.7889749863
H                0.0000000000       -0.0000000000        0.2110250137



     Writing config-only to output data dir /tmp/qe/slab.save/ :
     XML data file
     NEW-OLD atomic charge density approx. for the potential

     total cpu time spent up to now is       44.8 secs

     Self-consistent Calculation

     iteration #  1     ecut=    90.00 Ry     beta= 0.30
     Davidson diagonalization with overlap
     ethr =  1.00E-06,  avg # of iterations =  2.0

     Threshold (ethr) on eigenvalues was too large:
     Diagonalizing with lowered threshold

     Davidson diagonalization with overlap
     ethr =  4.37E-09,  avg # of iterations =  3.6

     total cpu time spent up to now is       46.3 secs

     total energy              =    -186.72320340 Ry
     estimated scf accuracy    <       0.00000270 Ry

     iteration #  2     ecut=    90.00 Ry     beta= 0.30
     Davidson diagonalization with overlap
     ethr =  6.43E-09,  avg # of iterations =  1.9

     total cpu time spent up to now is       47.0 secs

     total energy              =    -186.72320349 Ry
     estimated scf accuracy    <       0.00000058 Ry

     iteration #  3     ecut=    90.00 Ry     beta= 0.30
     Davidson diagonalization with overlap
     ethr =  1.37E-09,  avg # of iterations =  2.2

     total cpu time spent up to now is       47.7 secs

     total energy              =    -186.72320353 Ry
     estimated scf accuracy    <       0.00000015 Ry

     iteration #  4     ecut=    90.00 Ry     beta= 0.30
     Davidson diagonalization with overlap
     ethr =  3.54E-10,  avg # of iterations =  2.0

     total cpu time spent up to now is       48.4 secs

     total energy              =    -186.72320354 Ry
     estimated scf accuracy    <       0.00000004 Ry

     iteration #  5     ecut=    90.00 Ry     beta= 0.30
     Davidson diagonalization with overlap
     ethr =  9.55E-11,  avg # of iterations =  1.9

     total cpu time spent up to now is       49.1 secs

     total energy              =    -186.72320354 Ry
     estimated scf accuracy    <          4.4E-09 Ry

     iteration #  6     ecut=    90.00 Ry     beta= 0.30
     Davidson diagonalization with overlap
     ethr =  1.05E-11,  avg # of iterations =  2.6

     total cpu time spent up to now is       49.9 secs

     total energy              =    -186.72320354 Ry
     estimated scf accuracy    <          9.4E-10 Ry

     iteration #  7     ecut=    90.00 Ry     beta= 0.30
     Davidson diagonalization with overlap
     ethr =  2.25E-12,  avg # of iterations =  3.1

     total cpu time spent up to now is       50.7 secs

     total energy              =    -186.72320354 Ry
     estimated scf accuracy    <          4.4E-10 Ry

     iteration #  8     ecut=    90.00 Ry     beta= 0.30
     Davidson diagonalization with overlap
     ethr =  1.04E-12,  avg # of iterations =  2.7

     total cpu time spent up to now is       51.4 secs

     total energy              =    -186.72320354 Ry
     estimated scf accuracy    <          2.2E-11 Ry

     iteration #  9     ecut=    90.00 Ry     beta= 0.30
     Davidson diagonalization with overlap
     ethr =  1.00E-13,  avg # of iterations =  2.1

     total cpu time spent up to now is       52.1 secs

     End of self-consistent calculation

          k = 0.0000 0.0000 0.0000 ( 10111 PWs)   bands (ev):

   -15.1765 -14.5375 -13.4974 -12.1034 -10.5511  -6.7107  -4.8792  -2.4361
     0.2438   2.8257   3.3416   3.3416   3.7345   3.7345   4.3387   4.3387
     4.9326   5.0715   5.0715   5.7189   5.7189   8.3304   8.8098  11.0138
    11.9660

          k =-0.0000 0.1154 0.0000 ( 10205 PWs)   bands (ev):

   -14.9322 -14.2950 -13.2583 -11.8698 -10.3265  -6.4906  -4.6783  -2.2698
     0.3491   2.1524   2.5595   2.8092   2.8238   3.2454   3.2936   3.9088
     4.0027   4.6248   4.6956   4.9129   5.3743   8.5433   9.0361  11.0905
    11.9111

          k =-0.0000 0.2308 0.0000 ( 10169 PWs)   bands (ev):

   -14.2034 -13.5718 -12.5458 -11.1750  -9.6589  -5.8643  -4.1182  -1.8508
    -0.4305  -0.0183   0.7166   0.8018   1.7215   1.7549   2.2356   2.5187
     2.8729   2.9663   3.8233   4.3935   4.5505   9.2265   9.6388  11.1785
    11.6373

          k =-0.0000 0.3462 0.0000 ( 10168 PWs)   bands (ev):

   -13.0045 -12.3838 -11.3795 -10.0444  -8.5802  -5.0943  -3.7522  -3.1040
    -2.6416  -1.7302  -1.4845  -0.5211   0.0671   0.7785   0.9865   1.2801
     2.0442   2.4981   2.9385   3.6689   3.6941  10.2578  10.4351  11.0216
    11.7268

          k =-0.0000 0.4615 0.0000 ( 10188 PWs)   bands (ev):

   -11.3764 -10.7830  -9.8390  -8.6271  -7.3762  -5.9500  -5.8578  -5.0922
    -3.9342  -2.8470  -2.4741  -1.4314  -0.1962   0.1310   0.4800   0.6416
     1.4204   1.9241   2.3314   3.0450   3.1001  10.5015  11.2542  11.7225
    11.9775

          k = 0.0000-0.5769 0.0000 ( 10180 PWs)   bands (ev):

    -9.6549  -9.5094  -9.0973  -8.4335  -7.5055  -6.9843  -6.2171  -5.9743
    -4.8767  -4.7647  -1.3438  -1.2645  -0.5917  -0.0931   0.1109   0.4201
     1.2030   1.6700   2.1188   2.8082   2.8914  10.8622  11.1221  11.4438
    12.1752

          k = 0.0999 0.1731 0.0000 ( 10203 PWs)   bands (ev):

   -14.4457 -13.8121 -12.7824 -11.4055  -9.8802  -6.0657  -4.2953  -1.9685
     0.4290   0.7301   1.0173   1.2928   1.8894   2.3038   2.4020   2.9809
     3.0230   3.4341   3.9138   4.1419   4.9181   9.0123   9.4679  11.5214
    12.0274

          k = 0.0999 0.2885 0.0000 ( 10164 PWs)   bands (ev):

   -13.4813 -12.8559 -11.8419 -10.4908  -9.0035  -5.3186  -3.6737  -1.9911
    -1.4036  -1.2993  -0.6243  -0.0911   0.4648   0.9404   1.0630   1.4961
     1.8998   2.3691   2.8218   3.2625   4.3142   9.9628  10.2543  11.6891
    12.3213

          k = 0.0999 0.4039 0.0000 ( 10174 PWs)   bands (ev):

   -12.0638 -11.4548 -10.4742  -9.1799  -7.7731  -5.1584  -4.6798  -3.8860
    -3.0542  -2.5820  -1.8186  -1.4343  -0.4089  -0.1597   0.1837   0.6415
     1.0281   1.6081   2.3821   2.4667   3.4781  10.9389  11.3413  11.7483
    12.6052

          k = 0.0999-0.6346 0.0000 ( 10210 PWs)   bands (ev):

   -10.2787  -9.7409  -8.9671  -8.1548  -7.2370  -6.5527  -6.1155  -5.5868
    -4.9219  -3.7363  -1.9184  -1.0147  -0.8572  -0.5713  -0.2169   0.1279
     0.5304   1.3652   1.7100   2.2899   2.7888  11.2344  12.0537  12.4184
    12.6937

          k = 0.1999 0.3462 0.0000 ( 10143 PWs)   bands (ev):

   -12.2965 -11.6836 -10.6944  -9.3838  -7.9509  -4.8557  -3.7376  -3.0582
    -2.4458  -2.4219  -1.8270  -1.4078  -0.7354  -0.5635   0.2648   0.3278
     0.8526   1.1328   1.2911   2.5637   3.6331  11.0731  11.2701  12.5628
    12.7989

          k = 0.1999-0.6923 0.0000 ( 10195 PWs)   bands (ev):

   -10.6957 -10.1137  -9.1922  -8.0148  -6.7816  -5.7416  -5.4412  -4.7725
    -3.9546  -3.1225  -2.3027  -2.0287  -1.4237  -1.1452  -1.1195  -0.2607
     0.1291   0.5349   1.1672   1.8663   2.6826  11.8026  12.2851  12.8790
    13.4998

          k = 0.1999-0.5769 0.0000 ( 10204 PWs)   bands (ev):

    -9.0121  -8.8778  -8.4878  -7.8580  -6.9285  -6.4782  -5.9592  -5.4006
    -4.7433  -4.4642  -2.4968  -2.1867  -2.0670  -1.1777  -0.5764  -0.3562
     0.0099   0.2113   0.9427   1.7994   2.0097  11.7658  12.7686  13.3410
    13.6440

          k = 0.2998-0.6346 0.0000 ( 10229 PWs)   bands (ev):

    -9.0090  -8.5310  -7.8963  -7.3802  -6.5375  -6.4714  -5.4033  -5.3961
    -4.9798  -4.4693  -3.0344  -2.8772  -2.5764  -1.7988  -1.7791  -0.5304
     0.2529   0.8235   0.8695   0.9550   1.6530  12.3097  12.7043  13.0918
    13.3588

     the Fermi energy is     7.1192 ev

!    total energy              =    -186.72320354 Ry
     estimated scf accuracy    <          4.8E-12 Ry
     smearing contrib. (-TS)   =       0.00000000 Ry
     internal energy E=F+TS    =    -186.72320354 Ry

     The total energy is F=E-TS. E is the sum of the following terms:
     one-electron contribution =   -1198.63046503 Ry
     hartree contribution      =     620.25226895 Ry
     xc contribution           =     -48.22769437 Ry
     ewald contribution        =     501.51200460 Ry
     one-center paw contrib.   =     -61.62931769 Ry

     convergence has been achieved in   9 iterations

     Forces acting on atoms (cartesian axes, Ry/au):

     atom    1 type  1   force =     0.00000000   -0.00000000   -0.00104678
     atom    2 type  1   force =     0.00000000    0.00000000   -0.00020479
     atom    3 type  1   force =     0.00000000    0.00000000   -0.00015754
     atom    4 type  1   force =     0.00000000    0.00000000   -0.00012043
     atom    5 type  1   force =     0.00000000   -0.00000000    0.00008830
     atom    6 type  1   force =     0.00000000    0.00000000   -0.00008830
     atom    7 type  1   force =    -0.00000000    0.00000000    0.00012043
     atom    8 type  1   force =     0.00000000    0.00000000    0.00015754
     atom    9 type  1   force =     0.00000000    0.00000000    0.00020479
     atom   10 type  1   force =     0.00000000   -0.00000000    0.00104678
     atom   11 type  2   force =     0.00000000    0.00000000   -0.00016487
     atom   12 type  2   force =    -0.00000000    0.00000000    0.00016487

     Total force =     0.001557     Total SCF correction =     0.000005


     Computing stress (Cartesian axis) and pressure

          total   stress  (Ry/bohr**3)                   (kbar)     P=       -1.76
   0.00000098  -0.00000000   0.00000000            0.14       -0.00        0.00
  -0.00000000   0.00000098   0.00000000           -0.00        0.14        0.00
   0.00000000   0.00000000  -0.00003794            0.00        0.00       -5.58

     Energy error            =      6.8E-06 Ry
     Gradient error          =      1.0E-03 Ry/Bohr
     Cell gradient error     =      1.4E-01 kbar

     number of scf cycles    =   5
     number of bfgs steps    =   4

     enthalpy           old  =    -186.7231967674 Ry
     enthalpy           new  =    -186.7232035435 Ry

     CASE: enthalpy          _new < enthalpy          _old

     new trust radius        =       0.0014815431 bohr
     new conv_thr            =            1.0E-11 Ry

     new unit-cell volume =    707.73805 a.u.^3 (   104.87596 Ang^3 )
     density =      1.93367 g/cm^3

CELL_PARAMETERS (angstrom)
   2.528182849  -0.000000000   0.000000000
   1.264091424   2.189470569   0.000000000
   0.000000000   0.000000000  18.946472050

ATOMIC_POSITIONS (crystal)
C                0.3333333300        0.3333333300        0.7303964956
C                0.6666666700        0.6666666700        0.7046368286
C                0.6666666700        0.6666666700        0.6225765371
C                0.0000000000       -0.0000000000        0.5953874234
C                0.0000000000       -0.0000000000        0.5136197855
C                0.3333333300        0.3333333300        0.4863802145
C                0.3333333300        0.3333333300        0.4046125766
C                0.6666666700        0.6666666700        0.3774234629
C                0.6666666700        0.6666666700        0.2953631714
C               -0.0000000000        0.0000000000        0.2696035044
H                0.3333333300        0.3333333300        0.7889336066
H                0.0000000000       -0.0000000000        0.2110663934



     Writing config-only to output data dir /tmp/qe/slab.save/ :
     XML data file
     NEW-OLD atomic charge density approx. for the potential

     total cpu time spent up to now is       53.8 secs

     Self-consistent Calculation

     iteration #  1     ecut=    90.00 Ry     beta= 0.30
     Davidson diagonalization with overlap
     ethr =  1.00E-06,  avg # of iterations =  2.0

     Threshold (ethr) on eigenvalues was too large:
     Diagonalizing with lowered threshold

     Davidson diagonalization with overlap
     ethr =  1.04E-09,  avg # of iterations =  4.5

     total cpu time spent up to now is       55.4 secs

     total energy              =    -186.72320599 Ry
     estimated scf accuracy    <       0.00000086 Ry

     iteration #  2     ecut=    90.00 Ry     beta= 0.30
     Davidson diagonalization with overlap
     ethr =  2.04E-09,  avg # of iterations =  2.0

     total cpu time spent up to now is       56.1 secs

     total energy              =    -186.72320606 Ry
     estimated scf accuracy    <       0.00000019 Ry

     iteration #  3     ecut=    90.00 Ry     beta= 0.30
     Davidson diagonalization with overlap
     ethr =  4.56E-10,  avg # of iterations =  1.6

     total cpu time spent up to now is       56.7 secs

     total energy              =    -186.72320606 Ry
     estimated scf accuracy    <       0.00000007 Ry

     iteration #  4     ecut=    90.00 Ry     beta= 0.30
     Davidson diagonalization with overlap
     ethr =  1.65E-10,  avg # of iterations =  1.1

     total cpu time spent up to now is       57.4 secs

     total energy              =    -186.72320607 Ry
     estimated scf accuracy    <       0.00000001 Ry

     iteration #  5     ecut=    90.00 Ry     beta= 0.30
     Davidson diagonalization with overlap
     ethr =  2.76E-11,  avg # of iterations =  2.0

     total cpu time spent up to now is       58.1 secs

     total energy              =    -186.72320607 Ry
     estimated scf accuracy    <          9.4E-10 Ry

     iteration #  6     ecut=    90.00 Ry     beta= 0.30
     Davidson diagonalization with overlap
     ethr =  2.25E-12,  avg # of iterations =  2.7

     total cpu time spent up to now is       58.9 secs

     total energy              =    -186.72320607 Ry
     estimated scf accuracy    <          1.4E-10 Ry

     iteration #  7     ecut=    90.00 Ry     beta= 0.30
     Davidson diagonalization with overlap
     ethr =  3.33E-13,  avg # of iterations =  2.4

     total cpu time spent up to now is       59.7 secs

     total energy              =    -186.72320607 Ry
     estimated scf accuracy    <          2.2E-11 Ry

     iteration #  8     ecut=    90.00 Ry     beta= 0.30
     Davidson diagonalization with overlap
     ethr =  1.00E-13,  avg # of iterations =  2.0

     total cpu time spent up to now is       60.4 secs

     End of self-consistent calculation

          k = 0.0000 0.0000 0.0000 ( 10111 PWs)   bands (ev):

   -15.1768 -14.5404 -13.4991 -12.1036 -10.5508  -6.7118  -4.8805  -2.4349
     0.2452   2.8267   3.3408   3.3408   3.7311   3.7311   4.3363   4.3363
     4.9324   5.0696   5.0696   5.7187   5.7187   8.3305   8.8100  11.0134
    11.9647

          k = 0.0000 0.1154 0.0000 ( 10205 PWs)   bands (ev):

   -14.9326 -14.2979 -13.2600 -11.8701 -10.3261  -6.4918  -4.6797  -2.2687
     0.3504   2.1516   2.5564   2.8084   2.8240   3.2420   3.2917   3.9064
     4.0011   4.6244   4.6938   4.9127   5.3743   8.5434   9.0362  11.0900
    11.9106

          k = 0.0000 0.2308 0.0000 ( 10169 PWs)   bands (ev):

   -14.2038 -13.5747 -12.5475 -11.1753  -9.6587  -5.8656  -4.1198  -1.8499
    -0.4311  -0.0211   0.7165   0.8002   1.7202   1.7541   2.2322   2.5188
     2.8732   2.9640   3.8217   4.3930   4.5506   9.2266   9.6385  11.1784
    11.6361

          k = 0.0000 0.3461 0.0000 ( 10168 PWs)   bands (ev):

   -13.0049 -12.3868 -11.3813 -10.0449  -8.5800  -5.0958  -3.7546  -3.1044
    -2.6441  -1.7321  -1.4846  -0.5215   0.0675   0.7778   0.9870   1.2767
     2.0420   2.4977   2.9371   3.6683   3.6942  10.2573  10.4347  11.0218
    11.7255

          k = 0.0000 0.4615 0.0000 ( 10188 PWs)   bands (ev):

   -11.3769 -10.7861  -9.8410  -8.6278  -7.3765  -5.9503  -5.8603  -5.0947
    -3.9353  -2.8477  -2.4743  -1.4325  -0.1959   0.1303   0.4796   0.6382
     1.4182   1.9237   2.3300   3.0444   3.1004  10.5014  11.2526  11.7229
    11.9772

          k =-0.0000-0.5769 0.0000 ( 10180 PWs)   bands (ev):

    -9.6550  -9.5117  -9.1004  -8.4359  -7.5074  -6.9852  -6.2179  -5.9756
    -4.8769  -4.7645  -1.3452  -1.2654  -0.5922  -0.0938   0.1105   0.4167
     1.2009   1.6698   2.1175   2.8078   2.8917  10.8615  11.1224  11.4420
    12.1737

          k = 0.0999 0.1731 0.0000 ( 10203 PWs)   bands (ev):

   -14.4460 -13.8150 -12.7841 -11.4058  -9.8799  -6.0669  -4.2967  -1.9675
     0.4294   0.7297   1.0155   1.2900   1.8866   2.3031   2.3997   2.9816
     3.0213   3.4321   3.9138   4.1411   4.9179   9.0124   9.4678  11.5210
    12.0270

          k = 0.0999 0.2885 0.0000 ( 10164 PWs)   bands (ev):

   -13.4817 -12.8588 -11.8437 -10.4912  -9.0033  -5.3200  -3.6755  -1.9910
    -1.4058  -1.3002  -0.6259  -0.0926   0.4634   0.9402   1.0630   1.4933
     1.8995   2.3675   2.8220   3.2622   4.3138   9.9628  10.2539  11.6890
    12.3206

          k = 0.0999 0.4038 0.0000 ( 10174 PWs)   bands (ev):

   -12.0643 -11.4579 -10.4761  -9.1805  -7.7730  -5.1598  -4.6820  -3.8885
    -3.0552  -2.5833  -1.8190  -1.4352  -0.4092  -0.1602   0.1819   0.6394
     1.0279   1.6067   2.3820   2.4664   3.4777  10.9388  11.3411  11.7486
    12.6039

          k = 0.0999-0.6346 0.0000 ( 10210 PWs)   bands (ev):

   -10.2793  -9.7440  -8.9691  -8.1561  -7.2387  -6.5537  -6.1173  -5.5874
    -4.9230  -3.7364  -1.9194  -1.0156  -0.8584  -0.5732  -0.2177   0.1261
     0.5292   1.3643   1.7093   2.2903   2.7884  11.2354  12.0548  12.4167
    12.6928

          k = 0.1998 0.3461 0.0000 ( 10143 PWs)   bands (ev):

   -12.2969 -11.6866 -10.6962  -9.3843  -7.9508  -4.8574  -3.7406  -3.0586
    -2.4465  -2.4241  -1.8295  -1.4086  -0.7364  -0.5646   0.2634   0.3266
     0.8524   1.1326   1.2917   2.5633   3.6326  11.0729  11.2697  12.5635
    12.7988

          k = 0.1998-0.6923 0.0000 ( 10195 PWs)   bands (ev):

   -10.6963 -10.1169  -9.1942  -8.0156  -6.7822  -5.7431  -5.4428  -4.7748
    -3.9561  -3.1232  -2.3035  -2.0303  -1.4256  -1.1464  -1.1209  -0.2613
     0.1288   0.5348   1.1674   1.8657   2.6822  11.8033  12.2856  12.8791
    13.5005

          k = 0.1998-0.5769 0.0000 ( 10204 PWs)   bands (ev):

    -9.0122  -8.8802  -8.4910  -7.8603  -6.9308  -6.4800  -5.9596  -5.4018
    -4.7440  -4.4640  -2.4970  -2.1887  -2.0694  -1.1794  -0.5779  -0.3565
     0.0100   0.2103   0.9427   1.7994   2.0090  11.7672  12.7708  13.3414
    13.6443

          k = 0.2998-0.6346 0.0000 ( 10229 PWs)   bands (ev):

    -9.0096  -8.5342  -7.8987  -7.3808  -6.5403  -6.4745  -5.4041  -5.3961
    -4.9806  -4.4704  -3.0344  -2.8793  -2.5783  -1.7988  -1.7801  -0.5314
     0.2524   0.8229   0.8690   0.9547   1.6525  12.3109  12.7052  13.0932
    13.3598

     the Fermi energy is     7.1193 ev

!    total energy              =    -186.72320607 Ry
     estimated scf accuracy    <          4.8E-12 Ry
     smearing contrib. (-TS)   =       0.00000000 Ry
     internal energy E=F+TS    =    -186.72320607 Ry

     The total energy is F=E-TS. E is the sum of the following terms:
     one-electron contribution =   -1198.88232606 Ry
     hartree contribution      =     620.37705538 Ry
     xc contribution           =     -48.22846500 Ry
     ewald contribution        =     501.63986285 Ry
     one-center paw contrib.   =     -61.62933324 Ry

     convergence has been achieved in   8 iterations

     Forces acting on atoms (cartesian axes, Ry/au):

     atom    1 type  1   force =    -0.00000000   -0.00000000   -0.00054085
     atom    2 type  1   force =    -0.00000000   -0.00000000   -0.00034950
     atom    3 type  1   force =     0.00000000    0.00000000   -0.00052337
     atom    4 type  1   force =    -0.00000000   -0.00000000   -0.00030549
     atom    5 type  1   force =    -0.00000000   -0.00000000   -0.00018652
     atom    6 type  1   force =     0.00000000    0.00000000    0.00018652
     atom    7 type  1   force =    -0.00000000    0.00000000    0.00030549
     atom    8 type  1   force =     0.00000000   -0.00000000    0.00052337
     atom    9 type  1   force =     0.00000000    0.00000000    0.00034950
     atom   10 type  1   force =    -0.00000000   -0.00000000    0.00054085
     atom   11 type  2   force =    -0.00000000    0.00000000   -0.00004203
     atom   12 type  2   force =    -0.00000000    0.00000000    0.00004203

     Total force =     0.001279     Total SCF correction =     0.000007


     Computing stress (Cartesian axis) and pressure

          total   stress  (Ry/bohr**3)                   (kbar)     P=       -1.55
   0.00000027   0.00000000  -0.00000000            0.04        0.00       -0.00
   0.00000000   0.00000027  -0.00000000            0.00        0.04       -0.00
  -0.00000000  -0.00000000  -0.00003224           -0.00       -0.00       -4.74

     Energy error            =      2.5E-06 Ry
     Gradient error          =      5.4E-04 Ry/Bohr
     Cell gradient error     =      4.0E-02 kbar

     number of scf cycles    =   6
     number of bfgs steps    =   5

     enthalpy           old  =    -186.7232035435 Ry
     enthalpy           new  =    -186.7232060718 Ry

     CASE: enthalpy          _new < enthalpy          _old

     new trust radius        =       0.0019148931 bohr
     new conv_thr            =            1.0E-11 Ry

     new unit-cell volume =    707.76885 a.u.^3 (   104.88052 Ang^3 )
     density =      1.93358 g/cm^3

CELL_PARAMETERS (angstrom)
   2.528237858  -0.000000000   0.000000000
   1.264118929   2.189518208   0.000000000
   0.000000000   0.000000000  18.946472050

ATOMIC_POSITIONS (crystal)
C                0.3333333300        0.3333333300        0.7303430124
C                0.6666666700        0.6666666700        0.7046021433
C                0.6666666700        0.6666666700        0.6225617990
C                0.0000000000       -0.0000000000        0.5953832218
C                0.0000000000       -0.0000000000        0.5136168284
C                0.3333333300        0.3333333300        0.4863831716
C                0.3333333300        0.3333333300        0.4046167782
C                0.6666666700        0.6666666700        0.3774382010
C                0.6666666700        0.6666666700        0.2953978567
C               -0.0000000000       -0.0000000000        0.2696569876
H                0.3333333300        0.3333333300        0.7888816425
H               -0.0000000000        0.0000000000        0.2111183575



     Writing config-only to output data dir /tmp/qe/slab.save/ :
     XML data file
     NEW-OLD atomic charge density approx. for the potential

     total cpu time spent up to now is       62.1 secs

     Self-consistent Calculation

     iteration #  1     ecut=    90.00 Ry     beta= 0.30
     Davidson diagonalization with overlap
     ethr =  1.00E-06,  avg # of iterations =  2.0

     Threshold (ethr) on eigenvalues was too large:
     Diagonalizing with lowered threshold

     Davidson diagonalization with overlap
     ethr =  2.34E-09,  avg # of iterations =  4.0

     total cpu time spent up to now is       63.6 secs

     total energy              =    -186.72320885 Ry
     estimated scf accuracy    <       0.00000161 Ry

     iteration #  2     ecut=    90.00 Ry     beta= 0.30
     Davidson diagonalization with overlap
     ethr =  3.83E-09,  avg # of iterations =  2.0

     total cpu time spent up to now is       64.3 secs

     total energy              =    -186.72320896 Ry
     estimated scf accuracy    <       0.00000040 Ry

     iteration #  3     ecut=    90.00 Ry     beta= 0.30
     Davidson diagonalization with overlap
     ethr =  9.50E-10,  avg # of iterations =  1.6

     total cpu time spent up to now is       65.0 secs

     total energy              =    -186.72320896 Ry
     estimated scf accuracy    <       0.00000015 Ry

     iteration #  4     ecut=    90.00 Ry     beta= 0.30
     Davidson diagonalization with overlap
     ethr =  3.66E-10,  avg # of iterations =  1.2

     total cpu time spent up to now is       65.6 secs

     total energy              =    -186.72320897 Ry
     estimated scf accuracy    <       0.00000002 Ry

     iteration #  5     ecut=    90.00 Ry     beta= 0.30
     Davidson diagonalization with overlap
     ethr =  3.60E-11,  avg # of iterations =  2.0

     total cpu time spent up to now is       66.3 secs

     total energy              =    -186.72320898 Ry
     estimated scf accuracy    <          2.6E-09 Ry

     iteration #  6     ecut=    90.00 Ry     beta= 0.30
     Davidson diagonalization with overlap
     ethr =  6.28E-12,  avg # of iterations =  2.4

     total cpu time spent up to now is       67.1 secs

     total energy              =    -186.72320898 Ry
     estimated scf accuracy    <          6.0E-10 Ry

     iteration #  7     ecut=    90.00 Ry     beta= 0.30
     Davidson diagonalization with overlap
     ethr =  1.43E-12,  avg # of iterations =  1.4

     total cpu time spent up to now is       67.8 secs

     total energy              =    -186.72320898 Ry
     estimated scf accuracy    <          2.1E-10 Ry

     iteration #  8     ecut=    90.00 Ry     beta= 0.30
     Davidson diagonalization with overlap
     ethr =  4.96E-13,  avg # of iterations =  3.3

     total cpu time spent up to now is       68.7 secs

     total energy              =    -186.72320898 Ry
     estimated scf accuracy    <          1.2E-10 Ry

     iteration #  9     ecut=    90.00 Ry     beta= 0.30
     Davidson diagonalization with overlap
     ethr =  2.87E-13,  avg # of iterations =  2.1

     total cpu time spent up to now is       69.4 secs

     total energy              =    -186.72320898 Ry
     estimated scf accuracy    <          1.1E-11 Ry

     iteration # 10     ecut=    90.00 Ry     beta= 0.30
     Davidson diagonalization with overlap
     ethr =  1.00E-13,  avg # of iterations =  3.1

     total cpu time spent up to now is       70.2 secs

     total energy              =    -186.72320898 Ry
     estimated scf accuracy    <          1.5E-11 Ry

     iteration # 11     ecut=    90.00 Ry     beta= 0.30
     Davidson diagonalization with overlap
     ethr =  1.00E-13,  avg # of iterations =  1.0

     total cpu time spent up to now is       70.9 secs

     End of self-consistent calculation

          k = 0.0000 0.0000 0.0000 ( 10111 PWs)   bands (ev):

   -15.1789 -14.5437 -13.5012 -12.1043 -10.5509  -6.7130  -4.8811  -2.4333
     0.2473   2.8284   3.3380   3.3380   3.7272   3.7272   4.3331   4.3331
     4.9340   5.0671   5.0671   5.7168   5.7168   8.3310   8.8103  11.0128
    11.9635

          k = 0.0000 0.1154 0.0000 ( 10205 PWs)   bands (ev):

   -14.9347 -14.3012 -13.2621 -11.8707 -10.3262  -6.4930  -4.6803  -2.2671
     0.3524   2.1489   2.5529   2.8056   2.8245   3.2381   3.2893   3.9033
     3.9990   4.6237   4.6915   4.9129   5.3726   8.5439   9.0364  11.0893
    11.9099

          k = 0.0000 0.2308 0.0000 ( 10169 PWs)   bands (ev):

   -14.2060 -13.5781 -12.5497 -11.1760  -9.6588  -5.8669  -4.1205  -1.8486
    -0.4336  -0.0244   0.7170   0.7980   1.7185   1.7513   2.2282   2.5177
     2.8740   2.9610   3.8196   4.3935   4.5491   9.2268   9.6383  11.1781
    11.6349

          k = 0.0000 0.3461 0.0000 ( 10168 PWs)   bands (ev):

   -13.0071 -12.3903 -11.3836 -10.0457  -8.5803  -5.0976  -3.7570  -3.1059
    -2.6472  -1.7343  -1.4848  -0.5221   0.0671   0.7749   0.9879   1.2727
     2.0391   2.4979   2.9351   3.6685   3.6929  10.2569  10.4345  11.0216
    11.7238

          k = 0.0000 0.4615 0.0000 ( 10188 PWs)   bands (ev):

   -11.3792 -10.7897  -9.8434  -8.6290  -7.3775  -5.9524  -5.8632  -5.0975
    -3.9366  -2.8490  -2.4750  -1.4331  -0.1955   0.1275   0.4796   0.6342
     1.4153   1.9237   2.3281   3.0447   3.0991  10.5008  11.2506  11.7225
    11.9768

          k =-0.0000-0.5769 0.0000 ( 10180 PWs)   bands (ev):

    -9.6570  -9.5151  -9.1039  -8.4386  -7.5097  -6.9875  -6.2193  -5.9772
    -4.8777  -4.7651  -1.3463  -1.2660  -0.5926  -0.0966   0.1106   0.4127
     1.1979   1.6700   2.1155   2.8082   2.8904  10.8589  11.1234  11.4398
    12.1721

          k = 0.0999 0.1731 0.0000 ( 10203 PWs)   bands (ev):

   -14.4482 -13.8184 -12.7863 -11.4065  -9.8800  -6.0682  -4.2974  -1.9661
     0.4301   0.7272   1.0129   1.2865   1.8833   2.3007   2.3972   2.9822
     3.0190   3.4300   3.9128   4.1394   4.9180   9.0127   9.4678  11.5204
    12.0264

          k = 0.0999 0.2885 0.0000 ( 10164 PWs)   bands (ev):

   -13.4839 -12.8623 -11.8460 -10.4920  -9.0035  -5.3215  -3.6767  -1.9923
    -1.4083  -1.3017  -0.6282  -0.0947   0.4614   0.9382   1.0633   1.4902
     1.8982   2.3655   2.8221   3.2611   4.3139   9.9629  10.2536  11.6889
    12.3198

          k = 0.0999 0.4038 0.0000 ( 10174 PWs)   bands (ev):

   -12.0666 -11.4614 -10.4784  -9.1814  -7.7735  -5.1621  -4.6851  -3.8912
    -3.0566  -2.5850  -1.8199  -1.4364  -0.4106  -0.1616   0.1796   0.6369
     1.0278   1.6050   2.3820   2.4653   3.4776  10.9389  11.3409  11.7488
    12.6020

          k = 0.0999-0.6346 0.0000 ( 10210 PWs)   bands (ev):

   -10.2816  -9.7476  -8.9718  -8.1581  -7.2408  -6.5558  -6.1197  -5.5885
    -4.9243  -3.7372  -1.9205  -1.0166  -0.8610  -0.5756  -0.2186   0.1246
     0.5275   1.3633   1.7085   2.2898   2.7884  11.2370  12.0552  12.4138
    12.6916

          k = 0.1998 0.3461 0.0000 ( 10143 PWs)   bands (ev):

   -12.2992 -11.6901 -10.6986  -9.3852  -7.9511  -4.8595  -3.7435  -3.0606
    -2.4482  -2.4268  -1.8320  -1.4103  -0.7374  -0.5669   0.2621   0.3249
     0.8515   1.1316   1.2923   2.5632   3.6326  11.0728  11.2695  12.5648
    12.7996

          k = 0.1998-0.6923 0.0000 ( 10195 PWs)   bands (ev):

   -10.6987 -10.1205  -9.1967  -8.0168  -6.7833  -5.7455  -5.4455  -4.7775
    -3.9581  -3.1248  -2.3052  -2.0327  -1.4279  -1.1479  -1.1227  -0.2621
     0.1281   0.5347   1.1675   1.8654   2.6821  11.8046  12.2864  12.8798
    13.5020

          k = 0.1998-0.5769 0.0000 ( 10204 PWs)   bands (ev):

    -9.0142  -8.8836  -8.4946  -7.8631  -6.9331  -6.4826  -5.9609  -5.4033
    -4.7454  -4.4647  -2.4992  -2.1914  -2.0721  -1.1811  -0.5792  -0.3573
     0.0099   0.2092   0.9427   1.7995   2.0088  11.7696  12.7731  13.3427
    13.6454

          k = 0.2998-0.6346 0.0000 ( 10229 PWs)   bands (ev):

    -9.0121  -8.5379  -7.9017  -7.3829  -6.5432  -6.4774  -5.4061  -5.3975
    -4.9821  -4.4722  -3.0360  -2.8818  -2.5805  -1.7999  -1.7814  -0.5323
     0.2523   0.8225   0.8686   0.9548   1.6524  12.3129  12.7070  13.0951
    13.3622

     the Fermi energy is     7.1196 ev

!    total energy              =    -186.72320898 Ry
     estimated scf accuracy    <          3.1E-12 Ry
     smearing contrib. (-TS)   =       0.00000000 Ry
     internal energy E=F+TS    =    -186.72320898 Ry

     The total energy is F=E-TS. E is the sum of the following terms:
     one-electron contribution =   -1199.40674428 Ry
     hartree contribution      =     620.63756844 Ry
     xc contribution           =     -48.22963185 Ry
     ewald contribution        =     501.90495838 Ry
     one-center paw contrib.   =     -61.62935967 Ry

     convergence has been achieved in  11 iterations

     Forces acting on atoms (cartesian axes, Ry/au):

     atom    1 type  1   force =     0.00000000   -0.00000000    0.00002001
     atom    2 type  1   force =     0.00000000    0.00000000   -0.00044934
     atom    3 type  1   force =    -0.00000000   -0.00000000   -0.00060394
     atom    4 type  1   force =    -0.00000000    0.00000000   -0.00060558
     atom    5 type  1   force =     0.00000000    0.00000000   -0.00009429
     atom    6 type  1   force =     0.00000000    0.00000000    0.00009429
     atom    7 type  1   force =     0.00000000   -0.00000000    0.00060558
     atom    8 type  1   force =     0.00000000    0.00000000    0.00060394
     atom    9 type  1   force =     0.00000000    0.00000000    0.00044934
     atom   10 type  1   force =     0.00000000   -0.00000000   -0.00002001
     atom   11 type  2   force =     0.00000000   -0.00000000   -0.00003558
     atom   12 type  2   force =    -0.00000000    0.00000000    0.00003558

     Total force =     0.001374     Total SCF correction =     0.000004


     Computing stress (Cartesian axis) and pressure

          total   stress  (Ry/bohr**3)                   (kbar)     P=       -1.23
  -0.00000015  -0.00000000   0.00000000           -0.02       -0.00        0.00
  -0.00000000  -0.00000015   0.00000000           -0.00       -0.02        0.00
   0.00000000   0.00000000  -0.00002479            0.00        0.00       -3.65

     Energy error            =      2.9E-06 Ry
     Gradient error          =      6.1E-04 Ry/Bohr
     Cell gradient error     =      2.2E-02 kbar

     number of scf cycles    =   7
     number of bfgs steps    =   6

     enthalpy           old  =    -186.7232060718 Ry
     enthalpy           new  =    -186.7232089751 Ry

     CASE: enthalpy          _new < enthalpy          _old

     new trust radius        =       0.0021063824 bohr
     new conv_thr            =            1.0E-11 Ry

     new unit-cell volume =    707.80143 a.u.^3 (   104.88535 Ang^3 )
     density =      1.93349 g/cm^3

CELL_PARAMETERS (angstrom)
   2.528296038  -0.000000000   0.000000000
   1.264148019   2.189568594   0.000000000
   0.000000000   0.000000000  18.946472050

ATOMIC_POSITIONS (crystal)
C                0.3333333300        0.3333333300        0.7302841809
C                0.6666666700        0.6666666700        0.7045539924
C                0.6666666700        0.6666666700        0.6225308898
C                0.0000000000       -0.0000000000        0.5953599234
C                0.0000000000       -0.0000000000        0.5136142592
C                0.3333333300        0.3333333300        0.4863857408
C                0.3333333300        0.3333333300        0.4046400766
C                0.6666666700        0.6666666700        0.3774691102
C                0.6666666700        0.6666666700        0.2954460076
C                0.0000000000       -0.0000000000        0.2697158191
H                0.3333333300        0.3333333300        0.7888250251
H               -0.0000000000        0.0000000000        0.2111749749



     Writing config-only to output data dir /tmp/qe/slab.save/ :
     XML data file
     NEW-OLD atomic charge density approx. for the potential

     total cpu time spent up to now is       72.5 secs

     Self-consistent Calculation

     iteration #  1     ecut=    90.00 Ry     beta= 0.30
     Davidson diagonalization with overlap
     ethr =  1.00E-06,  avg # of iterations =  2.0

     Threshold (ethr) on eigenvalues was too large:
     Diagonalizing with lowered threshold

     Davidson diagonalization with overlap
     ethr =  3.71E-09,  avg # of iterations =  4.0

     total cpu time spent up to now is       74.1 secs

     total energy              =    -186.72321201 Ry
     estimated scf accuracy    <       0.00000241 Ry

     iteration #  2     ecut=    90.00 Ry     beta= 0.30
     Davidson diagonalization with overlap
     ethr =  5.74E-09,  avg # of iterations =  2.0

     total cpu time spent up to now is       74.8 secs

     total energy              =    -186.72321214 Ry
     estimated scf accuracy    <       0.00000067 Ry

     iteration #  3     ecut=    90.00 Ry     beta= 0.30
     Davidson diagonalization with overlap
     ethr =  1.58E-09,  avg # of iterations =  1.4

     total cpu time spent up to now is       75.5 secs

     total energy              =    -186.72321214 Ry
     estimated scf accuracy    <       0.00000025 Ry

     iteration #  4     ecut=    90.00 Ry     beta= 0.30
     Davidson diagonalization with overlap
     ethr =  5.84E-10,  avg # of iterations =  2.0

     total cpu time spent up to now is       76.1 secs

     total energy              =    -186.72321216 Ry
     estimated scf accuracy    <       0.00000002 Ry

     iteration #  5     ecut=    90.00 Ry     beta= 0.30
     Davidson diagonalization with overlap
     ethr =  3.59E-11,  avg # of iterations =  2.1

     total cpu time spent up to now is       76.9 secs

     total energy              =    -186.72321216 Ry
     estimated scf accuracy    <          4.3E-09 Ry

     iteration #  6     ecut=    90.00 Ry     beta= 0.30
     Davidson diagonalization with overlap
     ethr =  1.03E-11,  avg # of iterations =  2.4

     total cpu time spent up to now is       77.7 secs

     total energy              =    -186.72321216 Ry
     estimated scf accuracy    <          7.3E-10 Ry

     iteration #  7     ecut=    90.00 Ry     beta= 0.30
     Davidson diagonalization with overlap
     ethr =  1.75E-12,  avg # of iterations =  1.9

     total cpu time spent up to now is       78.4 secs

     total energy              =    -186.72321216 Ry
     estimated scf accuracy    <          1.3E-10 Ry

     iteration #  8     ecut=    90.00 Ry     beta= 0.30
     Davidson diagonalization with overlap
     ethr =  3.03E-13,  avg # of iterations =  3.7

     total cpu time spent up to now is       79.3 secs

     total energy              =    -186.72321216 Ry
     estimated scf accuracy    <          1.0E-10 Ry

     iteration #  9     ecut=    90.00 Ry     beta= 0.30
     Davidson diagonalization with overlap
     ethr =  2.41E-13,  avg # of iterations =  2.4

     total cpu time spent up to now is       80.1 secs

     End of self-consistent calculation

          k = 0.0000 0.0000 0.0000 ( 10111 PWs)   bands (ev):

   -15.1821 -14.5464 -13.5032 -12.1052 -10.5502  -6.7150  -4.8811  -2.4322
     0.2488   2.8297   3.3346   3.3346   3.7240   3.7240   4.3305   4.3305
     4.9342   5.0651   5.0651   5.7158   5.7158   8.3313   8.8106  11.0119
    11.9613

          k = 0.0000 0.1154 0.0000 ( 10205 PWs)   bands (ev):

   -14.9379 -14.3040 -13.2641 -11.8717 -10.3256  -6.4950  -4.6803  -2.2661
     0.3537   2.1455   2.5501   2.8021   2.8248   3.2349   3.2874   3.9008
     3.9971   4.6231   4.6896   4.9125   5.3717   8.5441   9.0364  11.0883
    11.9095

          k = 0.0000 0.2308 0.0000 ( 10169 PWs)   bands (ev):

   -14.2092 -13.5809 -12.5517 -11.1771  -9.6582  -5.8691  -4.1208  -1.8481
    -0.4367  -0.0272   0.7173   0.7961   1.7171   1.7478   2.2251   2.5173
     2.8745   2.9586   3.8179   4.3928   4.5485   9.2270   9.6379  11.1780
    11.6337

          k = 0.0000 0.3461 0.0000 ( 10168 PWs)   bands (ev):

   -13.0104 -12.3932 -11.3857 -10.0469  -8.5799  -5.1003  -3.7592  -3.1079
    -2.6498  -1.7360  -1.4854  -0.5225   0.0672   0.7714   0.9882   1.2696
     2.0368   2.4976   2.9335   3.6677   3.6924  10.2565  10.4342  11.0211
    11.7224

          k = 0.0000 0.4615 0.0000 ( 10188 PWs)   bands (ev):

   -11.3826 -10.7926  -9.8457  -8.6305  -7.3780  -5.9549  -5.8659  -5.0999
    -3.9381  -2.8499  -2.4759  -1.4333  -0.1954   0.1240   0.4787   0.6311
     1.4130   1.9235   2.3266   3.0441   3.0987  10.5001  11.2490  11.7217
    11.9765

          k =-0.0000-0.5769 0.0000 ( 10180 PWs)   bands (ev):

    -9.6605  -9.5185  -9.1070  -8.4413  -7.5114  -6.9900  -6.2210  -5.9785
    -4.8776  -4.7650  -1.3478  -1.2677  -0.5928  -0.1001   0.1102   0.4096
     1.1957   1.6699   2.1141   2.8077   2.8900  10.8556  11.1252  11.4379
    12.1711

          k = 0.0999 0.1731 0.0000 ( 10203 PWs)   bands (ev):

   -14.4514 -13.8212 -12.7883 -11.4075  -9.8794  -6.0703  -4.2976  -1.9653
     0.4300   0.7240   1.0107   1.2835   1.8806   2.2980   2.3954   2.9827
     3.0173   3.4281   3.9120   4.1385   4.9177   9.0129   9.4676  11.5196
    12.0265

          k = 0.0999 0.2884 0.0000 ( 10164 PWs)   bands (ev):

   -13.4872 -12.8651 -11.8480 -10.4931  -9.0030  -5.3239  -3.6773  -1.9947
    -1.4104  -1.3035  -0.6302  -0.0969   0.4598   0.9358   1.0634   1.4880
     1.8972   2.3639   2.8221   3.2604   4.3134   9.9630  10.2531  11.6889
    12.3191

          k = 0.0999 0.4038 0.0000 ( 10174 PWs)   bands (ev):

   -12.0699 -11.4643 -10.4806  -9.1827  -7.7733  -5.1653  -4.6882  -3.8935
    -3.0584  -2.5866  -1.8205  -1.4370  -0.4126  -0.1630   0.1778   0.6347
     1.0273   1.6036   2.3817   2.4647   3.4771  10.9391  11.3406  11.7490
    12.6005

          k = 0.0999-0.6346 0.0000 ( 10210 PWs)   bands (ev):

   -10.2851  -9.7507  -8.9745  -8.1607  -7.2425  -6.5582  -6.1221  -5.5890
    -4.9256  -3.7373  -1.9224  -1.0178  -0.8638  -0.5780  -0.2197   0.1231
     0.5260   1.3624   1.7079   2.2897   2.7879  11.2388  12.0552  12.4112
    12.6904

          k = 0.1998 0.3461 0.0000 ( 10143 PWs)   bands (ev):

   -12.3025 -11.6930 -10.7007  -9.3864  -7.9508  -4.8626  -3.7459  -3.0633
    -2.4502  -2.4291  -1.8340  -1.4117  -0.7385  -0.5691   0.2613   0.3231
     0.8509   1.1314   1.2925   2.5627   3.6320  11.0727  11.2691  12.5660
    12.8009

          k = 0.1998-0.6923 0.0000 ( 10195 PWs)   bands (ev):

   -10.7021 -10.1235  -9.1991  -8.0185  -6.7840  -5.7483  -5.4481  -4.7798
    -3.9602  -3.1262  -2.3076  -2.0353  -1.4295  -1.1488  -1.1243  -0.2625
     0.1278   0.5344   1.1674   1.8647   2.6815  11.8061  12.2869  12.8805
    13.5043

          k = 0.1998-0.5769 0.0000 ( 10204 PWs)   bands (ev):

    -9.0177  -8.8871  -8.4978  -7.8659  -6.9349  -6.4852  -5.9628  -5.4046
    -4.7461  -4.4650  -2.5017  -2.1937  -2.0746  -1.1826  -0.5807  -0.3584
     0.0096   0.2087   0.9427   1.7997   2.0078  11.7722  12.7750  13.3437
    13.6469

          k = 0.2998-0.6346 0.0000 ( 10229 PWs)   bands (ev):

    -9.0156  -8.5412  -7.9048  -7.3863  -6.5453  -6.4795  -5.4079  -5.3993
    -4.9835  -4.4736  -3.0378  -2.8840  -2.5824  -1.8004  -1.7819  -0.5337
     0.2523   0.8216   0.8675   0.9548   1.6519  12.3150  12.7096  13.0964
    13.3644

     the Fermi energy is     7.1200 ev

!    total energy              =    -186.72321216 Ry
     estimated scf accuracy    <          2.9E-12 Ry
     smearing contrib. (-TS)   =       0.00000000 Ry
     internal energy E=F+TS    =    -186.72321216 Ry

     The total energy is F=E-TS. E is the sum of the following terms:
     one-electron contribution =   -1200.11427896 Ry
     hartree contribution      =     620.98976621 Ry
     xc contribution           =     -48.23095879 Ry
     ewald contribution        =     502.26164975 Ry
     one-center paw contrib.   =     -61.62939036 Ry

     convergence has been achieved in   9 iterations

     Forces acting on atoms (cartesian axes, Ry/au):

     atom    1 type  1   force =    -0.00000000    0.00000000    0.00039284
     atom    2 type  1   force =    -0.00000000    0.00000000   -0.00042774
     atom    3 type  1   force =     0.00000000    0.00000000   -0.00059431
     atom    4 type  1   force =     0.00000000   -0.00000000   -0.00058348
     atom    5 type  1   force =     0.00000000   -0.00000000   -0.00016772
     atom    6 type  1   force =     0.00000000    0.00000000    0.00016772
     atom    7 type  1   force =     0.00000000    0.00000000    0.00058348
     atom    8 type  1   force =     0.00000000    0.00000000    0.00059431
     atom    9 type  1   force =    -0.00000000    0.00000000    0.00042774
     atom   10 type  1   force =    -0.00000000   -0.00000000   -0.00039284
     atom   11 type  2   force =     0.00000000    0.00000000   -0.00006301
     atom   12 type  2   force =     0.00000000    0.00000000    0.00006301

     Total force =     0.001458     Total SCF correction =     0.000002


     Computing stress (Cartesian axis) and pressure

          total   stress  (Ry/bohr**3)                   (kbar)     P=       -0.86
  -0.00000069  -0.00000000   0.00000000           -0.10       -0.00        0.00
  -0.00000000  -0.00000069   0.00000000           -0.00       -0.10        0.00
   0.00000000   0.00000000  -0.00001618            0.00        0.00       -2.38

     Energy error            =      3.2E-06 Ry
     Gradient error          =      5.9E-04 Ry/Bohr
     Cell gradient error     =      1.0E-01 kbar

     number of scf cycles    =   8
     number of bfgs steps    =   7

     enthalpy           old  =    -186.7232089751 Ry
     enthalpy           new  =    -186.7232121581 Ry

     CASE: enthalpy          _new < enthalpy          _old

     new trust radius        =       0.0031360936 bohr
     new conv_thr            =            1.0E-11 Ry

     new unit-cell volume =    707.82045 a.u.^3 (   104.88817 Ang^3 )
     density =      1.93344 g/cm^3

CELL_PARAMETERS (angstrom)
   2.528330015  -0.000000000   0.000000000
   1.264165007   2.189598019   0.000000000
   0.000000000   0.000000000  18.946472050

ATOMIC_POSITIONS (crystal)
C                0.3333333300        0.3333333300        0.7301968895
C                0.6666666700        0.6666666700        0.7044683546
C                0.6666666700        0.6666666700        0.6224615977
C                0.0000000000       -0.0000000000        0.5953054268
C                0.0000000000       -0.0000000000        0.5136023708
C                0.3333333300        0.3333333300        0.4863976292
C                0.3333333300        0.3333333300        0.4046945732
C                0.6666666700        0.6666666700        0.3775384023
C                0.6666666700        0.6666666700        0.2955316454
C                0.0000000000       -0.0000000000        0.2698031105
H                0.3333333300        0.3333333300        0.7887374336
H               -0.0000000000        0.0000000000        0.2112625664



     Writing config-only to output data dir /tmp/qe/slab.save/ :
     XML data file
     NEW-OLD atomic charge density approx. for the potential

     total cpu time spent up to now is       81.8 secs

     Self-consistent Calculation

     iteration #  1     ecut=    90.00 Ry     beta= 0.30
     Davidson diagonalization with overlap
     ethr =  1.00E-06,  avg # of iterations =  2.7

     Threshold (ethr) on eigenvalues was too large:
     Diagonalizing with lowered threshold

     Davidson diagonalization with overlap
     ethr =  1.15E-08,  avg # of iterations =  4.1

     total cpu time spent up to now is       83.4 secs

     total energy              =    -186.72321544 Ry
     estimated scf accuracy    <       0.00000686 Ry

     iteration #  2     ecut=    90.00 Ry     beta= 0.30
     Davidson diagonalization with overlap
     ethr =  1.63E-08,  avg # of iterations =  2.0

     total cpu time spent up to now is       84.1 secs

     total energy              =    -186.72321569 Ry
     estimated scf accuracy    <       0.00000202 Ry

     iteration #  3     ecut=    90.00 Ry     beta= 0.30
     Davidson diagonalization with overlap
     ethr =  4.80E-09,  avg # of iterations =  1.4

     total cpu time spent up to now is       84.7 secs

     total energy              =    -186.72321567 Ry
     estimated scf accuracy    <       0.00000071 Ry

     iteration #  4     ecut=    90.00 Ry     beta= 0.30
     Davidson diagonalization with overlap
     ethr =  1.69E-09,  avg # of iterations =  2.0

     total cpu time spent up to now is       85.4 secs

     total energy              =    -186.72321573 Ry
     estimated scf accuracy    <       0.00000004 Ry

     iteration #  5     ecut=    90.00 Ry     beta= 0.30
     Davidson diagonalization with overlap
     ethr =  1.04E-10,  avg # of iterations =  2.3

     total cpu time spent up to now is       86.2 secs

     total energy              =    -186.72321573 Ry
     estimated scf accuracy    <       0.00000001 Ry

     iteration #  6     ecut=    90.00 Ry     beta= 0.30
     Davidson diagonalization with overlap
     ethr =  2.48E-11,  avg # of iterations =  2.6

     total cpu time spent up to now is       87.0 secs

     total energy              =    -186.72321573 Ry
     estimated scf accuracy    <          1.3E-09 Ry

     iteration #  7     ecut=    90.00 Ry     beta= 0.30
     Davidson diagonalization with overlap
     ethr =  3.19E-12,  avg # of iterations =  2.4

     total cpu time spent up to now is       87.8 secs

     total energy              =    -186.72321573 Ry
     estimated scf accuracy    <          3.4E-10 Ry

     iteration #  8     ecut=    90.00 Ry     beta= 0.30
     Davidson diagonalization with overlap
     ethr =  7.99E-13,  avg # of iterations =  2.0

     total cpu time spent up to now is       88.6 secs

     total energy              =    -186.72321573 Ry
     estimated scf accuracy    <          1.6E-11 Ry

     iteration #  9     ecut=    90.00 Ry     beta= 0.30
     Davidson diagonalization with overlap
     ethr =  1.00E-13,  avg # of iterations =  2.4

     total cpu time spent up to now is       89.3 secs

     End of self-consistent calculation

          k = 0.0000 0.0000 0.0000 ( 10111 PWs)   bands (ev):

   -15.1882 -14.5493 -13.5056 -12.1069 -10.5492  -6.7182  -4.8801  -2.4312
     0.2506   2.8318   3.3287   3.3287   3.7210   3.7211   4.3279   4.3279
     4.9353   5.0634   5.0634   5.7143   5.7143   8.3320   8.8111  11.0110
    11.9585

          k = 0.0000 0.1154 0.0000 ( 10205 PWs)   bands (ev):

   -14.9440 -14.3069 -13.2666 -11.8734 -10.3245  -6.4983  -4.6794  -2.2653
     0.3553   2.1396   2.5476   2.7961   2.8254   3.2320   3.2857   3.8984
     3.9953   4.6228   4.6881   4.9124   5.3705   8.5448   9.0368  11.0873
    11.9096

          k = 0.0000 0.2308 0.0000 ( 10169 PWs)   bands (ev):

   -14.2153 -13.5838 -12.5542 -11.1788  -9.6573  -5.8725  -4.1201  -1.8479
    -0.4422  -0.0300   0.7181   0.7938   1.7157   1.7417   2.2222   2.5169
     2.8754   2.9563   3.8166   4.3924   4.5476   9.2276   9.6379  11.1783
    11.6328

          k = 0.0000 0.3461 0.0000 ( 10168 PWs)   bands (ev):

   -13.0166 -12.3962 -11.3883 -10.0486  -8.5791  -5.1044  -3.7613  -3.1116
    -2.6526  -1.7375  -1.4865  -0.5227   0.0672   0.7653   0.9886   1.2668
     2.0345   2.4974   2.9323   3.6669   3.6918  10.2568  10.4346  11.0206
    11.7214

          k = 0.0000 0.4615 0.0000 ( 10188 PWs)   bands (ev):

   -11.3889 -10.7957  -9.8484  -8.6328  -7.3787  -5.9596  -5.8691  -5.1021
    -3.9398  -2.8513  -2.4771  -1.4328  -0.1954   0.1178   0.4772   0.6283
     1.4107   1.9233   2.3254   3.0437   3.0981  10.4994  11.2477  11.7202
    11.9769

          k =-0.0000-0.5769 0.0000 ( 10180 PWs)   bands (ev):

    -9.6673  -9.5232  -9.1104  -8.4443  -7.5129  -6.9940  -6.2236  -5.9798
    -4.8772  -4.7648  -1.3496  -1.2705  -0.5926  -0.1062   0.1096   0.4068
     1.1934   1.6699   2.1128   2.8074   2.8895  10.8501  11.1290  11.4365
    12.1711

          k = 0.0999 0.1731 0.0000 ( 10203 PWs)   bands (ev):

   -14.4576 -13.8241 -12.7908 -11.4092  -9.8784  -6.0737  -4.2968  -1.9648
     0.4296   0.7182   1.0082   1.2803   1.8783   2.2935   2.3942   2.9833
     3.0159   3.4267   3.9108   4.1378   4.9176   9.0136   9.4677  11.5188
    12.0274

          k = 0.0999 0.2884 0.0000 ( 10164 PWs)   bands (ev):

   -13.4934 -12.8681 -11.8506 -10.4948  -9.0021  -5.3276  -3.6771  -1.9994
    -1.4124  -1.3059  -0.6325  -0.0996   0.4583   0.9316   1.0638   1.4866
     1.8960   2.3624   2.8221   3.2600   4.3130   9.9636  10.2531  11.6896
    12.3189

          k = 0.0999 0.4038 0.0000 ( 10174 PWs)   bands (ev):

   -12.0762 -11.4674 -10.4832  -9.1846  -7.7728  -5.1704  -4.6922  -3.8958
    -3.0610  -2.5885  -1.8215  -1.4371  -0.4161  -0.1652   0.1762   0.6325
     1.0264   1.6025   2.3813   2.4642   3.4766  10.9402  11.3410  11.7496
    12.5992

          k = 0.0999-0.6346 0.0000 ( 10210 PWs)   bands (ev):

   -10.2914  -9.7540  -8.9779  -8.1645  -7.2442  -6.5619  -6.1251  -5.5893
    -4.9270  -3.7373  -1.9252  -1.0196  -0.8680  -0.5807  -0.2208   0.1219
     0.5240   1.3617   1.7074   2.2896   2.7875  11.2422  12.0549  12.4080
    12.6895

          k = 0.1998 0.3461 0.0000 ( 10143 PWs)   bands (ev):

   -12.3088 -11.6961 -10.7033  -9.3883  -7.9501  -4.8673  -3.7480  -3.0684
    -2.4537  -2.4316  -1.8356  -1.4136  -0.7397  -0.5724   0.2612   0.3211
     0.8498   1.1314   1.2927   2.5624   3.6314  11.0732  11.2693  12.5685
    12.8042

          k = 0.1998-0.6923 0.0000 ( 10195 PWs)   bands (ev):

   -10.7084 -10.1267  -9.2019  -8.0210  -6.7847  -5.7524  -5.4519  -4.7822
    -3.9629  -3.1281  -2.3116  -2.0389  -1.4311  -1.1495  -1.1262  -0.2629
     0.1275   0.5339   1.1671   1.8641   2.6809  11.8092  12.2880  12.8828
    13.5089

          k = 0.1998-0.5769 0.0000 ( 10204 PWs)   bands (ev):

    -9.0246  -8.8918  -8.5013  -7.8693  -6.9362  -6.4886  -5.9661  -5.4059
    -4.7467  -4.4655  -2.5065  -2.1963  -2.0774  -1.1839  -0.5824  -0.3603
     0.0093   0.2087   0.9426   1.8000   2.0066  11.7769  12.7772  13.3461
    13.6506

          k = 0.2998-0.6346 0.0000 ( 10229 PWs)   bands (ev):

    -9.0221  -8.5447  -7.9087  -7.3926  -6.5469  -6.4808  -5.4107  -5.4027
    -4.9854  -4.4752  -3.0414  -2.8863  -2.5841  -1.8013  -1.7817  -0.5356
     0.2525   0.8203   0.8662   0.9548   1.6516  12.3187  12.7145  13.0981
    13.3685

     the Fermi energy is     7.1212 ev

!    total energy              =    -186.72321573 Ry
     estimated scf accuracy    <          6.8E-12 Ry
     smearing contrib. (-TS)   =       0.00000000 Ry
     internal energy E=F+TS    =    -186.72321573 Ry

     The total energy is F=E-TS. E is the sum of the following terms:
     one-electron contribution =   -1201.39809671 Ry
     hartree contribution      =     621.63015404 Ry
     xc contribution           =     -48.23343446 Ry
     ewald contribution        =     502.90761008 Ry
     one-center paw contrib.   =     -61.62944868 Ry

     convergence has been achieved in   9 iterations

     Forces acting on atoms (cartesian axes, Ry/au):

     atom    1 type  1   force =     0.00000000    0.00000000    0.00051460
     atom    2 type  1   force =     0.00000000    0.00000000   -0.00021518
     atom    3 type  1   force =     0.00000000    0.00000000   -0.00026317
     atom    4 type  1   force =     0.00000000    0.00000000   -0.00036888
     atom    5 type  1   force =    -0.00000000    0.00000000   -0.00002601
     atom    6 type  1   force =     0.00000000    0.00000000    0.00002601
     atom    7 type  1   force =    -0.00000000    0.00000000    0.00036888
     atom    8 type  1   force =    -0.00000000   -0.00000000    0.00026317
     atom    9 type  1   force =     0.00000000    0.00000000    0.00021518
     atom   10 type  1   force =     0.00000000   -0.00000000   -0.00051460
     atom   11 type  2   force =    -0.00000000    0.00000000   -0.00005782
     atom   12 type  2   force =     0.00000000    0.00000000    0.00005782

     Total force =     0.001020     Total SCF correction =     0.000004


     Computing stress (Cartesian axis) and pressure

          total   stress  (Ry/bohr**3)                   (kbar)     P=       -0.17
  -0.00000057  -0.00000000   0.00000000           -0.08       -0.00        0.00
  -0.00000000  -0.00000057   0.00000000           -0.00       -0.08        0.00
   0.00000000   0.00000000  -0.00000237            0.00        0.00       -0.35

     Energy error            =      3.6E-06 Ry
     Gradient error          =      5.1E-04 Ry/Bohr
     Cell gradient error     =      8.4E-02 kbar

     number of scf cycles    =   9
     number of bfgs steps    =   8

     enthalpy           old  =    -186.7232121581 Ry
     enthalpy           new  =    -186.7232157310 Ry

     CASE: enthalpy          _new < enthalpy          _old

     new trust radius        =       0.0007701430 bohr
     new conv_thr            =            1.0E-11 Ry

     new unit-cell volume =    707.81312 a.u.^3 (   104.88708 Ang^3 )
     density =      1.93346 g/cm^3

CELL_PARAMETERS (angstrom)
   2.528316928  -0.000000000   0.000000000
   1.264158464   2.189586685   0.000000000
   0.000000000   0.000000000  18.946472050

ATOMIC_POSITIONS (crystal)
C                0.3333333300        0.3333333300        0.7301884628
C                0.6666666700        0.6666666700        0.7044501974
C                0.6666666700        0.6666666700        0.6224400876
C                0.0000000000       -0.0000000000        0.5952841101
C                0.0000000000       -0.0000000000        0.5135994423
C                0.3333333300        0.3333333300        0.4864005577
C                0.3333333300        0.3333333300        0.4047158899
C                0.6666666700        0.6666666700        0.3775599124
C                0.6666666700        0.6666666700        0.2955498026
C                0.0000000000       -0.0000000000        0.2698115372
H                0.3333333300        0.3333333300        0.7887265595
H               -0.0000000000        0.0000000000        0.2112734405



     Writing config-only to output data dir /tmp/qe/slab.save/ :
     XML data file
     NEW-OLD atomic charge density approx. for the potential

     total cpu time spent up to now is       90.9 secs

     Self-consistent Calculation

     iteration #  1     ecut=    90.00 Ry     beta= 0.30
     Davidson diagonalization with overlap
     ethr =  1.00E-06,  avg # of iterations =  2.0

     Threshold (ethr) on eigenvalues was too large:
     Diagonalizing with lowered threshold

     Davidson diagonalization with overlap
     ethr =  9.03E-10,  avg # of iterations =  4.9

     total cpu time spent up to now is       92.5 secs

     total energy              =    -186.72321635 Ry
     estimated scf accuracy    <       0.00000038 Ry

     iteration #  2     ecut=    90.00 Ry     beta= 0.30
     Davidson diagonalization with overlap
     ethr =  8.96E-10,  avg # of iterations =  2.0

     total cpu time spent up to now is       93.2 secs

     total energy              =    -186.72321635 Ry
     estimated scf accuracy    <       0.00000011 Ry

     iteration #  3     ecut=    90.00 Ry     beta= 0.30
     Davidson diagonalization with overlap
     ethr =  2.68E-10,  avg # of iterations =  1.5

     total cpu time spent up to now is       93.9 secs

     total energy              =    -186.72321636 Ry
     estimated scf accuracy    <       0.00000004 Ry

     iteration #  4     ecut=    90.00 Ry     beta= 0.30
     Davidson diagonalization with overlap
     ethr =  8.41E-11,  avg # of iterations =  1.9

     total cpu time spent up to now is       94.6 secs

     total energy              =    -186.72321636 Ry
     estimated scf accuracy    <          3.3E-09 Ry

     iteration #  5     ecut=    90.00 Ry     beta= 0.30
     Davidson diagonalization with overlap
     ethr =  7.92E-12,  avg # of iterations =  2.1

     total cpu time spent up to now is       95.3 secs

     total energy              =    -186.72321636 Ry
     estimated scf accuracy    <          5.4E-10 Ry

     iteration #  6     ecut=    90.00 Ry     beta= 0.30
     Davidson diagonalization with overlap
     ethr =  1.29E-12,  avg # of iterations =  2.1

     total cpu time spent up to now is       96.1 secs

     total energy              =    -186.72321636 Ry
     estimated scf accuracy    <          9.0E-11 Ry

     iteration #  7     ecut=    90.00 Ry     beta= 0.30
     Davidson diagonalization with overlap
     ethr =  2.14E-13,  avg # of iterations =  3.0

     total cpu time spent up to now is       97.0 secs

     total energy              =    -186.72321636 Ry
     estimated scf accuracy    <          4.6E-11 Ry

     iteration #  8     ecut=    90.00 Ry     beta= 0.30
     Davidson diagonalization with overlap
     ethr =  1.08E-13,  avg # of iterations =  2.1

     total cpu time spent up to now is       97.8 secs

     End of self-consistent calculation

          k = 0.0000 0.0000 0.0000 ( 10111 PWs)   bands (ev):

   -15.1896 -14.5488 -13.5055 -12.1072 -10.5486  -6.7190  -4.8794  -2.4317
     0.2502   2.8317   3.3278   3.3278   3.7220   3.7220   4.3286   4.3286
     4.9349   5.0641   5.0641   5.7149   5.7149   8.3319   8.8112  11.0109
    11.9579

          k = 0.0000 0.1154 0.0000 ( 10205 PWs)   bands (ev):

   -14.9454 -14.3063 -13.2664 -11.8737 -10.3240  -6.4990  -4.6787  -2.2658
     0.3548   2.1387   2.5485   2.7952   2.8255   3.2330   3.2863   3.8991
     3.9957   4.6231   4.6887   4.9123   5.3711   8.5447   9.0369  11.0873
    11.9100

          k = 0.0000 0.2308 0.0000 ( 10169 PWs)   bands (ev):

   -14.2167 -13.5832 -12.5540 -11.1791  -9.6567  -5.8733  -4.1194  -1.8486
    -0.4432  -0.0294   0.7182   0.7940   1.7161   1.7407   2.2232   2.5175
     2.8753   2.9570   3.8172   4.3918   4.5482   9.2277   9.6380  11.1787
    11.6330

          k = 0.0000 0.3461 0.0000 ( 10168 PWs)   bands (ev):

   -13.0180 -12.3955 -11.3881 -10.0489  -8.5786  -5.1053  -3.7610  -3.1124
    -2.6521  -1.7369  -1.4869  -0.5223   0.0676   0.7643   0.9881   1.2678
     2.0352   2.4971   2.9329   3.6664   3.6924  10.2571  10.4349  11.0205
    11.7220

          k = 0.0000 0.4615 0.0000 ( 10188 PWs)   bands (ev):

   -11.3903 -10.7951  -9.8482  -8.6332  -7.3784  -5.9604  -5.8690  -5.1015
    -3.9397  -2.8512  -2.4772  -1.4323  -0.1957   0.1168   0.4764   0.6293
     1.4114   1.9231   2.3260   3.0432   3.0987  10.4995  11.2483  11.7198
    11.9773

          k =-0.0000-0.5769 0.0000 ( 10180 PWs)   bands (ev):

    -9.6691  -9.5234  -9.1099  -8.4441  -7.5123  -6.9945  -6.2240  -5.9795
    -4.8766  -4.7643  -1.3498  -1.2714  -0.5923  -0.1073   0.1091   0.4078
     1.1941   1.6696   2.1134   2.8069   2.8901  10.8493  11.1301  11.4370
    12.1721

          k = 0.0999 0.1731 0.0000 ( 10203 PWs)   bands (ev):

   -14.4589 -13.8235 -12.7906 -11.4095  -9.8779  -6.0745  -4.2961  -1.9653
     0.4290   0.7171   1.0085   1.2809   1.8791   2.2929   2.3951   2.9832
     3.0165   3.4272   3.9109   4.1385   4.9175   9.0136   9.4678  11.5188
    12.0282

          k = 0.0999 0.2884 0.0000 ( 10164 PWs)   bands (ev):

   -13.4948 -12.8675 -11.8504 -10.4951  -9.0016  -5.3285  -3.6764  -2.0006
    -1.4119  -1.3062  -0.6322  -0.0995   0.4588   0.9309   1.0638   1.4877
     1.8962   2.3628   2.8221   3.2604   4.3128   9.9638  10.2532  11.6900
    12.3192

          k = 0.0999 0.4038 0.0000 ( 10174 PWs)   bands (ev):

   -12.0775 -11.4668 -10.4830  -9.1849  -7.7723  -5.1714  -4.6922  -3.8953
    -3.0613  -2.5883  -1.8215  -1.4365  -0.4167  -0.1654   0.1768   0.6329
     1.0260   1.6030   2.3812   2.4647   3.4764  10.9406  11.3413  11.7497
    12.5997

          k = 0.0999-0.6346 0.0000 ( 10210 PWs)   bands (ev):

   -10.2928  -9.7535  -8.9779  -8.1650  -7.2438  -6.5623  -6.1251  -5.5888
    -4.9269  -3.7368  -1.9258  -1.0198  -0.8683  -0.5806  -0.2209   0.1222
     0.5241   1.3620   1.7076   2.2899   2.7873  11.2428  12.0545  12.4082
    12.6899

          k = 0.1998 0.3461 0.0000 ( 10143 PWs)   bands (ev):

   -12.3102 -11.6954 -10.7031  -9.3885  -7.9496  -4.8683  -3.7474  -3.0694
    -2.4543  -2.4311  -1.8349  -1.4134  -0.7397  -0.5725   0.2620   0.3212
     0.8499   1.1320   1.2925   2.5622   3.6312  11.0735  11.2695  12.5689
    12.8052

          k = 0.1998-0.6923 0.0000 ( 10195 PWs)   bands (ev):

   -10.7098 -10.1260  -9.2017  -8.0214  -6.7844  -5.7529  -5.4519  -4.7817
    -3.9629  -3.1280  -2.3123  -2.0391  -1.4305  -1.1489  -1.1259  -0.2626
     0.1278   0.5337   1.1668   1.8639   2.6807  11.8099  12.2881  12.8835
    13.5100

          k = 0.1998-0.5769 0.0000 ( 10204 PWs)   bands (ev):

    -9.0265  -8.8920  -8.5007  -7.8693  -6.9355  -6.4886  -5.9668  -5.4055
    -4.7462  -4.4653  -2.5074  -2.1958  -2.0771  -1.1835  -0.5824  -0.3607
     0.0092   0.2094   0.9425   1.8000   2.0062  11.7777  12.7769  13.3464
    13.6516

          k = 0.2998-0.6346 0.0000 ( 10229 PWs)   bands (ev):

    -9.0235  -8.5442  -7.9087  -7.3941  -6.5461  -6.4798  -5.4107  -5.4033
    -4.9853  -4.4748  -3.0420  -2.8859  -2.5837  -1.8009  -1.7809  -0.5360
     0.2526   0.8200   0.8658   0.9546   1.6515  12.3192  12.7157  13.0979
    13.3690

     the Fermi energy is     7.1216 ev

!    total energy              =    -186.72321636 Ry
     estimated scf accuracy    <          2.3E-12 Ry
     smearing contrib. (-TS)   =       0.00000000 Ry
     internal energy E=F+TS    =    -186.72321636 Ry

     The total energy is F=E-TS. E is the sum of the following terms:
     one-electron contribution =   -1201.66547974 Ry
     hartree contribution      =     621.76415995 Ry
     xc contribution           =     -48.23388925 Ry
     ewald contribution        =     503.04145239 Ry
     one-center paw contrib.   =     -61.62945970 Ry

     convergence has been achieved in   8 iterations

     Forces acting on atoms (cartesian axes, Ry/au):

     atom    1 type  1   force =    -0.00000000   -0.00000000    0.00023037
     atom    2 type  1   force =     0.00000000    0.00000000   -0.00006586
     atom    3 type  1   force =     0.00000000    0.00000000   -0.00008771
     atom    4 type  1   force =     0.00000000   -0.00000000   -0.00009964
     atom    5 type  1   force =     0.00000000    0.00000000   -0.00004611
     atom    6 type  1   force =    -0.00000000   -0.00000000    0.00004611
     atom    7 type  1   force =     0.00000000   -0.00000000    0.00009964
     atom    8 type  1   force =    -0.00000000   -0.00000000    0.00008771
     atom    9 type  1   force =     0.00000000    0.00000000    0.00006586
     atom   10 type  1   force =    -0.00000000    0.00000000   -0.00023037
     atom   11 type  2   force =     0.00000000    0.00000000   -0.00002793
     atom   12 type  2   force =     0.00000000    0.00000000    0.00002793

     Total force =     0.000395     Total SCF correction =     0.000002


     Computing stress (Cartesian axis) and pressure

          total   stress  (Ry/bohr**3)                   (kbar)     P=       -0.05
  -0.00000033  -0.00000000   0.00000000           -0.05       -0.00        0.00
   0.00000000  -0.00000033   0.00000000            0.00       -0.05        0.00
   0.00000000   0.00000000  -0.00000027            0.00        0.00       -0.04

     Energy error            =      6.3E-07 Ry
     Gradient error          =      2.3E-04 Ry/Bohr
     Cell gradient error     =      4.8E-02 kbar

     number of scf cycles    =  10
     number of bfgs steps    =   9

     enthalpy           old  =    -186.7232157310 Ry
     enthalpy           new  =    -186.7232163592 Ry

     CASE: enthalpy          _new < enthalpy          _old

     new trust radius        =       0.0002784250 bohr
     new conv_thr            =            1.0E-11 Ry

     new unit-cell volume =    707.80027 a.u.^3 (   104.88518 Ang^3 )
     density =      1.93350 g/cm^3

CELL_PARAMETERS (angstrom)
   2.528293979  -0.000000000   0.000000000
   1.264146990   2.189566811   0.000000000
   0.000000000   0.000000000  18.946472050

ATOMIC_POSITIONS (crystal)
C                0.3333333300        0.3333333300        0.7301962393
C                0.6666666700        0.6666666700        0.7044514229
C                0.6666666700        0.6666666700        0.6224362625
C                0.0000000000       -0.0000000000        0.5952796198
C                0.0000000000       -0.0000000000        0.5135976485
C                0.3333333300        0.3333333300        0.4864023515
C                0.3333333300        0.3333333300        0.4047203802
C                0.6666666700        0.6666666700        0.3775637375
C                0.6666666700        0.6666666700        0.2955485771
C                0.0000000000       -0.0000000000        0.2698037607
H                0.3333333300        0.3333333300        0.7887324798
H               -0.0000000000        0.0000000000        0.2112675202



     Writing config-only to output data dir /tmp/qe/slab.save/ :
     XML data file
     NEW-OLD atomic charge density approx. for the potential

     total cpu time spent up to now is       99.4 secs

     Self-consistent Calculation

     iteration #  1     ecut=    90.00 Ry     beta= 0.30
     Davidson diagonalization with overlap
     ethr =  1.00E-06,  avg # of iterations =  2.0

     Threshold (ethr) on eigenvalues was too large:
     Diagonalizing with lowered threshold

     Davidson diagonalization with overlap
     ethr =  5.51E-11,  avg # of iterations =  4.7

     total cpu time spent up to now is      101.0 secs

     total energy              =    -186.72321645 Ry
     estimated scf accuracy    <       0.00000004 Ry

     iteration #  2     ecut=    90.00 Ry     beta= 0.30
     Davidson diagonalization with overlap
     ethr =  8.60E-11,  avg # of iterations =  2.0

     total cpu time spent up to now is      101.7 secs

     total energy              =    -186.72321645 Ry
     estimated scf accuracy    <          8.2E-09 Ry

     iteration #  3     ecut=    90.00 Ry     beta= 0.30
     Davidson diagonalization with overlap
     ethr =  1.95E-11,  avg # of iterations =  1.6

     total cpu time spent up to now is      102.4 secs

     total energy              =    -186.72321645 Ry
     estimated scf accuracy    <          2.6E-09 Ry

     iteration #  4     ecut=    90.00 Ry     beta= 0.30
     Davidson diagonalization with overlap
     ethr =  6.14E-12,  avg # of iterations =  1.8

     total cpu time spent up to now is      103.1 secs

     total energy              =    -186.72321645 Ry
     estimated scf accuracy    <          4.7E-10 Ry

     iteration #  5     ecut=    90.00 Ry     beta= 0.30
     Davidson diagonalization with overlap
     ethr =  1.11E-12,  avg # of iterations =  2.0

     total cpu time spent up to now is      103.7 secs

     total energy              =    -186.72321645 Ry
     estimated scf accuracy    <          4.2E-11 Ry

     iteration #  6     ecut=    90.00 Ry     beta= 0.30
     Davidson diagonalization with overlap
     ethr =  1.01E-13,  avg # of iterations =  3.0

     total cpu time spent up to now is      104.5 secs

     End of self-consistent calculation

          k = 0.0000 0.0000 0.0000 ( 10111 PWs)   bands (ev):

   -15.1896 -14.5480 -13.5050 -12.1072 -10.5486  -6.7188  -4.8791  -2.4321
     0.2499   2.8315   3.3280   3.3280   3.7230   3.7230   4.3294   4.3294
     4.9350   5.0648   5.0648   5.7152   5.7152   8.3319   8.8112  11.0111
    11.9583

          k = 0.0000 0.1154 0.0000 ( 10205 PWs)   bands (ev):

   -14.9454 -14.3055 -13.2660 -11.8736 -10.3239  -6.4989  -4.6784  -2.2661
     0.3545   2.1389   2.5494   2.7954   2.8255   3.2340   3.2870   3.8999
     3.9963   4.6234   4.6894   4.9125   5.3714   8.5447   9.0369  11.0875
    11.9103

          k = 0.0000 0.2308 0.0000 ( 10169 PWs)   bands (ev):

   -14.2168 -13.5824 -12.5536 -11.1790  -9.6567  -5.8732  -4.1191  -1.8489
    -0.4430  -0.0286   0.7183   0.7945   1.7166   1.7410   2.2243   2.5177
     2.8752   2.9577   3.8178   4.3920   4.5485   9.2278   9.6382  11.1790
    11.6334

          k = 0.0000 0.3461 0.0000 ( 10168 PWs)   bands (ev):

   -13.0180 -12.3947 -11.3876 -10.0488  -8.5785  -5.1051  -3.7604  -3.1124
    -2.6513  -1.7363  -1.4869  -0.5221   0.0676   0.7645   0.9880   1.2689
     2.0359   2.4971   2.9335   3.6665   3.6926  10.2574  10.4352  11.0205
    11.7225

          k = 0.0000 0.4615 0.0000 ( 10188 PWs)   bands (ev):

   -11.3903 -10.7942  -9.8477  -8.6330  -7.3782  -5.9603  -5.8683  -5.1008
    -3.9394  -2.8510  -2.4770  -1.4321  -0.1958   0.1170   0.4764   0.6304
     1.4122   1.9231   2.3265   3.0433   3.0989  10.4997  11.2489  11.7198
    11.9776

          k =-0.0000-0.5769 0.0000 ( 10180 PWs)   bands (ev):

    -9.6692  -9.5228  -9.1090  -8.4434  -7.5117  -6.9942  -6.2238  -5.9790
    -4.8763  -4.7641  -1.3495  -1.2714  -0.5921  -0.1071   0.1091   0.4089
     1.1948   1.6696   2.1140   2.8070   2.8903  10.8496  11.1304  11.4377
    12.1728

          k = 0.0999 0.1731 0.0000 ( 10203 PWs)   bands (ev):

   -14.4590 -13.8227 -12.7902 -11.4094  -9.8778  -6.0743  -4.2958  -1.9657
     0.4289   0.7172   1.0091   1.2818   1.8800   2.2931   2.3959   2.9831
     3.0172   3.4279   3.9111   4.1390   4.9177   9.0137   9.4679  11.5190
    12.0285

          k = 0.0999 0.2884 0.0000 ( 10164 PWs)   bands (ev):

   -13.4948 -12.8666 -11.8499 -10.4950  -9.0015  -5.3283  -3.6760  -2.0007
    -1.4112  -1.3060  -0.6317  -0.0990   0.4593   0.9310   1.0638   1.4886
     1.8964   2.3634   2.8221   3.2607   4.3129   9.9639  10.2535  11.6903
    12.3196

          k = 0.0999 0.4038 0.0000 ( 10174 PWs)   bands (ev):

   -12.0775 -11.4659 -10.4825  -9.1847  -7.7722  -5.1712  -4.6916  -3.8946
    -3.0611  -2.5879  -1.8214  -1.4361  -0.4167  -0.1652   0.1774   0.6335
     1.0260   1.6035   2.3812   2.4650   3.4765  10.9408  11.3416  11.7498
    12.6003

          k = 0.0999-0.6346 0.0000 ( 10210 PWs)   bands (ev):

   -10.2928  -9.7526  -8.9773  -8.1647  -7.2433  -6.5621  -6.1246  -5.5885
    -4.9265  -3.7367  -1.9257  -1.0197  -0.8679  -0.5800  -0.2206   0.1227
     0.5244   1.3624   1.7078   2.2899   2.7874  11.2428  12.0544  12.4089
    12.6903

          k = 0.1998 0.3461 0.0000 ( 10143 PWs)   bands (ev):

   -12.3101 -11.6946 -10.7026  -9.3884  -7.9495  -4.8680  -3.7466  -3.0694
    -2.4542  -2.4304  -1.8341  -1.4131  -0.7394  -0.5722   0.2625   0.3216
     0.8501   1.1323   1.2924   2.5623   3.6313  11.0737  11.2698  12.5689
    12.8055

          k = 0.1998-0.6923 0.0000 ( 10195 PWs)   bands (ev):

   -10.7097 -10.1251  -9.2011  -8.0212  -6.7842  -5.7526  -5.4515  -4.7810
    -3.9625  -3.1277  -2.3122  -2.0387  -1.4299  -1.1485  -1.1255  -0.2623
     0.1280   0.5337   1.1668   1.8640   2.6809  11.8099  12.2881  12.8838
    13.5101

          k = 0.1998-0.5769 0.0000 ( 10204 PWs)   bands (ev):

    -9.0266  -8.8914  -8.4999  -7.8687  -6.9348  -6.4881  -5.9667  -5.4051
    -4.7459  -4.4652  -2.5073  -2.1952  -2.0764  -1.1830  -0.5821  -0.3607
     0.0092   0.2098   0.9425   1.8000   2.0063  11.7775  12.7764  13.3465
    13.6519

          k = 0.2998-0.6346 0.0000 ( 10229 PWs)   bands (ev):

    -9.0234  -8.5433  -7.9081  -7.3940  -6.5453  -6.4789  -5.4104  -5.4032
    -4.9850  -4.4744  -3.0420  -2.8852  -2.5831  -1.8008  -1.7805  -0.5358
     0.2526   0.8201   0.8659   0.9546   1.6516  12.3191  12.7157  13.0976
    13.3690

     the Fermi energy is     7.1218 ev

!    total energy              =    -186.72321645 Ry
     estimated scf accuracy    <          9.1E-12 Ry
     smearing contrib. (-TS)   =       0.00000000 Ry
     internal energy E=F+TS    =    -186.72321645 Ry

     The total energy is F=E-TS. E is the sum of the following terms:
     one-electron contribution =   -1201.65244851 Ry
     hartree contribution      =     621.75813249 Ry
     xc contribution           =     -48.23387885 Ry
     ewald contribution        =     503.03443810 Ry
     one-center paw contrib.   =     -61.62945968 Ry

     convergence has been achieved in   6 iterations

     Forces acting on atoms (cartesian axes, Ry/au):

     atom    1 type  1   force =    -0.00000000   -0.00000000    0.00002157
     atom    2 type  1   force =    -0.00000000   -0.00000000   -0.00000147
     atom    3 type  1   force =     0.00000000    0.00000000    0.00000259
     atom    4 type  1   force =    -0.00000000    0.00000000   -0.00001053
     atom    5 type  1   force =    -0.00000000    0.00000000    0.00001330
     atom    6 type  1   force =     0.00000000    0.00000000   -0.00001330
     atom    7 type  1   force =     0.00000000    0.00000000    0.00001053
     atom    8 type  1   force =    -0.00000000    0.00000000   -0.00000259
     atom    9 type  1   force =     0.00000000    0.00000000    0.00000147
     atom   10 type  1   force =     0.00000000   -0.00000000   -0.00002157
     atom   11 type  2   force =    -0.00000000    0.00000000   -0.00000218
     atom   12 type  2   force =    -0.00000000   -0.00000000    0.00000218

     Total force =     0.000039     Total SCF correction =     0.000009
     SCF correction compared to forces is large: reduce conv_thr to get better values


     Computing stress (Cartesian axis) and pressure

          total   stress  (Ry/bohr**3)                   (kbar)     P=       -0.05
  -0.00000000   0.00000000   0.00000000           -0.00        0.00        0.00
  -0.00000000  -0.00000000   0.00000000           -0.00       -0.00        0.00
   0.00000000   0.00000000  -0.00000099            0.00        0.00       -0.15

     Energy error            =      9.3E-08 Ry
     Gradient error          =      2.2E-05 Ry/Bohr
     Cell gradient error     =      1.5E-04 kbar

     bfgs converged in  11 scf cycles and  10 bfgs steps
     (criteria: energy <  1.0E-05 Ry, force <  1.0E-04 Ry/Bohr, cell <  1.0E-01 kbar)

     End of BFGS Geometry Optimization

     Final enthalpy           =    -186.7232164524 Ry

     File /tmp/qe/slab.bfgs deleted, as requested
Begin final coordinates
     new unit-cell volume =    707.80027 a.u.^3 (   104.88518 Ang^3 )
     density =      1.93350 g/cm^3

CELL_PARAMETERS (angstrom)
   2.528293979  -0.000000000   0.000000000
   1.264146990   2.189566811   0.000000000
   0.000000000   0.000000000  18.946472050

ATOMIC_POSITIONS (crystal)
C                0.3333333300        0.3333333300        0.7301962393
C                0.6666666700        0.6666666700        0.7044514229
C                0.6666666700        0.6666666700        0.6224362625
C                0.0000000000       -0.0000000000        0.5952796198
C                0.0000000000       -0.0000000000        0.5135976485
C                0.3333333300        0.3333333300        0.4864023515
C                0.3333333300        0.3333333300        0.4047203802
C                0.6666666700        0.6666666700        0.3775637375
C                0.6666666700        0.6666666700        0.2955485771
C                0.0000000000       -0.0000000000        0.2698037607
H                0.3333333300        0.3333333300        0.7887324798
H               -0.0000000000        0.0000000000        0.2112675202
End final coordinates



     Writing config-only to output data dir /tmp/qe/slab.save/ :
     XML data file

     Final scf calculation at the relaxed structure.
     The G-vectors are recalculated for the final unit cell
     Results may differ from those at the preceding step.

     Parallelization info
     --------------------
     sticks:   dense  smooth     PW     G-vecs:    dense   smooth      PW
     Min         141      70     20                28861    10199    1662
     Max         142      76     21                28892    10204    1697
     Sum        1135     571    163               231059    81607   13397

     Using Slab Decomposition



     bravais-lattice index     =            0
     lattice parameter (alat)  =       4.7740  a.u.
     unit-cell volume          =     707.8003 (a.u.)^3
     number of atoms/cell      =           12
     number of atomic types    =            2
     number of electrons       =        42.00
     number of Kohn-Sham states=           25
     kinetic-energy cutoff     =      90.0000  Ry
     charge density cutoff     =     720.0000  Ry
     scf convergence threshold =      1.0E-11
     mixing beta               =       0.3000
     number of iterations used =            8  plain     mixing
     press convergence thresh. =      1.0E-01
     Exchange-correlation= PBE
                           (   1   4   3   4   0   0   0)

     celldm(1)=   4.773978  celldm(2)=   0.000000  celldm(3)=   0.000000
     celldm(4)=   0.000000  celldm(5)=   0.000000  celldm(6)=   0.000000

     crystal axes: (cart. coord. in units of alat)
               a(1) = (   1.000797  -0.000000   0.000000 )  
               a(2) = (   0.500399   0.866716   0.000000 )  
               a(3) = (   0.000000   0.000000   7.499750 )  

     reciprocal axes: (cart. coord. in units 2 pi/alat)
               b(1) = (  0.999204 -0.576890  0.000000 )  
               b(2) = (  0.000000  1.153781 -0.000000 )  
               b(3) = ( -0.000000  0.000000  0.133338 )  


     PseudoPot. # 1 for C  read from file:
     ./C.pbe-n-kjpaw_psl.1.0.0.UPF
     MD5 check sum: 5d2aebdfa2cae82b50a7e79e9516da0f
     Pseudo is Projector augmented-wave + core cor, Zval =  4.0
     Generated using "atomic" code by A. Dal Corso  v.5.1
     Shape of augmentation charge: PSQ
     Using radial grid of 1073 points,  4 beta functions with: 
                l(1) =   0
                l(2) =   0
                l(3) =   1
                l(4) =   1
     Q(r) pseudized with 0 coefficients 


     PseudoPot. # 2 for H  read from file:
     ./H_ONCV_PBE-1.0.oncvpsp.upf
     MD5 check sum: 1790becc920ee074925cf490c71280fe
     Pseudo is Norm-conserving, Zval =  1.0
     Generated using ONCVPSP code by D. R. Hamann
     Using radial grid of 1166 points,  2 beta functions with: 
                l(1) =   0
                l(2) =   0

     atomic species   valence    mass     pseudopotential
     C                 4.00    12.01100     C ( 1.00)
     H                 1.00     1.00800     H ( 1.00)

     12 Sym. Ops., with inversion, found ( 6 have fractional translation)



   Cartesian axes

     site n.     atom                  positions (alat units)
         1        C      tau(   1) = (   0.5003985   0.2889052   5.4762894  )
         2        C      tau(   2) = (   1.0007971   0.5778104   5.2832097  )
         3        C      tau(   3) = (   1.0007971   0.5778104   4.6681165  )
         4        C      tau(   4) = (   0.0000000  -0.0000000   4.4644485  )
         5        C      tau(   5) = (   0.0000000  -0.0000000   3.8518541  )
         6        C      tau(   6) = (   0.5003985   0.2889052   3.6478962  )
         7        C      tau(   7) = (   0.5003985   0.2889052   3.0353018  )
         8        C      tau(   8) = (   1.0007971   0.5778104   2.8316337  )
         9        C      tau(   9) = (   1.0007971   0.5778104   2.2165405  )
        10        C      tau(  10) = (   0.0000000  -0.0000000   2.0234608  )
        11        H      tau(  11) = (   0.5003985   0.2889052   5.9152966  )
        12        H      tau(  12) = (  -0.0000000   0.0000000   1.5844536  )

     number of k points=    14  Marzari-Vanderbilt smearing, width (Ry)=  0.0100
                       cart. coord. in units 2pi/alat
        k(    1) = (   0.0000000   0.0000000   0.0000000), wk =   0.0200000
        k(    2) = (   0.0000000   0.1153781   0.0000000), wk =   0.1200000
        k(    3) = (   0.0000000   0.2307562   0.0000000), wk =   0.1200000
        k(    4) = (   0.0000000   0.3461343   0.0000000), wk =   0.1200000
        k(    5) = (   0.0000000   0.4615124   0.0000000), wk =   0.1200000
        k(    6) = (  -0.0000000  -0.5768905   0.0000000), wk =   0.0600000
        k(    7) = (   0.0999204   0.1730671   0.0000000), wk =   0.1200000
        k(    8) = (   0.0999204   0.2884452   0.0000000), wk =   0.2400000
        k(    9) = (   0.0999204   0.4038233   0.0000000), wk =   0.2400000
        k(   10) = (   0.0999204  -0.6345795   0.0000000), wk =   0.2400000
        k(   11) = (   0.1998407   0.3461343   0.0000000), wk =   0.1200000
        k(   12) = (   0.1998407  -0.6922685   0.0000000), wk =   0.2400000
        k(   13) = (   0.1998407  -0.5768905   0.0000000), wk =   0.1200000
        k(   14) = (   0.2997611  -0.6345795   0.0000000), wk =   0.1200000

     Dense  grid:   231059 G-vectors     FFT dimensions: (  45,  45, 320)

     Smooth grid:    81607 G-vectors     FFT dimensions: (  30,  30, 225)

     Estimated max dynamical RAM per process >      61.66 MB

     Estimated total dynamical RAM >     493.32 MB

     Initial potential from superposition of free atoms

     starting charge      41.9996, renormalised to      42.0000
     Starting wfcs are   42 randomized atomic wfcs
     Checking if some PAW data can be deallocated... 

     total cpu time spent up to now is      106.5 secs

     Self-consistent Calculation

     iteration #  1     ecut=    90.00 Ry     beta= 0.30
     Davidson diagonalization with overlap
     c_bands:  1 eigenvalues not converged
     c_bands:  1 eigenvalues not converged
     c_bands:  2 eigenvalues not converged
     c_bands:  1 eigenvalues not converged
     c_bands:  1 eigenvalues not converged
     c_bands:  1 eigenvalues not converged
     c_bands:  1 eigenvalues not converged
     c_bands:  2 eigenvalues not converged
     c_bands:  2 eigenvalues not converged
     c_bands:  2 eigenvalues not converged
     c_bands:  2 eigenvalues not converged
     c_bands:  1 eigenvalues not converged
     ethr =  1.00E-06,  avg # of iterations = 19.7

     negative rho (up, down):  1.478E-08 0.000E+00

     total cpu time spent up to now is      108.9 secs

     total energy              =    -186.77770143 Ry
     estimated scf accuracy    <       0.86779403 Ry

     iteration #  2     ecut=    90.00 Ry     beta= 0.30
     Davidson diagonalization with overlap
     ethr =  2.07E-03,  avg # of iterations =  2.5

     negative rho (up, down):  1.165E-07 0.000E+00

     total cpu time spent up to now is      109.6 secs

     total energy              =    -186.70840932 Ry
     estimated scf accuracy    <       0.27150930 Ry

     iteration #  3     ecut=    90.00 Ry     beta= 0.30
     Davidson diagonalization with overlap
     ethr =  6.46E-04,  avg # of iterations =  4.4

     negative rho (up, down):  6.155E-08 0.000E+00

     total cpu time spent up to now is      110.3 secs

     total energy              =    -186.72174346 Ry
     estimated scf accuracy    <       0.03015273 Ry

     iteration #  4     ecut=    90.00 Ry     beta= 0.30
     Davidson diagonalization with overlap
     ethr =  7.18E-05,  avg # of iterations =  5.1

     negative rho (up, down):  3.027E-08 0.000E+00

     total cpu time spent up to now is      111.1 secs

     total energy              =    -186.72278253 Ry
     estimated scf accuracy    <       0.00412198 Ry

     iteration #  5     ecut=    90.00 Ry     beta= 0.30
     Davidson diagonalization with overlap
     ethr =  9.81E-06,  avg # of iterations =  5.0

     negative rho (up, down):  1.534E-08 0.000E+00

     total cpu time spent up to now is      111.9 secs

     total energy              =    -186.72315198 Ry
     estimated scf accuracy    <       0.00034742 Ry

     iteration #  6     ecut=    90.00 Ry     beta= 0.30
     Davidson diagonalization with overlap
     ethr =  8.27E-07,  avg # of iterations =  3.9

     total cpu time spent up to now is      112.7 secs

     total energy              =    -186.72320334 Ry
     estimated scf accuracy    <       0.00007771 Ry

     iteration #  7     ecut=    90.00 Ry     beta= 0.30
     Davidson diagonalization with overlap
     ethr =  1.85E-07,  avg # of iterations =  2.3

     total cpu time spent up to now is      113.5 secs

     total energy              =    -186.72321543 Ry
     estimated scf accuracy    <       0.00001481 Ry

     iteration #  8     ecut=    90.00 Ry     beta= 0.30
     Davidson diagonalization with overlap
     ethr =  3.53E-08,  avg # of iterations =  2.0

     total cpu time spent up to now is      114.2 secs

     total energy              =    -186.72321683 Ry
     estimated scf accuracy    <       0.00000200 Ry

     iteration #  9     ecut=    90.00 Ry     beta= 0.30
     Davidson diagonalization with overlap
     ethr =  4.76E-09,  avg # of iterations =  3.6

     total cpu time spent up to now is      115.1 secs

     total energy              =    -186.72321731 Ry
     estimated scf accuracy    <       0.00000152 Ry

     iteration # 10     ecut=    90.00 Ry     beta= 0.30
     Davidson diagonalization with overlap
     ethr =  3.62E-09,  avg # of iterations =  2.0

     total cpu time spent up to now is      115.9 secs

     total energy              =    -186.72321748 Ry
     estimated scf accuracy    <       0.00000015 Ry

     iteration # 11     ecut=    90.00 Ry     beta= 0.30
     Davidson diagonalization with overlap
     ethr =  3.66E-10,  avg # of iterations =  3.5

     total cpu time spent up to now is      116.7 secs

     total energy              =    -186.72321755 Ry
     estimated scf accuracy    <       0.00000002 Ry

     iteration # 12     ecut=    90.00 Ry     beta= 0.30
     Davidson diagonalization with overlap
     ethr =  3.88E-11,  avg # of iterations =  3.1

     total cpu time spent up to now is      117.6 secs

     total energy              =    -186.72321754 Ry
     estimated scf accuracy    <       0.00000004 Ry

     iteration # 13     ecut=    90.00 Ry     beta= 0.30
     Davidson diagonalization with overlap
     ethr =  3.88E-11,  avg # of iterations =  4.1

     total cpu time spent up to now is      118.6 secs

     total energy              =    -186.72321755 Ry
     estimated scf accuracy    <       0.00000002 Ry

     iteration # 14     ecut=    90.00 Ry     beta= 0.30
     Davidson diagonalization with overlap
     ethr =  3.88E-11,  avg # of iterations =  2.6

     total cpu time spent up to now is      119.3 secs

     total energy              =    -186.72321755 Ry
     estimated scf accuracy    <          5.2E-10 Ry

     iteration # 15     ecut=    90.00 Ry     beta= 0.30
     Davidson diagonalization with overlap
     ethr =  1.23E-12,  avg # of iterations =  4.9

     total cpu time spent up to now is      120.4 secs

     total energy              =    -186.72321755 Ry
     estimated scf accuracy    <          2.4E-09 Ry

     iteration # 16     ecut=    90.00 Ry     beta= 0.30
     Davidson diagonalization with overlap
     ethr =  1.23E-12,  avg # of iterations =  3.1

     total cpu time spent up to now is      121.3 secs

     total energy              =    -186.72321755 Ry
     estimated scf accuracy    <          3.6E-10 Ry

     iteration # 17     ecut=    90.00 Ry     beta= 0.30
     Davidson diagonalization with overlap
     ethr =  8.57E-13,  avg # of iterations =  2.0

     total cpu time spent up to now is      122.0 secs

     total energy              =    -186.72321756 Ry
     estimated scf accuracy    <          4.0E-11 Ry

     iteration # 18     ecut=    90.00 Ry     beta= 0.30
     Davidson diagonalization with overlap
     ethr =  1.00E-13,  avg # of iterations =  3.5

     total cpu time spent up to now is      122.9 secs

     End of self-consistent calculation

          k = 0.0000 0.0000 0.0000 ( 10171 PWs)   bands (ev):

   -15.1896 -14.5480 -13.5050 -12.1072 -10.5486  -6.7188  -4.8791  -2.4321
     0.2499   2.8315   3.3280   3.3280   3.7230   3.7230   4.3295   4.3295
     4.9350   5.0648   5.0648   5.7152   5.7152   8.3323   8.8113  11.0115
    11.9583

          k = 0.0000 0.1154 0.0000 ( 10209 PWs)   bands (ev):

   -14.9454 -14.3055 -13.2660 -11.8736 -10.3239  -6.4989  -4.6784  -2.2661
     0.3545   2.1389   2.5494   2.7954   2.8255   3.2340   3.2870   3.8999
     3.9963   4.6234   4.6895   4.9125   5.3714   8.5451   9.0370  11.0879
    11.9104

          k = 0.0000 0.2308 0.0000 ( 10177 PWs)   bands (ev):

   -14.2168 -13.5824 -12.5536 -11.1790  -9.6567  -5.8732  -4.1191  -1.8489
    -0.4430  -0.0286   0.7183   0.7945   1.7167   1.7410   2.2243   2.5177
     2.8752   2.9577   3.8178   4.3920   4.5485   9.2281   9.6383  11.1790
    11.6338

          k = 0.0000 0.3461 0.0000 ( 10188 PWs)   bands (ev):

   -13.0180 -12.3947 -11.3876 -10.0488  -8.5785  -5.1051  -3.7604  -3.1124
    -2.6513  -1.7363  -1.4869  -0.5221   0.0676   0.7645   0.9880   1.2689
     2.0359   2.4971   2.9335   3.6665   3.6926  10.2575  10.4353  11.0206
    11.7227

          k = 0.0000 0.4615 0.0000 ( 10208 PWs)   bands (ev):

   -11.3903 -10.7942  -9.8477  -8.6329  -7.3782  -5.9603  -5.8683  -5.1008
    -3.9394  -2.8510  -2.4770  -1.4321  -0.1958   0.1170   0.4764   0.6304
     1.4122   1.9231   2.3265   3.0433   3.0989  10.4997  11.2489  11.7198
    11.9776

          k =-0.0000-0.5769 0.0000 ( 10200 PWs)   bands (ev):

    -9.6692  -9.5228  -9.1090  -8.4434  -7.5117  -6.9942  -6.2238  -5.9790
    -4.8763  -4.7641  -1.3495  -1.2714  -0.5921  -0.1071   0.1091   0.4089
     1.1948   1.6696   2.1140   2.8070   2.8903  10.8496  11.1304  11.4377
    12.1728

          k = 0.0999 0.1731 0.0000 ( 10219 PWs)   bands (ev):

   -14.4590 -13.8227 -12.7902 -11.4094  -9.8778  -6.0743  -4.2958  -1.9657
     0.4289   0.7172   1.0091   1.2818   1.8800   2.2931   2.3959   2.9831
     3.0172   3.4279   3.9111   4.1390   4.9177   9.0140   9.4680  11.5195
    12.0285

          k = 0.0999 0.2884 0.0000 ( 10189 PWs)   bands (ev):

   -13.4948 -12.8666 -11.8499 -10.4950  -9.0015  -5.3283  -3.6760  -2.0007
    -1.4112  -1.3060  -0.6317  -0.0990   0.4593   0.9310   1.0638   1.4886
     1.8964   2.3634   2.8221   3.2607   4.3129   9.9642  10.2535  11.6903
    12.3200

          k = 0.0999 0.4038 0.0000 ( 10188 PWs)   bands (ev):

   -12.0775 -11.4659 -10.4825  -9.1847  -7.7722  -5.1712  -4.6915  -3.8946
    -3.0611  -2.5879  -1.8214  -1.4361  -0.4167  -0.1652   0.1774   0.6335
     1.0260   1.6035   2.3812   2.4650   3.4765  10.9409  11.3416  11.7500
    12.6003

          k = 0.0999-0.6346 0.0000 ( 10212 PWs)   bands (ev):

   -10.2928  -9.7526  -8.9773  -8.1647  -7.2433  -6.5621  -6.1246  -5.5885
    -4.9265  -3.7366  -1.9257  -1.0197  -0.8679  -0.5800  -0.2206   0.1227
     0.5244   1.3624   1.7078   2.2899   2.7874  11.2428  12.0544  12.4089
    12.6903

          k = 0.1998 0.3461 0.0000 ( 10167 PWs)   bands (ev):

   -12.3101 -11.6946 -10.7026  -9.3884  -7.9495  -4.8680  -3.7466  -3.0694
    -2.4542  -2.4304  -1.8341  -1.4131  -0.7394  -0.5722   0.2625   0.3216
     0.8501   1.1323   1.2924   2.5623   3.6313  11.0739  11.2699  12.5690
    12.8055

          k = 0.1998-0.6923 0.0000 ( 10213 PWs)   bands (ev):

   -10.7097 -10.1251  -9.2011  -8.0212  -6.7841  -5.7526  -5.4515  -4.7810
    -3.9625  -3.1277  -2.3122  -2.0387  -1.4299  -1.1485  -1.1255  -0.2623
     0.1280   0.5337   1.1668   1.8641   2.6809  11.8099  12.2881  12.8838
    13.5101

          k = 0.1998-0.5769 0.0000 ( 10220 PWs)   bands (ev):

    -9.0266  -8.8914  -8.4999  -7.8687  -6.9348  -6.4881  -5.9667  -5.4051
    -4.7459  -4.4652  -2.5073  -2.1952  -2.0764  -1.1830  -0.5821  -0.3607
     0.0092   0.2098   0.9425   1.8000   2.0063  11.7775  12.7764  13.3465
    13.6519

          k = 0.2998-0.6346 0.0000 ( 10249 PWs)   bands (ev):

    -9.0234  -8.5433  -7.9080  -7.3940  -6.5453  -6.4789  -5.4104  -5.4032
    -4.9850  -4.4744  -3.0420  -2.8852  -2.5831  -1.8008  -1.7805  -0.5358
     0.2526   0.8201   0.8659   0.9546   1.6516  12.3191  12.7157  13.0976
    13.3690

     the Fermi energy is     7.1218 ev

!    total energy              =    -186.72321756 Ry
     estimated scf accuracy    <          1.6E-12 Ry
     smearing contrib. (-TS)   =       0.00000000 Ry
     internal energy E=F+TS    =    -186.72321756 Ry

     The total energy is F=E-TS. E is the sum of the following terms:
     one-electron contribution =   -1201.65247048 Ry
     hartree contribution      =     621.75815319 Ry
     xc contribution           =     -48.23387912 Ry
     ewald contribution        =     503.03443810 Ry
     one-center paw contrib.   =     -61.62945925 Ry

     convergence has been achieved in  18 iterations

     Forces acting on atoms (cartesian axes, Ry/au):

     atom    1 type  1   force =     0.00000000    0.00000000    0.00002203
     atom    2 type  1   force =     0.00000000    0.00000000   -0.00000098
     atom    3 type  1   force =    -0.00000000   -0.00000000    0.00000288
     atom    4 type  1   force =     0.00000000    0.00000000   -0.00001009
     atom    5 type  1   force =     0.00000000    0.00000000    0.00001361
     atom    6 type  1   force =     0.00000000    0.00000000   -0.00001361
     atom    7 type  1   force =    -0.00000000   -0.00000000    0.00001009
     atom    8 type  1   force =     0.00000000    0.00000000   -0.00000288
     atom    9 type  1   force =     0.00000000    0.00000000    0.00000098
     atom   10 type  1   force =    -0.00000000    0.00000000   -0.00002203
     atom   11 type  2   force =    -0.00000000    0.00000000   -0.00000225
     atom   12 type  2   force =     0.00000000    0.00000000    0.00000225

     Total force =     0.000040     Total SCF correction =     0.000004


     Computing stress (Cartesian axis) and pressure

          total   stress  (Ry/bohr**3)                   (kbar)     P=       -0.05
   0.00000000  -0.00000000   0.00000000            0.00       -0.00        0.00
   0.00000000   0.00000000   0.00000000            0.00        0.00        0.00
   0.00000000   0.00000000  -0.00000099            0.00        0.00       -0.15


     Writing all to output data dir /tmp/qe/slab.save/ :
     XML data file, charge density, pseudopotentials, collected wavefunctions

     init_run     :      1.17s CPU      1.40s WALL (       2 calls)
     electrons    :    102.06s CPU    103.56s WALL (      12 calls)
     update_pot   :      1.10s CPU      1.11s WALL (      10 calls)
     forces       :      1.86s CPU      1.88s WALL (      12 calls)
     stress       :     15.07s CPU     15.12s WALL (      12 calls)

     Called by init_run:
     wfcinit      :      0.70s CPU      0.79s WALL (       2 calls)
     potinit      :      0.23s CPU      0.26s WALL (       2 calls)
     hinit0       :      0.11s CPU      0.19s WALL (       2 calls)

     Called by electrons:
     c_bands      :     70.31s CPU     71.25s WALL (     132 calls)
     sum_band     :     16.30s CPU     16.51s WALL (     132 calls)
     v_of_rho     :      5.16s CPU      5.27s WALL (     136 calls)
     newd         :      2.63s CPU      2.69s WALL (     136 calls)
     PAW_pot      :      8.94s CPU      8.97s WALL (     146 calls)
     mix_rho      :      0.38s CPU      0.39s WALL (     132 calls)

     Called by c_bands:
     init_us_2    :      2.00s CPU      2.05s WALL (    4200 calls)
     cegterg      :     66.99s CPU     67.86s WALL (    1848 calls)

     Called by *egterg:
     cdiaghg      :      3.84s CPU      3.99s WALL (    6816 calls)
     h_psi        :     53.68s CPU     54.39s WALL (    7096 calls)
     s_psi        :      1.98s CPU      2.01s WALL (    7096 calls)
     g_psi        :      0.34s CPU      0.34s WALL (    5220 calls)

     Called by h_psi:
     h_psi:calbec :      2.37s CPU      2.41s WALL (    7096 calls)
     vloc_psi     :     48.70s CPU     49.34s WALL (    7096 calls)
     add_vuspsi   :      2.30s CPU      2.33s WALL (    7096 calls)

     General routines
     calbec       :      3.89s CPU      3.96s WALL (    9924 calls)
     fft          :      2.12s CPU      2.31s WALL (    2062 calls)
     ffts         :      0.08s CPU      0.09s WALL (     268 calls)
     fftw         :     43.80s CPU     44.34s WALL (  290196 calls)
     interpolate  :      0.18s CPU      0.19s WALL (     136 calls)

     Parallel routines

     PWSCF        :   2m 2.42s CPU   2m 4.39s WALL


   This run was terminated on:  14:23:29   2Aug2026            

=------------------------------------------------------------------------------=
   JOB DONE.
=------------------------------------------------------------------------------=
Note: The following floating-point exceptions are signalling: IEEE_UNDERFLOW_FLAG IEEE_DENORMAL
Note: The following floating-point exceptions are signalling: IEEE_UNDERFLOW_FLAG IEEE_DENORMAL
Note: The following floating-point exceptions are signalling: IEEE_UNDERFLOW_FLAG IEEE_DENORMAL
Note: The following floating-point exceptions are signalling: IEEE_UNDERFLOW_FLAG IEEE_DENORMAL
Note: The following floating-point exceptions are signalling: IEEE_UNDERFLOW_FLAG IEEE_DENORMAL
Note: The following floating-point exceptions are signalling: IEEE_UNDERFLOW_FLAG IEEE_DENORMAL
Note: The following floating-point exceptions are signalling: IEEE_UNDERFLOW_FLAG IEEE_DENORMAL
Note: The following floating-point exceptions are signalling: IEEE_UNDERFLOW_FLAG IEEE_DENORMAL
