
     Program PWSCF v.7.3.1 starts on  1Aug2026 at 12:30:57 

     This program is part of the open-source Quantum ESPRESSO suite
     for quantum simulation of materials; please cite
         "P. Giannozzi et al., J. Phys.:Condens. Matter 21 395502 (2009);
         "P. Giannozzi et al., J. Phys.:Condens. Matter 29 465901 (2017);
         "P. Giannozzi et al., J. Chem. Phys. 152 154105 (2020);
          URL http://www.quantum-espresso.org", 
     in publications or presentations arising from this work. More details at
     http://www.quantum-espresso.org/quote

     Parallel version (MPI), running on     8 processors

     MPI processes distributed on     1 nodes
     187796 MiB available memory on the printing compute node when the environment starts

     Reading input from pw.in

     Current dimensions of program PWSCF are:
     Max number of different atomic species (ntypx) = 10
     Max number of k-points (npk) =  40000
     Max angular momentum in pseudopotentials (lmaxx) =  4
     file C.pbe-n-kjpaw_psl.1.0.0.UPF: wavefunction(s)  2S 2P renormalized
     Message from routine volume:
     axis vectors are left-handed
     Message from routine setup:
     using ibrav=0 with symmetry is DISCOURAGED, use correct ibrav instead

     R & G space division:  proc/nbgrp/npool/nimage =       8
     Subspace diagonalization in iterative solution of the eigenvalue problem:
     a serial algorithm will be used


     Parallelization info
     --------------------
     sticks:   dense  smooth     PW     G-vecs:    dense   smooth      PW
     Min         230     115     32                40002    14149    2184
     Max         231     116     33                40021    14166    2203
     Sum        1845     921    263               320103   113231   17569

     Using Slab Decomposition



     bravais-lattice index     =            0
     lattice parameter (alat)  =       4.7752  a.u.
     unit-cell volume          =     980.9734 (a.u.)^3
     number of atoms/cell      =           16
     number of atomic types    =            2
     number of electrons       =        52.00
     number of Kohn-Sham states=           31
     kinetic-energy cutoff     =      90.0000  Ry
     charge density cutoff     =     720.0000  Ry
     scf convergence threshold =      1.0E-08
     mixing beta               =       0.3000
     number of iterations used =            8  plain     mixing
     Exchange-correlation= PBE
                           (   1   4   3   4   0   0   0)

     celldm(1)=   4.775235  celldm(2)=   0.000000  celldm(3)=   0.000000
     celldm(4)=   0.000000  celldm(5)=   0.000000  celldm(6)=   0.000000

     crystal axes: (cart. coord. in units of alat)
               a(1) = (   1.000000   0.000000   0.000000 )  
               a(2) = (   0.000000  -1.414214   0.000000 )  
               a(3) = (   0.000000   0.000000   6.370270 )  

     reciprocal axes: (cart. coord. in units 2 pi/alat)
               b(1) = (  1.000000 -0.000000 -0.000000 )  
               b(2) = ( -0.000000 -0.707107 -0.000000 )  
               b(3) = ( -0.000000 -0.000000  0.156979 )  


     PseudoPot. # 1 for C  read from file:
     ./C.pbe-n-kjpaw_psl.1.0.0.UPF
     MD5 check sum: 5d2aebdfa2cae82b50a7e79e9516da0f
     Pseudo is Projector augmented-wave + core cor, Zval =  4.0
     Generated using "atomic" code by A. Dal Corso  v.5.1
     Shape of augmentation charge: PSQ
     Using radial grid of 1073 points,  4 beta functions with: 
                l(1) =   0
                l(2) =   0
                l(3) =   1
                l(4) =   1
     Q(r) pseudized with 0 coefficients 


     PseudoPot. # 2 for H  read from file:
     ./H_ONCV_PBE-1.0.oncvpsp.upf
     MD5 check sum: 1790becc920ee074925cf490c71280fe
     Pseudo is Norm-conserving, Zval =  1.0
     Generated using ONCVPSP code by D. R. Hamann
     Using radial grid of 1166 points,  2 beta functions with: 
                l(1) =   0
                l(2) =   0

     atomic species   valence    mass     pseudopotential
     C                 4.00    12.01100     C ( 1.00)
     H                 1.00     1.00800     H ( 1.00)

      8 Sym. Ops., with inversion, found ( 6 have fractional translation)



   Cartesian axes

     site n.     atom                  positions (alat units)
         1        C      tau(   1) = (  -0.0000000  -0.3611404   4.4247609  )
         2        C      tau(   2) = (   0.5000000  -0.6995197   4.4247609  )
         3        C      tau(   3) = (   0.0000000   0.0011500   3.9360405  )
         4        C      tau(   4) = (   0.5000000  -1.0618102   3.9360405  )
         5        C      tau(   5) = (   0.0000000  -0.3533013   3.4350066  )
         6        C      tau(   6) = (   0.5000000  -0.7073588   3.4350066  )
         7        C      tau(   7) = (   0.0000000  -0.0002520   2.9352634  )
         8        C      tau(   8) = (   0.5000000  -1.0604081   2.9352634  )
         9        C      tau(   9) = (  -0.0000000  -0.3547034   2.4342296  )
        10        C      tau(  10) = (   0.5000000  -0.7059567   2.4342296  )
        11        C      tau(  11) = (  -0.0000000   0.0075871   1.9455091  )
        12        C      tau(  12) = (   0.5000000  -1.0682472   1.9455091  )
        13        H      tau(  13) = (   0.0000000  -0.1238861   4.7893624  )
        14        H      tau(  14) = (   0.5000000  -0.9367741   4.7893624  )
        15        H      tau(  15) = (   0.0000000  -0.2296673   1.5809076  )
        16        H      tau(  16) = (   0.5000000  -0.8309929   1.5809076  )

     number of k points=    20  Marzari-Vanderbilt smearing, width (Ry)=  0.0100
                       cart. coord. in units 2pi/alat
        k(    1) = (   0.0000000  -0.0000000   0.0000000), wk =   0.0317460
        k(    2) = (   0.0000000  -0.1010153   0.0000000), wk =   0.0634921
        k(    3) = (   0.0000000  -0.2020305   0.0000000), wk =   0.0634921
        k(    4) = (   0.0000000  -0.3030458   0.0000000), wk =   0.0634921
        k(    5) = (   0.1111111  -0.0000000   0.0000000), wk =   0.0634921
        k(    6) = (   0.1111111  -0.1010153   0.0000000), wk =   0.1269841
        k(    7) = (   0.1111111  -0.2020305   0.0000000), wk =   0.1269841
        k(    8) = (   0.1111111  -0.3030458   0.0000000), wk =   0.1269841
        k(    9) = (   0.2222222  -0.0000000   0.0000000), wk =   0.0634921
        k(   10) = (   0.2222222  -0.1010153   0.0000000), wk =   0.1269841
        k(   11) = (   0.2222222  -0.2020305   0.0000000), wk =   0.1269841
        k(   12) = (   0.2222222  -0.3030458   0.0000000), wk =   0.1269841
        k(   13) = (   0.3333333  -0.0000000   0.0000000), wk =   0.0634921
        k(   14) = (   0.3333333  -0.1010153   0.0000000), wk =   0.1269841
        k(   15) = (   0.3333333  -0.2020305   0.0000000), wk =   0.1269841
        k(   16) = (   0.3333333  -0.3030458   0.0000000), wk =   0.1269841
        k(   17) = (   0.4444444  -0.0000000   0.0000000), wk =   0.0634921
        k(   18) = (   0.4444444  -0.1010153   0.0000000), wk =   0.1269841
        k(   19) = (   0.4444444  -0.2020305   0.0000000), wk =   0.1269841
        k(   20) = (   0.4444444  -0.3030458   0.0000000), wk =   0.1269841

     Dense  grid:   320103 G-vectors     FFT dimensions: (  48,  60, 270)

     Smooth grid:   113231 G-vectors     FFT dimensions: (  30,  48, 192)

     Estimated max dynamical RAM per process >      93.32 MB

     Estimated total dynamical RAM >     746.59 MB

     Initial potential from superposition of free atoms

     starting charge      51.9995, renormalised to      52.0000
     Starting wfcs are   52 randomized atomic wfcs
     Checking if some PAW data can be deallocated... 

     total cpu time spent up to now is        1.5 secs

     Self-consistent Calculation

     iteration #  1     ecut=    90.00 Ry     beta= 0.30
     Davidson diagonalization with overlap
     ethr =  1.00E-02,  avg # of iterations =  2.8

     total cpu time spent up to now is        3.4 secs

     total energy              =    -226.01402655 Ry
     estimated scf accuracy    <       1.19550116 Ry

     iteration #  2     ecut=    90.00 Ry     beta= 0.30
     Davidson diagonalization with overlap
     ethr =  2.30E-03,  avg # of iterations =  3.9

     negative rho (up, down):  1.759E-07 0.000E+00

     total cpu time spent up to now is        4.9 secs

     total energy              =    -225.92617683 Ry
     estimated scf accuracy    <       0.37488710 Ry

     iteration #  3     ecut=    90.00 Ry     beta= 0.30
     Davidson diagonalization with overlap
     ethr =  7.21E-04,  avg # of iterations =  5.7

     negative rho (up, down):  9.394E-07 0.000E+00

     total cpu time spent up to now is        6.7 secs

     total energy              =    -225.93950726 Ry
     estimated scf accuracy    <       0.05187596 Ry

     iteration #  4     ecut=    90.00 Ry     beta= 0.30
     Davidson diagonalization with overlap
     ethr =  9.98E-05,  avg # of iterations =  4.8

     negative rho (up, down):  1.848E-06 0.000E+00

     total cpu time spent up to now is        8.3 secs

     total energy              =    -225.94258172 Ry
     estimated scf accuracy    <       0.00516231 Ry

     iteration #  5     ecut=    90.00 Ry     beta= 0.30
     Davidson diagonalization with overlap
     c_bands:  1 eigenvalues not converged
     ethr =  9.93E-06,  avg # of iterations =  8.0

     negative rho (up, down):  1.875E-06 0.000E+00

     total cpu time spent up to now is       10.4 secs

     total energy              =    -225.94315966 Ry
     estimated scf accuracy    <       0.00054659 Ry

     iteration #  6     ecut=    90.00 Ry     beta= 0.30
     Davidson diagonalization with overlap
     ethr =  1.05E-06,  avg # of iterations =  4.1

     negative rho (up, down):  2.050E-06 0.000E+00

     total cpu time spent up to now is       12.2 secs

     total energy              =    -225.94326917 Ry
     estimated scf accuracy    <       0.00007405 Ry

     iteration #  7     ecut=    90.00 Ry     beta= 0.30
     Davidson diagonalization with overlap
     ethr =  1.42E-07,  avg # of iterations =  2.4

     negative rho (up, down):  2.034E-06 0.000E+00

     total cpu time spent up to now is       13.8 secs

     total energy              =    -225.94327483 Ry
     estimated scf accuracy    <       0.00002028 Ry

     iteration #  8     ecut=    90.00 Ry     beta= 0.30
     Davidson diagonalization with overlap
     ethr =  3.90E-08,  avg # of iterations =  2.1

     negative rho (up, down):  2.059E-06 0.000E+00

     total cpu time spent up to now is       15.4 secs

     total energy              =    -225.94327768 Ry
     estimated scf accuracy    <       0.00000293 Ry

     iteration #  9     ecut=    90.00 Ry     beta= 0.30
     Davidson diagonalization with overlap
     ethr =  5.63E-09,  avg # of iterations =  2.8

     negative rho (up, down):  2.061E-06 0.000E+00

     total cpu time spent up to now is       17.2 secs

     total energy              =    -225.94327843 Ry
     estimated scf accuracy    <       0.00000271 Ry

     iteration # 10     ecut=    90.00 Ry     beta= 0.30
     Davidson diagonalization with overlap
     ethr =  5.21E-09,  avg # of iterations =  2.0

     negative rho (up, down):  2.078E-06 0.000E+00

     total cpu time spent up to now is       18.7 secs

     total energy              =    -225.94327861 Ry
     estimated scf accuracy    <       0.00000029 Ry

     iteration # 11     ecut=    90.00 Ry     beta= 0.30
     Davidson diagonalization with overlap
     ethr =  5.49E-10,  avg # of iterations =  3.4

     negative rho (up, down):  2.091E-06 0.000E+00

     total cpu time spent up to now is       20.5 secs

     total energy              =    -225.94327873 Ry
     estimated scf accuracy    <       0.00000012 Ry

     iteration # 12     ecut=    90.00 Ry     beta= 0.30
     Davidson diagonalization with overlap
     ethr =  2.35E-10,  avg # of iterations =  2.1

     negative rho (up, down):  2.101E-06 0.000E+00

     total cpu time spent up to now is       22.0 secs

     total energy              =    -225.94327873 Ry
     estimated scf accuracy    <       0.00000004 Ry

     iteration # 13     ecut=    90.00 Ry     beta= 0.30
     Davidson diagonalization with overlap
     ethr =  7.44E-11,  avg # of iterations =  3.0

     negative rho (up, down):  2.127E-06 0.000E+00

     total cpu time spent up to now is       23.7 secs

     End of self-consistent calculation

          k = 0.0000-0.0000 0.0000 ( 14193 PWs)   bands (ev):

   -15.9419 -14.8708 -13.1189 -10.9237  -8.7406  -7.6348  -7.3165  -6.3827
    -4.7991  -4.4585  -4.0238  -2.9549  -2.7233  -2.1145  -0.8928  -0.7104
    -0.4007  -0.0885   1.2019   1.7488   2.1412   2.6996   3.9663   3.9799
     4.3052   4.8222   6.9591   7.2302   9.7301  10.1506  10.8754

          k = 0.0000-0.1010 0.0000 ( 14153 PWs)   bands (ev):

   -15.7559 -14.6904 -12.9558 -10.8387  -9.5171  -9.2542  -6.8309  -5.9969
    -5.5531  -4.0528  -3.5746  -3.0059  -1.8738  -1.8545  -1.0270  -0.7171
     0.0614   0.2218   1.2901   1.5207   2.3489   2.6522   3.6961   3.7467
     4.1126   4.2601   7.1639   7.4678   9.9215  10.1234  11.0264

          k = 0.0000-0.2020 0.0000 ( 14130 PWs)   bands (ev):

   -15.2002 -14.1551 -12.4902 -11.4310 -10.6415 -10.5762  -7.3383  -6.7445
    -5.4374  -4.4060  -3.0412  -1.7310  -1.7302  -0.7601  -0.1972  -0.1634
     0.4373   0.4982   1.5315   2.0436   2.0485   2.4931   2.9800   3.0650
     3.3151   3.6019   7.8118   8.0543  10.2705  10.3876  10.8890

          k = 0.0000-0.3030 0.0000 ( 14124 PWs)   bands (ev):

   -14.2843 -13.3238 -12.9604 -12.1864 -11.5661 -10.9243  -7.7251  -7.0773
    -5.6664  -4.7117  -2.9639  -1.9373  -0.3881   0.1703   0.6410   0.7772
     1.1712   1.1993   1.7607   1.8113   2.0176   2.1462   2.1899   2.2647
     2.6447   2.7351   8.8585   8.9030   9.9261  10.3329  10.7380

          k = 0.1111-0.0000 0.0000 ( 14169 PWs)   bands (ev):

   -15.7159 -14.6473 -12.8994 -10.7097  -8.5347  -7.4340  -7.2501  -6.3243
    -4.7554  -4.2658  -3.8159  -2.8017  -2.7034  -1.9158  -1.9135  -1.0725
    -0.6381  -0.4167   0.2618   1.6431   1.7616   2.0894   3.0017   3.4877
     3.7413   4.1988   7.1731   7.4627   9.7750  10.9718  10.9952

          k = 0.1111-0.1010 0.0000 ( 14133 PWs)   bands (ev):

   -15.5304 -14.4676 -12.7374 -10.6267  -9.3346  -9.0601  -6.6784  -5.8633
    -5.4742  -3.9511  -3.4620  -2.9866  -1.8414  -1.7080  -1.6373  -1.0174
    -0.8110   0.1770   0.4206   1.4811   1.7406   2.0751   2.7459   2.7643
     3.7047   4.1342   7.4051   7.7004  10.0944  11.1949  11.4620

          k = 0.1111-0.2020 0.0000 ( 14132 PWs)   bands (ev):

   -14.9763 -13.9344 -12.2748 -11.2272 -10.4360 -10.3776  -7.1552  -6.5525
    -5.2836  -4.2695  -3.0211  -2.0910  -1.7512  -1.1260  -0.6423  -0.1705
    -0.0652   0.1601   1.0153   1.4591   1.5835   1.6520   1.8144   2.1320
     3.2982   3.9161   8.0686   8.3228  10.7176  11.2343  11.5025

          k = 0.1111-0.3030 0.0000 ( 14139 PWs)   bands (ev):

   -14.0637 -13.1070 -12.7461 -11.9755 -11.3580 -10.7211  -7.5249  -6.8825
    -5.4881  -4.5398  -2.8585  -1.8335  -1.0922  -0.3685  -0.2563   0.1967
     0.5419   0.6262   0.9485   1.1705   1.2302   1.6650   1.9615   2.3246
     2.7903   2.9072   9.1197   9.2360  10.4187  10.6103  11.5628

          k = 0.2222-0.0000 0.0000 ( 14152 PWs)   bands (ev):

   -15.0412 -13.9804 -12.2449 -10.0714  -7.9200  -7.3609  -6.8332  -6.4435
    -4.8941  -3.7076  -3.6059  -3.2089  -2.8759  -2.7330  -2.3755  -1.3809
    -1.3357  -0.6343  -0.4939   0.0736   1.1113   1.1962   1.5869   1.8023
     2.1430   3.7896   7.8872   8.1195  10.1068  10.2053  10.7508

          k = 0.2222-0.1010 0.0000 ( 14114 PWs)   bands (ev):

   -14.8573 -13.8029 -12.0859  -9.9952  -8.8554  -8.5041  -6.3946  -5.7375
    -5.5871  -3.9343  -3.5524  -3.4152  -2.4155  -2.3472  -1.8114  -1.2222
    -1.0769  -0.5611  -0.4162   0.3056   0.4639   0.6144   1.4096   1.6156
     2.9728   3.4183   8.1345   8.3703  10.6159  10.7590  10.9462

          k = 0.2222-0.2020 0.0000 ( 14117 PWs)   bands (ev):

   -14.3090 -13.2767 -11.6332 -10.6378  -9.8256  -9.8007  -6.6670  -6.0486
    -4.9228  -4.7605  -3.3478  -3.2958  -2.4770  -1.8253  -1.1689  -0.9305
    -0.6010  -0.4479  -0.3404   0.1632   0.2673   0.5927   1.0900   1.8514
     2.7141   3.3405   8.8087   9.0203  11.3400  11.8873  11.9826

          k = 0.2222-0.3030 0.0000 ( 14151 PWs)   bands (ev):

   -13.4080 -12.4628 -12.1133 -11.3514 -10.7413 -10.1177  -6.9603  -6.3327
    -5.0333  -4.0991  -3.7470  -2.7086  -2.4293  -2.1711  -1.5027  -1.3196
    -1.1343  -0.8354   0.2237   1.0507   1.1824   1.1852   1.3954   1.6846
     2.4040   2.7747   9.8066   9.9222  11.2000  11.2926  12.5595

          k = 0.3333-0.0000 0.0000 ( 14106 PWs)   bands (ev):

   -13.9294 -12.8825 -11.1682  -9.0220  -8.5969  -7.6423  -6.9063  -6.0535
    -5.8381  -4.0197  -3.9440  -3.1371  -2.8523  -2.2604  -1.9374  -1.8834
    -1.7887  -0.7922  -0.6675  -0.4991  -0.4175  -0.1108   0.2451   0.3610
     1.1739   3.0206   9.0526   9.0802   9.9315  10.2620  11.3460

          k = 0.3333-0.1010 0.0000 ( 14126 PWs)   bands (ev):

   -13.7494 -12.7095 -11.0154  -8.9823  -8.7806  -8.0069  -6.7301  -6.5863
    -6.1072  -4.2745  -3.9898  -3.1293  -3.0651  -2.2974  -1.9074  -1.6921
    -1.6431  -1.1658  -0.6667  -0.6137  -0.3413  -0.2006   0.5358   0.9659
     1.3679   2.8332   9.2980   9.4050  10.4021  10.6323  11.2911

          k = 0.3333-0.2020 0.0000 ( 14157 PWs)   bands (ev):

   -13.2142 -12.1987 -10.5828  -9.8332  -8.9874  -8.8402  -6.7511  -6.3103
    -6.2373  -4.8858  -4.1315  -3.7079  -3.4938  -3.1965  -2.4526  -2.1012
    -1.4852  -0.4504  -0.2518  -0.1587   0.0624   0.4190   0.5488   0.8702
     2.2322   2.3416   9.9292  10.0258  11.3828  11.6027  12.0338

          k = 0.3333-0.3030 0.0000 ( 14183 PWs)   bands (ev):

   -12.3426 -11.4199 -11.1149 -10.3576  -9.7508  -9.1447  -6.3084  -6.0203
    -5.6697  -5.4731  -4.8980  -4.4730  -3.6965  -3.3396  -2.8155  -2.7024
    -1.3894  -0.7257  -0.1976  -0.0434   0.6122   0.9676   1.2741   1.4976
     1.7752   2.3368  10.6669  10.7439  12.0664  12.1568  12.4419

          k = 0.4444-0.0000 0.0000 ( 14102 PWs)   bands (ev):

   -12.4090 -11.3827 -10.5521  -9.6996  -9.5555  -7.9143  -7.5904  -5.8471
    -5.5139  -4.4602  -3.7882  -2.9776  -2.7222  -2.3246  -1.8479  -1.4795
    -1.4441  -1.3257  -1.0796  -0.9640  -0.9506  -0.8566  -0.8228   0.1628
     0.7223   1.9386   9.7143  10.3234  10.4944  10.7473  10.8979

          k = 0.4444-0.1010 0.0000 ( 14146 PWs)   bands (ev):

   -12.2387 -11.2209 -10.4219  -9.5628  -9.4341  -7.8527  -7.4823  -5.8264
    -5.8205  -5.7026  -4.1558  -3.9960  -3.0960  -2.4183  -1.9545  -1.7233
    -1.4087  -1.1417  -0.8281  -0.7262  -0.6357  -0.3818  -0.1752   0.3069
     0.8405   1.9221  10.3277  10.3293  10.4644  10.9669  11.3469

          k = 0.4444-0.2020 0.0000 ( 14173 PWs)   bands (ev):

   -11.7409 -10.7515 -10.1283  -9.2428  -9.1052  -7.7993  -7.2972  -7.0186
    -6.6079  -5.9025  -5.5621  -5.1354  -3.3645  -3.3028  -2.2791  -2.0935
    -1.5648  -1.3211  -0.7855  -0.1692   0.0660   0.1460   0.5944   1.0387
     1.2755   1.8499  10.8637  11.0085  11.3071  11.4608  12.0014

          k = 0.4444-0.3030 0.0000 ( 14184 PWs)   bands (ev):

   -10.9779 -10.2356 -10.0129  -9.3337  -8.5517  -8.0177  -7.7647  -7.0671
    -6.8904  -6.6387  -6.1782  -6.0491  -3.7003  -3.3678  -2.7491  -2.4027
    -1.7411  -1.4613  -0.6559  -0.3161   0.2299   0.3354   1.3831   1.5083
     1.7311   1.8030  11.4177  11.4214  12.0274  12.1476  13.1113

     the Fermi energy is     5.5354 ev

!    total energy              =    -225.94327874 Ry
     estimated scf accuracy    <          3.5E-09 Ry
     smearing contrib. (-TS)   =       0.00000000 Ry
     internal energy E=F+TS    =    -225.94327874 Ry

     The total energy is F=E-TS. E is the sum of the following terms:
     one-electron contribution =   -1231.91681963 Ry
     hartree contribution      =     640.03981378 Ry
     xc contribution           =     -59.13947715 Ry
     ewald contribution        =     499.03024464 Ry
     one-center paw contrib.   =     -73.95704037 Ry

     convergence has been achieved in  13 iterations

     negative rho (up, down):  2.127E-06 0.000E+00

     Forces acting on atoms (cartesian axes, Ry/au):

     atom    1 type  1   force =     0.00000000    0.00003386    0.00006225
     atom    2 type  1   force =     0.00000000   -0.00003386    0.00006225
     atom    3 type  1   force =     0.00000000    0.00006385    0.00002200
     atom    4 type  1   force =     0.00000000   -0.00006385    0.00002200
     atom    5 type  1   force =     0.00000000   -0.00006012    0.00000953
     atom    6 type  1   force =     0.00000000    0.00006012    0.00000953
     atom    7 type  1   force =     0.00000000    0.00006012   -0.00000953
     atom    8 type  1   force =     0.00000000   -0.00006012   -0.00000953
     atom    9 type  1   force =     0.00000000   -0.00006385   -0.00002200
     atom   10 type  1   force =     0.00000000    0.00006385   -0.00002200
     atom   11 type  1   force =     0.00000000   -0.00003386   -0.00006225
     atom   12 type  1   force =     0.00000000    0.00003386   -0.00006225
     atom   13 type  2   force =     0.00000000   -0.00002921   -0.00009672
     atom   14 type  2   force =     0.00000000    0.00002921   -0.00009672
     atom   15 type  2   force =     0.00000000    0.00002921    0.00009672
     atom   16 type  2   force =     0.00000000   -0.00002921    0.00009672

     Total force =     0.000307     Total SCF correction =     0.000155
     SCF correction compared to forces is large: reduce conv_thr to get better values


     Computing stress (Cartesian axis) and pressure


     negative rho (up, down):  2.127E-06 0.000E+00
          total   stress  (Ry/bohr**3)                   (kbar)     P=       26.20
   0.00017289   0.00000000   0.00000000           25.43        0.00        0.00
   0.00000000   0.00036389   0.00000000            0.00       53.53        0.00
   0.00000000   0.00000000  -0.00000239            0.00        0.00       -0.35


     Writing all to output data dir /tmp/qe/slab.save/ :
     XML data file, charge density, pseudopotentials, collected wavefunctions

     init_run     :      1.06s CPU      1.31s WALL (       1 calls)
     electrons    :     21.93s CPU     22.26s WALL (       1 calls)
     forces       :      0.29s CPU      0.31s WALL (       1 calls)
     stress       :      3.32s CPU      3.33s WALL (       1 calls)

     Called by init_run:
     wfcinit      :      0.79s CPU      0.91s WALL (       1 calls)
     potinit      :      0.12s CPU      0.18s WALL (       1 calls)
     hinit0       :      0.06s CPU      0.10s WALL (       1 calls)

     Called by electrons:
     c_bands      :     16.67s CPU     16.87s WALL (      13 calls)
     sum_band     :      3.38s CPU      3.45s WALL (      13 calls)
     v_of_rho     :      0.66s CPU      0.69s WALL (      14 calls)
     newd         :      0.38s CPU      0.41s WALL (      14 calls)
     PAW_pot      :      0.86s CPU      0.88s WALL (      14 calls)
     mix_rho      :      0.06s CPU      0.07s WALL (      13 calls)

     Called by c_bands:
     init_us_2    :      0.47s CPU      0.49s WALL (     580 calls)
     cegterg      :     15.87s CPU     16.06s WALL (     260 calls)

     Called by *egterg:
     cdiaghg      :      1.03s CPU      1.13s WALL (    1200 calls)
     h_psi        :     12.52s CPU     12.69s WALL (    1220 calls)
     s_psi        :      0.67s CPU      0.67s WALL (    1220 calls)
     g_psi        :      0.08s CPU      0.08s WALL (     940 calls)

     Called by h_psi:
     h_psi:calbec :      0.73s CPU      0.76s WALL (    1220 calls)
     vloc_psi     :     10.89s CPU     11.03s WALL (    1220 calls)
     add_vuspsi   :      0.81s CPU      0.82s WALL (    1220 calls)

     General routines
     calbec       :      1.14s CPU      1.16s WALL (    1580 calls)
     fft          :      0.31s CPU      0.39s WALL (     205 calls)
     ffts         :      0.02s CPU      0.04s WALL (      27 calls)
     fftw         :      9.62s CPU      9.74s WALL (   52524 calls)
     interpolate  :      0.03s CPU      0.06s WALL (      14 calls)

     Parallel routines

     PWSCF        :     26.75s CPU     27.54s WALL


   This run was terminated on:  12:31:24   1Aug2026            

=------------------------------------------------------------------------------=
   JOB DONE.
=------------------------------------------------------------------------------=
Note: The following floating-point exceptions are signalling: IEEE_UNDERFLOW_FLAG IEEE_DENORMAL
Note: The following floating-point exceptions are signalling: IEEE_UNDERFLOW_FLAG IEEE_DENORMAL
Note: The following floating-point exceptions are signalling: IEEE_UNDERFLOW_FLAG IEEE_DENORMAL
Note: The following floating-point exceptions are signalling: IEEE_UNDERFLOW_FLAG IEEE_DENORMAL
Note: The following floating-point exceptions are signalling: IEEE_UNDERFLOW_FLAG IEEE_DENORMAL
Note: The following floating-point exceptions are signalling: IEEE_UNDERFLOW_FLAG IEEE_DENORMAL
Note: The following floating-point exceptions are signalling: IEEE_UNDERFLOW_FLAG IEEE_DENORMAL
Note: The following floating-point exceptions are signalling: IEEE_UNDERFLOW_FLAG IEEE_DENORMAL
