
     Program PWSCF v.7.3.1 starts on  1Aug2026 at 12:30:56 

     This program is part of the open-source Quantum ESPRESSO suite
     for quantum simulation of materials; please cite
         "P. Giannozzi et al., J. Phys.:Condens. Matter 21 395502 (2009);
         "P. Giannozzi et al., J. Phys.:Condens. Matter 29 465901 (2017);
         "P. Giannozzi et al., J. Chem. Phys. 152 154105 (2020);
          URL http://www.quantum-espresso.org", 
     in publications or presentations arising from this work. More details at
     http://www.quantum-espresso.org/quote

     Parallel version (MPI), running on     8 processors

     MPI processes distributed on     1 nodes
     186877 MiB available memory on the printing compute node when the environment starts

     Reading input from pw.in

     Current dimensions of program PWSCF are:
     Max number of different atomic species (ntypx) = 10
     Max number of k-points (npk) =  40000
     Max angular momentum in pseudopotentials (lmaxx) =  4
     file C.pbe-n-kjpaw_psl.1.0.0.UPF: wavefunction(s)  2S 2P renormalized
     Message from routine volume:
     axis vectors are left-handed
     Message from routine setup:
     using ibrav=0 with symmetry is DISCOURAGED, use correct ibrav instead

     R & G space division:  proc/nbgrp/npool/nimage =       8
     Subspace diagonalization in iterative solution of the eigenvalue problem:
     a serial algorithm will be used


     Parallelization info
     --------------------
     sticks:   dense  smooth     PW     G-vecs:    dense   smooth      PW
     Min         308     153     43                61606    21781    3281
     Max         309     154     44                61619    21800    3300
     Sum        2469    1227    349               492881   174311   26349

     Using Slab Decomposition



     bravais-lattice index     =            0
     lattice parameter (alat)  =       4.7752  a.u.
     unit-cell volume          =     980.9734 (a.u.)^3
     number of atoms/cell      =           16
     number of atomic types    =            2
     number of electrons       =        52.00
     number of Kohn-Sham states=           31
     kinetic-energy cutoff     =     120.0000  Ry
     charge density cutoff     =     960.0000  Ry
     scf convergence threshold =      1.0E-08
     mixing beta               =       0.3000
     number of iterations used =            8  plain     mixing
     Exchange-correlation= PBE
                           (   1   4   3   4   0   0   0)

     celldm(1)=   4.775235  celldm(2)=   0.000000  celldm(3)=   0.000000
     celldm(4)=   0.000000  celldm(5)=   0.000000  celldm(6)=   0.000000

     crystal axes: (cart. coord. in units of alat)
               a(1) = (   1.000000   0.000000   0.000000 )  
               a(2) = (   0.000000  -1.414214   0.000000 )  
               a(3) = (   0.000000   0.000000   6.370270 )  

     reciprocal axes: (cart. coord. in units 2 pi/alat)
               b(1) = (  1.000000 -0.000000 -0.000000 )  
               b(2) = ( -0.000000 -0.707107 -0.000000 )  
               b(3) = ( -0.000000 -0.000000  0.156979 )  


     PseudoPot. # 1 for C  read from file:
     ./C.pbe-n-kjpaw_psl.1.0.0.UPF
     MD5 check sum: 5d2aebdfa2cae82b50a7e79e9516da0f
     Pseudo is Projector augmented-wave + core cor, Zval =  4.0
     Generated using "atomic" code by A. Dal Corso  v.5.1
     Shape of augmentation charge: PSQ
     Using radial grid of 1073 points,  4 beta functions with: 
                l(1) =   0
                l(2) =   0
                l(3) =   1
                l(4) =   1
     Q(r) pseudized with 0 coefficients 


     PseudoPot. # 2 for H  read from file:
     ./H_ONCV_PBE-1.0.oncvpsp.upf
     MD5 check sum: 1790becc920ee074925cf490c71280fe
     Pseudo is Norm-conserving, Zval =  1.0
     Generated using ONCVPSP code by D. R. Hamann
     Using radial grid of 1166 points,  2 beta functions with: 
                l(1) =   0
                l(2) =   0

     atomic species   valence    mass     pseudopotential
     C                 4.00    12.01100     C ( 1.00)
     H                 1.00     1.00800     H ( 1.00)

      8 Sym. Ops., with inversion, found ( 6 have fractional translation)



   Cartesian axes

     site n.     atom                  positions (alat units)
         1        C      tau(   1) = (  -0.0000000  -0.3611404   4.4247609  )
         2        C      tau(   2) = (   0.5000000  -0.6995197   4.4247609  )
         3        C      tau(   3) = (   0.0000000   0.0011500   3.9360405  )
         4        C      tau(   4) = (   0.5000000  -1.0618102   3.9360405  )
         5        C      tau(   5) = (   0.0000000  -0.3533013   3.4350066  )
         6        C      tau(   6) = (   0.5000000  -0.7073588   3.4350066  )
         7        C      tau(   7) = (   0.0000000  -0.0002520   2.9352634  )
         8        C      tau(   8) = (   0.5000000  -1.0604081   2.9352634  )
         9        C      tau(   9) = (  -0.0000000  -0.3547034   2.4342296  )
        10        C      tau(  10) = (   0.5000000  -0.7059567   2.4342296  )
        11        C      tau(  11) = (  -0.0000000   0.0075871   1.9455091  )
        12        C      tau(  12) = (   0.5000000  -1.0682472   1.9455091  )
        13        H      tau(  13) = (   0.0000000  -0.1238861   4.7893624  )
        14        H      tau(  14) = (   0.5000000  -0.9367741   4.7893624  )
        15        H      tau(  15) = (   0.0000000  -0.2296673   1.5809076  )
        16        H      tau(  16) = (   0.5000000  -0.8309929   1.5809076  )

     number of k points=    20  Marzari-Vanderbilt smearing, width (Ry)=  0.0100
                       cart. coord. in units 2pi/alat
        k(    1) = (   0.0000000  -0.0000000   0.0000000), wk =   0.0317460
        k(    2) = (   0.0000000  -0.1010153   0.0000000), wk =   0.0634921
        k(    3) = (   0.0000000  -0.2020305   0.0000000), wk =   0.0634921
        k(    4) = (   0.0000000  -0.3030458   0.0000000), wk =   0.0634921
        k(    5) = (   0.1111111  -0.0000000   0.0000000), wk =   0.0634921
        k(    6) = (   0.1111111  -0.1010153   0.0000000), wk =   0.1269841
        k(    7) = (   0.1111111  -0.2020305   0.0000000), wk =   0.1269841
        k(    8) = (   0.1111111  -0.3030458   0.0000000), wk =   0.1269841
        k(    9) = (   0.2222222  -0.0000000   0.0000000), wk =   0.0634921
        k(   10) = (   0.2222222  -0.1010153   0.0000000), wk =   0.1269841
        k(   11) = (   0.2222222  -0.2020305   0.0000000), wk =   0.1269841
        k(   12) = (   0.2222222  -0.3030458   0.0000000), wk =   0.1269841
        k(   13) = (   0.3333333  -0.0000000   0.0000000), wk =   0.0634921
        k(   14) = (   0.3333333  -0.1010153   0.0000000), wk =   0.1269841
        k(   15) = (   0.3333333  -0.2020305   0.0000000), wk =   0.1269841
        k(   16) = (   0.3333333  -0.3030458   0.0000000), wk =   0.1269841
        k(   17) = (   0.4444444  -0.0000000   0.0000000), wk =   0.0634921
        k(   18) = (   0.4444444  -0.1010153   0.0000000), wk =   0.1269841
        k(   19) = (   0.4444444  -0.2020305   0.0000000), wk =   0.1269841
        k(   20) = (   0.4444444  -0.3030458   0.0000000), wk =   0.1269841

     Dense  grid:   492881 G-vectors     FFT dimensions: (  48,  72, 320)

     Smooth grid:   174311 G-vectors     FFT dimensions: (  36,  48, 216)

     Estimated max dynamical RAM per process >     142.33 MB

     Estimated total dynamical RAM >       1.11 GB

     Initial potential from superposition of free atoms

     starting charge      51.9995, renormalised to      52.0000
     Starting wfcs are   52 randomized atomic wfcs
     Checking if some PAW data can be deallocated... 

     total cpu time spent up to now is        1.8 secs

     Self-consistent Calculation

     iteration #  1     ecut=   120.00 Ry     beta= 0.30
     Davidson diagonalization with overlap
     ethr =  1.00E-02,  avg # of iterations =  2.8

     total cpu time spent up to now is        4.3 secs

     total energy              =    -226.01443584 Ry
     estimated scf accuracy    <       1.19464620 Ry

     iteration #  2     ecut=   120.00 Ry     beta= 0.30
     Davidson diagonalization with overlap
     ethr =  2.30E-03,  avg # of iterations =  4.1

     total cpu time spent up to now is        6.4 secs

     total energy              =    -225.92648402 Ry
     estimated scf accuracy    <       0.37523386 Ry

     iteration #  3     ecut=   120.00 Ry     beta= 0.30
     Davidson diagonalization with overlap
     ethr =  7.22E-04,  avg # of iterations =  5.3

     total cpu time spent up to now is        8.6 secs

     total energy              =    -225.93985408 Ry
     estimated scf accuracy    <       0.05195208 Ry

     iteration #  4     ecut=   120.00 Ry     beta= 0.30
     Davidson diagonalization with overlap
     ethr =  9.99E-05,  avg # of iterations =  5.2

     total cpu time spent up to now is       10.9 secs

     total energy              =    -225.94295653 Ry
     estimated scf accuracy    <       0.00518023 Ry

     iteration #  5     ecut=   120.00 Ry     beta= 0.30
     Davidson diagonalization with overlap
     ethr =  9.96E-06,  avg # of iterations =  6.6

     total cpu time spent up to now is       13.5 secs

     total energy              =    -225.94355611 Ry
     estimated scf accuracy    <       0.00054662 Ry

     iteration #  6     ecut=   120.00 Ry     beta= 0.30
     Davidson diagonalization with overlap
     ethr =  1.05E-06,  avg # of iterations =  4.2

     total cpu time spent up to now is       15.9 secs

     total energy              =    -225.94366605 Ry
     estimated scf accuracy    <       0.00007492 Ry

     iteration #  7     ecut=   120.00 Ry     beta= 0.30
     Davidson diagonalization with overlap
     ethr =  1.44E-07,  avg # of iterations =  2.5

     total cpu time spent up to now is       18.0 secs

     total energy              =    -225.94367201 Ry
     estimated scf accuracy    <       0.00002012 Ry

     iteration #  8     ecut=   120.00 Ry     beta= 0.30
     Davidson diagonalization with overlap
     ethr =  3.87E-08,  avg # of iterations =  2.2

     total cpu time spent up to now is       20.1 secs

     total energy              =    -225.94367507 Ry
     estimated scf accuracy    <       0.00000282 Ry

     iteration #  9     ecut=   120.00 Ry     beta= 0.30
     Davidson diagonalization with overlap
     ethr =  5.41E-09,  avg # of iterations =  2.9

     total cpu time spent up to now is       22.4 secs

     total energy              =    -225.94367575 Ry
     estimated scf accuracy    <       0.00000277 Ry

     iteration # 10     ecut=   120.00 Ry     beta= 0.30
     Davidson diagonalization with overlap
     ethr =  5.33E-09,  avg # of iterations =  2.0

     total cpu time spent up to now is       24.4 secs

     total energy              =    -225.94367597 Ry
     estimated scf accuracy    <       0.00000027 Ry

     iteration # 11     ecut=   120.00 Ry     beta= 0.30
     Davidson diagonalization with overlap
     ethr =  5.14E-10,  avg # of iterations =  3.3

     total cpu time spent up to now is       26.9 secs

     total energy              =    -225.94367609 Ry
     estimated scf accuracy    <       0.00000014 Ry

     iteration # 12     ecut=   120.00 Ry     beta= 0.30
     Davidson diagonalization with overlap
     ethr =  2.66E-10,  avg # of iterations =  2.0

     total cpu time spent up to now is       28.9 secs

     total energy              =    -225.94367609 Ry
     estimated scf accuracy    <       0.00000003 Ry

     iteration # 13     ecut=   120.00 Ry     beta= 0.30
     Davidson diagonalization with overlap
     ethr =  6.27E-11,  avg # of iterations =  3.1

     total cpu time spent up to now is       31.1 secs

     End of self-consistent calculation

          k = 0.0000-0.0000 0.0000 ( 21817 PWs)   bands (ev):

   -15.9420 -14.8709 -13.1190 -10.9238  -8.7407  -7.6349  -7.3166  -6.3828
    -4.7992  -4.4585  -4.0238  -2.9550  -2.7233  -2.1145  -0.8928  -0.7104
    -0.4008  -0.0885   1.2018   1.7488   2.1412   2.6996   3.9663   3.9800
     4.3052   4.8223   6.9619   7.2303   9.7366  10.1506  10.8755

          k = 0.0000-0.1010 0.0000 ( 21835 PWs)   bands (ev):

   -15.7560 -14.6905 -12.9559 -10.8388  -9.5172  -9.2543  -6.8310  -5.9970
    -5.5531  -4.0528  -3.5747  -3.0060  -1.8738  -1.8545  -1.0270  -0.7171
     0.0614   0.2217   1.2901   1.5207   2.3489   2.6522   3.6961   3.7467
     4.1126   4.2601   7.1666   7.4678   9.9279  10.1234  11.0267

          k = 0.0000-0.2020 0.0000 ( 21800 PWs)   bands (ev):

   -15.2003 -14.1552 -12.4903 -11.4311 -10.6416 -10.5763  -7.3384  -6.7445
    -5.4375  -4.4061  -3.0412  -1.7310  -1.7302  -0.7601  -0.1972  -0.1634
     0.4373   0.4982   1.5315   2.0436   2.0485   2.4931   2.9800   3.0651
     3.3151   3.6019   7.8143   8.0543  10.2706  10.3920  10.8911

          k = 0.0000-0.3030 0.0000 ( 21752 PWs)   bands (ev):

   -14.2844 -13.3239 -12.9605 -12.1865 -11.5662 -10.9244  -7.7251  -7.0773
    -5.6665  -4.7117  -2.9639  -1.9373  -0.3881   0.1703   0.6410   0.7772
     1.1712   1.1992   1.7607   1.8113   2.0176   2.1462   2.1899   2.2647
     2.6447   2.7351   8.8605   8.9030   9.9265  10.3343  10.7381

          k = 0.1111-0.0000 0.0000 ( 21801 PWs)   bands (ev):

   -15.7160 -14.6474 -12.8995 -10.7098  -8.5348  -7.4341  -7.2502  -6.3244
    -4.7555  -4.2659  -3.8159  -2.8017  -2.7035  -1.9159  -1.9135  -1.0725
    -0.6382  -0.4168   0.2618   1.6431   1.7616   2.0894   3.0017   3.4877
     3.7413   4.1988   7.1757   7.4627   9.7805  10.9720  10.9967

          k = 0.1111-0.1010 0.0000 ( 21811 PWs)   bands (ev):

   -15.5305 -14.4677 -12.7375 -10.6268  -9.3347  -9.0602  -6.6785  -5.8634
    -5.4743  -3.9512  -3.4621  -2.9866  -1.8415  -1.7080  -1.6373  -1.0174
    -0.8111   0.1769   0.4206   1.4810   1.7406   2.0751   2.7459   2.7643
     3.7047   4.1342   7.4077   7.7004  10.1005  11.1952  11.4748

          k = 0.1111-0.2020 0.0000 ( 21784 PWs)   bands (ev):

   -14.9764 -13.9345 -12.2749 -11.2273 -10.4361 -10.3777  -7.1553  -6.5526
    -5.2837  -4.2695  -3.0212  -2.0910  -1.7513  -1.1261  -0.6423  -0.1705
    -0.0653   0.1600   1.0153   1.4591   1.5835   1.6520   1.8143   2.1320
     3.2982   3.9161   8.0710   8.3228  10.7234  11.2344  11.5035

          k = 0.1111-0.3030 0.0000 ( 21778 PWs)   bands (ev):

   -14.0638 -13.1071 -12.7462 -11.9756 -11.3581 -10.7212  -7.5249  -6.8826
    -5.4882  -4.5399  -2.8586  -1.8336  -1.0923  -0.3685  -0.2563   0.1967
     0.5419   0.6262   0.9485   1.1705   1.2302   1.6650   1.9615   2.3246
     2.7903   2.9072   9.1216   9.2360  10.4191  10.6118  11.5627

          k = 0.2222-0.0000 0.0000 ( 21789 PWs)   bands (ev):

   -15.0413 -13.9805 -12.2450 -10.0715  -7.9201  -7.3610  -6.8333  -6.4436
    -4.8942  -3.7076  -3.6059  -3.2089  -2.8760  -2.7331  -2.3755  -1.3810
    -1.3357  -0.6343  -0.4940   0.0735   1.1113   1.1962   1.5869   1.8023
     2.1430   3.7896   7.8893   8.1195  10.1068  10.2091  10.7524

          k = 0.2222-0.1010 0.0000 ( 21740 PWs)   bands (ev):

   -14.8574 -13.8030 -12.0860  -9.9953  -8.8555  -8.5042  -6.3947  -5.7375
    -5.5872  -3.9344  -3.5524  -3.4152  -2.4155  -2.3473  -1.8114  -1.2222
    -1.0769  -0.5611  -0.4162   0.3056   0.4639   0.6144   1.4096   1.6156
     2.9728   3.4183   8.1366   8.3703  10.6210  10.7590  10.9466

          k = 0.2222-0.2020 0.0000 ( 21786 PWs)   bands (ev):

   -14.3091 -13.2768 -11.6333 -10.6379  -9.8257  -9.8008  -6.6671  -6.0486
    -4.9229  -4.7606  -3.3478  -3.2958  -2.4771  -1.8253  -1.1690  -0.9305
    -0.6010  -0.4479  -0.3405   0.1632   0.2673   0.5926   1.0900   1.8514
     2.7141   3.3405   8.8107   9.0203  11.3456  11.8873  11.9828

          k = 0.2222-0.3030 0.0000 ( 21797 PWs)   bands (ev):

   -13.4081 -12.4629 -12.1134 -11.3515 -10.7414 -10.1178  -6.9604  -6.3327
    -5.0334  -4.0991  -3.7471  -2.7086  -2.4294  -2.1712  -1.5028  -1.3197
    -1.1344  -0.8354   0.2237   1.0507   1.1824   1.1852   1.3954   1.6846
     2.4040   2.7747   9.8081   9.9223  11.2008  11.2936  12.5641

          k = 0.3333-0.0000 0.0000 ( 21738 PWs)   bands (ev):

   -13.9295 -12.8826 -11.1683  -9.0221  -8.5969  -7.6424  -6.9064  -6.0535
    -5.8382  -4.0198  -3.9441  -3.1372  -2.8523  -2.2604  -1.9374  -1.8834
    -1.7888  -0.7922  -0.6676  -0.4992  -0.4175  -0.1108   0.2451   0.3610
     1.1739   3.0206   9.0540   9.0802   9.9319  10.2620  11.3501

          k = 0.3333-0.1010 0.0000 ( 21721 PWs)   bands (ev):

   -13.7495 -12.7096 -11.0155  -8.9824  -8.7807  -8.0070  -6.7302  -6.5864
    -6.1073  -4.2745  -3.9898  -3.1293  -3.0652  -2.2975  -1.9074  -1.6921
    -1.6431  -1.1659  -0.6667  -0.6138  -0.3414  -0.2006   0.5358   0.9659
     1.3679   2.8332   9.2993   9.4049  10.4023  10.6323  11.2911

          k = 0.3333-0.2020 0.0000 ( 21744 PWs)   bands (ev):

   -13.2143 -12.1988 -10.5829  -9.8333  -8.9875  -8.8403  -6.7511  -6.3104
    -6.2374  -4.8859  -4.1315  -3.7080  -3.4939  -3.1965  -2.4527  -2.1012
    -1.4853  -0.4504  -0.2518  -0.1587   0.0624   0.4190   0.5487   0.8702
     2.2322   2.3416   9.9305  10.0258  11.3828  11.6030  12.0343

          k = 0.3333-0.3030 0.0000 ( 21766 PWs)   bands (ev):

   -12.3427 -11.4200 -11.1150 -10.3577  -9.7509  -9.1448  -6.3085  -6.0203
    -5.6697  -5.4732  -4.8981  -4.4730  -3.6966  -3.3397  -2.8156  -2.7024
    -1.3894  -0.7258  -0.1977  -0.0434   0.6122   0.9676   1.2741   1.4976
     1.7752   2.3368  10.6675  10.7440  12.0676  12.1572  12.4425

          k = 0.4444-0.0000 0.0000 ( 21738 PWs)   bands (ev):

   -12.4090 -11.3828 -10.5522  -9.6997  -9.5556  -7.9144  -7.5905  -5.8472
    -5.5139  -4.4603  -3.7882  -2.9777  -2.7222  -2.3246  -1.8480  -1.4795
    -1.4441  -1.3257  -1.0796  -0.9640  -0.9506  -0.8566  -0.8228   0.1628
     0.7223   1.9386   9.7143  10.3234  10.4943  10.7473  10.8979

          k = 0.4444-0.1010 0.0000 ( 21769 PWs)   bands (ev):

   -12.2388 -11.2210 -10.4220  -9.5628  -9.4342  -7.8528  -7.4824  -5.8265
    -5.8206  -5.7026  -4.1559  -3.9961  -3.0960  -2.4184  -1.9545  -1.7233
    -1.4088  -1.1417  -0.8281  -0.7262  -0.6357  -0.3818  -0.1753   0.3069
     0.8405   1.9221  10.3277  10.3294  10.4644  10.9671  11.3475

          k = 0.4444-0.2020 0.0000 ( 21750 PWs)   bands (ev):

   -11.7410 -10.7516 -10.1284  -9.2429  -9.1053  -7.7994  -7.2972  -7.0186
    -6.6079  -5.9025  -5.5622  -5.1355  -3.3645  -3.3028  -2.2791  -2.0936
    -1.5648  -1.3211  -0.7855  -0.1693   0.0659   0.1460   0.5944   1.0387
     1.2755   1.8499  10.8639  11.0085  11.3071  11.4609  12.0017

          k = 0.4444-0.3030 0.0000 ( 21782 PWs)   bands (ev):

   -10.9780 -10.2357 -10.0130  -9.3338  -8.5518  -8.0178  -7.7648  -7.0672
    -6.8904  -6.6388  -6.1783  -6.0491  -3.7003  -3.3678  -2.7492  -2.4028
    -1.7411  -1.4613  -0.6559  -0.3162   0.2299   0.3354   1.3831   1.5083
     1.7311   1.8030  11.4178  11.4214  12.0275  12.1476  13.1115

     the Fermi energy is     5.5354 ev

!    total energy              =    -225.94367610 Ry
     estimated scf accuracy    <          3.9E-09 Ry
     smearing contrib. (-TS)   =       0.00000000 Ry
     internal energy E=F+TS    =    -225.94367610 Ry

     The total energy is F=E-TS. E is the sum of the following terms:
     one-electron contribution =   -1231.91640012 Ry
     hartree contribution      =     640.03983471 Ry
     xc contribution           =     -59.14032924 Ry
     ewald contribution        =     499.03024464 Ry
     one-center paw contrib.   =     -73.95702608 Ry

     convergence has been achieved in  13 iterations

     Forces acting on atoms (cartesian axes, Ry/au):

     atom    1 type  1   force =     0.00000000    0.00002794    0.00005884
     atom    2 type  1   force =     0.00000000   -0.00002794    0.00005884
     atom    3 type  1   force =     0.00000000    0.00006529    0.00001449
     atom    4 type  1   force =     0.00000000   -0.00006529    0.00001449
     atom    5 type  1   force =     0.00000000   -0.00006076    0.00000471
     atom    6 type  1   force =     0.00000000    0.00006076    0.00000471
     atom    7 type  1   force =     0.00000000    0.00006076   -0.00000471
     atom    8 type  1   force =     0.00000000   -0.00006076   -0.00000471
     atom    9 type  1   force =     0.00000000   -0.00006529   -0.00001449
     atom   10 type  1   force =     0.00000000    0.00006529   -0.00001449
     atom   11 type  1   force =     0.00000000   -0.00002794   -0.00005884
     atom   12 type  1   force =     0.00000000    0.00002794   -0.00005884
     atom   13 type  2   force =     0.00000000   -0.00002964   -0.00009663
     atom   14 type  2   force =     0.00000000    0.00002964   -0.00009663
     atom   15 type  2   force =     0.00000000    0.00002964    0.00009663
     atom   16 type  2   force =     0.00000000   -0.00002964    0.00009663

     Total force =     0.000301     Total SCF correction =     0.000158
     SCF correction compared to forces is large: reduce conv_thr to get better values


     Computing stress (Cartesian axis) and pressure

          total   stress  (Ry/bohr**3)                   (kbar)     P=       26.27
   0.00017332   0.00000000   0.00000000           25.50        0.00        0.00
   0.00000000   0.00036430   0.00000000            0.00       53.59        0.00
   0.00000000   0.00000000  -0.00000197            0.00        0.00       -0.29


     Writing all to output data dir /tmp/qe/slab.save/ :
     XML data file, charge density, pseudopotentials, collected wavefunctions

     init_run     :      1.37s CPU      1.59s WALL (       1 calls)
     electrons    :     28.90s CPU     29.42s WALL (       1 calls)
     forces       :      0.45s CPU      0.50s WALL (       1 calls)
     stress       :      5.10s CPU      5.15s WALL (       1 calls)

     Called by init_run:
     wfcinit      :      1.01s CPU      1.13s WALL (       1 calls)
     potinit      :      0.15s CPU      0.17s WALL (       1 calls)
     hinit0       :      0.06s CPU      0.11s WALL (       1 calls)

     Called by electrons:
     c_bands      :     21.90s CPU     22.12s WALL (      13 calls)
     sum_band     :      4.60s CPU      4.74s WALL (      13 calls)
     v_of_rho     :      0.97s CPU      1.01s WALL (      14 calls)
     newd         :      0.57s CPU      0.69s WALL (      14 calls)
     PAW_pot      :      0.86s CPU      0.87s WALL (      14 calls)
     mix_rho      :      0.09s CPU      0.10s WALL (      13 calls)

     Called by c_bands:
     init_us_2    :      0.89s CPU      0.90s WALL (     580 calls)
     cegterg      :     20.60s CPU     20.81s WALL (     260 calls)

     Called by *egterg:
     cdiaghg      :      1.03s CPU      1.13s WALL (    1188 calls)
     h_psi        :     15.57s CPU     15.75s WALL (    1208 calls)
     s_psi        :      1.16s CPU      1.17s WALL (    1208 calls)
     g_psi        :      0.12s CPU      0.13s WALL (     928 calls)

     Called by h_psi:
     h_psi:calbec :      1.12s CPU      1.15s WALL (    1208 calls)
     vloc_psi     :     12.88s CPU     13.02s WALL (    1208 calls)
     add_vuspsi   :      1.42s CPU      1.43s WALL (    1208 calls)

     General routines
     calbec       :      1.64s CPU      1.68s WALL (    1568 calls)
     fft          :      0.50s CPU      0.60s WALL (     205 calls)
     ffts         :      0.01s CPU      0.02s WALL (      27 calls)
     fftw         :     10.66s CPU     10.76s WALL (   52660 calls)
     interpolate  :      0.04s CPU      0.04s WALL (      14 calls)

     Parallel routines

     PWSCF        :     36.00s CPU     37.06s WALL


   This run was terminated on:  12:31:33   1Aug2026            

=------------------------------------------------------------------------------=
   JOB DONE.
=------------------------------------------------------------------------------=
Note: The following floating-point exceptions are signalling: IEEE_UNDERFLOW_FLAG IEEE_DENORMAL
Note: The following floating-point exceptions are signalling: IEEE_UNDERFLOW_FLAG IEEE_DENORMAL
Note: The following floating-point exceptions are signalling: IEEE_UNDERFLOW_FLAG IEEE_DENORMAL
Note: The following floating-point exceptions are signalling: IEEE_UNDERFLOW_FLAG IEEE_DENORMAL
Note: The following floating-point exceptions are signalling: IEEE_UNDERFLOW_FLAG IEEE_DENORMAL
Note: The following floating-point exceptions are signalling: IEEE_UNDERFLOW_FLAG IEEE_DENORMAL
Note: The following floating-point exceptions are signalling: IEEE_UNDERFLOW_FLAG IEEE_DENORMAL
Note: The following floating-point exceptions are signalling: IEEE_UNDERFLOW_FLAG IEEE_DENORMAL
