
     Program PWSCF v.7.3.1 starts on  1Aug2026 at 11:41:16 

     This program is part of the open-source Quantum ESPRESSO suite
     for quantum simulation of materials; please cite
         "P. Giannozzi et al., J. Phys.:Condens. Matter 21 395502 (2009);
         "P. Giannozzi et al., J. Phys.:Condens. Matter 29 465901 (2017);
         "P. Giannozzi et al., J. Chem. Phys. 152 154105 (2020);
          URL http://www.quantum-espresso.org", 
     in publications or presentations arising from this work. More details at
     http://www.quantum-espresso.org/quote

     Parallel version (MPI), running on     4 processors

     MPI processes distributed on     1 nodes
     180374 MiB available memory on the printing compute node when the environment starts

     Reading input from pw.in

     Current dimensions of program PWSCF are:
     Max number of different atomic species (ntypx) = 10
     Max number of k-points (npk) =  40000
     Max angular momentum in pseudopotentials (lmaxx) =  4
     file C.pbe-n-kjpaw_psl.1.0.0.UPF: wavefunction(s)  2S 2P renormalized
     Message from routine setup:
     using ibrav=0 with symmetry is DISCOURAGED, use correct ibrav instead

     R & G space division:  proc/nbgrp/npool/nimage =       4
     Subspace diagonalization in iterative solution of the eigenvalue problem:
     a serial algorithm will be used


     Parallelization info
     --------------------
     sticks:   dense  smooth     PW     G-vecs:    dense   smooth      PW
     Min         253     124     37                37811    13372    2223
     Max         255     125     38                37814    13405    2242
     Sum        1015     499    151               151251    53577    8949

     Using Slab Decomposition



     bravais-lattice index     =            0
     lattice parameter (alat)  =       4.7752  a.u.
     unit-cell volume          =     553.1394 (a.u.)^3
     number of atoms/cell      =            8
     number of atomic types    =            2
     number of electrons       =        26.00
     number of Kohn-Sham states=           17
     kinetic-energy cutoff     =      80.0000  Ry
     charge density cutoff     =     640.0000  Ry
     scf convergence threshold =      1.0E-08
     mixing beta               =       0.3000
     number of iterations used =            8  plain     mixing
     Exchange-correlation= PBE
                           (   1   4   3   4   0   0   0)

     celldm(1)=   4.775235  celldm(2)=   0.000000  celldm(3)=   0.000000
     celldm(4)=   0.000000  celldm(5)=   0.000000  celldm(6)=   0.000000

     crystal axes: (cart. coord. in units of alat)
               a(1) = (   1.000000   0.000000   0.000000 )  
               a(2) = (   0.500000   0.866025   0.000000 )  
               a(3) = (   0.000000   0.000000   5.865696 )  

     reciprocal axes: (cart. coord. in units 2 pi/alat)
               b(1) = (  1.000000 -0.577350  0.000000 )  
               b(2) = (  0.000000  1.154701  0.000000 )  
               b(3) = (  0.000000  0.000000  0.170483 )  


     PseudoPot. # 1 for C  read from file:
     ./C.pbe-n-kjpaw_psl.1.0.0.UPF
     MD5 check sum: 5d2aebdfa2cae82b50a7e79e9516da0f
     Pseudo is Projector augmented-wave + core cor, Zval =  4.0
     Generated using "atomic" code by A. Dal Corso  v.5.1
     Shape of augmentation charge: PSQ
     Using radial grid of 1073 points,  4 beta functions with: 
                l(1) =   0
                l(2) =   0
                l(3) =   1
                l(4) =   1
     Q(r) pseudized with 0 coefficients 


     PseudoPot. # 2 for H  read from file:
     ./H_ONCV_PBE-1.0.oncvpsp.upf
     MD5 check sum: 1790becc920ee074925cf490c71280fe
     Pseudo is Norm-conserving, Zval =  1.0
     Generated using ONCVPSP code by D. R. Hamann
     Using radial grid of 1166 points,  2 beta functions with: 
                l(1) =   0
                l(2) =   0

     atomic species   valence    mass     pseudopotential
     C                 4.00    12.01100     C ( 1.00)
     H                 1.00     1.00800     H ( 1.00)

     12 Sym. Ops., with inversion, found ( 6 have fractional translation)



   Cartesian axes

     site n.     atom                  positions (alat units)
         1        C      tau(   1) = (   0.5000000   0.2886751   3.8425963  )
         2        C      tau(   2) = (   1.0000000   0.5773503   3.6495395  )
         3        C      tau(   3) = (   1.0000000   0.5773503   3.0344995  )
         4        C      tau(   4) = (  -0.0000000   0.0000000   2.8311966  )
         5        C      tau(   5) = (   0.0000000   0.0000000   2.2161565  )
         6        C      tau(   6) = (   0.5000000   0.2886751   2.0230997  )
         7        H      tau(   7) = (   0.5000000   0.2886751   4.2814431  )
         8        H      tau(   8) = (   0.5000000   0.2886751   1.5842529  )

     number of k points=    12  Marzari-Vanderbilt smearing, width (Ry)=  0.0100
                       cart. coord. in units 2pi/alat
        k(    1) = (   0.0000000   0.0000000   0.0000000), wk =   0.0246914
        k(    2) = (   0.0000000   0.1283001   0.0000000), wk =   0.1481481
        k(    3) = (   0.0000000   0.2566001   0.0000000), wk =   0.1481481
        k(    4) = (   0.0000000   0.3849002   0.0000000), wk =   0.1481481
        k(    5) = (   0.0000000   0.5132002   0.0000000), wk =   0.1481481
        k(    6) = (   0.1111111   0.1924501   0.0000000), wk =   0.1481481
        k(    7) = (   0.1111111   0.3207501   0.0000000), wk =   0.2962963
        k(    8) = (   0.1111111   0.4490502   0.0000000), wk =   0.2962963
        k(    9) = (   0.1111111  -0.5773503   0.0000000), wk =   0.1481481
        k(   10) = (   0.2222222   0.3849002   0.0000000), wk =   0.1481481
        k(   11) = (   0.2222222  -0.6415003   0.0000000), wk =   0.2962963
        k(   12) = (   0.3333333  -0.5773503   0.0000000), wk =   0.0493827

     Dense  grid:   151251 G-vectors     FFT dimensions: (  45,  45, 225)

     Smooth grid:    53577 G-vectors     FFT dimensions: (  27,  27, 160)

     Estimated max dynamical RAM per process >      67.07 MB

     Estimated total dynamical RAM >     268.29 MB

     Initial potential from superposition of free atoms

     starting charge      25.9997, renormalised to      26.0000
     Starting wfcs are   26 randomized atomic wfcs
     Checking if some PAW data can be deallocated... 

     total cpu time spent up to now is       34.3 secs

     Self-consistent Calculation

     iteration #  1     ecut=    80.00 Ry     beta= 0.30
     Davidson diagonalization with overlap
     ethr =  1.00E-02,  avg # of iterations =  2.8

     negative rho (up, down):  8.158E-08 0.000E+00

     total cpu time spent up to now is       91.0 secs

     total energy              =    -113.01796411 Ry
     estimated scf accuracy    <       0.60592833 Ry

     iteration #  2     ecut=    80.00 Ry     beta= 0.30
     Davidson diagonalization with overlap
     ethr =  2.33E-03,  avg # of iterations =  3.4

     negative rho (up, down):  3.850E-07 0.000E+00

     total cpu time spent up to now is      138.0 secs

     total energy              =    -112.97907391 Ry
     estimated scf accuracy    <       0.18512473 Ry

     iteration #  3     ecut=    80.00 Ry     beta= 0.30
     Davidson diagonalization with overlap
     ethr =  7.12E-04,  avg # of iterations =  4.4

     negative rho (up, down):  2.562E-07 0.000E+00

     total cpu time spent up to now is      184.1 secs

     total energy              =    -112.98511397 Ry
     estimated scf accuracy    <       0.02655024 Ry

     iteration #  4     ecut=    80.00 Ry     beta= 0.30
     Davidson diagonalization with overlap
     ethr =  1.02E-04,  avg # of iterations =  4.8

     negative rho (up, down):  9.211E-08 0.000E+00

     total cpu time spent up to now is      234.7 secs

     total energy              =    -112.98617670 Ry
     estimated scf accuracy    <       0.00320299 Ry

     iteration #  5     ecut=    80.00 Ry     beta= 0.30
     Davidson diagonalization with overlap
     ethr =  1.23E-05,  avg # of iterations =  5.0

     negative rho (up, down):  2.813E-08 0.000E+00

     total cpu time spent up to now is      286.1 secs

     total energy              =    -112.98661374 Ry
     estimated scf accuracy    <       0.00021999 Ry

     iteration #  6     ecut=    80.00 Ry     beta= 0.30
     Davidson diagonalization with overlap
     ethr =  8.46E-07,  avg # of iterations =  3.3

     negative rho (up, down):  1.803E-08 0.000E+00

     total cpu time spent up to now is      322.7 secs

     total energy              =    -112.98663948 Ry
     estimated scf accuracy    <       0.00007076 Ry

     iteration #  7     ecut=    80.00 Ry     beta= 0.30
     Davidson diagonalization with overlap
     ethr =  2.72E-07,  avg # of iterations =  2.2

     negative rho (up, down):  1.377E-08 0.000E+00

     total cpu time spent up to now is      360.1 secs

     total energy              =    -112.98665256 Ry
     estimated scf accuracy    <       0.00002179 Ry

     iteration #  8     ecut=    80.00 Ry     beta= 0.30
     Davidson diagonalization with overlap
     ethr =  8.38E-08,  avg # of iterations =  1.7

     negative rho (up, down):  1.290E-08 0.000E+00

     total cpu time spent up to now is      398.6 secs

     total energy              =    -112.98665451 Ry
     estimated scf accuracy    <       0.00000249 Ry

     iteration #  9     ecut=    80.00 Ry     beta= 0.30
     Davidson diagonalization with overlap
     ethr =  9.56E-09,  avg # of iterations =  2.3

     negative rho (up, down):  1.236E-08 0.000E+00

     total cpu time spent up to now is      447.4 secs

     total energy              =    -112.98665477 Ry
     estimated scf accuracy    <       0.00000062 Ry

     iteration # 10     ecut=    80.00 Ry     beta= 0.30
     Davidson diagonalization with overlap
     ethr =  2.40E-09,  avg # of iterations =  2.0

     negative rho (up, down):  1.211E-08 0.000E+00

     total cpu time spent up to now is      484.9 secs

     total energy              =    -112.98665486 Ry
     estimated scf accuracy    <       0.00000004 Ry

     iteration # 11     ecut=    80.00 Ry     beta= 0.30
     Davidson diagonalization with overlap
     ethr =  1.41E-10,  avg # of iterations =  3.4

     negative rho (up, down):  1.257E-08 0.000E+00

     total cpu time spent up to now is      517.8 secs

     End of self-consistent calculation

          k = 0.0000 0.0000 0.0000 (  6679 PWs)   bands (ev):

   -16.9007 -15.4126 -13.1814  -8.3581  -5.2789  -1.3851   1.5191   1.5191
     2.1010   2.3769   2.3769   3.4619   3.4619   6.3999   6.6358   9.2010
    10.3601

          k = 0.0000 0.1283 0.0000 (  6657 PWs)   bands (ev):

   -16.6001 -15.1180 -12.8995  -8.0883  -5.0528  -1.2614   0.1108   0.8975
     1.0285   1.8495   1.9920   2.3211   3.0216   6.6517   6.9637   9.2041
    10.4089

          k = 0.0000 0.2566 0.0000 (  6672 PWs)   bands (ev):

   -15.7043 -14.2421 -12.0635  -7.3375  -4.4685  -2.8591  -1.7456  -0.9223
    -0.3219  -0.2726   0.7714   1.7868   2.0456   7.4122   7.8486   9.3343
    10.2778

          k = 0.0000 0.3849 0.0000 (  6686 PWs)   bands (ev):

   -14.2385 -12.8185 -10.7250  -6.8332  -5.7725  -4.5151  -3.8747  -2.6487
    -1.2663  -0.8485  -0.1818   1.0901   1.1413   8.5256   8.9146   9.6269
    10.4386

          k = 0.0000 0.5132 0.0000 (  6714 PWs)   bands (ev):

   -12.3028 -11.0852  -9.6923  -8.2223  -8.0216  -6.1790  -3.8787  -2.5972
    -1.8077  -1.4401  -0.7080   0.5561   0.6339   8.9333   9.6572  10.3037
    10.8047

          k = 0.1111 0.1925 0.0000 (  6685 PWs)   bands (ev):

   -16.0018 -14.5327 -12.3402  -7.5740  -4.6383  -1.6635  -1.0674  -0.9763
    -0.0620   0.2265   1.3320   1.3482   2.3145   7.1947   7.5749   9.6416
    10.4941

          k = 0.1111 0.3208 0.0000 (  6682 PWs)   bands (ev):

   -14.8198 -13.3803 -11.2460  -6.7558  -4.4952  -3.9455  -3.0905  -2.3384
    -1.2153  -0.7943  -0.5576   0.4067   1.6950   8.3035   8.6064  10.1900
    10.9532

          k = 0.1111 0.4491 0.0000 (  6677 PWs)   bands (ev):

   -13.1017 -11.7352  -9.7708  -7.6247  -6.7179  -4.9228  -4.3382  -2.6636
    -2.4461  -1.6688  -0.9772  -0.1590   0.8281   9.3406   9.9475  10.6991
    11.4622

          k = 0.1111-0.5774 0.0000 (  6700 PWs)   bands (ev):

   -11.3244 -10.7883  -9.5694  -8.6361  -7.5065  -6.9493  -3.3415  -3.0462
    -2.6111  -1.6825  -1.6251  -0.2012   0.3307   9.6310  10.5067  11.3693
    11.6404

          k = 0.2222 0.3849 0.0000 (  6649 PWs)   bands (ev):

   -13.3791 -11.9891  -9.9499  -6.8203  -5.6169  -4.8444  -3.9820  -3.4209
    -2.7429  -1.9236  -1.7010  -0.6497   0.9186   9.5293   9.8242  11.1745
    11.7596

          k = 0.2222-0.6415 0.0000 (  6689 PWs)   bands (ev):

   -11.4953 -10.3246  -8.9519  -7.9884  -7.4280  -6.1481  -4.4608  -4.0862
    -3.0413  -2.6467  -1.7422  -0.9222  -0.0646  10.1621  10.8189  12.0192
    12.1522

          k = 0.3333-0.5774 0.0000 (  6711 PWs)   bands (ev):

    -9.8891  -9.8891  -8.7797  -8.4756  -7.0507  -7.0507  -4.9314  -4.6331
    -4.6331  -1.8908  -1.3108  -1.3108  -1.0023  10.7660  10.7660  11.4177
    13.1182

     the Fermi energy is     4.2475 ev

!    total energy              =    -112.98665487 Ry
     estimated scf accuracy    <          7.0E-09 Ry
     smearing contrib. (-TS)   =       0.00000000 Ry
     internal energy E=F+TS    =    -112.98665487 Ry

     The total energy is F=E-TS. E is the sum of the following terms:
     one-electron contribution =    -588.52378968 Ry
     hartree contribution      =     305.25344371 Ry
     xc contribution           =     -29.50875335 Ry
     ewald contribution        =     236.77085212 Ry
     one-center paw contrib.   =     -36.97840766 Ry

     convergence has been achieved in  11 iterations

     negative rho (up, down):  1.257E-08 0.000E+00

     Forces acting on atoms (cartesian axes, Ry/au):

     atom    1 type  1   force =     0.00000000    0.00000000   -0.00004268
     atom    2 type  1   force =     0.00000000    0.00000000    0.00001868
     atom    3 type  1   force =     0.00000000    0.00000000    0.00001415
     atom    4 type  1   force =    -0.00000000    0.00000000   -0.00001415
     atom    5 type  1   force =     0.00000000    0.00000000   -0.00001868
     atom    6 type  1   force =     0.00000000    0.00000000    0.00004268
     atom    7 type  2   force =     0.00000000    0.00000000    0.00003376
     atom    8 type  2   force =     0.00000000    0.00000000   -0.00003376

     Total force =     0.000084     Total SCF correction =     0.000180
     SCF correction compared to forces is large: reduce conv_thr to get better values


     Computing stress (Cartesian axis) and pressure


     negative rho (up, down):  1.257E-08 0.000E+00
          total   stress  (Ry/bohr**3)                   (kbar)     P=        3.43
   0.00003696  -0.00000000  -0.00000000            5.44       -0.00       -0.00
  -0.00000000   0.00003696  -0.00000000           -0.00        5.44       -0.00
  -0.00000000  -0.00000000  -0.00000391           -0.00       -0.00       -0.58


     Writing all to output data dir ./tmp/slab.save/ :
     XML data file, charge density, pseudopotentials, collected wavefunctions

     init_run     :      5.65s CPU     22.93s WALL (       1 calls)
     electrons    :    120.52s CPU    484.37s WALL (       1 calls)
     forces       :      1.31s CPU      5.27s WALL (       1 calls)
     stress       :      1.37s CPU      5.50s WALL (       1 calls)

     Called by init_run:
     wfcinit      :      4.47s CPU     18.10s WALL (       1 calls)
     potinit      :      0.43s CPU      1.77s WALL (       1 calls)
     hinit0       :      0.27s CPU      1.13s WALL (       1 calls)

     Called by electrons:
     c_bands      :     98.34s CPU    395.20s WALL (      11 calls)
     sum_band     :     15.31s CPU     61.37s WALL (      11 calls)
     v_of_rho     :      2.16s CPU      8.82s WALL (      12 calls)
     newd         :      0.47s CPU      1.99s WALL (      12 calls)
     PAW_pot      :      1.56s CPU      6.26s WALL (      12 calls)
     mix_rho      :      1.80s CPU      7.24s WALL (      11 calls)

     Called by c_bands:
     init_us_2    :      0.18s CPU      0.26s WALL (     300 calls)
     cegterg      :     96.07s CPU    385.28s WALL (     132 calls)

     Called by *egterg:
     cdiaghg      :      2.44s CPU      9.78s WALL (     558 calls)
     h_psi        :     78.18s CPU    313.48s WALL (     570 calls)
     s_psi        :      0.14s CPU      0.28s WALL (     570 calls)
     g_psi        :      0.02s CPU      0.11s WALL (     426 calls)

     Called by h_psi:
     h_psi:calbec :      8.84s CPU     35.45s WALL (     570 calls)
     vloc_psi     :     69.11s CPU    277.46s WALL (     570 calls)
     add_vuspsi   :      0.21s CPU      0.53s WALL (     570 calls)

     General routines
     calbec       :     12.36s CPU     49.82s WALL (     762 calls)
     fft          :      1.13s CPU      5.16s WALL (     179 calls)
     ffts         :      0.19s CPU      0.73s WALL (      23 calls)
     fftw         :     79.70s CPU    323.72s WALL (   14564 calls)
     interpolate  :      0.22s CPU      0.91s WALL (      12 calls)

     Parallel routines

     PWSCF        :   2m23.34s CPU   9m36.36s WALL


   This run was terminated on:  11:50:53   1Aug2026            

=------------------------------------------------------------------------------=
   JOB DONE.
=------------------------------------------------------------------------------=
Note: The following floating-point exceptions are signalling: IEEE_UNDERFLOW_FLAG IEEE_DENORMAL
Note: The following floating-point exceptions are signalling: IEEE_UNDERFLOW_FLAG IEEE_DENORMAL
Note: The following floating-point exceptions are signalling: IEEE_UNDERFLOW_FLAG IEEE_DENORMAL
Note: The following floating-point exceptions are signalling: IEEE_UNDERFLOW_FLAG IEEE_DENORMAL
